# vtk DataFile Version 2.0
               (MEGA VTK FILE)
ASCII
DATASET UNSTRUCTURED_GRID
POINTS       1950    double
  0.10378E-02  0.67292E-03 -0.15977E-01
  0.17452E-02  0.12308E-02 -0.15968E-01
  0.23177E-02  0.59151E-03 -0.15967E-01
  0.16698E-02 -0.33775E-03 -0.15982E-01
  0.10379E-02  0.67237E-03 -0.11750E-01
  0.17453E-02  0.12301E-02 -0.11750E-01
  0.23178E-02  0.59098E-03 -0.11750E-01
  0.16700E-02 -0.33851E-03 -0.11750E-01
  0.30377E-02  0.14882E-03 -0.15951E-01
  0.27791E-02 -0.67643E-03 -0.15970E-01
  0.30377E-02  0.14846E-03 -0.11750E-01
  0.27788E-02 -0.67692E-03 -0.11750E-01
  0.12850E-02  0.18412E-02 -0.15959E-01
  0.65139E-03  0.14576E-02 -0.15971E-01
  0.12851E-02  0.18410E-02 -0.11750E-01
  0.65164E-03  0.14566E-02 -0.11750E-01
  0.12757E-03  0.29933E-03 -0.15977E-01
 -0.12822E-03  0.11672E-02 -0.15979E-01
  0.12783E-03  0.29819E-03 -0.11750E-01
 -0.12804E-03  0.11655E-02 -0.11750E-01
  0.94500E-03  0.22748E-02 -0.15953E-01
  0.11327E-02  0.28286E-02 -0.15946E-01
  0.17490E-02  0.24238E-02 -0.15949E-01
  0.94533E-03  0.22746E-02 -0.11750E-01
  0.11330E-02  0.28291E-02 -0.11750E-01
  0.17494E-02  0.24236E-02 -0.11750E-01
  0.40588E-03  0.21685E-02 -0.15967E-01
  0.39779E-03  0.29366E-02 -0.15963E-01
  0.40594E-03  0.21684E-02 -0.11750E-01
  0.39781E-03  0.29369E-02 -0.11750E-01
 -0.76303E-03 -0.10033E-02 -0.15984E-01
 -0.86604E-03  0.78969E-04 -0.15988E-01
  0.46119E-03 -0.70318E-03 -0.15981E-01
 -0.76268E-03 -0.10032E-02 -0.11750E-01
 -0.86593E-03  0.78160E-04 -0.11750E-01
  0.46164E-03 -0.70391E-03 -0.11750E-01
 -0.18300E-02 -0.71196E-03 -0.15967E-01
 -0.18440E-02  0.82749E-04 -0.15984E-01
 -0.18297E-02 -0.71210E-03 -0.11750E-01
 -0.18441E-02  0.82626E-04 -0.11750E-01
 -0.27238E-02 -0.77865E-03 -0.15962E-01
 -0.28028E-02  0.40713E-04 -0.15977E-01
 -0.27238E-02 -0.77882E-03 -0.11750E-01
 -0.28031E-02  0.40439E-04 -0.11750E-01
 -0.25365E-02 -0.15195E-02 -0.15949E-01
 -0.19287E-02 -0.13230E-02 -0.15956E-01
 -0.25363E-02 -0.15195E-02 -0.11750E-01
 -0.19283E-02 -0.13231E-02 -0.11750E-01
 -0.99363E-03  0.98847E-03 -0.15989E-01
 -0.99377E-03  0.98712E-03 -0.11750E-01
 -0.14380E-02 -0.17325E-02 -0.15965E-01
 -0.14377E-02 -0.17325E-02 -0.11750E-01
 -0.31574E-03  0.20220E-02 -0.15983E-01
 -0.31594E-03  0.20217E-02 -0.11750E-01
 -0.11068E-02  0.18615E-02 -0.15988E-01
 -0.11071E-02  0.18616E-02 -0.11750E-01
 -0.18845E-02  0.17175E-02 -0.15974E-01
 -0.18713E-02  0.90940E-03 -0.15985E-01
 -0.18846E-02  0.17175E-02 -0.11750E-01
 -0.18714E-02  0.90916E-03 -0.11750E-01
 -0.15871E-03 -0.19800E-02 -0.15980E-01
 -0.94089E-03 -0.23489E-02 -0.15965E-01
 -0.15844E-03 -0.19800E-02 -0.11750E-01
 -0.94029E-03 -0.23489E-02 -0.11750E-01
  0.78856E-03 -0.17074E-02 -0.15979E-01
  0.78922E-03 -0.17074E-02 -0.11750E-01
  0.17211E-02 -0.14894E-02 -0.15973E-01
  0.17211E-02 -0.14892E-02 -0.11750E-01
  0.32050E-02  0.76036E-03 -0.15928E-01
  0.28046E-02  0.12477E-02 -0.15946E-01
  0.32047E-02  0.75936E-03 -0.11750E-01
  0.28047E-02  0.12473E-02 -0.11750E-01
  0.23059E-02  0.18665E-02 -0.15953E-01
  0.23060E-02  0.18664E-02 -0.11750E-01
 -0.40614E-03  0.29038E-02 -0.15972E-01
 -0.40627E-03  0.29049E-02 -0.11750E-01
 -0.12092E-02  0.27207E-02 -0.15971E-01
 -0.12092E-02  0.27212E-02 -0.11750E-01
 -0.19448E-02  0.24642E-02 -0.15954E-01
 -0.19448E-02  0.24645E-02 -0.11750E-01
 -0.25029E-02  0.22359E-02 -0.15934E-01
 -0.26371E-02  0.16503E-02 -0.15958E-01
 -0.25029E-02  0.22359E-02 -0.11750E-01
 -0.26372E-02  0.16503E-02 -0.11750E-01
 -0.27671E-02  0.87493E-03 -0.15978E-01
 -0.27674E-02  0.87466E-03 -0.11750E-01
 -0.21123E-02 -0.21373E-02 -0.15951E-01
 -0.21122E-02 -0.21373E-02 -0.11750E-01
 -0.16087E-02 -0.26931E-02 -0.15944E-01
 -0.16087E-02 -0.26931E-02 -0.11750E-01
 -0.11939E-02 -0.31291E-02 -0.15926E-01
 -0.58641E-03 -0.30382E-02 -0.15950E-01
 -0.11937E-02 -0.31291E-02 -0.11750E-01
 -0.58606E-03 -0.30382E-02 -0.11750E-01
  0.20912E-03 -0.28748E-02 -0.15967E-01
  0.20952E-03 -0.28748E-02 -0.11750E-01
  0.10586E-02 -0.26423E-02 -0.15964E-01
  0.10589E-02 -0.26420E-02 -0.11750E-01
  0.18413E-02 -0.23707E-02 -0.15951E-01
  0.18413E-02 -0.23705E-02 -0.11750E-01
  0.24544E-02 -0.21445E-02 -0.15933E-01
  0.26022E-02 -0.15105E-02 -0.15954E-01
  0.24543E-02 -0.21439E-02 -0.11750E-01
  0.26021E-02 -0.15106E-02 -0.11750E-01
  0.37964E-02  0.93572E-03 -0.15879E-01
  0.39100E-02  0.00000E+00 -0.15887E-01
  0.37964E-02  0.93572E-03 -0.11750E-01
  0.39100E-02  0.00000E+00 -0.11750E-01
  0.34621E-02  0.18171E-02 -0.15886E-01
  0.34621E-02  0.18171E-02 -0.11750E-01
  0.29267E-02  0.25928E-02 -0.15880E-01
  0.29267E-02  0.25928E-02 -0.11750E-01
  0.22211E-02  0.32179E-02 -0.15881E-01
  0.22211E-02  0.32179E-02 -0.11750E-01
  0.13865E-02  0.36559E-02 -0.15880E-01
  0.13865E-02  0.36559E-02 -0.11750E-01
  0.47130E-03  0.38815E-02 -0.15885E-01
  0.47130E-03  0.38815E-02 -0.11750E-01
 -0.47130E-03  0.38815E-02 -0.15887E-01
 -0.47130E-03  0.38815E-02 -0.11750E-01
 -0.13865E-02  0.36559E-02 -0.15886E-01
 -0.13865E-02  0.36559E-02 -0.11750E-01
 -0.22211E-02  0.32179E-02 -0.15885E-01
 -0.22211E-02  0.32179E-02 -0.11750E-01
 -0.29267E-02  0.25928E-02 -0.15877E-01
 -0.29267E-02  0.25928E-02 -0.11750E-01
 -0.34621E-02  0.18171E-02 -0.15887E-01
 -0.34621E-02  0.18171E-02 -0.11750E-01
 -0.37964E-02  0.93572E-03 -0.15890E-01
 -0.37964E-02  0.93572E-03 -0.11750E-01
 -0.39100E-02  0.22152E-17 -0.15889E-01
 -0.39100E-02 -0.47884E-18 -0.11750E-01
 -0.37964E-02 -0.93572E-03 -0.15885E-01
 -0.37964E-02 -0.93572E-03 -0.11750E-01
 -0.34621E-02 -0.18171E-02 -0.15881E-01
 -0.34621E-02 -0.18171E-02 -0.11750E-01
 -0.29267E-02 -0.25928E-02 -0.15879E-01
 -0.29267E-02 -0.25928E-02 -0.11750E-01
 -0.22211E-02 -0.32179E-02 -0.15885E-01
 -0.22211E-02 -0.32179E-02 -0.11750E-01
 -0.13865E-02 -0.36559E-02 -0.15880E-01
 -0.13865E-02 -0.36559E-02 -0.11750E-01
 -0.47130E-03 -0.38815E-02 -0.15888E-01
 -0.47130E-03 -0.38815E-02 -0.11750E-01
  0.47130E-03 -0.38815E-02 -0.15885E-01
  0.47130E-03 -0.38815E-02 -0.11750E-01
  0.13865E-02 -0.36559E-02 -0.15883E-01
  0.13865E-02 -0.36559E-02 -0.11750E-01
  0.22211E-02 -0.32179E-02 -0.15888E-01
  0.22211E-02 -0.32179E-02 -0.11750E-01
  0.29267E-02 -0.25928E-02 -0.15881E-01
  0.29267E-02 -0.25928E-02 -0.11750E-01
  0.34621E-02 -0.18171E-02 -0.15888E-01
  0.34621E-02 -0.18171E-02 -0.11750E-01
  0.37964E-02 -0.93572E-03 -0.15888E-01
  0.37964E-02 -0.93572E-03 -0.11750E-01
  0.10376E-02  0.67348E-03 -0.17129E-01
  0.17450E-02  0.12314E-02 -0.17128E-01
  0.23175E-02  0.59203E-03 -0.17127E-01
  0.16696E-02 -0.33700E-03 -0.17130E-01
  0.30377E-02  0.14918E-03 -0.17125E-01
  0.27795E-02 -0.67594E-03 -0.17128E-01
  0.12849E-02  0.18414E-02 -0.17126E-01
  0.65115E-03  0.14586E-02 -0.17128E-01
  0.12731E-03  0.30048E-03 -0.17129E-01
 -0.12841E-03  0.11690E-02 -0.17130E-01
  0.94467E-03  0.22749E-02 -0.17125E-01
  0.11323E-02  0.28282E-02 -0.17124E-01
  0.17487E-02  0.24239E-02 -0.17125E-01
  0.40583E-03  0.21685E-02 -0.17127E-01
  0.39777E-03  0.29364E-02 -0.17127E-01
 -0.76338E-03 -0.10035E-02 -0.17130E-01
 -0.86615E-03  0.79778E-04 -0.17131E-01
  0.46074E-03 -0.70245E-03 -0.17130E-01
 -0.18303E-02 -0.71182E-03 -0.17128E-01
 -0.18439E-02  0.82873E-04 -0.17130E-01
 -0.27238E-02 -0.77848E-03 -0.17127E-01
 -0.28025E-02  0.40986E-04 -0.17129E-01
 -0.25366E-02 -0.15194E-02 -0.17125E-01
 -0.19292E-02 -0.13228E-02 -0.17126E-01
 -0.99349E-03  0.98983E-03 -0.17131E-01
 -0.14384E-02 -0.17324E-02 -0.17127E-01
 -0.31554E-03  0.20223E-02 -0.17130E-01
 -0.11064E-02  0.18614E-02 -0.17130E-01
 -0.18845E-02  0.17175E-02 -0.17128E-01
 -0.18712E-02  0.90964E-03 -0.17130E-01
 -0.15899E-03 -0.19800E-02 -0.17130E-01
 -0.94149E-03 -0.23489E-02 -0.17127E-01
  0.78790E-03 -0.17074E-02 -0.17129E-01
  0.17210E-02 -0.14896E-02 -0.17128E-01
  0.32053E-02  0.76137E-03 -0.17122E-01
  0.28046E-02  0.12481E-02 -0.17124E-01
  0.23058E-02  0.18665E-02 -0.17125E-01
 -0.40600E-03  0.29027E-02 -0.17129E-01
 -0.12092E-02  0.27202E-02 -0.17128E-01
 -0.19447E-02  0.24640E-02 -0.17125E-01
 -0.25028E-02  0.22359E-02 -0.17123E-01
 -0.26370E-02  0.16503E-02 -0.17126E-01
 -0.27668E-02  0.87519E-03 -0.17129E-01
 -0.21125E-02 -0.21373E-02 -0.17125E-01
 -0.16088E-02 -0.26932E-02 -0.17124E-01
 -0.11940E-02 -0.31291E-02 -0.17122E-01
 -0.58676E-03 -0.30382E-02 -0.17125E-01
  0.20871E-03 -0.28748E-02 -0.17127E-01
  0.10583E-02 -0.26426E-02 -0.17127E-01
  0.18413E-02 -0.23709E-02 -0.17125E-01
  0.24545E-02 -0.21450E-02 -0.17122E-01
  0.26022E-02 -0.15104E-02 -0.17125E-01
  0.37964E-02  0.93572E-03 -0.17117E-01
  0.39100E-02  0.00000E+00 -0.17118E-01
  0.34621E-02  0.18171E-02 -0.17118E-01
  0.29267E-02  0.25928E-02 -0.17117E-01
  0.22211E-02  0.32179E-02 -0.17117E-01
  0.13865E-02  0.36559E-02 -0.17117E-01
  0.47130E-03  0.38815E-02 -0.17118E-01
 -0.47130E-03  0.38815E-02 -0.17118E-01
 -0.13865E-02  0.36559E-02 -0.17118E-01
 -0.22211E-02  0.32179E-02 -0.17117E-01
 -0.29267E-02  0.25928E-02 -0.17116E-01
 -0.34621E-02  0.18171E-02 -0.17118E-01
 -0.37964E-02  0.93572E-03 -0.17119E-01
 -0.39100E-02 -0.47884E-18 -0.17118E-01
 -0.37964E-02 -0.93572E-03 -0.17118E-01
 -0.34621E-02 -0.18171E-02 -0.17117E-01
 -0.29267E-02 -0.25928E-02 -0.17117E-01
 -0.22211E-02 -0.32179E-02 -0.17118E-01
 -0.13865E-02 -0.36559E-02 -0.17117E-01
 -0.47130E-03 -0.38815E-02 -0.17118E-01
  0.47130E-03 -0.38815E-02 -0.17118E-01
  0.13865E-02 -0.36559E-02 -0.17118E-01
  0.22211E-02 -0.32179E-02 -0.17118E-01
  0.29267E-02 -0.25928E-02 -0.17117E-01
  0.34621E-02 -0.18171E-02 -0.17118E-01
  0.37964E-02 -0.93572E-03 -0.17118E-01
  0.10375E-02  0.67403E-03 -0.16324E-01
  0.17448E-02  0.12321E-02 -0.16324E-01
  0.23174E-02  0.59255E-03 -0.16324E-01
  0.16694E-02 -0.33624E-03 -0.16324E-01
  0.30377E-02  0.14955E-03 -0.16324E-01
  0.27798E-02 -0.67544E-03 -0.16324E-01
  0.12848E-02  0.18415E-02 -0.16324E-01
  0.65090E-03  0.14596E-02 -0.16324E-01
  0.12705E-03  0.30163E-03 -0.16324E-01
 -0.12859E-03  0.11707E-02 -0.16324E-01
  0.94434E-03  0.22750E-02 -0.16324E-01
  0.11320E-02  0.28277E-02 -0.16324E-01
  0.17483E-02  0.24241E-02 -0.16324E-01
  0.40577E-03  0.21685E-02 -0.16324E-01
  0.39776E-03  0.29361E-02 -0.16324E-01
 -0.76374E-03 -0.10036E-02 -0.16324E-01
 -0.86626E-03  0.80588E-04 -0.16324E-01
  0.46029E-03 -0.70173E-03 -0.16324E-01
 -0.18306E-02 -0.71168E-03 -0.16324E-01
 -0.18438E-02  0.82996E-04 -0.16324E-01
 -0.27238E-02 -0.77831E-03 -0.16324E-01
 -0.28022E-02  0.41259E-04 -0.16324E-01
 -0.25368E-02 -0.15194E-02 -0.16324E-01
 -0.19296E-02 -0.13227E-02 -0.16324E-01
 -0.99334E-03  0.99119E-03 -0.16324E-01
 -0.14387E-02 -0.17324E-02 -0.16324E-01
 -0.31534E-03  0.20226E-02 -0.16324E-01
 -0.11061E-02  0.18613E-02 -0.16324E-01
 -0.18844E-02  0.17175E-02 -0.16324E-01
 -0.18710E-02  0.90988E-03 -0.16324E-01
 -0.15926E-03 -0.19801E-02 -0.16324E-01
 -0.94209E-03 -0.23490E-02 -0.16324E-01
  0.78724E-03 -0.17074E-02 -0.16324E-01
  0.17210E-02 -0.14899E-02 -0.16324E-01
  0.32056E-02  0.76237E-03 -0.16324E-01
  0.28046E-02  0.12485E-02 -0.16324E-01
  0.23057E-02  0.18666E-02 -0.16324E-01
 -0.40586E-03  0.29017E-02 -0.16324E-01
 -0.12092E-02  0.27198E-02 -0.16324E-01
 -0.19447E-02  0.24638E-02 -0.16324E-01
 -0.25028E-02  0.22359E-02 -0.16324E-01
 -0.26369E-02  0.16503E-02 -0.16324E-01
 -0.27665E-02  0.87545E-03 -0.16324E-01
 -0.21126E-02 -0.21374E-02 -0.16324E-01
 -0.16088E-02 -0.26932E-02 -0.16324E-01
 -0.11941E-02 -0.31291E-02 -0.16324E-01
 -0.58711E-03 -0.30382E-02 -0.16324E-01
  0.20830E-03 -0.28748E-02 -0.16324E-01
  0.10580E-02 -0.26428E-02 -0.16324E-01
  0.18414E-02 -0.23711E-02 -0.16324E-01
  0.24546E-02 -0.21456E-02 -0.16324E-01
  0.26023E-02 -0.15103E-02 -0.16324E-01
  0.37964E-02  0.93572E-03 -0.16324E-01
  0.39100E-02  0.00000E+00 -0.16324E-01
  0.34621E-02  0.18171E-02 -0.16324E-01
  0.29267E-02  0.25928E-02 -0.16324E-01
  0.22211E-02  0.32179E-02 -0.16324E-01
  0.13865E-02  0.36559E-02 -0.16324E-01
  0.47130E-03  0.38815E-02 -0.16324E-01
 -0.47130E-03  0.38815E-02 -0.16324E-01
 -0.13865E-02  0.36559E-02 -0.16324E-01
 -0.22211E-02  0.32179E-02 -0.16324E-01
 -0.29267E-02  0.25928E-02 -0.16324E-01
 -0.34621E-02  0.18171E-02 -0.16324E-01
 -0.37964E-02  0.93572E-03 -0.16324E-01
 -0.39100E-02  0.39516E-17 -0.16324E-01
 -0.37964E-02 -0.93572E-03 -0.16324E-01
 -0.34621E-02 -0.18171E-02 -0.16324E-01
 -0.29267E-02 -0.25928E-02 -0.16324E-01
 -0.22211E-02 -0.32179E-02 -0.16324E-01
 -0.13865E-02 -0.36559E-02 -0.16324E-01
 -0.47130E-03 -0.38815E-02 -0.16324E-01
  0.47130E-03 -0.38815E-02 -0.16324E-01
  0.13865E-02 -0.36559E-02 -0.16324E-01
  0.22211E-02 -0.32179E-02 -0.16324E-01
  0.29267E-02 -0.25928E-02 -0.16324E-01
  0.34621E-02 -0.18171E-02 -0.16324E-01
  0.37964E-02 -0.93572E-03 -0.16324E-01
  0.10374E-02  0.67459E-03 -0.15345E-01
  0.17446E-02  0.12328E-02 -0.15345E-01
  0.23173E-02  0.59308E-03 -0.15345E-01
  0.16692E-02 -0.33549E-03 -0.15345E-01
  0.30376E-02  0.14991E-03 -0.15345E-01
  0.27801E-02 -0.67495E-03 -0.15345E-01
  0.12847E-02  0.18417E-02 -0.15345E-01
  0.65065E-03  0.14606E-02 -0.15345E-01
  0.12678E-03  0.30278E-03 -0.15345E-01
 -0.12878E-03  0.11725E-02 -0.15345E-01
  0.94401E-03  0.22752E-02 -0.15345E-01
  0.11316E-02  0.28273E-02 -0.15345E-01
  0.17479E-02  0.24242E-02 -0.15345E-01
  0.40572E-03  0.21686E-02 -0.15345E-01
  0.39774E-03  0.29359E-02 -0.15345E-01
 -0.76409E-03 -0.10038E-02 -0.15345E-01
 -0.86637E-03  0.81397E-04 -0.15345E-01
  0.45985E-03 -0.70100E-03 -0.15345E-01
 -0.18309E-02 -0.71154E-03 -0.15345E-01
 -0.18437E-02  0.83120E-04 -0.15345E-01
 -0.27237E-02 -0.77814E-03 -0.15345E-01
 -0.28020E-02  0.41533E-04 -0.15345E-01
 -0.25369E-02 -0.15193E-02 -0.15345E-01
 -0.19300E-02 -0.13227E-02 -0.15345E-01
 -0.99320E-03  0.99254E-03 -0.15345E-01
 -0.14391E-02 -0.17324E-02 -0.15345E-01
 -0.31514E-03  0.20228E-02 -0.15345E-01
 -0.11057E-02  0.18611E-02 -0.15345E-01
 -0.18844E-02  0.17175E-02 -0.15345E-01
 -0.18709E-02  0.91012E-03 -0.15345E-01
 -0.15954E-03 -0.19801E-02 -0.15345E-01
 -0.94269E-03 -0.23490E-02 -0.15345E-01
  0.78658E-03 -0.17074E-02 -0.15345E-01
  0.17209E-02 -0.14901E-02 -0.15345E-01
  0.32060E-02  0.76338E-03 -0.15345E-01
  0.28046E-02  0.12490E-02 -0.15345E-01
  0.23056E-02  0.18666E-02 -0.15345E-01
 -0.40572E-03  0.29006E-02 -0.15345E-01
 -0.12092E-02  0.27193E-02 -0.15345E-01
 -0.19446E-02  0.24636E-02 -0.15345E-01
 -0.25028E-02  0.22359E-02 -0.15345E-01
 -0.26368E-02  0.16503E-02 -0.15345E-01
 -0.27662E-02  0.87571E-03 -0.15345E-01
 -0.21128E-02 -0.21374E-02 -0.15345E-01
 -0.16088E-02 -0.26932E-02 -0.15345E-01
 -0.11942E-02 -0.31291E-02 -0.15345E-01
 -0.58746E-03 -0.30382E-02 -0.15345E-01
  0.20790E-03 -0.28748E-02 -0.15345E-01
  0.10577E-02 -0.26431E-02 -0.15345E-01
  0.18414E-02 -0.23713E-02 -0.15345E-01
  0.24548E-02 -0.21461E-02 -0.15345E-01
  0.26024E-02 -0.15102E-02 -0.15345E-01
  0.37964E-02  0.93572E-03 -0.15345E-01
  0.39100E-02  0.00000E+00 -0.15345E-01
  0.34621E-02  0.18171E-02 -0.15345E-01
  0.29267E-02  0.25928E-02 -0.15345E-01
  0.22211E-02  0.32179E-02 -0.15345E-01
  0.13865E-02  0.36559E-02 -0.15345E-01
  0.47130E-03  0.38815E-02 -0.15345E-01
 -0.47130E-03  0.38815E-02 -0.15345E-01
 -0.13865E-02  0.36559E-02 -0.15345E-01
 -0.22211E-02  0.32179E-02 -0.15345E-01
 -0.29267E-02  0.25928E-02 -0.15345E-01
 -0.34621E-02  0.18171E-02 -0.15345E-01
 -0.37964E-02  0.93572E-03 -0.15345E-01
 -0.39100E-02 -0.47884E-18 -0.15345E-01
 -0.37964E-02 -0.93572E-03 -0.15345E-01
 -0.34621E-02 -0.18171E-02 -0.15345E-01
 -0.29267E-02 -0.25928E-02 -0.15345E-01
 -0.22211E-02 -0.32179E-02 -0.15345E-01
 -0.13865E-02 -0.36559E-02 -0.15345E-01
 -0.47130E-03 -0.38815E-02 -0.15345E-01
  0.47130E-03 -0.38815E-02 -0.15345E-01
  0.13865E-02 -0.36559E-02 -0.15345E-01
  0.22211E-02 -0.32179E-02 -0.15345E-01
  0.29267E-02 -0.25928E-02 -0.15345E-01
  0.34621E-02 -0.18171E-02 -0.15345E-01
  0.37964E-02 -0.93572E-03 -0.15345E-01
  0.10373E-02  0.67514E-03 -0.14366E-01
  0.17445E-02  0.12334E-02 -0.14366E-01
  0.23172E-02  0.59360E-03 -0.14366E-01
  0.16689E-02 -0.33474E-03 -0.14366E-01
  0.30376E-02  0.15027E-03 -0.14366E-01
  0.27805E-02 -0.67446E-03 -0.14366E-01
  0.12846E-02  0.18419E-02 -0.14366E-01
  0.65041E-03  0.14616E-02 -0.14366E-01
  0.12652E-03  0.30393E-03 -0.14366E-01
 -0.12896E-03  0.11742E-02 -0.14366E-01
  0.94367E-03  0.22753E-02 -0.14366E-01
  0.11313E-02  0.28269E-02 -0.14366E-01
  0.17475E-02  0.24244E-02 -0.14366E-01
  0.40566E-03  0.21686E-02 -0.14366E-01
  0.39772E-03  0.29356E-02 -0.14366E-01
 -0.76444E-03 -0.10039E-02 -0.14366E-01
 -0.86648E-03  0.82206E-04 -0.14366E-01
  0.45940E-03 -0.70028E-03 -0.14366E-01
 -0.18312E-02 -0.71140E-03 -0.14366E-01
 -0.18436E-02  0.83243E-04 -0.14366E-01
 -0.27237E-02 -0.77797E-03 -0.14366E-01
 -0.28017E-02  0.41806E-04 -0.14366E-01
 -0.25371E-02 -0.15193E-02 -0.14366E-01
 -0.19305E-02 -0.13226E-02 -0.14366E-01
 -0.99305E-03  0.99390E-03 -0.14366E-01
 -0.14394E-02 -0.17323E-02 -0.14366E-01
 -0.31494E-03  0.20231E-02 -0.14366E-01
 -0.11054E-02  0.18610E-02 -0.14366E-01
 -0.18843E-02  0.17175E-02 -0.14366E-01
 -0.18708E-02  0.91036E-03 -0.14366E-01
 -0.15981E-03 -0.19801E-02 -0.14366E-01
 -0.94328E-03 -0.23490E-02 -0.14366E-01
  0.78592E-03 -0.17074E-02 -0.14366E-01
  0.17209E-02 -0.14904E-02 -0.14366E-01
  0.32063E-02  0.76439E-03 -0.14366E-01
  0.28045E-02  0.12494E-02 -0.14366E-01
  0.23055E-02  0.18666E-02 -0.14366E-01
 -0.40558E-03  0.28995E-02 -0.14366E-01
 -0.12092E-02  0.27188E-02 -0.14366E-01
 -0.19446E-02  0.24633E-02 -0.14366E-01
 -0.25027E-02  0.22359E-02 -0.14366E-01
 -0.26367E-02  0.16503E-02 -0.14366E-01
 -0.27658E-02  0.87597E-03 -0.14366E-01
 -0.21129E-02 -0.21374E-02 -0.14366E-01
 -0.16089E-02 -0.26932E-02 -0.14366E-01
 -0.11943E-02 -0.31291E-02 -0.14366E-01
 -0.58781E-03 -0.30382E-02 -0.14366E-01
  0.20749E-03 -0.28748E-02 -0.14366E-01
  0.10574E-02 -0.26434E-02 -0.14366E-01
  0.18415E-02 -0.23715E-02 -0.14366E-01
  0.24549E-02 -0.21467E-02 -0.14366E-01
  0.26025E-02 -0.15101E-02 -0.14366E-01
  0.37964E-02  0.93572E-03 -0.14366E-01
  0.39100E-02  0.00000E+00 -0.14366E-01
  0.34621E-02  0.18171E-02 -0.14366E-01
  0.29267E-02  0.25928E-02 -0.14366E-01
  0.22211E-02  0.32179E-02 -0.14366E-01
  0.13865E-02  0.36559E-02 -0.14366E-01
  0.47130E-03  0.38815E-02 -0.14366E-01
 -0.47130E-03  0.38815E-02 -0.14366E-01
 -0.13865E-02  0.36559E-02 -0.14366E-01
 -0.22211E-02  0.32179E-02 -0.14366E-01
 -0.29267E-02  0.25928E-02 -0.14366E-01
 -0.34621E-02  0.18171E-02 -0.14366E-01
 -0.37964E-02  0.93572E-03 -0.14366E-01
 -0.39100E-02 -0.47884E-18 -0.14366E-01
 -0.37964E-02 -0.93572E-03 -0.14366E-01
 -0.34621E-02 -0.18171E-02 -0.14366E-01
 -0.29267E-02 -0.25928E-02 -0.14366E-01
 -0.22211E-02 -0.32179E-02 -0.14366E-01
 -0.13865E-02 -0.36559E-02 -0.14366E-01
 -0.47130E-03 -0.38815E-02 -0.14366E-01
  0.47130E-03 -0.38815E-02 -0.14366E-01
  0.13865E-02 -0.36559E-02 -0.14366E-01
  0.22211E-02 -0.32179E-02 -0.14366E-01
  0.29267E-02 -0.25928E-02 -0.14366E-01
  0.34621E-02 -0.18171E-02 -0.14366E-01
  0.37964E-02 -0.93572E-03 -0.14366E-01
  0.10372E-02  0.67570E-03 -0.13387E-01
  0.17443E-02  0.12341E-02 -0.13387E-01
  0.23171E-02  0.59412E-03 -0.13387E-01
  0.16687E-02 -0.33398E-03 -0.13387E-01
  0.30376E-02  0.15064E-03 -0.13387E-01
  0.27808E-02 -0.67396E-03 -0.13387E-01
  0.12845E-02  0.18421E-02 -0.13387E-01
  0.65016E-03  0.14626E-02 -0.13387E-01
  0.12626E-03  0.30507E-03 -0.13387E-01
 -0.12915E-03  0.11760E-02 -0.13387E-01
  0.94334E-03  0.22754E-02 -0.13387E-01
  0.11310E-02  0.28264E-02 -0.13387E-01
  0.17471E-02  0.24245E-02 -0.13387E-01
  0.40561E-03  0.21686E-02 -0.13387E-01
  0.39770E-03  0.29353E-02 -0.13387E-01
 -0.76480E-03 -0.10040E-02 -0.13387E-01
 -0.86659E-03  0.83015E-04 -0.13387E-01
  0.45895E-03 -0.69955E-03 -0.13387E-01
 -0.18315E-02 -0.71126E-03 -0.13387E-01
 -0.18435E-02  0.83367E-04 -0.13387E-01
 -0.27237E-02 -0.77780E-03 -0.13387E-01
 -0.28014E-02  0.42080E-04 -0.13387E-01
 -0.25372E-02 -0.15192E-02 -0.13387E-01
 -0.19309E-02 -0.13224E-02 -0.13387E-01
 -0.99291E-03  0.99526E-03 -0.13387E-01
 -0.14398E-02 -0.17323E-02 -0.13387E-01
 -0.31474E-03  0.20234E-02 -0.13387E-01
 -0.11051E-02  0.18609E-02 -0.13387E-01
 -0.18843E-02  0.17175E-02 -0.13387E-01
 -0.18706E-02  0.91060E-03 -0.13387E-01
 -0.16009E-03 -0.19801E-02 -0.13387E-01
 -0.94388E-03 -0.23490E-02 -0.13387E-01
  0.78526E-03 -0.17074E-02 -0.13387E-01
  0.17208E-02 -0.14906E-02 -0.13387E-01
  0.32066E-02  0.76539E-03 -0.13387E-01
  0.28045E-02  0.12498E-02 -0.13387E-01
  0.23053E-02  0.18667E-02 -0.13387E-01
 -0.40545E-03  0.28984E-02 -0.13387E-01
 -0.12092E-02  0.27184E-02 -0.13387E-01
 -0.19446E-02  0.24631E-02 -0.13387E-01
 -0.25027E-02  0.22359E-02 -0.13387E-01
 -0.26366E-02  0.16503E-02 -0.13387E-01
 -0.27655E-02  0.87623E-03 -0.13387E-01
 -0.21130E-02 -0.21374E-02 -0.13387E-01
 -0.16089E-02 -0.26932E-02 -0.13387E-01
 -0.11944E-02 -0.31291E-02 -0.13387E-01
 -0.58816E-03 -0.30382E-02 -0.13387E-01
  0.20709E-03 -0.28748E-02 -0.13387E-01
  0.10571E-02 -0.26436E-02 -0.13387E-01
  0.18415E-02 -0.23717E-02 -0.13387E-01
  0.24550E-02 -0.21472E-02 -0.13387E-01
  0.26025E-02 -0.15100E-02 -0.13387E-01
  0.37964E-02  0.93572E-03 -0.13387E-01
  0.39100E-02  0.00000E+00 -0.13387E-01
  0.34621E-02  0.18171E-02 -0.13387E-01
  0.29267E-02  0.25928E-02 -0.13387E-01
  0.22211E-02  0.32179E-02 -0.13387E-01
  0.13865E-02  0.36559E-02 -0.13387E-01
  0.47130E-03  0.38815E-02 -0.13387E-01
 -0.47130E-03  0.38815E-02 -0.13387E-01
 -0.13865E-02  0.36559E-02 -0.13387E-01
 -0.22211E-02  0.32179E-02 -0.13387E-01
 -0.29267E-02  0.25928E-02 -0.13387E-01
 -0.34621E-02  0.18171E-02 -0.13387E-01
 -0.37964E-02  0.93572E-03 -0.13387E-01
 -0.39100E-02 -0.47884E-18 -0.13387E-01
 -0.37964E-02 -0.93572E-03 -0.13387E-01
 -0.34621E-02 -0.18171E-02 -0.13387E-01
 -0.29267E-02 -0.25928E-02 -0.13387E-01
 -0.22211E-02 -0.32179E-02 -0.13387E-01
 -0.13865E-02 -0.36559E-02 -0.13387E-01
 -0.47130E-03 -0.38815E-02 -0.13387E-01
  0.47130E-03 -0.38815E-02 -0.13387E-01
  0.13865E-02 -0.36559E-02 -0.13387E-01
  0.22211E-02 -0.32179E-02 -0.13387E-01
  0.29267E-02 -0.25928E-02 -0.13387E-01
  0.34621E-02 -0.18171E-02 -0.13387E-01
  0.37964E-02 -0.93572E-03 -0.13387E-01
  0.10371E-02  0.67625E-03 -0.12408E-01
  0.17441E-02  0.12348E-02 -0.12408E-01
  0.23169E-02  0.59465E-03 -0.12408E-01
  0.16685E-02 -0.33323E-03 -0.12408E-01
  0.30376E-02  0.15100E-03 -0.12408E-01
  0.27812E-02 -0.67347E-03 -0.12408E-01
  0.12844E-02  0.18423E-02 -0.12408E-01
  0.64992E-03  0.14636E-02 -0.12408E-01
  0.12600E-03  0.30622E-03 -0.12408E-01
 -0.12933E-03  0.11777E-02 -0.12408E-01
  0.94301E-03  0.22755E-02 -0.12408E-01
  0.11306E-02  0.28260E-02 -0.12408E-01
  0.17467E-02  0.24247E-02 -0.12408E-01
  0.40556E-03  0.21687E-02 -0.12408E-01
  0.39769E-03  0.29351E-02 -0.12408E-01
 -0.76515E-03 -0.10042E-02 -0.12408E-01
 -0.86670E-03  0.83825E-04 -0.12408E-01
  0.45850E-03 -0.69882E-03 -0.12408E-01
 -0.18318E-02 -0.71112E-03 -0.12408E-01
 -0.18434E-02  0.83490E-04 -0.12408E-01
 -0.27236E-02 -0.77763E-03 -0.12408E-01
 -0.28011E-02  0.42353E-04 -0.12408E-01
 -0.25374E-02 -0.15192E-02 -0.12408E-01
 -0.19313E-02 -0.13223E-02 -0.12408E-01
 -0.99277E-03  0.99661E-03 -0.12408E-01
 -0.14401E-02 -0.17322E-02 -0.12408E-01
 -0.31454E-03  0.20237E-02 -0.12408E-01
 -0.11047E-02  0.18607E-02 -0.12408E-01
 -0.18842E-02  0.17175E-02 -0.12408E-01
 -0.18705E-02  0.91084E-03 -0.12408E-01
 -0.16036E-03 -0.19801E-02 -0.12408E-01
 -0.94448E-03 -0.23491E-02 -0.12408E-01
  0.78460E-03 -0.17074E-02 -0.12408E-01
  0.17208E-02 -0.14909E-02 -0.12408E-01
  0.32070E-02  0.76640E-03 -0.12408E-01
  0.28045E-02  0.12503E-02 -0.12408E-01
  0.23052E-02  0.18667E-02 -0.12408E-01
 -0.40531E-03  0.28974E-02 -0.12408E-01
 -0.12092E-02  0.27179E-02 -0.12408E-01
 -0.19445E-02  0.24629E-02 -0.12408E-01
 -0.25027E-02  0.22359E-02 -0.12408E-01
 -0.26366E-02  0.16503E-02 -0.12408E-01
 -0.27652E-02  0.87650E-03 -0.12408E-01
 -0.21132E-02 -0.21374E-02 -0.12408E-01
 -0.16090E-02 -0.26933E-02 -0.12408E-01
 -0.11946E-02 -0.31291E-02 -0.12408E-01
 -0.58851E-03 -0.30382E-02 -0.12408E-01
  0.20668E-03 -0.28749E-02 -0.12408E-01
  0.10567E-02 -0.26439E-02 -0.12408E-01
  0.18416E-02 -0.23719E-02 -0.12408E-01
  0.24551E-02 -0.21478E-02 -0.12408E-01
  0.26026E-02 -0.15099E-02 -0.12408E-01
  0.37964E-02  0.93572E-03 -0.12408E-01
  0.39100E-02  0.00000E+00 -0.12408E-01
  0.34621E-02  0.18171E-02 -0.12408E-01
  0.29267E-02  0.25928E-02 -0.12408E-01
  0.22211E-02  0.32179E-02 -0.12408E-01
  0.13865E-02  0.36559E-02 -0.12408E-01
  0.47130E-03  0.38815E-02 -0.12408E-01
 -0.47130E-03  0.38815E-02 -0.12408E-01
 -0.13865E-02  0.36559E-02 -0.12408E-01
 -0.22211E-02  0.32179E-02 -0.12408E-01
 -0.29267E-02  0.25928E-02 -0.12408E-01
 -0.34621E-02  0.18171E-02 -0.12408E-01
 -0.37964E-02  0.93572E-03 -0.12408E-01
 -0.39100E-02 -0.47884E-18 -0.12408E-01
 -0.37964E-02 -0.93572E-03 -0.12408E-01
 -0.34621E-02 -0.18171E-02 -0.12408E-01
 -0.29267E-02 -0.25928E-02 -0.12408E-01
 -0.22211E-02 -0.32179E-02 -0.12408E-01
 -0.13865E-02 -0.36559E-02 -0.12408E-01
 -0.47130E-03 -0.38815E-02 -0.12408E-01
  0.47130E-03 -0.38815E-02 -0.12408E-01
  0.13865E-02 -0.36559E-02 -0.12408E-01
  0.22211E-02 -0.32179E-02 -0.12408E-01
  0.29267E-02 -0.25928E-02 -0.12408E-01
  0.34621E-02 -0.18171E-02 -0.12408E-01
  0.37964E-02 -0.93572E-03 -0.12408E-01
  0.10370E-02  0.67680E-03 -0.11429E-01
  0.17439E-02  0.12354E-02 -0.11429E-01
  0.23168E-02  0.59517E-03 -0.11429E-01
  0.16683E-02 -0.33247E-03 -0.11429E-01
  0.30375E-02  0.15136E-03 -0.11429E-01
  0.27815E-02 -0.67298E-03 -0.11429E-01
  0.12843E-02  0.18425E-02 -0.11429E-01
  0.64967E-03  0.14646E-02 -0.11429E-01
  0.12573E-03  0.30737E-03 -0.11429E-01
 -0.12952E-03  0.11795E-02 -0.11429E-01
  0.94268E-03  0.22757E-02 -0.11429E-01
  0.11303E-02  0.28255E-02 -0.11429E-01
  0.17463E-02  0.24248E-02 -0.11429E-01
  0.40550E-03  0.21687E-02 -0.11429E-01
  0.39767E-03  0.29348E-02 -0.11429E-01
 -0.76551E-03 -0.10043E-02 -0.11429E-01
 -0.86680E-03  0.84634E-04 -0.11429E-01
  0.45806E-03 -0.69810E-03 -0.11429E-01
 -0.18321E-02 -0.71098E-03 -0.11429E-01
 -0.18433E-02  0.83614E-04 -0.11429E-01
 -0.27236E-02 -0.77746E-03 -0.11429E-01
 -0.28009E-02  0.42626E-04 -0.11429E-01
 -0.25375E-02 -0.15191E-02 -0.11429E-01
 -0.19317E-02 -0.13223E-02 -0.11429E-01
 -0.99262E-03  0.99797E-03 -0.11429E-01
 -0.14405E-02 -0.17322E-02 -0.11429E-01
 -0.31434E-03  0.20240E-02 -0.11429E-01
 -0.11044E-02  0.18606E-02 -0.11429E-01
 -0.18842E-02  0.17175E-02 -0.11429E-01
 -0.18704E-02  0.91108E-03 -0.11429E-01
 -0.16064E-03 -0.19802E-02 -0.11429E-01
 -0.94508E-03 -0.23491E-02 -0.11429E-01
  0.78394E-03 -0.17074E-02 -0.11429E-01
  0.17208E-02 -0.14911E-02 -0.11429E-01
  0.32073E-02  0.76740E-03 -0.11429E-01
  0.28045E-02  0.12507E-02 -0.11429E-01
  0.23051E-02  0.18668E-02 -0.11429E-01
 -0.40517E-03  0.28963E-02 -0.11429E-01
 -0.12092E-02  0.27174E-02 -0.11429E-01
 -0.19445E-02  0.24627E-02 -0.11429E-01
 -0.25026E-02  0.22358E-02 -0.11429E-01
 -0.26365E-02  0.16503E-02 -0.11429E-01
 -0.27649E-02  0.87676E-03 -0.11429E-01
 -0.21133E-02 -0.21374E-02 -0.11429E-01
 -0.16090E-02 -0.26933E-02 -0.11429E-01
 -0.11947E-02 -0.31291E-02 -0.11429E-01
 -0.58886E-03 -0.30382E-02 -0.11429E-01
  0.20627E-03 -0.28749E-02 -0.11429E-01
  0.10564E-02 -0.26442E-02 -0.11429E-01
  0.18416E-02 -0.23721E-02 -0.11429E-01
  0.24553E-02 -0.21483E-02 -0.11429E-01
  0.26027E-02 -0.15097E-02 -0.11429E-01
  0.37964E-02  0.93572E-03 -0.11429E-01
  0.39100E-02  0.00000E+00 -0.11429E-01
  0.34621E-02  0.18171E-02 -0.11429E-01
  0.29267E-02  0.25928E-02 -0.11429E-01
  0.22211E-02  0.32179E-02 -0.11429E-01
  0.13865E-02  0.36559E-02 -0.11429E-01
  0.47130E-03  0.38815E-02 -0.11429E-01
 -0.47130E-03  0.38815E-02 -0.11429E-01
 -0.13865E-02  0.36559E-02 -0.11429E-01
 -0.22211E-02  0.32179E-02 -0.11429E-01
 -0.29267E-02  0.25928E-02 -0.11429E-01
 -0.34621E-02  0.18171E-02 -0.11429E-01
 -0.37964E-02  0.93572E-03 -0.11429E-01
 -0.39100E-02 -0.47884E-18 -0.11429E-01
 -0.37964E-02 -0.93572E-03 -0.11429E-01
 -0.34621E-02 -0.18171E-02 -0.11429E-01
 -0.29267E-02 -0.25928E-02 -0.11429E-01
 -0.22211E-02 -0.32179E-02 -0.11429E-01
 -0.13865E-02 -0.36559E-02 -0.11429E-01
 -0.47130E-03 -0.38815E-02 -0.11429E-01
  0.47130E-03 -0.38815E-02 -0.11429E-01
  0.13865E-02 -0.36559E-02 -0.11429E-01
  0.22211E-02 -0.32179E-02 -0.11429E-01
  0.29267E-02 -0.25928E-02 -0.11429E-01
  0.34621E-02 -0.18171E-02 -0.11429E-01
  0.37964E-02 -0.93572E-03 -0.11429E-01
  0.10368E-02  0.67736E-03 -0.10449E-01
  0.17438E-02  0.12361E-02 -0.10449E-01
  0.23167E-02  0.59570E-03 -0.10449E-01
  0.16681E-02 -0.33172E-03 -0.10449E-01
  0.30375E-02  0.15173E-03 -0.10449E-01
  0.27819E-02 -0.67248E-03 -0.10449E-01
  0.12842E-02  0.18427E-02 -0.10449E-01
  0.64943E-03  0.14656E-02 -0.10449E-01
  0.12547E-03  0.30852E-03 -0.10449E-01
 -0.12970E-03  0.11812E-02 -0.10449E-01
  0.94235E-03  0.22758E-02 -0.10449E-01
  0.11300E-02  0.28251E-02 -0.10449E-01
  0.17459E-02  0.24249E-02 -0.10449E-01
  0.40545E-03  0.21688E-02 -0.10449E-01
  0.39766E-03  0.29345E-02 -0.10449E-01
 -0.76586E-03 -0.10044E-02 -0.10449E-01
 -0.86691E-03  0.85443E-04 -0.10449E-01
  0.45761E-03 -0.69737E-03 -0.10449E-01
 -0.18324E-02 -0.71084E-03 -0.10449E-01
 -0.18432E-02  0.83737E-04 -0.10449E-01
 -0.27236E-02 -0.77729E-03 -0.10449E-01
 -0.28006E-02  0.42899E-04 -0.10449E-01
 -0.25377E-02 -0.15191E-02 -0.10449E-01
 -0.19322E-02 -0.13222E-02 -0.10449E-01
 -0.99248E-03  0.99932E-03 -0.10449E-01
 -0.14408E-02 -0.17322E-02 -0.10449E-01
 -0.31414E-03  0.20243E-02 -0.10449E-01
 -0.11040E-02  0.18605E-02 -0.10449E-01
 -0.18841E-02  0.17175E-02 -0.10449E-01
 -0.18703E-02  0.91132E-03 -0.10449E-01
 -0.16091E-03 -0.19802E-02 -0.10449E-01
 -0.94568E-03 -0.23491E-02 -0.10449E-01
  0.78328E-03 -0.17074E-02 -0.10449E-01
  0.17207E-02 -0.14914E-02 -0.10449E-01
  0.32076E-02  0.76841E-03 -0.10449E-01
  0.28044E-02  0.12511E-02 -0.10449E-01
  0.23050E-02  0.18668E-02 -0.10449E-01
 -0.40503E-03  0.28952E-02 -0.10449E-01
 -0.12092E-02  0.27170E-02 -0.10449E-01
 -0.19445E-02  0.24624E-02 -0.10449E-01
 -0.25026E-02  0.22358E-02 -0.10449E-01
 -0.26364E-02  0.16503E-02 -0.10449E-01
 -0.27646E-02  0.87702E-03 -0.10449E-01
 -0.21134E-02 -0.21374E-02 -0.10449E-01
 -0.16091E-02 -0.26933E-02 -0.10449E-01
 -0.11948E-02 -0.31291E-02 -0.10449E-01
 -0.58921E-03 -0.30382E-02 -0.10449E-01
  0.20587E-03 -0.28749E-02 -0.10449E-01
  0.10561E-02 -0.26444E-02 -0.10449E-01
  0.18416E-02 -0.23723E-02 -0.10449E-01
  0.24554E-02 -0.21489E-02 -0.10449E-01
  0.26027E-02 -0.15096E-02 -0.10449E-01
  0.37964E-02  0.93572E-03 -0.10449E-01
  0.39100E-02  0.00000E+00 -0.10449E-01
  0.34621E-02  0.18171E-02 -0.10449E-01
  0.29267E-02  0.25928E-02 -0.10449E-01
  0.22211E-02  0.32179E-02 -0.10449E-01
  0.13865E-02  0.36559E-02 -0.10449E-01
  0.47130E-03  0.38815E-02 -0.10449E-01
 -0.47130E-03  0.38815E-02 -0.10449E-01
 -0.13865E-02  0.36559E-02 -0.10449E-01
 -0.22211E-02  0.32179E-02 -0.10449E-01
 -0.29267E-02  0.25928E-02 -0.10449E-01
 -0.34621E-02  0.18171E-02 -0.10449E-01
 -0.37964E-02  0.93572E-03 -0.10449E-01
 -0.39100E-02 -0.47884E-18 -0.10449E-01
 -0.37964E-02 -0.93572E-03 -0.10449E-01
 -0.34621E-02 -0.18171E-02 -0.10449E-01
 -0.29267E-02 -0.25928E-02 -0.10449E-01
 -0.22211E-02 -0.32179E-02 -0.10449E-01
 -0.13865E-02 -0.36559E-02 -0.10449E-01
 -0.47130E-03 -0.38815E-02 -0.10449E-01
  0.47130E-03 -0.38815E-02 -0.10449E-01
  0.13865E-02 -0.36559E-02 -0.10449E-01
  0.22211E-02 -0.32179E-02 -0.10449E-01
  0.29267E-02 -0.25928E-02 -0.10449E-01
  0.34621E-02 -0.18171E-02 -0.10449E-01
  0.37964E-02 -0.93572E-03 -0.10449E-01
  0.10367E-02  0.67791E-03 -0.94703E-02
  0.17436E-02  0.12368E-02 -0.94703E-02
  0.23166E-02  0.59622E-03 -0.94703E-02
  0.16679E-02 -0.33096E-03 -0.94703E-02
  0.30375E-02  0.15209E-03 -0.94703E-02
  0.27822E-02 -0.67199E-03 -0.94703E-02
  0.12841E-02  0.18429E-02 -0.94703E-02
  0.64918E-03  0.14666E-02 -0.94703E-02
  0.12521E-03  0.30967E-03 -0.94703E-02
 -0.12989E-03  0.11830E-02 -0.94703E-02
  0.94202E-03  0.22759E-02 -0.94703E-02
  0.11296E-02  0.28247E-02 -0.94703E-02
  0.17455E-02  0.24251E-02 -0.94703E-02
  0.40539E-03  0.21688E-02 -0.94703E-02
  0.39764E-03  0.29343E-02 -0.94703E-02
 -0.76621E-03 -0.10046E-02 -0.94703E-02
 -0.86702E-03  0.86253E-04 -0.94703E-02
  0.45716E-03 -0.69665E-03 -0.94703E-02
 -0.18326E-02 -0.71070E-03 -0.94703E-02
 -0.18431E-02  0.83861E-04 -0.94703E-02
 -0.27235E-02 -0.77712E-03 -0.94703E-02
 -0.28003E-02  0.43173E-04 -0.94703E-02
 -0.25379E-02 -0.15190E-02 -0.94703E-02
 -0.19326E-02 -0.13220E-02 -0.94703E-02
 -0.99233E-03  0.10007E-02 -0.94703E-02
 -0.14412E-02 -0.17321E-02 -0.94703E-02
 -0.31394E-03  0.20245E-02 -0.94703E-02
 -0.11037E-02  0.18603E-02 -0.94703E-02
 -0.18841E-02  0.17175E-02 -0.94703E-02
 -0.18701E-02  0.91156E-03 -0.94703E-02
 -0.16119E-03 -0.19802E-02 -0.94703E-02
 -0.94628E-03 -0.23491E-02 -0.94703E-02
  0.78262E-03 -0.17074E-02 -0.94703E-02
  0.17207E-02 -0.14916E-02 -0.94703E-02
  0.32079E-02  0.76941E-03 -0.94703E-02
  0.28044E-02  0.12515E-02 -0.94703E-02
  0.23049E-02  0.18668E-02 -0.94703E-02
 -0.40490E-03  0.28942E-02 -0.94703E-02
 -0.12093E-02  0.27165E-02 -0.94703E-02
 -0.19444E-02  0.24622E-02 -0.94703E-02
 -0.25026E-02  0.22358E-02 -0.94703E-02
 -0.26363E-02  0.16503E-02 -0.94703E-02
 -0.27643E-02  0.87728E-03 -0.94703E-02
 -0.21136E-02 -0.21374E-02 -0.94703E-02
 -0.16091E-02 -0.26933E-02 -0.94703E-02
 -0.11949E-02 -0.31291E-02 -0.94703E-02
 -0.58956E-03 -0.30382E-02 -0.94703E-02
  0.20546E-03 -0.28749E-02 -0.94703E-02
  0.10558E-02 -0.26447E-02 -0.94703E-02
  0.18417E-02 -0.23725E-02 -0.94703E-02
  0.24555E-02 -0.21494E-02 -0.94703E-02
  0.26028E-02 -0.15095E-02 -0.94703E-02
  0.37964E-02  0.93572E-03 -0.94703E-02
  0.39100E-02  0.00000E+00 -0.94703E-02
  0.34621E-02  0.18171E-02 -0.94703E-02
  0.29267E-02  0.25928E-02 -0.94703E-02
  0.22211E-02  0.32179E-02 -0.94703E-02
  0.13865E-02  0.36559E-02 -0.94703E-02
  0.47130E-03  0.38815E-02 -0.94703E-02
 -0.47130E-03  0.38815E-02 -0.94703E-02
 -0.13865E-02  0.36559E-02 -0.94703E-02
 -0.22211E-02  0.32179E-02 -0.94703E-02
 -0.29267E-02  0.25928E-02 -0.94703E-02
 -0.34621E-02  0.18171E-02 -0.94703E-02
 -0.37964E-02  0.93572E-03 -0.94703E-02
 -0.39100E-02 -0.47884E-18 -0.94703E-02
 -0.37964E-02 -0.93572E-03 -0.94703E-02
 -0.34621E-02 -0.18171E-02 -0.94703E-02
 -0.29267E-02 -0.25928E-02 -0.94703E-02
 -0.22211E-02 -0.32179E-02 -0.94703E-02
 -0.13865E-02 -0.36559E-02 -0.94703E-02
 -0.47130E-03 -0.38815E-02 -0.94703E-02
  0.47130E-03 -0.38815E-02 -0.94703E-02
  0.13865E-02 -0.36559E-02 -0.94703E-02
  0.22211E-02 -0.32179E-02 -0.94703E-02
  0.29267E-02 -0.25928E-02 -0.94703E-02
  0.34621E-02 -0.18171E-02 -0.94703E-02
  0.37964E-02 -0.93572E-03 -0.94703E-02
  0.10366E-02  0.67847E-03 -0.84911E-02
  0.17434E-02  0.12374E-02 -0.84911E-02
  0.23164E-02  0.59674E-03 -0.84911E-02
  0.16677E-02 -0.33021E-03 -0.84911E-02
  0.30375E-02  0.15245E-03 -0.84911E-02
  0.27825E-02 -0.67150E-03 -0.84911E-02
  0.12840E-02  0.18430E-02 -0.84911E-02
  0.64894E-03  0.14676E-02 -0.84911E-02
  0.12495E-03  0.31081E-03 -0.84911E-02
 -0.13007E-03  0.11847E-02 -0.84911E-02
  0.94169E-03  0.22761E-02 -0.84911E-02
  0.11293E-02  0.28242E-02 -0.84911E-02
  0.17451E-02  0.24252E-02 -0.84911E-02
  0.40534E-03  0.21688E-02 -0.84911E-02
  0.39762E-03  0.29340E-02 -0.84911E-02
 -0.76657E-03 -0.10047E-02 -0.84911E-02
 -0.86713E-03  0.87062E-04 -0.84911E-02
  0.45671E-03 -0.69592E-03 -0.84911E-02
 -0.18329E-02 -0.71056E-03 -0.84911E-02
 -0.18430E-02  0.83985E-04 -0.84911E-02
 -0.27235E-02 -0.77695E-03 -0.84911E-02
 -0.28001E-02  0.43446E-04 -0.84911E-02
 -0.25380E-02 -0.15190E-02 -0.84911E-02
 -0.19330E-02 -0.13219E-02 -0.84911E-02
 -0.99219E-03  0.10020E-02 -0.84911E-02
 -0.14415E-02 -0.17321E-02 -0.84911E-02
 -0.31374E-03  0.20248E-02 -0.84911E-02
 -0.11033E-02  0.18602E-02 -0.84911E-02
 -0.18840E-02  0.17175E-02 -0.84911E-02
 -0.18700E-02  0.91180E-03 -0.84911E-02
 -0.16146E-03 -0.19803E-02 -0.84911E-02
 -0.94687E-03 -0.23491E-02 -0.84911E-02
  0.78195E-03 -0.17073E-02 -0.84911E-02
  0.17207E-02 -0.14919E-02 -0.84911E-02
  0.32083E-02  0.77042E-03 -0.84911E-02
  0.28044E-02  0.12520E-02 -0.84911E-02
  0.23048E-02  0.18669E-02 -0.84911E-02
 -0.40476E-03  0.28931E-02 -0.84911E-02
 -0.12093E-02  0.27160E-02 -0.84911E-02
 -0.19444E-02  0.24620E-02 -0.84911E-02
 -0.25026E-02  0.22358E-02 -0.84911E-02
 -0.26362E-02  0.16503E-02 -0.84911E-02
 -0.27640E-02  0.87754E-03 -0.84911E-02
 -0.21137E-02 -0.21374E-02 -0.84911E-02
 -0.16091E-02 -0.26933E-02 -0.84911E-02
 -0.11950E-02 -0.31291E-02 -0.84911E-02
 -0.58991E-03 -0.30382E-02 -0.84911E-02
  0.20505E-03 -0.28749E-02 -0.84911E-02
  0.10555E-02 -0.26450E-02 -0.84911E-02
  0.18417E-02 -0.23727E-02 -0.84911E-02
  0.24556E-02 -0.21500E-02 -0.84911E-02
  0.26029E-02 -0.15094E-02 -0.84911E-02
  0.37964E-02  0.93572E-03 -0.84911E-02
  0.39100E-02  0.00000E+00 -0.84911E-02
  0.34621E-02  0.18171E-02 -0.84911E-02
  0.29267E-02  0.25928E-02 -0.84911E-02
  0.22211E-02  0.32179E-02 -0.84911E-02
  0.13865E-02  0.36559E-02 -0.84911E-02
  0.47130E-03  0.38815E-02 -0.84911E-02
 -0.47130E-03  0.38815E-02 -0.84911E-02
 -0.13865E-02  0.36559E-02 -0.84911E-02
 -0.22211E-02  0.32179E-02 -0.84911E-02
 -0.29267E-02  0.25928E-02 -0.84911E-02
 -0.34621E-02  0.18171E-02 -0.84911E-02
 -0.37964E-02  0.93572E-03 -0.84911E-02
 -0.39100E-02  0.39516E-17 -0.84911E-02
 -0.37964E-02 -0.93572E-03 -0.84911E-02
 -0.34621E-02 -0.18171E-02 -0.84911E-02
 -0.29267E-02 -0.25928E-02 -0.84911E-02
 -0.22211E-02 -0.32179E-02 -0.84911E-02
 -0.13865E-02 -0.36559E-02 -0.84911E-02
 -0.47130E-03 -0.38815E-02 -0.84911E-02
  0.47130E-03 -0.38815E-02 -0.84911E-02
  0.13865E-02 -0.36559E-02 -0.84911E-02
  0.22211E-02 -0.32179E-02 -0.84911E-02
  0.29267E-02 -0.25928E-02 -0.84911E-02
  0.34621E-02 -0.18171E-02 -0.84911E-02
  0.37964E-02 -0.93572E-03 -0.84911E-02
  0.10365E-02  0.67902E-03 -0.75120E-02
  0.17432E-02  0.12381E-02 -0.75120E-02
  0.23163E-02  0.59727E-03 -0.75120E-02
  0.16675E-02 -0.32945E-03 -0.75120E-02
  0.30374E-02  0.15282E-03 -0.75120E-02
  0.27829E-02 -0.67100E-03 -0.75120E-02
  0.12839E-02  0.18432E-02 -0.75120E-02
  0.64869E-03  0.14686E-02 -0.75120E-02
  0.12468E-03  0.31196E-03 -0.75120E-02
 -0.13026E-03  0.11865E-02 -0.75120E-02
  0.94135E-03  0.22762E-02 -0.75120E-02
  0.11289E-02  0.28238E-02 -0.75120E-02
  0.17447E-02  0.24254E-02 -0.75120E-02
  0.40528E-03  0.21688E-02 -0.75120E-02
  0.39760E-03  0.29337E-02 -0.75120E-02
 -0.76692E-03 -0.10049E-02 -0.75120E-02
 -0.86724E-03  0.87871E-04 -0.75120E-02
  0.45626E-03 -0.69519E-03 -0.75120E-02
 -0.18332E-02 -0.71042E-03 -0.75120E-02
 -0.18430E-02  0.84108E-04 -0.75120E-02
 -0.27235E-02 -0.77678E-03 -0.75120E-02
 -0.27998E-02  0.43720E-04 -0.75120E-02
 -0.25382E-02 -0.15189E-02 -0.75120E-02
 -0.19334E-02 -0.13219E-02 -0.75120E-02
 -0.99205E-03  0.10034E-02 -0.75120E-02
 -0.14419E-02 -0.17320E-02 -0.75120E-02
 -0.31354E-03  0.20251E-02 -0.75120E-02
 -0.11030E-02  0.18601E-02 -0.75120E-02
 -0.18840E-02  0.17175E-02 -0.75120E-02
 -0.18699E-02  0.91204E-03 -0.75120E-02
 -0.16174E-03 -0.19803E-02 -0.75120E-02
 -0.94747E-03 -0.23492E-02 -0.75120E-02
  0.78129E-03 -0.17073E-02 -0.75120E-02
  0.17206E-02 -0.14921E-02 -0.75120E-02
  0.32086E-02  0.77142E-03 -0.75120E-02
  0.28044E-02  0.12524E-02 -0.75120E-02
  0.23047E-02  0.18669E-02 -0.75120E-02
 -0.40462E-03  0.28920E-02 -0.75120E-02
 -0.12093E-02  0.27155E-02 -0.75120E-02
 -0.19444E-02  0.24618E-02 -0.75120E-02
 -0.25025E-02  0.22358E-02 -0.75120E-02
 -0.26361E-02  0.16503E-02 -0.75120E-02
 -0.27637E-02  0.87781E-03 -0.75120E-02
 -0.21139E-02 -0.21374E-02 -0.75120E-02
 -0.16092E-02 -0.26934E-02 -0.75120E-02
 -0.11951E-02 -0.31291E-02 -0.75120E-02
 -0.59025E-03 -0.30382E-02 -0.75120E-02
  0.20465E-03 -0.28749E-02 -0.75120E-02
  0.10552E-02 -0.26452E-02 -0.75120E-02
  0.18418E-02 -0.23729E-02 -0.75120E-02
  0.24558E-02 -0.21505E-02 -0.75120E-02
  0.26030E-02 -0.15093E-02 -0.75120E-02
  0.37964E-02  0.93572E-03 -0.75120E-02
  0.39100E-02  0.00000E+00 -0.75120E-02
  0.34621E-02  0.18171E-02 -0.75120E-02
  0.29267E-02  0.25928E-02 -0.75120E-02
  0.22211E-02  0.32179E-02 -0.75120E-02
  0.13865E-02  0.36559E-02 -0.75120E-02
  0.47130E-03  0.38815E-02 -0.75120E-02
 -0.47130E-03  0.38815E-02 -0.75120E-02
 -0.13865E-02  0.36559E-02 -0.75120E-02
 -0.22211E-02  0.32179E-02 -0.75120E-02
 -0.29267E-02  0.25928E-02 -0.75120E-02
 -0.34621E-02  0.18171E-02 -0.75120E-02
 -0.37964E-02  0.93572E-03 -0.75120E-02
 -0.39100E-02 -0.47884E-18 -0.75120E-02
 -0.37964E-02 -0.93572E-03 -0.75120E-02
 -0.34621E-02 -0.18171E-02 -0.75120E-02
 -0.29267E-02 -0.25928E-02 -0.75120E-02
 -0.22211E-02 -0.32179E-02 -0.75120E-02
 -0.13865E-02 -0.36559E-02 -0.75120E-02
 -0.47130E-03 -0.38815E-02 -0.75120E-02
  0.47130E-03 -0.38815E-02 -0.75120E-02
  0.13865E-02 -0.36559E-02 -0.75120E-02
  0.22211E-02 -0.32179E-02 -0.75120E-02
  0.29267E-02 -0.25928E-02 -0.75120E-02
  0.34621E-02 -0.18171E-02 -0.75120E-02
  0.37964E-02 -0.93572E-03 -0.75120E-02
  0.10364E-02  0.67958E-03 -0.65328E-02
  0.17430E-02  0.12387E-02 -0.65328E-02
  0.23162E-02  0.59779E-03 -0.65328E-02
  0.16672E-02 -0.32870E-03 -0.65328E-02
  0.30374E-02  0.15318E-03 -0.65328E-02
  0.27832E-02 -0.67051E-03 -0.65328E-02
  0.12838E-02  0.18434E-02 -0.65328E-02
  0.64845E-03  0.14696E-02 -0.65328E-02
  0.12442E-03  0.31311E-03 -0.65328E-02
 -0.13044E-03  0.11882E-02 -0.65328E-02
  0.94102E-03  0.22763E-02 -0.65328E-02
  0.11286E-02  0.28233E-02 -0.65328E-02
  0.17443E-02  0.24255E-02 -0.65328E-02
  0.40523E-03  0.21689E-02 -0.65328E-02
  0.39759E-03  0.29335E-02 -0.65328E-02
 -0.76727E-03 -0.10050E-02 -0.65328E-02
 -0.86735E-03  0.88681E-04 -0.65328E-02
  0.45582E-03 -0.69447E-03 -0.65328E-02
 -0.18335E-02 -0.71028E-03 -0.65328E-02
 -0.18429E-02  0.84232E-04 -0.65328E-02
 -0.27235E-02 -0.77661E-03 -0.65328E-02
 -0.27995E-02  0.43993E-04 -0.65328E-02
 -0.25383E-02 -0.15189E-02 -0.65328E-02
 -0.19339E-02 -0.13218E-02 -0.65328E-02
 -0.99190E-03  0.10048E-02 -0.65328E-02
 -0.14422E-02 -0.17320E-02 -0.65328E-02
 -0.31334E-03  0.20254E-02 -0.65328E-02
 -0.11026E-02  0.18599E-02 -0.65328E-02
 -0.18839E-02  0.17175E-02 -0.65328E-02
 -0.18697E-02  0.91228E-03 -0.65328E-02
 -0.16201E-03 -0.19803E-02 -0.65328E-02
 -0.94807E-03 -0.23492E-02 -0.65328E-02
  0.78063E-03 -0.17073E-02 -0.65328E-02
  0.17206E-02 -0.14923E-02 -0.65328E-02
  0.32089E-02  0.77243E-03 -0.65328E-02
  0.28043E-02  0.12528E-02 -0.65328E-02
  0.23046E-02  0.18670E-02 -0.65328E-02
 -0.40448E-03  0.28910E-02 -0.65328E-02
 -0.12093E-02  0.27151E-02 -0.65328E-02
 -0.19443E-02  0.24615E-02 -0.65328E-02
 -0.25025E-02  0.22358E-02 -0.65328E-02
 -0.26360E-02  0.16503E-02 -0.65328E-02
 -0.27633E-02  0.87807E-03 -0.65328E-02
 -0.21140E-02 -0.21374E-02 -0.65328E-02
 -0.16092E-02 -0.26934E-02 -0.65328E-02
 -0.11953E-02 -0.31291E-02 -0.65328E-02
 -0.59060E-03 -0.30382E-02 -0.65328E-02
  0.20424E-03 -0.28749E-02 -0.65328E-02
  0.10549E-02 -0.26455E-02 -0.65328E-02
  0.18418E-02 -0.23732E-02 -0.65328E-02
  0.24559E-02 -0.21511E-02 -0.65328E-02
  0.26030E-02 -0.15092E-02 -0.65328E-02
  0.37964E-02  0.93572E-03 -0.65328E-02
  0.39100E-02  0.00000E+00 -0.65328E-02
  0.34621E-02  0.18171E-02 -0.65328E-02
  0.29267E-02  0.25928E-02 -0.65328E-02
  0.22211E-02  0.32179E-02 -0.65328E-02
  0.13865E-02  0.36559E-02 -0.65328E-02
  0.47130E-03  0.38815E-02 -0.65328E-02
 -0.47130E-03  0.38815E-02 -0.65328E-02
 -0.13865E-02  0.36559E-02 -0.65328E-02
 -0.22211E-02  0.32179E-02 -0.65328E-02
 -0.29267E-02  0.25928E-02 -0.65328E-02
 -0.34621E-02  0.18171E-02 -0.65328E-02
 -0.37964E-02  0.93572E-03 -0.65328E-02
 -0.39100E-02  0.22152E-17 -0.65328E-02
 -0.37964E-02 -0.93572E-03 -0.65328E-02
 -0.34621E-02 -0.18171E-02 -0.65328E-02
 -0.29267E-02 -0.25928E-02 -0.65328E-02
 -0.22211E-02 -0.32179E-02 -0.65328E-02
 -0.13865E-02 -0.36559E-02 -0.65328E-02
 -0.47130E-03 -0.38815E-02 -0.65328E-02
  0.47130E-03 -0.38815E-02 -0.65328E-02
  0.13865E-02 -0.36559E-02 -0.65328E-02
  0.22211E-02 -0.32179E-02 -0.65328E-02
  0.29267E-02 -0.25928E-02 -0.65328E-02
  0.34621E-02 -0.18171E-02 -0.65328E-02
  0.37964E-02 -0.93572E-03 -0.65328E-02
  0.10363E-02  0.68013E-03 -0.55536E-02
  0.17429E-02  0.12394E-02 -0.55536E-02
  0.23161E-02  0.59831E-03 -0.55536E-02
  0.16670E-02 -0.32794E-03 -0.55536E-02
  0.30374E-02  0.15354E-03 -0.55536E-02
  0.27836E-02 -0.67002E-03 -0.55536E-02
  0.12837E-02  0.18436E-02 -0.55536E-02
  0.64820E-03  0.14706E-02 -0.55536E-02
  0.12416E-03  0.31426E-03 -0.55536E-02
 -0.13063E-03  0.11900E-02 -0.55536E-02
  0.94069E-03  0.22765E-02 -0.55536E-02
  0.11282E-02  0.28229E-02 -0.55536E-02
  0.17439E-02  0.24257E-02 -0.55536E-02
  0.40518E-03  0.21689E-02 -0.55536E-02
  0.39757E-03  0.29332E-02 -0.55536E-02
 -0.76763E-03 -0.10051E-02 -0.55536E-02
 -0.86746E-03  0.89490E-04 -0.55536E-02
  0.45537E-03 -0.69374E-03 -0.55536E-02
 -0.18338E-02 -0.71013E-03 -0.55536E-02
 -0.18428E-02  0.84355E-04 -0.55536E-02
 -0.27234E-02 -0.77644E-03 -0.55536E-02
 -0.27992E-02  0.44266E-04 -0.55536E-02
 -0.25385E-02 -0.15188E-02 -0.55536E-02
 -0.19343E-02 -0.13216E-02 -0.55536E-02
 -0.99176E-03  0.10061E-02 -0.55536E-02
 -0.14425E-02 -0.17320E-02 -0.55536E-02
 -0.31314E-03  0.20257E-02 -0.55536E-02
 -0.11023E-02  0.18598E-02 -0.55536E-02
 -0.18839E-02  0.17175E-02 -0.55536E-02
 -0.18696E-02  0.91252E-03 -0.55536E-02
 -0.16229E-03 -0.19803E-02 -0.55536E-02
 -0.94867E-03 -0.23492E-02 -0.55536E-02
  0.77997E-03 -0.17073E-02 -0.55536E-02
  0.17205E-02 -0.14926E-02 -0.55536E-02
  0.32092E-02  0.77343E-03 -0.55536E-02
  0.28043E-02  0.12533E-02 -0.55536E-02
  0.23044E-02  0.18670E-02 -0.55536E-02
 -0.40434E-03  0.28899E-02 -0.55536E-02
 -0.12093E-02  0.27146E-02 -0.55536E-02
 -0.19443E-02  0.24613E-02 -0.55536E-02
 -0.25025E-02  0.22358E-02 -0.55536E-02
 -0.26359E-02  0.16503E-02 -0.55536E-02
 -0.27630E-02  0.87833E-03 -0.55536E-02
 -0.21141E-02 -0.21374E-02 -0.55536E-02
 -0.16093E-02 -0.26934E-02 -0.55536E-02
 -0.11954E-02 -0.31291E-02 -0.55536E-02
 -0.59095E-03 -0.30382E-02 -0.55536E-02
  0.20384E-03 -0.28750E-02 -0.55536E-02
  0.10546E-02 -0.26458E-02 -0.55536E-02
  0.18419E-02 -0.23734E-02 -0.55536E-02
  0.24560E-02 -0.21516E-02 -0.55536E-02
  0.26031E-02 -0.15091E-02 -0.55536E-02
  0.37964E-02  0.93572E-03 -0.55536E-02
  0.39100E-02  0.00000E+00 -0.55536E-02
  0.34621E-02  0.18171E-02 -0.55536E-02
  0.29267E-02  0.25928E-02 -0.55536E-02
  0.22211E-02  0.32179E-02 -0.55536E-02
  0.13865E-02  0.36559E-02 -0.55536E-02
  0.47130E-03  0.38815E-02 -0.55536E-02
 -0.47130E-03  0.38815E-02 -0.55536E-02
 -0.13865E-02  0.36559E-02 -0.55536E-02
 -0.22211E-02  0.32179E-02 -0.55536E-02
 -0.29267E-02  0.25928E-02 -0.55536E-02
 -0.34621E-02  0.18171E-02 -0.55536E-02
 -0.37964E-02  0.93572E-03 -0.55536E-02
 -0.39100E-02 -0.47884E-18 -0.55536E-02
 -0.37964E-02 -0.93572E-03 -0.55536E-02
 -0.34621E-02 -0.18171E-02 -0.55536E-02
 -0.29267E-02 -0.25928E-02 -0.55536E-02
 -0.22211E-02 -0.32179E-02 -0.55536E-02
 -0.13865E-02 -0.36559E-02 -0.55536E-02
 -0.47130E-03 -0.38815E-02 -0.55536E-02
  0.47130E-03 -0.38815E-02 -0.55536E-02
  0.13865E-02 -0.36559E-02 -0.55536E-02
  0.22211E-02 -0.32179E-02 -0.55536E-02
  0.29267E-02 -0.25928E-02 -0.55536E-02
  0.34621E-02 -0.18171E-02 -0.55536E-02
  0.37964E-02 -0.93572E-03 -0.55536E-02
  0.10362E-02  0.68068E-03 -0.45745E-02
  0.17427E-02  0.12401E-02 -0.45745E-02
  0.23160E-02  0.59884E-03 -0.45745E-02
  0.16668E-02 -0.32719E-03 -0.45745E-02
  0.30373E-02  0.15391E-03 -0.45745E-02
  0.27839E-02 -0.66953E-03 -0.45745E-02
  0.12836E-02  0.18438E-02 -0.45745E-02
  0.64796E-03  0.14716E-02 -0.45745E-02
  0.12390E-03  0.31541E-03 -0.45745E-02
 -0.13082E-03  0.11917E-02 -0.45745E-02
  0.94036E-03  0.22766E-02 -0.45745E-02
  0.11279E-02  0.28225E-02 -0.45745E-02
  0.17435E-02  0.24258E-02 -0.45745E-02
  0.40512E-03  0.21690E-02 -0.45745E-02
  0.39755E-03  0.29330E-02 -0.45745E-02
 -0.76798E-03 -0.10053E-02 -0.45745E-02
 -0.86756E-03  0.90299E-04 -0.45745E-02
  0.45492E-03 -0.69302E-03 -0.45745E-02
 -0.18341E-02 -0.70999E-03 -0.45745E-02
 -0.18427E-02  0.84479E-04 -0.45745E-02
 -0.27234E-02 -0.77627E-03 -0.45745E-02
 -0.27990E-02  0.44540E-04 -0.45745E-02
 -0.25386E-02 -0.15188E-02 -0.45745E-02
 -0.19347E-02 -0.13215E-02 -0.45745E-02
 -0.99161E-03  0.10075E-02 -0.45745E-02
 -0.14429E-02 -0.17319E-02 -0.45745E-02
 -0.31294E-03  0.20260E-02 -0.45745E-02
 -0.11019E-02  0.18597E-02 -0.45745E-02
 -0.18838E-02  0.17175E-02 -0.45745E-02
 -0.18695E-02  0.91276E-03 -0.45745E-02
 -0.16256E-03 -0.19804E-02 -0.45745E-02
 -0.94927E-03 -0.23493E-02 -0.45745E-02
  0.77931E-03 -0.17073E-02 -0.45745E-02
  0.17205E-02 -0.14928E-02 -0.45745E-02
  0.32096E-02  0.77444E-03 -0.45745E-02
  0.28043E-02  0.12537E-02 -0.45745E-02
  0.23043E-02  0.18670E-02 -0.45745E-02
 -0.40420E-03  0.28888E-02 -0.45745E-02
 -0.12093E-02  0.27141E-02 -0.45745E-02
 -0.19443E-02  0.24611E-02 -0.45745E-02
 -0.25024E-02  0.22358E-02 -0.45745E-02
 -0.26358E-02  0.16503E-02 -0.45745E-02
 -0.27627E-02  0.87859E-03 -0.45745E-02
 -0.21143E-02 -0.21374E-02 -0.45745E-02
 -0.16093E-02 -0.26934E-02 -0.45745E-02
 -0.11955E-02 -0.31291E-02 -0.45745E-02
 -0.59130E-03 -0.30382E-02 -0.45745E-02
  0.20343E-03 -0.28750E-02 -0.45745E-02
  0.10543E-02 -0.26460E-02 -0.45745E-02
  0.18419E-02 -0.23736E-02 -0.45745E-02
  0.24561E-02 -0.21521E-02 -0.45745E-02
  0.26032E-02 -0.15090E-02 -0.45745E-02
  0.37964E-02  0.93572E-03 -0.45745E-02
  0.39100E-02  0.00000E+00 -0.45745E-02
  0.34621E-02  0.18171E-02 -0.45745E-02
  0.29267E-02  0.25928E-02 -0.45745E-02
  0.22211E-02  0.32179E-02 -0.45745E-02
  0.13865E-02  0.36559E-02 -0.45745E-02
  0.47130E-03  0.38815E-02 -0.45745E-02
 -0.47130E-03  0.38815E-02 -0.45745E-02
 -0.13865E-02  0.36559E-02 -0.45745E-02
 -0.22211E-02  0.32179E-02 -0.45745E-02
 -0.29267E-02  0.25928E-02 -0.45745E-02
 -0.34621E-02  0.18171E-02 -0.45745E-02
 -0.37964E-02  0.93572E-03 -0.45745E-02
 -0.39100E-02  0.22152E-17 -0.45745E-02
 -0.37964E-02 -0.93572E-03 -0.45745E-02
 -0.34621E-02 -0.18171E-02 -0.45745E-02
 -0.29267E-02 -0.25928E-02 -0.45745E-02
 -0.22211E-02 -0.32179E-02 -0.45745E-02
 -0.13865E-02 -0.36559E-02 -0.45745E-02
 -0.47130E-03 -0.38815E-02 -0.45745E-02
  0.47130E-03 -0.38815E-02 -0.45745E-02
  0.13865E-02 -0.36559E-02 -0.45745E-02
  0.22211E-02 -0.32179E-02 -0.45745E-02
  0.29267E-02 -0.25928E-02 -0.45745E-02
  0.34621E-02 -0.18171E-02 -0.45745E-02
  0.37964E-02 -0.93572E-03 -0.45745E-02
  0.10360E-02  0.68124E-03 -0.35953E-02
  0.17425E-02  0.12407E-02 -0.35953E-02
  0.23158E-02  0.59936E-03 -0.35953E-02
  0.16666E-02 -0.32643E-03 -0.35953E-02
  0.30373E-02  0.15427E-03 -0.35953E-02
  0.27842E-02 -0.66903E-03 -0.35953E-02
  0.12835E-02  0.18440E-02 -0.35953E-02
  0.64771E-03  0.14727E-02 -0.35953E-02
  0.12363E-03  0.31656E-03 -0.35953E-02
 -0.13100E-03  0.11935E-02 -0.35953E-02
  0.94003E-03  0.22767E-02 -0.35953E-02
  0.11276E-02  0.28220E-02 -0.35953E-02
  0.17432E-02  0.24260E-02 -0.35953E-02
  0.40507E-03  0.21690E-02 -0.35953E-02
  0.39754E-03  0.29327E-02 -0.35953E-02
 -0.76834E-03 -0.10054E-02 -0.35953E-02
 -0.86767E-03  0.91108E-04 -0.35953E-02
  0.45447E-03 -0.69229E-03 -0.35953E-02
 -0.18344E-02 -0.70985E-03 -0.35953E-02
 -0.18426E-02  0.84602E-04 -0.35953E-02
 -0.27234E-02 -0.77610E-03 -0.35953E-02
 -0.27987E-02  0.44813E-04 -0.35953E-02
 -0.25388E-02 -0.15187E-02 -0.35953E-02
 -0.19352E-02 -0.13215E-02 -0.35953E-02
 -0.99147E-03  0.10088E-02 -0.35953E-02
 -0.14433E-02 -0.17319E-02 -0.35953E-02
 -0.31274E-03  0.20262E-02 -0.35953E-02
 -0.11016E-02  0.18595E-02 -0.35953E-02
 -0.18838E-02  0.17175E-02 -0.35953E-02
 -0.18694E-02  0.91300E-03 -0.35953E-02
 -0.16284E-03 -0.19804E-02 -0.35953E-02
 -0.94986E-03 -0.23493E-02 -0.35953E-02
  0.77865E-03 -0.17073E-02 -0.35953E-02
  0.17205E-02 -0.14931E-02 -0.35953E-02
  0.32099E-02  0.77544E-03 -0.35953E-02
  0.28042E-02  0.12541E-02 -0.35953E-02
  0.23042E-02  0.18671E-02 -0.35953E-02
 -0.40407E-03  0.28877E-02 -0.35953E-02
 -0.12093E-02  0.27137E-02 -0.35953E-02
 -0.19442E-02  0.24609E-02 -0.35953E-02
 -0.25024E-02  0.22358E-02 -0.35953E-02
 -0.26358E-02  0.16503E-02 -0.35953E-02
 -0.27624E-02  0.87885E-03 -0.35953E-02
 -0.21144E-02 -0.21374E-02 -0.35953E-02
 -0.16094E-02 -0.26934E-02 -0.35953E-02
 -0.11956E-02 -0.31291E-02 -0.35953E-02
 -0.59165E-03 -0.30382E-02 -0.35953E-02
  0.20302E-03 -0.28750E-02 -0.35953E-02
  0.10540E-02 -0.26463E-02 -0.35953E-02
  0.18419E-02 -0.23738E-02 -0.35953E-02
  0.24563E-02 -0.21527E-02 -0.35953E-02
  0.26033E-02 -0.15088E-02 -0.35953E-02
  0.37964E-02  0.93572E-03 -0.35953E-02
  0.39100E-02  0.00000E+00 -0.35953E-02
  0.34621E-02  0.18171E-02 -0.35953E-02
  0.29267E-02  0.25928E-02 -0.35953E-02
  0.22211E-02  0.32179E-02 -0.35953E-02
  0.13865E-02  0.36559E-02 -0.35953E-02
  0.47130E-03  0.38815E-02 -0.35953E-02
 -0.47130E-03  0.38815E-02 -0.35953E-02
 -0.13865E-02  0.36559E-02 -0.35953E-02
 -0.22211E-02  0.32179E-02 -0.35953E-02
 -0.29267E-02  0.25928E-02 -0.35953E-02
 -0.34621E-02  0.18171E-02 -0.35953E-02
 -0.37964E-02  0.93572E-03 -0.35953E-02
 -0.39100E-02 -0.47884E-18 -0.35953E-02
 -0.37964E-02 -0.93572E-03 -0.35953E-02
 -0.34621E-02 -0.18171E-02 -0.35953E-02
 -0.29267E-02 -0.25928E-02 -0.35953E-02
 -0.22211E-02 -0.32179E-02 -0.35953E-02
 -0.13865E-02 -0.36559E-02 -0.35953E-02
 -0.47130E-03 -0.38815E-02 -0.35953E-02
  0.47130E-03 -0.38815E-02 -0.35953E-02
  0.13865E-02 -0.36559E-02 -0.35953E-02
  0.22211E-02 -0.32179E-02 -0.35953E-02
  0.29267E-02 -0.25928E-02 -0.35953E-02
  0.34621E-02 -0.18171E-02 -0.35953E-02
  0.37964E-02 -0.93572E-03 -0.35953E-02
  0.10359E-02  0.68179E-03 -0.26161E-02
  0.17423E-02  0.12414E-02 -0.26161E-02
  0.23157E-02  0.59988E-03 -0.26161E-02
  0.16664E-02 -0.32568E-03 -0.26161E-02
  0.30373E-02  0.15463E-03 -0.26161E-02
  0.27846E-02 -0.66854E-03 -0.26161E-02
  0.12834E-02  0.18442E-02 -0.26161E-02
  0.64747E-03  0.14736E-02 -0.26161E-02
  0.12337E-03  0.31770E-03 -0.26161E-02
 -0.13118E-03  0.11952E-02 -0.26161E-02
  0.93970E-03  0.22768E-02 -0.26161E-02
  0.11272E-02  0.28216E-02 -0.26161E-02
  0.17428E-02  0.24261E-02 -0.26161E-02
  0.40501E-03  0.21690E-02 -0.26161E-02
  0.39752E-03  0.29324E-02 -0.26161E-02
 -0.76869E-03 -0.10056E-02 -0.26161E-02
 -0.86778E-03  0.91918E-04 -0.26161E-02
  0.45402E-03 -0.69156E-03 -0.26161E-02
 -0.18347E-02 -0.70971E-03 -0.26161E-02
 -0.18425E-02  0.84726E-04 -0.26161E-02
 -0.27234E-02 -0.77593E-03 -0.26161E-02
 -0.27984E-02  0.45086E-04 -0.26161E-02
 -0.25389E-02 -0.15187E-02 -0.26161E-02
 -0.19356E-02 -0.13213E-02 -0.26161E-02
 -0.99133E-03  0.10102E-02 -0.26161E-02
 -0.14436E-02 -0.17318E-02 -0.26161E-02
 -0.31254E-03  0.20265E-02 -0.26161E-02
 -0.11013E-02  0.18594E-02 -0.26161E-02
 -0.18837E-02  0.17175E-02 -0.26161E-02
 -0.18692E-02  0.91324E-03 -0.26161E-02
 -0.16311E-03 -0.19804E-02 -0.26161E-02
 -0.95046E-03 -0.23493E-02 -0.26161E-02
  0.77799E-03 -0.17073E-02 -0.26161E-02
  0.17204E-02 -0.14933E-02 -0.26161E-02
  0.32102E-02  0.77645E-03 -0.26161E-02
  0.28042E-02  0.12545E-02 -0.26161E-02
  0.23041E-02  0.18671E-02 -0.26161E-02
 -0.40393E-03  0.28867E-02 -0.26161E-02
 -0.12093E-02  0.27132E-02 -0.26161E-02
 -0.19442E-02  0.24606E-02 -0.26161E-02
 -0.25024E-02  0.22358E-02 -0.26161E-02
 -0.26357E-02  0.16503E-02 -0.26161E-02
 -0.27621E-02  0.87912E-03 -0.26161E-02
 -0.21146E-02 -0.21374E-02 -0.26161E-02
 -0.16094E-02 -0.26935E-02 -0.26161E-02
 -0.11957E-02 -0.31291E-02 -0.26161E-02
 -0.59200E-03 -0.30381E-02 -0.26161E-02
  0.20262E-03 -0.28750E-02 -0.26161E-02
  0.10536E-02 -0.26466E-02 -0.26161E-02
  0.18420E-02 -0.23740E-02 -0.26161E-02
  0.24564E-02 -0.21533E-02 -0.26161E-02
  0.26033E-02 -0.15087E-02 -0.26161E-02
  0.37964E-02  0.93572E-03 -0.26161E-02
  0.39100E-02  0.00000E+00 -0.26161E-02
  0.34621E-02  0.18171E-02 -0.26161E-02
  0.29267E-02  0.25928E-02 -0.26161E-02
  0.22211E-02  0.32179E-02 -0.26161E-02
  0.13865E-02  0.36559E-02 -0.26161E-02
  0.47130E-03  0.38815E-02 -0.26161E-02
 -0.47130E-03  0.38815E-02 -0.26161E-02
 -0.13865E-02  0.36559E-02 -0.26161E-02
 -0.22211E-02  0.32179E-02 -0.26161E-02
 -0.29267E-02  0.25928E-02 -0.26161E-02
 -0.34621E-02  0.18171E-02 -0.26161E-02
 -0.37964E-02  0.93572E-03 -0.26161E-02
 -0.39100E-02 -0.47884E-18 -0.26161E-02
 -0.37964E-02 -0.93572E-03 -0.26161E-02
 -0.34621E-02 -0.18171E-02 -0.26161E-02
 -0.29267E-02 -0.25928E-02 -0.26161E-02
 -0.22211E-02 -0.32179E-02 -0.26161E-02
 -0.13865E-02 -0.36559E-02 -0.26161E-02
 -0.47130E-03 -0.38815E-02 -0.26161E-02
  0.47130E-03 -0.38815E-02 -0.26161E-02
  0.13865E-02 -0.36559E-02 -0.26161E-02
  0.22211E-02 -0.32179E-02 -0.26161E-02
  0.29267E-02 -0.25928E-02 -0.26161E-02
  0.34621E-02 -0.18171E-02 -0.26161E-02
  0.37964E-02 -0.93572E-03 -0.26161E-02
  0.10358E-02  0.68235E-03 -0.16370E-02
  0.17422E-02  0.12421E-02 -0.16370E-02
  0.23156E-02  0.60041E-03 -0.16370E-02
  0.16662E-02 -0.32493E-03 -0.16370E-02
  0.30373E-02  0.15500E-03 -0.16370E-02
  0.27849E-02 -0.66805E-03 -0.16370E-02
  0.12833E-02  0.18444E-02 -0.16370E-02
  0.64722E-03  0.14747E-02 -0.16370E-02
  0.12311E-03  0.31885E-03 -0.16370E-02
 -0.13137E-03  0.11970E-02 -0.16370E-02
  0.93937E-03  0.22770E-02 -0.16370E-02
  0.11269E-02  0.28211E-02 -0.16370E-02
  0.17424E-02  0.24262E-02 -0.16370E-02
  0.40496E-03  0.21691E-02 -0.16370E-02
  0.39750E-03  0.29322E-02 -0.16370E-02
 -0.76904E-03 -0.10057E-02 -0.16370E-02
 -0.86789E-03  0.92727E-04 -0.16370E-02
  0.45358E-03 -0.69084E-03 -0.16370E-02
 -0.18350E-02 -0.70957E-03 -0.16370E-02
 -0.18424E-02  0.84849E-04 -0.16370E-02
 -0.27233E-02 -0.77576E-03 -0.16370E-02
 -0.27981E-02  0.45359E-04 -0.16370E-02
 -0.25391E-02 -0.15186E-02 -0.16370E-02
 -0.19360E-02 -0.13212E-02 -0.16370E-02
 -0.99118E-03  0.10115E-02 -0.16370E-02
 -0.14440E-02 -0.17318E-02 -0.16370E-02
 -0.31234E-03  0.20268E-02 -0.16370E-02
 -0.11009E-02  0.18593E-02 -0.16370E-02
 -0.18836E-02  0.17175E-02 -0.16370E-02
 -0.18691E-02  0.91347E-03 -0.16370E-02
 -0.16339E-03 -0.19804E-02 -0.16370E-02
 -0.95106E-03 -0.23493E-02 -0.16370E-02
  0.77733E-03 -0.17073E-02 -0.16370E-02
  0.17204E-02 -0.14936E-02 -0.16370E-02
  0.32105E-02  0.77745E-03 -0.16370E-02
  0.28042E-02  0.12550E-02 -0.16370E-02
  0.23040E-02  0.18671E-02 -0.16370E-02
 -0.40379E-03  0.28856E-02 -0.16370E-02
 -0.12093E-02  0.27127E-02 -0.16370E-02
 -0.19441E-02  0.24604E-02 -0.16370E-02
 -0.25023E-02  0.22358E-02 -0.16370E-02
 -0.26356E-02  0.16503E-02 -0.16370E-02
 -0.27618E-02  0.87938E-03 -0.16370E-02
 -0.21147E-02 -0.21374E-02 -0.16370E-02
 -0.16094E-02 -0.26935E-02 -0.16370E-02
 -0.11958E-02 -0.31291E-02 -0.16370E-02
 -0.59235E-03 -0.30381E-02 -0.16370E-02
  0.20221E-03 -0.28750E-02 -0.16370E-02
  0.10533E-02 -0.26468E-02 -0.16370E-02
  0.18420E-02 -0.23742E-02 -0.16370E-02
  0.24565E-02 -0.21538E-02 -0.16370E-02
  0.26034E-02 -0.15086E-02 -0.16370E-02
  0.37964E-02  0.93572E-03 -0.16370E-02
  0.39100E-02  0.00000E+00 -0.16370E-02
  0.34621E-02  0.18171E-02 -0.16370E-02
  0.29267E-02  0.25928E-02 -0.16370E-02
  0.22211E-02  0.32179E-02 -0.16370E-02
  0.13865E-02  0.36559E-02 -0.16370E-02
  0.47130E-03  0.38815E-02 -0.16370E-02
 -0.47130E-03  0.38815E-02 -0.16370E-02
 -0.13865E-02  0.36559E-02 -0.16370E-02
 -0.22211E-02  0.32179E-02 -0.16370E-02
 -0.29267E-02  0.25928E-02 -0.16370E-02
 -0.34621E-02  0.18171E-02 -0.16370E-02
 -0.37964E-02  0.93572E-03 -0.16370E-02
 -0.39100E-02 -0.47884E-18 -0.16370E-02
 -0.37964E-02 -0.93572E-03 -0.16370E-02
 -0.34621E-02 -0.18171E-02 -0.16370E-02
 -0.29267E-02 -0.25928E-02 -0.16370E-02
 -0.22211E-02 -0.32179E-02 -0.16370E-02
 -0.13865E-02 -0.36559E-02 -0.16370E-02
 -0.47130E-03 -0.38815E-02 -0.16370E-02
  0.47130E-03 -0.38815E-02 -0.16370E-02
  0.13865E-02 -0.36559E-02 -0.16370E-02
  0.22211E-02 -0.32179E-02 -0.16370E-02
  0.29267E-02 -0.25928E-02 -0.16370E-02
  0.34621E-02 -0.18171E-02 -0.16370E-02
  0.37964E-02 -0.93572E-03 -0.16370E-02
  0.10357E-02  0.68290E-03 -0.65779E-03
  0.17420E-02  0.12427E-02 -0.65779E-03
  0.23155E-02  0.60093E-03 -0.65779E-03
  0.16660E-02 -0.32417E-03 -0.65779E-03
  0.30372E-02  0.15536E-03 -0.65779E-03
  0.27853E-02 -0.66755E-03 -0.65779E-03
  0.12832E-02  0.18445E-02 -0.65779E-03
  0.64698E-03  0.14757E-02 -0.65779E-03
  0.12285E-03  0.32000E-03 -0.65779E-03
 -0.13155E-03  0.11987E-02 -0.65779E-03
  0.93903E-03  0.22771E-02 -0.65779E-03
  0.11266E-02  0.28207E-02 -0.65779E-03
  0.17420E-02  0.24264E-02 -0.65779E-03
  0.40490E-03  0.21691E-02 -0.65779E-03
  0.39749E-03  0.29319E-02 -0.65779E-03
 -0.76940E-03 -0.10058E-02 -0.65779E-03
 -0.86800E-03  0.93536E-04 -0.65779E-03
  0.45313E-03 -0.69011E-03 -0.65779E-03
 -0.18353E-02 -0.70943E-03 -0.65779E-03
 -0.18423E-02  0.84973E-04 -0.65779E-03
 -0.27233E-02 -0.77559E-03 -0.65779E-03
 -0.27979E-02  0.45633E-04 -0.65779E-03
 -0.25393E-02 -0.15186E-02 -0.65779E-03
 -0.19365E-02 -0.13212E-02 -0.65779E-03
 -0.99104E-03  0.10129E-02 -0.65779E-03
 -0.14443E-02 -0.17318E-02 -0.65779E-03
 -0.31214E-03  0.20271E-02 -0.65779E-03
 -0.11006E-02  0.18592E-02 -0.65779E-03
 -0.18836E-02  0.17175E-02 -0.65779E-03
 -0.18690E-02  0.91371E-03 -0.65779E-03
 -0.16366E-03 -0.19805E-02 -0.65779E-03
 -0.95166E-03 -0.23493E-02 -0.65779E-03
  0.77667E-03 -0.17073E-02 -0.65779E-03
  0.17203E-02 -0.14938E-02 -0.65779E-03
  0.32109E-02  0.77846E-03 -0.65779E-03
  0.28042E-02  0.12554E-02 -0.65779E-03
  0.23039E-02  0.18672E-02 -0.65779E-03
 -0.40365E-03  0.28845E-02 -0.65779E-03
 -0.12093E-02  0.27122E-02 -0.65779E-03
 -0.19441E-02  0.24602E-02 -0.65779E-03
 -0.25023E-02  0.22358E-02 -0.65779E-03
 -0.26355E-02  0.16502E-02 -0.65779E-03
 -0.27615E-02  0.87964E-03 -0.65779E-03
 -0.21148E-02 -0.21374E-02 -0.65779E-03
 -0.16095E-02 -0.26935E-02 -0.65779E-03
 -0.11960E-02 -0.31291E-02 -0.65779E-03
 -0.59270E-03 -0.30381E-02 -0.65779E-03
  0.20180E-03 -0.28750E-02 -0.65779E-03
  0.10530E-02 -0.26471E-02 -0.65779E-03
  0.18421E-02 -0.23744E-02 -0.65779E-03
  0.24566E-02 -0.21543E-02 -0.65779E-03
  0.26035E-02 -0.15085E-02 -0.65779E-03
  0.37964E-02  0.93572E-03 -0.65779E-03
  0.39100E-02  0.00000E+00 -0.65779E-03
  0.34621E-02  0.18171E-02 -0.65779E-03
  0.29267E-02  0.25928E-02 -0.65779E-03
  0.22211E-02  0.32179E-02 -0.65779E-03
  0.13865E-02  0.36559E-02 -0.65779E-03
  0.47130E-03  0.38815E-02 -0.65779E-03
 -0.47130E-03  0.38815E-02 -0.65779E-03
 -0.13865E-02  0.36559E-02 -0.65779E-03
 -0.22211E-02  0.32179E-02 -0.65779E-03
 -0.29267E-02  0.25928E-02 -0.65779E-03
 -0.34621E-02  0.18171E-02 -0.65779E-03
 -0.37964E-02  0.93572E-03 -0.65779E-03
 -0.39100E-02 -0.47884E-18 -0.65779E-03
 -0.37964E-02 -0.93572E-03 -0.65779E-03
 -0.34621E-02 -0.18171E-02 -0.65779E-03
 -0.29267E-02 -0.25928E-02 -0.65779E-03
 -0.22211E-02 -0.32179E-02 -0.65779E-03
 -0.13865E-02 -0.36559E-02 -0.65779E-03
 -0.47130E-03 -0.38815E-02 -0.65779E-03
  0.47130E-03 -0.38815E-02 -0.65779E-03
  0.13865E-02 -0.36559E-02 -0.65779E-03
  0.22211E-02 -0.32179E-02 -0.65779E-03
  0.29267E-02 -0.25928E-02 -0.65779E-03
  0.34621E-02 -0.18171E-02 -0.65779E-03
  0.37964E-02 -0.93572E-03 -0.65779E-03
  0.10356E-02  0.68346E-03  0.32137E-03
  0.17418E-02  0.12434E-02  0.32137E-03
  0.23153E-02  0.60145E-03  0.32137E-03
  0.16657E-02 -0.32342E-03  0.32137E-03
  0.30372E-02  0.15572E-03  0.32137E-03
  0.27856E-02 -0.66706E-03  0.32137E-03
  0.12830E-02  0.18447E-02  0.32137E-03
  0.64673E-03  0.14767E-02  0.32137E-03
  0.12259E-03  0.32115E-03  0.32137E-03
 -0.13174E-03  0.12005E-02  0.32137E-03
  0.93870E-03  0.22772E-02  0.32137E-03
  0.11262E-02  0.28203E-02  0.32137E-03
  0.17416E-02  0.24265E-02  0.32137E-03
  0.40485E-03  0.21691E-02  0.32137E-03
  0.39747E-03  0.29316E-02  0.32137E-03
 -0.76975E-03 -0.10060E-02  0.32137E-03
 -0.86811E-03  0.94345E-04  0.32137E-03
  0.45268E-03 -0.68939E-03  0.32137E-03
 -0.18356E-02 -0.70929E-03  0.32137E-03
 -0.18422E-02  0.85096E-04  0.32137E-03
 -0.27233E-02 -0.77542E-03  0.32137E-03
 -0.27976E-02  0.45906E-04  0.32137E-03
 -0.25394E-02 -0.15185E-02  0.32137E-03
 -0.19369E-02 -0.13211E-02  0.32137E-03
 -0.99090E-03  0.10142E-02  0.32137E-03
 -0.14446E-02 -0.17317E-02  0.32137E-03
 -0.31194E-03  0.20274E-02  0.32137E-03
 -0.11002E-02  0.18590E-02  0.32137E-03
 -0.18835E-02  0.17175E-02  0.32137E-03
 -0.18689E-02  0.91395E-03  0.32137E-03
 -0.16394E-03 -0.19805E-02  0.32137E-03
 -0.95226E-03 -0.23494E-02  0.32137E-03
  0.77601E-03 -0.17073E-02  0.32137E-03
  0.17203E-02 -0.14941E-02  0.32137E-03
  0.32112E-02  0.77946E-03  0.32137E-03
  0.28042E-02  0.12558E-02  0.32137E-03
  0.23038E-02  0.18672E-02  0.32137E-03
 -0.40352E-03  0.28835E-02  0.32137E-03
 -0.12093E-02  0.27118E-02  0.32137E-03
 -0.19441E-02  0.24600E-02  0.32137E-03
 -0.25023E-02  0.22358E-02  0.32137E-03
 -0.26354E-02  0.16502E-02  0.32137E-03
 -0.27612E-02  0.87990E-03  0.32137E-03
 -0.21150E-02 -0.21374E-02  0.32137E-03
 -0.16095E-02 -0.26935E-02  0.32137E-03
 -0.11961E-02 -0.31291E-02  0.32137E-03
 -0.59305E-03 -0.30381E-02  0.32137E-03
  0.20140E-03 -0.28750E-02  0.32137E-03
  0.10527E-02 -0.26474E-02  0.32137E-03
  0.18421E-02 -0.23746E-02  0.32137E-03
  0.24568E-02 -0.21549E-02  0.32137E-03
  0.26036E-02 -0.15084E-02  0.32137E-03
  0.37964E-02  0.93572E-03  0.32137E-03
  0.39100E-02  0.00000E+00  0.32137E-03
  0.34621E-02  0.18171E-02  0.32137E-03
  0.29267E-02  0.25928E-02  0.32137E-03
  0.22211E-02  0.32179E-02  0.32137E-03
  0.13865E-02  0.36559E-02  0.32137E-03
  0.47130E-03  0.38815E-02  0.32137E-03
 -0.47130E-03  0.38815E-02  0.32137E-03
 -0.13865E-02  0.36559E-02  0.32137E-03
 -0.22211E-02  0.32179E-02  0.32137E-03
 -0.29267E-02  0.25928E-02  0.32137E-03
 -0.34621E-02  0.18171E-02  0.32137E-03
 -0.37964E-02  0.93572E-03  0.32137E-03
 -0.39100E-02  0.22152E-17  0.32137E-03
 -0.37964E-02 -0.93572E-03  0.32137E-03
 -0.34621E-02 -0.18171E-02  0.32137E-03
 -0.29267E-02 -0.25928E-02  0.32137E-03
 -0.22211E-02 -0.32179E-02  0.32137E-03
 -0.13865E-02 -0.36559E-02  0.32137E-03
 -0.47130E-03 -0.38815E-02  0.32137E-03
  0.47130E-03 -0.38815E-02  0.32137E-03
  0.13865E-02 -0.36559E-02  0.32137E-03
  0.22211E-02 -0.32179E-02  0.32137E-03
  0.29267E-02 -0.25928E-02  0.32137E-03
  0.34621E-02 -0.18171E-02  0.32137E-03
  0.37964E-02 -0.93572E-03  0.32137E-03
  0.10355E-02  0.68401E-03  0.13005E-02
  0.17416E-02  0.12440E-02  0.13005E-02
  0.23152E-02  0.60198E-03  0.13005E-02
  0.16655E-02 -0.32266E-03  0.13005E-02
  0.30372E-02  0.15609E-03  0.13005E-02
  0.27860E-02 -0.66657E-03  0.13005E-02
  0.12829E-02  0.18449E-02  0.13005E-02
  0.64649E-03  0.14777E-02  0.13005E-02
  0.12232E-03  0.32230E-03  0.13005E-02
 -0.13193E-03  0.12022E-02  0.13005E-02
  0.93837E-03  0.22774E-02  0.13005E-02
  0.11259E-02  0.28198E-02  0.13005E-02
  0.17412E-02  0.24267E-02  0.13005E-02
  0.40480E-03  0.21692E-02  0.13005E-02
  0.39745E-03  0.29314E-02  0.13005E-02
 -0.77011E-03 -0.10061E-02  0.13005E-02
 -0.86822E-03  0.95155E-04  0.13005E-02
  0.45223E-03 -0.68866E-03  0.13005E-02
 -0.18359E-02 -0.70915E-03  0.13005E-02
 -0.18421E-02  0.85220E-04  0.13005E-02
 -0.27232E-02 -0.77525E-03  0.13005E-02
 -0.27973E-02  0.46180E-04  0.13005E-02
 -0.25396E-02 -0.15185E-02  0.13005E-02
 -0.19373E-02 -0.13210E-02  0.13005E-02
 -0.99075E-03  0.10156E-02  0.13005E-02
 -0.14450E-02 -0.17317E-02  0.13005E-02
 -0.31173E-03  0.20277E-02  0.13005E-02
 -0.10999E-02  0.18589E-02  0.13005E-02
 -0.18835E-02  0.17175E-02  0.13005E-02
 -0.18687E-02  0.91419E-03  0.13005E-02
 -0.16421E-03 -0.19805E-02  0.13005E-02
 -0.95285E-03 -0.23494E-02  0.13005E-02
  0.77535E-03 -0.17073E-02  0.13005E-02
  0.17202E-02 -0.14943E-02  0.13005E-02
  0.32115E-02  0.78047E-03  0.13005E-02
  0.28041E-02  0.12563E-02  0.13005E-02
  0.23037E-02  0.18672E-02  0.13005E-02
 -0.40338E-03  0.28824E-02  0.13005E-02
 -0.12093E-02  0.27113E-02  0.13005E-02
 -0.19440E-02  0.24597E-02  0.13005E-02
 -0.25023E-02  0.22358E-02  0.13005E-02
 -0.26353E-02  0.16502E-02  0.13005E-02
 -0.27609E-02  0.88016E-03  0.13005E-02
 -0.21151E-02 -0.21374E-02  0.13005E-02
 -0.16096E-02 -0.26935E-02  0.13005E-02
 -0.11962E-02 -0.31291E-02  0.13005E-02
 -0.59340E-03 -0.30381E-02  0.13005E-02
  0.20099E-03 -0.28751E-02  0.13005E-02
  0.10524E-02 -0.26476E-02  0.13005E-02
  0.18422E-02 -0.23748E-02  0.13005E-02
  0.24569E-02 -0.21554E-02  0.13005E-02
  0.26036E-02 -0.15083E-02  0.13005E-02
  0.37964E-02  0.93572E-03  0.13005E-02
  0.39100E-02  0.00000E+00  0.13005E-02
  0.34621E-02  0.18171E-02  0.13005E-02
  0.29267E-02  0.25928E-02  0.13005E-02
  0.22211E-02  0.32179E-02  0.13005E-02
  0.13865E-02  0.36559E-02  0.13005E-02
  0.47130E-03  0.38815E-02  0.13005E-02
 -0.47130E-03  0.38815E-02  0.13005E-02
 -0.13865E-02  0.36559E-02  0.13005E-02
 -0.22211E-02  0.32179E-02  0.13005E-02
 -0.29267E-02  0.25928E-02  0.13005E-02
 -0.34621E-02  0.18171E-02  0.13005E-02
 -0.37964E-02  0.93572E-03  0.13005E-02
 -0.39100E-02 -0.47884E-18  0.13005E-02
 -0.37964E-02 -0.93572E-03  0.13005E-02
 -0.34621E-02 -0.18171E-02  0.13005E-02
 -0.29267E-02 -0.25928E-02  0.13005E-02
 -0.22211E-02 -0.32179E-02  0.13005E-02
 -0.13865E-02 -0.36559E-02  0.13005E-02
 -0.47130E-03 -0.38815E-02  0.13005E-02
  0.47130E-03 -0.38815E-02  0.13005E-02
  0.13865E-02 -0.36559E-02  0.13005E-02
  0.22211E-02 -0.32179E-02  0.13005E-02
  0.29267E-02 -0.25928E-02  0.13005E-02
  0.34621E-02 -0.18171E-02  0.13005E-02
  0.37964E-02 -0.93572E-03  0.13005E-02
  0.10354E-02  0.68457E-03  0.22797E-02
  0.17414E-02  0.12447E-02  0.22797E-02
  0.23151E-02  0.60250E-03  0.22797E-02
  0.16653E-02 -0.32191E-03  0.22797E-02
  0.30372E-02  0.15645E-03  0.22797E-02
  0.27863E-02 -0.66607E-03  0.22797E-02
  0.12829E-02  0.18451E-02  0.22797E-02
  0.64624E-03  0.14787E-02  0.22797E-02
  0.12206E-03  0.32345E-03  0.22797E-02
 -0.13211E-03  0.12040E-02  0.22797E-02
  0.93804E-03  0.22775E-02  0.22797E-02
  0.11255E-02  0.28194E-02  0.22797E-02
  0.17408E-02  0.24268E-02  0.22797E-02
  0.40474E-03  0.21692E-02  0.22797E-02
  0.39744E-03  0.29311E-02  0.22797E-02
 -0.77046E-03 -0.10062E-02  0.22797E-02
 -0.86832E-03  0.95964E-04  0.22797E-02
  0.45179E-03 -0.68793E-03  0.22797E-02
 -0.18362E-02 -0.70901E-03  0.22797E-02
 -0.18420E-02  0.85343E-04  0.22797E-02
 -0.27232E-02 -0.77507E-03  0.22797E-02
 -0.27970E-02  0.46453E-04  0.22797E-02
 -0.25397E-02 -0.15184E-02  0.22797E-02
 -0.19377E-02 -0.13209E-02  0.22797E-02
 -0.99061E-03  0.10169E-02  0.22797E-02
 -0.14453E-02 -0.17316E-02  0.22797E-02
 -0.31153E-03  0.20280E-02  0.22797E-02
 -0.10995E-02  0.18588E-02  0.22797E-02
 -0.18834E-02  0.17175E-02  0.22797E-02
 -0.18686E-02  0.91443E-03  0.22797E-02
 -0.16449E-03 -0.19806E-02  0.22797E-02
 -0.95345E-03 -0.23494E-02  0.22797E-02
  0.77469E-03 -0.17073E-02  0.22797E-02
  0.17202E-02 -0.14945E-02  0.22797E-02
  0.32119E-02  0.78148E-03  0.22797E-02
  0.28041E-02  0.12567E-02  0.22797E-02
  0.23036E-02  0.18673E-02  0.22797E-02
 -0.40324E-03  0.28813E-02  0.22797E-02
 -0.12093E-02  0.27108E-02  0.22797E-02
 -0.19440E-02  0.24595E-02  0.22797E-02
 -0.25022E-02  0.22358E-02  0.22797E-02
 -0.26352E-02  0.16502E-02  0.22797E-02
 -0.27606E-02  0.88043E-03  0.22797E-02
 -0.21152E-02 -0.21374E-02  0.22797E-02
 -0.16096E-02 -0.26936E-02  0.22797E-02
 -0.11963E-02 -0.31291E-02  0.22797E-02
 -0.59375E-03 -0.30381E-02  0.22797E-02
  0.20059E-03 -0.28751E-02  0.22797E-02
  0.10521E-02 -0.26479E-02  0.22797E-02
  0.18422E-02 -0.23750E-02  0.22797E-02
  0.24570E-02 -0.21560E-02  0.22797E-02
  0.26037E-02 -0.15082E-02  0.22797E-02
  0.37964E-02  0.93572E-03  0.22797E-02
  0.39100E-02  0.00000E+00  0.22797E-02
  0.34621E-02  0.18171E-02  0.22797E-02
  0.29267E-02  0.25928E-02  0.22797E-02
  0.22211E-02  0.32179E-02  0.22797E-02
  0.13865E-02  0.36559E-02  0.22797E-02
  0.47130E-03  0.38815E-02  0.22797E-02
 -0.47130E-03  0.38815E-02  0.22797E-02
 -0.13865E-02  0.36559E-02  0.22797E-02
 -0.22211E-02  0.32179E-02  0.22797E-02
 -0.29267E-02  0.25928E-02  0.22797E-02
 -0.34621E-02  0.18171E-02  0.22797E-02
 -0.37964E-02  0.93572E-03  0.22797E-02
 -0.39100E-02 -0.47884E-18  0.22797E-02
 -0.37964E-02 -0.93572E-03  0.22797E-02
 -0.34621E-02 -0.18171E-02  0.22797E-02
 -0.29267E-02 -0.25928E-02  0.22797E-02
 -0.22211E-02 -0.32179E-02  0.22797E-02
 -0.13865E-02 -0.36559E-02  0.22797E-02
 -0.47130E-03 -0.38815E-02  0.22797E-02
  0.47130E-03 -0.38815E-02  0.22797E-02
  0.13865E-02 -0.36559E-02  0.22797E-02
  0.22211E-02 -0.32179E-02  0.22797E-02
  0.29267E-02 -0.25928E-02  0.22797E-02
  0.34621E-02 -0.18171E-02  0.22797E-02
  0.37964E-02 -0.93572E-03  0.22797E-02
  0.10352E-02  0.68512E-03  0.32588E-02
  0.17413E-02  0.12454E-02  0.32588E-02
  0.23150E-02  0.60302E-03  0.32588E-02
  0.16651E-02 -0.32115E-03  0.32588E-02
  0.30371E-02  0.15681E-03  0.32588E-02
  0.27866E-02 -0.66558E-03  0.32588E-02
  0.12827E-02  0.18453E-02  0.32588E-02
  0.64600E-03  0.14797E-02  0.32588E-02
  0.12180E-03  0.32459E-03  0.32588E-02
 -0.13230E-03  0.12058E-02  0.32588E-02
  0.93771E-03  0.22776E-02  0.32588E-02
  0.11252E-02  0.28189E-02  0.32588E-02
  0.17404E-02  0.24270E-02  0.32588E-02
  0.40469E-03  0.21693E-02  0.32588E-02
  0.39742E-03  0.29308E-02  0.32588E-02
 -0.77081E-03 -0.10064E-02  0.32588E-02
 -0.86843E-03  0.96773E-04  0.32588E-02
  0.45134E-03 -0.68721E-03  0.32588E-02
 -0.18365E-02 -0.70887E-03  0.32588E-02
 -0.18419E-02  0.85467E-04  0.32588E-02
 -0.27232E-02 -0.77490E-03  0.32588E-02
 -0.27968E-02  0.46726E-04  0.32588E-02
 -0.25399E-02 -0.15184E-02  0.32588E-02
 -0.19382E-02 -0.13208E-02  0.32588E-02
 -0.99046E-03  0.10183E-02  0.32588E-02
 -0.14457E-02 -0.17316E-02  0.32588E-02
 -0.31133E-03  0.20283E-02  0.32588E-02
 -0.10992E-02  0.18586E-02  0.32588E-02
 -0.18834E-02  0.17175E-02  0.32588E-02
 -0.18685E-02  0.91467E-03  0.32588E-02
 -0.16476E-03 -0.19806E-02  0.32588E-02
 -0.95405E-03 -0.23494E-02  0.32588E-02
  0.77402E-03 -0.17073E-02  0.32588E-02
  0.17202E-02 -0.14948E-02  0.32588E-02
  0.32122E-02  0.78248E-03  0.32588E-02
  0.28041E-02  0.12571E-02  0.32588E-02
  0.23034E-02  0.18673E-02  0.32588E-02
 -0.40310E-03  0.28802E-02  0.32588E-02
 -0.12093E-02  0.27103E-02  0.32588E-02
 -0.19440E-02  0.24593E-02  0.32588E-02
 -0.25022E-02  0.22358E-02  0.32588E-02
 -0.26351E-02  0.16502E-02  0.32588E-02
 -0.27602E-02  0.88069E-03  0.32588E-02
 -0.21154E-02 -0.21374E-02  0.32588E-02
 -0.16097E-02 -0.26936E-02  0.32588E-02
 -0.11964E-02 -0.31291E-02  0.32588E-02
 -0.59409E-03 -0.30381E-02  0.32588E-02
  0.20018E-03 -0.28751E-02  0.32588E-02
  0.10518E-02 -0.26482E-02  0.32588E-02
  0.18422E-02 -0.23752E-02  0.32588E-02
  0.24571E-02 -0.21565E-02  0.32588E-02
  0.26038E-02 -0.15081E-02  0.32588E-02
  0.37964E-02  0.93572E-03  0.32588E-02
  0.39100E-02  0.00000E+00  0.32588E-02
  0.34621E-02  0.18171E-02  0.32588E-02
  0.29267E-02  0.25928E-02  0.32588E-02
  0.22211E-02  0.32179E-02  0.32588E-02
  0.13865E-02  0.36559E-02  0.32588E-02
  0.47130E-03  0.38815E-02  0.32588E-02
 -0.47130E-03  0.38815E-02  0.32588E-02
 -0.13865E-02  0.36559E-02  0.32588E-02
 -0.22211E-02  0.32179E-02  0.32588E-02
 -0.29267E-02  0.25928E-02  0.32588E-02
 -0.34621E-02  0.18171E-02  0.32588E-02
 -0.37964E-02  0.93572E-03  0.32588E-02
 -0.39100E-02 -0.47884E-18  0.32588E-02
 -0.37964E-02 -0.93572E-03  0.32588E-02
 -0.34621E-02 -0.18171E-02  0.32588E-02
 -0.29267E-02 -0.25928E-02  0.32588E-02
 -0.22211E-02 -0.32179E-02  0.32588E-02
 -0.13865E-02 -0.36559E-02  0.32588E-02
 -0.47130E-03 -0.38815E-02  0.32588E-02
  0.47130E-03 -0.38815E-02  0.32588E-02
  0.13865E-02 -0.36559E-02  0.32588E-02
  0.22211E-02 -0.32179E-02  0.32588E-02
  0.29267E-02 -0.25928E-02  0.32588E-02
  0.34621E-02 -0.18171E-02  0.32588E-02
  0.37964E-02 -0.93572E-03  0.32588E-02
  0.10351E-02  0.68567E-03  0.42380E-02
  0.17411E-02  0.12460E-02  0.42380E-02
  0.23149E-02  0.60355E-03  0.42380E-02
  0.16649E-02 -0.32040E-03  0.42380E-02
  0.30371E-02  0.15718E-03  0.42380E-02
  0.27870E-02 -0.66509E-03  0.42380E-02
  0.12826E-02  0.18455E-02  0.42380E-02
  0.64575E-03  0.14807E-02  0.42380E-02
  0.12154E-03  0.32574E-03  0.42380E-02
 -0.13248E-03  0.12075E-02  0.42380E-02
  0.93738E-03  0.22777E-02  0.42380E-02
  0.11249E-02  0.28185E-02  0.42380E-02
  0.17400E-02  0.24271E-02  0.42380E-02
  0.40463E-03  0.21693E-02  0.42380E-02
  0.39740E-03  0.29306E-02  0.42380E-02
 -0.77117E-03 -0.10065E-02  0.42380E-02
 -0.86854E-03  0.97583E-04  0.42380E-02
  0.45089E-03 -0.68648E-03  0.42380E-02
 -0.18368E-02 -0.70873E-03  0.42380E-02
 -0.18418E-02  0.85591E-04  0.42380E-02
 -0.27232E-02 -0.77474E-03  0.42380E-02
 -0.27965E-02  0.47000E-04  0.42380E-02
 -0.25400E-02 -0.15183E-02  0.42380E-02
 -0.19386E-02 -0.13207E-02  0.42380E-02
 -0.99032E-03  0.10197E-02  0.42380E-02
 -0.14460E-02 -0.17316E-02  0.42380E-02
 -0.31113E-03  0.20285E-02  0.42380E-02
 -0.10988E-02  0.18585E-02  0.42380E-02
 -0.18833E-02  0.17175E-02  0.42380E-02
 -0.18683E-02  0.91491E-03  0.42380E-02
 -0.16504E-03 -0.19806E-02  0.42380E-02
 -0.95465E-03 -0.23495E-02  0.42380E-02
  0.77336E-03 -0.17073E-02  0.42380E-02
  0.17201E-02 -0.14950E-02  0.42380E-02
  0.32125E-02  0.78348E-03  0.42380E-02
  0.28041E-02  0.12576E-02  0.42380E-02
  0.23033E-02  0.18674E-02  0.42380E-02
 -0.40296E-03  0.28792E-02  0.42380E-02
 -0.12093E-02  0.27099E-02  0.42380E-02
 -0.19439E-02  0.24591E-02  0.42380E-02
 -0.25022E-02  0.22358E-02  0.42380E-02
 -0.26350E-02  0.16502E-02  0.42380E-02
 -0.27599E-02  0.88095E-03  0.42380E-02
 -0.21155E-02 -0.21374E-02  0.42380E-02
 -0.16097E-02 -0.26936E-02  0.42380E-02
 -0.11965E-02 -0.31290E-02  0.42380E-02
 -0.59444E-03 -0.30381E-02  0.42380E-02
  0.19977E-03 -0.28751E-02  0.42380E-02
  0.10515E-02 -0.26484E-02  0.42380E-02
  0.18423E-02 -0.23754E-02  0.42380E-02
  0.24573E-02 -0.21571E-02  0.42380E-02
  0.26039E-02 -0.15080E-02  0.42380E-02
  0.37964E-02  0.93572E-03  0.42380E-02
  0.39100E-02  0.00000E+00  0.42380E-02
  0.34621E-02  0.18171E-02  0.42380E-02
  0.29267E-02  0.25928E-02  0.42380E-02
  0.22211E-02  0.32179E-02  0.42380E-02
  0.13865E-02  0.36559E-02  0.42380E-02
  0.47130E-03  0.38815E-02  0.42380E-02
 -0.47130E-03  0.38815E-02  0.42380E-02
 -0.13865E-02  0.36559E-02  0.42380E-02
 -0.22211E-02  0.32179E-02  0.42380E-02
 -0.29267E-02  0.25928E-02  0.42380E-02
 -0.34621E-02  0.18171E-02  0.42380E-02
 -0.37964E-02  0.93572E-03  0.42380E-02
 -0.39100E-02  0.47884E-18  0.42380E-02
 -0.37964E-02 -0.93572E-03  0.42380E-02
 -0.34621E-02 -0.18171E-02  0.42380E-02
 -0.29267E-02 -0.25928E-02  0.42380E-02
 -0.22211E-02 -0.32179E-02  0.42380E-02
 -0.13865E-02 -0.36559E-02  0.42380E-02
 -0.47130E-03 -0.38815E-02  0.42380E-02
  0.47130E-03 -0.38815E-02  0.42380E-02
  0.13865E-02 -0.36559E-02  0.42380E-02
  0.22211E-02 -0.32179E-02  0.42380E-02
  0.29267E-02 -0.25928E-02  0.42380E-02
  0.34621E-02 -0.18171E-02  0.42380E-02
  0.37964E-02 -0.93572E-03  0.42380E-02
  
CELLS       3486               17724
       1       0
       1       1
       1       2
       1       3
       1       4
       1       5
       1       6
       1       7
       1       8
       1       9
       1      10
       1      11
       1      12
       1      13
       1      14
       1      15
       1      16
       1      17
       1      18
       1      19
       1      20
       1      21
       1      22
       1      23
       1      24
       1      25
       1      26
       1      27
       1      28
       1      29
       1      30
       1      31
       1      32
       1      33
       1      34
       1      35
       1      36
       1      37
       1      38
       1      39
       1      40
       1      41
       1      42
       1      43
       1      44
       1      45
       1      46
       1      47
       1      48
       1      49
       1      50
       1      51
       1      52
       1      53
       1      54
       1      55
       1      56
       1      57
       1      58
       1      59
       1      60
       1      61
       1      62
       1      63
       1      64
       1      65
       1      66
       1      67
       1      68
       1      69
       1      70
       1      71
       1      72
       1      73
       1      74
       1      75
       1      76
       1      77
       1      78
       1      79
       1      80
       1      81
       1      82
       1      83
       1      84
       1      85
       1      86
       1      87
       1      88
       1      89
       1      90
       1      91
       1      92
       1      93
       1      94
       1      95
       1      96
       1      97
       1      98
       1      99
       1     100
       1     101
       1     102
       1     103
       1     104
       1     105
       1     106
       1     107
       1     108
       1     109
       1     110
       1     111
       1     112
       1     113
       1     114
       1     115
       1     116
       1     117
       1     118
       1     119
       1     120
       1     121
       1     122
       1     123
       1     124
       1     125
       1     126
       1     127
       1     128
       1     129
       1     130
       1     131
       1     132
       1     133
       1     134
       1     135
       1     136
       1     137
       1     138
       1     139
       1     140
       1     141
       1     142
       1     143
       1     144
       1     145
       1     146
       1     147
       1     148
       1     149
       1     150
       1     151
       1     152
       1     153
       1     154
       1     155
       1     156
       1     157
       1     158
       1     159
       1     160
       1     161
       1     162
       1     163
       1     164
       1     165
       1     166
       1     167
       1     168
       1     169
       1     170
       1     171
       1     172
       1     173
       1     174
       1     175
       1     176
       1     177
       1     178
       1     179
       1     180
       1     181
       1     182
       1     183
       1     184
       1     185
       1     186
       1     187
       1     188
       1     189
       1     190
       1     191
       1     192
       1     193
       1     194
       1     195
       1     196
       1     197
       1     198
       1     199
       1     200
       1     201
       1     202
       1     203
       1     204
       1     205
       1     206
       1     207
       1     208
       1     209
       1     210
       1     211
       1     212
       1     213
       1     214
       1     215
       1     216
       1     217
       1     218
       1     219
       1     220
       1     221
       1     222
       1     223
       1     224
       1     225
       1     226
       1     227
       1     228
       1     229
       1     230
       1     231
       1     232
       1     233
       1     234
       1     235
       1     236
       1     237
       1     238
       1     239
       1     240
       1     241
       1     242
       1     243
       1     244
       1     245
       1     246
       1     247
       1     248
       1     249
       1     250
       1     251
       1     252
       1     253
       1     254
       1     255
       1     256
       1     257
       1     258
       1     259
       1     260
       1     261
       1     262
       1     263
       1     264
       1     265
       1     266
       1     267
       1     268
       1     269
       1     270
       1     271
       1     272
       1     273
       1     274
       1     275
       1     276
       1     277
       1     278
       1     279
       1     280
       1     281
       1     282
       1     283
       1     284
       1     285
       1     286
       1     287
       1     288
       1     289
       1     290
       1     291
       1     292
       1     293
       1     294
       1     295
       1     296
       1     297
       1     298
       1     299
       1     300
       1     301
       1     302
       1     303
       1     304
       1     305
       1     306
       1     307
       1     308
       1     309
       1     310
       1     311
       1     312
       1     313
       1     314
       1     315
       1     316
       1     317
       1     318
       1     319
       1     320
       1     321
       1     322
       1     323
       1     324
       1     325
       1     326
       1     327
       1     328
       1     329
       1     330
       1     331
       1     332
       1     333
       1     334
       1     335
       1     336
       1     337
       1     338
       1     339
       1     340
       1     341
       1     342
       1     343
       1     344
       1     345
       1     346
       1     347
       1     348
       1     349
       1     350
       1     351
       1     352
       1     353
       1     354
       1     355
       1     356
       1     357
       1     358
       1     359
       1     360
       1     361
       1     362
       1     363
       1     364
       1     365
       1     366
       1     367
       1     368
       1     369
       1     370
       1     371
       1     372
       1     373
       1     374
       1     375
       1     376
       1     377
       1     378
       1     379
       1     380
       1     381
       1     382
       1     383
       1     384
       1     385
       1     386
       1     387
       1     388
       1     389
       1     390
       1     391
       1     392
       1     393
       1     394
       1     395
       1     396
       1     397
       1     398
       1     399
       1     400
       1     401
       1     402
       1     403
       1     404
       1     405
       1     406
       1     407
       1     408
       1     409
       1     410
       1     411
       1     412
       1     413
       1     414
       1     415
       1     416
       1     417
       1     418
       1     419
       1     420
       1     421
       1     422
       1     423
       1     424
       1     425
       1     426
       1     427
       1     428
       1     429
       1     430
       1     431
       1     432
       1     433
       1     434
       1     435
       1     436
       1     437
       1     438
       1     439
       1     440
       1     441
       1     442
       1     443
       1     444
       1     445
       1     446
       1     447
       1     448
       1     449
       1     450
       1     451
       1     452
       1     453
       1     454
       1     455
       1     456
       1     457
       1     458
       1     459
       1     460
       1     461
       1     462
       1     463
       1     464
       1     465
       1     466
       1     467
       1     468
       1     469
       1     470
       1     471
       1     472
       1     473
       1     474
       1     475
       1     476
       1     477
       1     478
       1     479
       1     480
       1     481
       1     482
       1     483
       1     484
       1     485
       1     486
       1     487
       1     488
       1     489
       1     490
       1     491
       1     492
       1     493
       1     494
       1     495
       1     496
       1     497
       1     498
       1     499
       1     500
       1     501
       1     502
       1     503
       1     504
       1     505
       1     506
       1     507
       1     508
       1     509
       1     510
       1     511
       1     512
       1     513
       1     514
       1     515
       1     516
       1     517
       1     518
       1     519
       1     520
       1     521
       1     522
       1     523
       1     524
       1     525
       1     526
       1     527
       1     528
       1     529
       1     530
       1     531
       1     532
       1     533
       1     534
       1     535
       1     536
       1     537
       1     538
       1     539
       1     540
       1     541
       1     542
       1     543
       1     544
       1     545
       1     546
       1     547
       1     548
       1     549
       1     550
       1     551
       1     552
       1     553
       1     554
       1     555
       1     556
       1     557
       1     558
       1     559
       1     560
       1     561
       1     562
       1     563
       1     564
       1     565
       1     566
       1     567
       1     568
       1     569
       1     570
       1     571
       1     572
       1     573
       1     574
       1     575
       1     576
       1     577
       1     578
       1     579
       1     580
       1     581
       1     582
       1     583
       1     584
       1     585
       1     586
       1     587
       1     588
       1     589
       1     590
       1     591
       1     592
       1     593
       1     594
       1     595
       1     596
       1     597
       1     598
       1     599
       1     600
       1     601
       1     602
       1     603
       1     604
       1     605
       1     606
       1     607
       1     608
       1     609
       1     610
       1     611
       1     612
       1     613
       1     614
       1     615
       1     616
       1     617
       1     618
       1     619
       1     620
       1     621
       1     622
       1     623
       1     624
       1     625
       1     626
       1     627
       1     628
       1     629
       1     630
       1     631
       1     632
       1     633
       1     634
       1     635
       1     636
       1     637
       1     638
       1     639
       1     640
       1     641
       1     642
       1     643
       1     644
       1     645
       1     646
       1     647
       1     648
       1     649
       1     650
       1     651
       1     652
       1     653
       1     654
       1     655
       1     656
       1     657
       1     658
       1     659
       1     660
       1     661
       1     662
       1     663
       1     664
       1     665
       1     666
       1     667
       1     668
       1     669
       1     670
       1     671
       1     672
       1     673
       1     674
       1     675
       1     676
       1     677
       1     678
       1     679
       1     680
       1     681
       1     682
       1     683
       1     684
       1     685
       1     686
       1     687
       1     688
       1     689
       1     690
       1     691
       1     692
       1     693
       1     694
       1     695
       1     696
       1     697
       1     698
       1     699
       1     700
       1     701
       1     702
       1     703
       1     704
       1     705
       1     706
       1     707
       1     708
       1     709
       1     710
       1     711
       1     712
       1     713
       1     714
       1     715
       1     716
       1     717
       1     718
       1     719
       1     720
       1     721
       1     722
       1     723
       1     724
       1     725
       1     726
       1     727
       1     728
       1     729
       1     730
       1     731
       1     732
       1     733
       1     734
       1     735
       1     736
       1     737
       1     738
       1     739
       1     740
       1     741
       1     742
       1     743
       1     744
       1     745
       1     746
       1     747
       1     748
       1     749
       1     750
       1     751
       1     752
       1     753
       1     754
       1     755
       1     756
       1     757
       1     758
       1     759
       1     760
       1     761
       1     762
       1     763
       1     764
       1     765
       1     766
       1     767
       1     768
       1     769
       1     770
       1     771
       1     772
       1     773
       1     774
       1     775
       1     776
       1     777
       1     778
       1     779
       1     780
       1     781
       1     782
       1     783
       1     784
       1     785
       1     786
       1     787
       1     788
       1     789
       1     790
       1     791
       1     792
       1     793
       1     794
       1     795
       1     796
       1     797
       1     798
       1     799
       1     800
       1     801
       1     802
       1     803
       1     804
       1     805
       1     806
       1     807
       1     808
       1     809
       1     810
       1     811
       1     812
       1     813
       1     814
       1     815
       1     816
       1     817
       1     818
       1     819
       1     820
       1     821
       1     822
       1     823
       1     824
       1     825
       1     826
       1     827
       1     828
       1     829
       1     830
       1     831
       1     832
       1     833
       1     834
       1     835
       1     836
       1     837
       1     838
       1     839
       1     840
       1     841
       1     842
       1     843
       1     844
       1     845
       1     846
       1     847
       1     848
       1     849
       1     850
       1     851
       1     852
       1     853
       1     854
       1     855
       1     856
       1     857
       1     858
       1     859
       1     860
       1     861
       1     862
       1     863
       1     864
       1     865
       1     866
       1     867
       1     868
       1     869
       1     870
       1     871
       1     872
       1     873
       1     874
       1     875
       1     876
       1     877
       1     878
       1     879
       1     880
       1     881
       1     882
       1     883
       1     884
       1     885
       1     886
       1     887
       1     888
       1     889
       1     890
       1     891
       1     892
       1     893
       1     894
       1     895
       1     896
       1     897
       1     898
       1     899
       1     900
       1     901
       1     902
       1     903
       1     904
       1     905
       1     906
       1     907
       1     908
       1     909
       1     910
       1     911
       1     912
       1     913
       1     914
       1     915
       1     916
       1     917
       1     918
       1     919
       1     920
       1     921
       1     922
       1     923
       1     924
       1     925
       1     926
       1     927
       1     928
       1     929
       1     930
       1     931
       1     932
       1     933
       1     934
       1     935
       1     936
       1     937
       1     938
       1     939
       1     940
       1     941
       1     942
       1     943
       1     944
       1     945
       1     946
       1     947
       1     948
       1     949
       1     950
       1     951
       1     952
       1     953
       1     954
       1     955
       1     956
       1     957
       1     958
       1     959
       1     960
       1     961
       1     962
       1     963
       1     964
       1     965
       1     966
       1     967
       1     968
       1     969
       1     970
       1     971
       1     972
       1     973
       1     974
       1     975
       1     976
       1     977
       1     978
       1     979
       1     980
       1     981
       1     982
       1     983
       1     984
       1     985
       1     986
       1     987
       1     988
       1     989
       1     990
       1     991
       1     992
       1     993
       1     994
       1     995
       1     996
       1     997
       1     998
       1     999
       1    1000
       1    1001
       1    1002
       1    1003
       1    1004
       1    1005
       1    1006
       1    1007
       1    1008
       1    1009
       1    1010
       1    1011
       1    1012
       1    1013
       1    1014
       1    1015
       1    1016
       1    1017
       1    1018
       1    1019
       1    1020
       1    1021
       1    1022
       1    1023
       1    1024
       1    1025
       1    1026
       1    1027
       1    1028
       1    1029
       1    1030
       1    1031
       1    1032
       1    1033
       1    1034
       1    1035
       1    1036
       1    1037
       1    1038
       1    1039
       1    1040
       1    1041
       1    1042
       1    1043
       1    1044
       1    1045
       1    1046
       1    1047
       1    1048
       1    1049
       1    1050
       1    1051
       1    1052
       1    1053
       1    1054
       1    1055
       1    1056
       1    1057
       1    1058
       1    1059
       1    1060
       1    1061
       1    1062
       1    1063
       1    1064
       1    1065
       1    1066
       1    1067
       1    1068
       1    1069
       1    1070
       1    1071
       1    1072
       1    1073
       1    1074
       1    1075
       1    1076
       1    1077
       1    1078
       1    1079
       1    1080
       1    1081
       1    1082
       1    1083
       1    1084
       1    1085
       1    1086
       1    1087
       1    1088
       1    1089
       1    1090
       1    1091
       1    1092
       1    1093
       1    1094
       1    1095
       1    1096
       1    1097
       1    1098
       1    1099
       1    1100
       1    1101
       1    1102
       1    1103
       1    1104
       1    1105
       1    1106
       1    1107
       1    1108
       1    1109
       1    1110
       1    1111
       1    1112
       1    1113
       1    1114
       1    1115
       1    1116
       1    1117
       1    1118
       1    1119
       1    1120
       1    1121
       1    1122
       1    1123
       1    1124
       1    1125
       1    1126
       1    1127
       1    1128
       1    1129
       1    1130
       1    1131
       1    1132
       1    1133
       1    1134
       1    1135
       1    1136
       1    1137
       1    1138
       1    1139
       1    1140
       1    1141
       1    1142
       1    1143
       1    1144
       1    1145
       1    1146
       1    1147
       1    1148
       1    1149
       1    1150
       1    1151
       1    1152
       1    1153
       1    1154
       1    1155
       1    1156
       1    1157
       1    1158
       1    1159
       1    1160
       1    1161
       1    1162
       1    1163
       1    1164
       1    1165
       1    1166
       1    1167
       1    1168
       1    1169
       1    1170
       1    1171
       1    1172
       1    1173
       1    1174
       1    1175
       1    1176
       1    1177
       1    1178
       1    1179
       1    1180
       1    1181
       1    1182
       1    1183
       1    1184
       1    1185
       1    1186
       1    1187
       1    1188
       1    1189
       1    1190
       1    1191
       1    1192
       1    1193
       1    1194
       1    1195
       1    1196
       1    1197
       1    1198
       1    1199
       1    1200
       1    1201
       1    1202
       1    1203
       1    1204
       1    1205
       1    1206
       1    1207
       1    1208
       1    1209
       1    1210
       1    1211
       1    1212
       1    1213
       1    1214
       1    1215
       1    1216
       1    1217
       1    1218
       1    1219
       1    1220
       1    1221
       1    1222
       1    1223
       1    1224
       1    1225
       1    1226
       1    1227
       1    1228
       1    1229
       1    1230
       1    1231
       1    1232
       1    1233
       1    1234
       1    1235
       1    1236
       1    1237
       1    1238
       1    1239
       1    1240
       1    1241
       1    1242
       1    1243
       1    1244
       1    1245
       1    1246
       1    1247
       1    1248
       1    1249
       1    1250
       1    1251
       1    1252
       1    1253
       1    1254
       1    1255
       1    1256
       1    1257
       1    1258
       1    1259
       1    1260
       1    1261
       1    1262
       1    1263
       1    1264
       1    1265
       1    1266
       1    1267
       1    1268
       1    1269
       1    1270
       1    1271
       1    1272
       1    1273
       1    1274
       1    1275
       1    1276
       1    1277
       1    1278
       1    1279
       1    1280
       1    1281
       1    1282
       1    1283
       1    1284
       1    1285
       1    1286
       1    1287
       1    1288
       1    1289
       1    1290
       1    1291
       1    1292
       1    1293
       1    1294
       1    1295
       1    1296
       1    1297
       1    1298
       1    1299
       1    1300
       1    1301
       1    1302
       1    1303
       1    1304
       1    1305
       1    1306
       1    1307
       1    1308
       1    1309
       1    1310
       1    1311
       1    1312
       1    1313
       1    1314
       1    1315
       1    1316
       1    1317
       1    1318
       1    1319
       1    1320
       1    1321
       1    1322
       1    1323
       1    1324
       1    1325
       1    1326
       1    1327
       1    1328
       1    1329
       1    1330
       1    1331
       1    1332
       1    1333
       1    1334
       1    1335
       1    1336
       1    1337
       1    1338
       1    1339
       1    1340
       1    1341
       1    1342
       1    1343
       1    1344
       1    1345
       1    1346
       1    1347
       1    1348
       1    1349
       1    1350
       1    1351
       1    1352
       1    1353
       1    1354
       1    1355
       1    1356
       1    1357
       1    1358
       1    1359
       1    1360
       1    1361
       1    1362
       1    1363
       1    1364
       1    1365
       1    1366
       1    1367
       1    1368
       1    1369
       1    1370
       1    1371
       1    1372
       1    1373
       1    1374
       1    1375
       1    1376
       1    1377
       1    1378
       1    1379
       1    1380
       1    1381
       1    1382
       1    1383
       1    1384
       1    1385
       1    1386
       1    1387
       1    1388
       1    1389
       1    1390
       1    1391
       1    1392
       1    1393
       1    1394
       1    1395
       1    1396
       1    1397
       1    1398
       1    1399
       1    1400
       1    1401
       1    1402
       1    1403
       1    1404
       1    1405
       1    1406
       1    1407
       1    1408
       1    1409
       1    1410
       1    1411
       1    1412
       1    1413
       1    1414
       1    1415
       1    1416
       1    1417
       1    1418
       1    1419
       1    1420
       1    1421
       1    1422
       1    1423
       1    1424
       1    1425
       1    1426
       1    1427
       1    1428
       1    1429
       1    1430
       1    1431
       1    1432
       1    1433
       1    1434
       1    1435
       1    1436
       1    1437
       1    1438
       1    1439
       1    1440
       1    1441
       1    1442
       1    1443
       1    1444
       1    1445
       1    1446
       1    1447
       1    1448
       1    1449
       1    1450
       1    1451
       1    1452
       1    1453
       1    1454
       1    1455
       1    1456
       1    1457
       1    1458
       1    1459
       1    1460
       1    1461
       1    1462
       1    1463
       1    1464
       1    1465
       1    1466
       1    1467
       1    1468
       1    1469
       1    1470
       1    1471
       1    1472
       1    1473
       1    1474
       1    1475
       1    1476
       1    1477
       1    1478
       1    1479
       1    1480
       1    1481
       1    1482
       1    1483
       1    1484
       1    1485
       1    1486
       1    1487
       1    1488
       1    1489
       1    1490
       1    1491
       1    1492
       1    1493
       1    1494
       1    1495
       1    1496
       1    1497
       1    1498
       1    1499
       1    1500
       1    1501
       1    1502
       1    1503
       1    1504
       1    1505
       1    1506
       1    1507
       1    1508
       1    1509
       1    1510
       1    1511
       1    1512
       1    1513
       1    1514
       1    1515
       1    1516
       1    1517
       1    1518
       1    1519
       1    1520
       1    1521
       1    1522
       1    1523
       1    1524
       1    1525
       1    1526
       1    1527
       1    1528
       1    1529
       1    1530
       1    1531
       1    1532
       1    1533
       1    1534
       1    1535
       1    1536
       1    1537
       1    1538
       1    1539
       1    1540
       1    1541
       1    1542
       1    1543
       1    1544
       1    1545
       1    1546
       1    1547
       1    1548
       1    1549
       1    1550
       1    1551
       1    1552
       1    1553
       1    1554
       1    1555
       1    1556
       1    1557
       1    1558
       1    1559
       1    1560
       1    1561
       1    1562
       1    1563
       1    1564
       1    1565
       1    1566
       1    1567
       1    1568
       1    1569
       1    1570
       1    1571
       1    1572
       1    1573
       1    1574
       1    1575
       1    1576
       1    1577
       1    1578
       1    1579
       1    1580
       1    1581
       1    1582
       1    1583
       1    1584
       1    1585
       1    1586
       1    1587
       1    1588
       1    1589
       1    1590
       1    1591
       1    1592
       1    1593
       1    1594
       1    1595
       1    1596
       1    1597
       1    1598
       1    1599
       1    1600
       1    1601
       1    1602
       1    1603
       1    1604
       1    1605
       1    1606
       1    1607
       1    1608
       1    1609
       1    1610
       1    1611
       1    1612
       1    1613
       1    1614
       1    1615
       1    1616
       1    1617
       1    1618
       1    1619
       1    1620
       1    1621
       1    1622
       1    1623
       1    1624
       1    1625
       1    1626
       1    1627
       1    1628
       1    1629
       1    1630
       1    1631
       1    1632
       1    1633
       1    1634
       1    1635
       1    1636
       1    1637
       1    1638
       1    1639
       1    1640
       1    1641
       1    1642
       1    1643
       1    1644
       1    1645
       1    1646
       1    1647
       1    1648
       1    1649
       1    1650
       1    1651
       1    1652
       1    1653
       1    1654
       1    1655
       1    1656
       1    1657
       1    1658
       1    1659
       1    1660
       1    1661
       1    1662
       1    1663
       1    1664
       1    1665
       1    1666
       1    1667
       1    1668
       1    1669
       1    1670
       1    1671
       1    1672
       1    1673
       1    1674
       1    1675
       1    1676
       1    1677
       1    1678
       1    1679
       1    1680
       1    1681
       1    1682
       1    1683
       1    1684
       1    1685
       1    1686
       1    1687
       1    1688
       1    1689
       1    1690
       1    1691
       1    1692
       1    1693
       1    1694
       1    1695
       1    1696
       1    1697
       1    1698
       1    1699
       1    1700
       1    1701
       1    1702
       1    1703
       1    1704
       1    1705
       1    1706
       1    1707
       1    1708
       1    1709
       1    1710
       1    1711
       1    1712
       1    1713
       1    1714
       1    1715
       1    1716
       1    1717
       1    1718
       1    1719
       1    1720
       1    1721
       1    1722
       1    1723
       1    1724
       1    1725
       1    1726
       1    1727
       1    1728
       1    1729
       1    1730
       1    1731
       1    1732
       1    1733
       1    1734
       1    1735
       1    1736
       1    1737
       1    1738
       1    1739
       1    1740
       1    1741
       1    1742
       1    1743
       1    1744
       1    1745
       1    1746
       1    1747
       1    1748
       1    1749
       1    1750
       1    1751
       1    1752
       1    1753
       1    1754
       1    1755
       1    1756
       1    1757
       1    1758
       1    1759
       1    1760
       1    1761
       1    1762
       1    1763
       1    1764
       1    1765
       1    1766
       1    1767
       1    1768
       1    1769
       1    1770
       1    1771
       1    1772
       1    1773
       1    1774
       1    1775
       1    1776
       1    1777
       1    1778
       1    1779
       1    1780
       1    1781
       1    1782
       1    1783
       1    1784
       1    1785
       1    1786
       1    1787
       1    1788
       1    1789
       1    1790
       1    1791
       1    1792
       1    1793
       1    1794
       1    1795
       1    1796
       1    1797
       1    1798
       1    1799
       1    1800
       1    1801
       1    1802
       1    1803
       1    1804
       1    1805
       1    1806
       1    1807
       1    1808
       1    1809
       1    1810
       1    1811
       1    1812
       1    1813
       1    1814
       1    1815
       1    1816
       1    1817
       1    1818
       1    1819
       1    1820
       1    1821
       1    1822
       1    1823
       1    1824
       1    1825
       1    1826
       1    1827
       1    1828
       1    1829
       1    1830
       1    1831
       1    1832
       1    1833
       1    1834
       1    1835
       1    1836
       1    1837
       1    1838
       1    1839
       1    1840
       1    1841
       1    1842
       1    1843
       1    1844
       1    1845
       1    1846
       1    1847
       1    1848
       1    1849
       1    1850
       1    1851
       1    1852
       1    1853
       1    1854
       1    1855
       1    1856
       1    1857
       1    1858
       1    1859
       1    1860
       1    1861
       1    1862
       1    1863
       1    1864
       1    1865
       1    1866
       1    1867
       1    1868
       1    1869
       1    1870
       1    1871
       1    1872
       1    1873
       1    1874
       1    1875
       1    1876
       1    1877
       1    1878
       1    1879
       1    1880
       1    1881
       1    1882
       1    1883
       1    1884
       1    1885
       1    1886
       1    1887
       1    1888
       1    1889
       1    1890
       1    1891
       1    1892
       1    1893
       1    1894
       1    1895
       1    1896
       1    1897
       1    1898
       1    1899
       1    1900
       1    1901
       1    1902
       1    1903
       1    1904
       1    1905
       1    1906
       1    1907
       1    1908
       1    1909
       1    1910
       1    1911
       1    1912
       1    1913
       1    1914
       1    1915
       1    1916
       1    1917
       1    1918
       1    1919
       1    1920
       1    1921
       1    1922
       1    1923
       1    1924
       1    1925
       1    1926
       1    1927
       1    1928
       1    1929
       1    1930
       1    1931
       1    1932
       1    1933
       1    1934
       1    1935
       1    1936
       1    1937
       1    1938
       1    1939
       1    1940
       1    1941
       1    1942
       1    1943
       1    1944
       1    1945
       1    1946
       1    1947
       1    1948
       1    1949
       8       0       1       2       3       4       5       6       7
       8       2       8       9       3       6      10      11       7
       8      12       1       0      13      14       5       4      15
       8       0      16      17      13       4      18      19      15
       8      20      21      22      12      23      24      25      14
       8      26      27      21      20      28      29      24      23
       8      13      26      20      12      15      28      23      14
       8      30      31      16      32      33      34      18      35
       8      36      37      31      30      38      39      34      33
       8      40      41      37      36      42      43      39      38
       8      44      40      36      45      46      42      38      47
       8      48      17      16      31      49      19      18      34
       8      30      50      45      36      33      51      47      38
       8       0       3      32      16       4       7      35      18
       8      52      26      13      17      53      28      15      19
       8      54      52      17      48      55      53      19      49
       8      56      54      48      57      58      55      49      59
       8      37      57      48      31      39      59      49      34
       8      60      61      50      30      62      63      51      33
       8      64      60      30      32      65      62      33      35
       8      66      64      32       3      67      65      35       7
       8      68       8       2      69      70      10       6      71
       8      72      69       2       1      73      71       6       5
       8      22      72       1      12      25      73       5      14
       8      74      27      26      52      75      29      28      53
       8      76      74      52      54      77      75      53      55
       8      78      76      54      56      79      77      55      58
       8      80      78      56      81      82      79      58      83
       8      84      81      56      57      85      83      58      59
       8      41      84      57      37      43      85      59      39
       8      86      44      45      50      87      46      47      51
       8      88      86      50      61      89      87      51      63
       8      90      88      61      91      92      89      63      93
       8      94      91      61      60      95      93      63      62
       8      96      94      60      64      97      95      62      65
       8      98      96      64      66      99      97      65      67
       8     100      98      66     101     102      99      67     103
       8       9     101      66       3      11     103      67       7
       8     104     105       8      68     106     107      10      70
       8     108     104      68      69     109     106      70      71
       8     110     108      69      72     111     109      71      73
       8     112     110      72      22     113     111      73      25
       8     114     112      22      21     115     113      25      24
       8     116     114      21      27     117     115      24      29
       8     118     116      27      74     119     117      29      75
       8     120     118      74      76     121     119      75      77
       8     122     120      76      78     123     121      77      79
       8     124     122      78      80     125     123      79      82
       8     126     124      80      81     127     125      82      83
       8     128     126      81      84     129     127      83      85
       8     130     128      84      41     131     129      85      43
       8     132     130      41      40     133     131      43      42
       8     134     132      40      44     135     133      42      46
       8     136     134      44      86     137     135      46      87
       8     138     136      86      88     139     137      87      89
       8     140     138      88      90     141     139      89      92
       8     142     140      90      91     143     141      92      93
       8     144     142      91      94     145     143      93      95
       8     146     144      94      96     147     145      95      97
       8     148     146      96      98     149     147      97      99
       8     150     148      98     100     151     149      99     102
       8     152     150     100     101     153     151     102     103
       8     154     152     101       9     155     153     103      11
       8     105     154       9       8     107     155      11      10
       8     156     157     158     159       0       1       2       3
       8     158     160     161     159       2       8       9       3
       8     162     157     156     163      12       1       0      13
       8     156     164     165     163       0      16      17      13
       8     166     167     168     162      20      21      22      12
       8     169     170     167     166      26      27      21      20
       8     163     169     166     162      13      26      20      12
       8     171     172     164     173      30      31      16      32
       8     174     175     172     171      36      37      31      30
       8     176     177     175     174      40      41      37      36
       8     178     176     174     179      44      40      36      45
       8     180     165     164     172      48      17      16      31
       8     171     181     179     174      30      50      45      36
       8     156     159     173     164       0       3      32      16
       8     182     169     163     165      52      26      13      17
       8     183     182     165     180      54      52      17      48
       8     184     183     180     185      56      54      48      57
       8     175     185     180     172      37      57      48      31
       8     186     187     181     171      60      61      50      30
       8     188     186     171     173      64      60      30      32
       8     189     188     173     159      66      64      32       3
       8     190     160     158     191      68       8       2      69
       8     192     191     158     157      72      69       2       1
       8     168     192     157     162      22      72       1      12
       8     193     170     169     182      74      27      26      52
       8     194     193     182     183      76      74      52      54
       8     195     194     183     184      78      76      54      56
       8     196     195     184     197      80      78      56      81
       8     198     197     184     185      84      81      56      57
       8     177     198     185     175      41      84      57      37
       8     199     178     179     181      86      44      45      50
       8     200     199     181     187      88      86      50      61
       8     201     200     187     202      90      88      61      91
       8     203     202     187     186      94      91      61      60
       8     204     203     186     188      96      94      60      64
       8     205     204     188     189      98      96      64      66
       8     206     205     189     207     100      98      66     101
       8     161     207     189     159       9     101      66       3
       8     208     209     160     190     104     105       8      68
       8     210     208     190     191     108     104      68      69
       8     211     210     191     192     110     108      69      72
       8     212     211     192     168     112     110      72      22
       8     213     212     168     167     114     112      22      21
       8     214     213     167     170     116     114      21      27
       8     215     214     170     193     118     116      27      74
       8     216     215     193     194     120     118      74      76
       8     217     216     194     195     122     120      76      78
       8     218     217     195     196     124     122      78      80
       8     219     218     196     197     126     124      80      81
       8     220     219     197     198     128     126      81      84
       8     221     220     198     177     130     128      84      41
       8     222     221     177     176     132     130      41      40
       8     223     222     176     178     134     132      40      44
       8     224     223     178     199     136     134      44      86
       8     225     224     199     200     138     136      86      88
       8     226     225     200     201     140     138      88      90
       8     227     226     201     202     142     140      90      91
       8     228     227     202     203     144     142      91      94
       8     229     228     203     204     146     144      94      96
       8     230     229     204     205     148     146      96      98
       8     231     230     205     206     150     148      98     100
       8     232     231     206     207     152     150     100     101
       8     233     232     207     161     154     152     101       9
       8     209     233     161     160     105     154       9       8
       8     234     235     236     237     156     157     158     159
       8     236     238     239     237     158     160     161     159
       8     240     235     234     241     162     157     156     163
       8     234     242     243     241     156     164     165     163
       8     244     245     246     240     166     167     168     162
       8     247     248     245     244     169     170     167     166
       8     241     247     244     240     163     169     166     162
       8     249     250     242     251     171     172     164     173
       8     252     253     250     249     174     175     172     171
       8     254     255     253     252     176     177     175     174
       8     256     254     252     257     178     176     174     179
       8     258     243     242     250     180     165     164     172
       8     249     259     257     252     171     181     179     174
       8     234     237     251     242     156     159     173     164
       8     260     247     241     243     182     169     163     165
       8     261     260     243     258     183     182     165     180
       8     262     261     258     263     184     183     180     185
       8     253     263     258     250     175     185     180     172
       8     264     265     259     249     186     187     181     171
       8     266     264     249     251     188     186     171     173
       8     267     266     251     237     189     188     173     159
       8     268     238     236     269     190     160     158     191
       8     270     269     236     235     192     191     158     157
       8     246     270     235     240     168     192     157     162
       8     271     248     247     260     193     170     169     182
       8     272     271     260     261     194     193     182     183
       8     273     272     261     262     195     194     183     184
       8     274     273     262     275     196     195     184     197
       8     276     275     262     263     198     197     184     185
       8     255     276     263     253     177     198     185     175
       8     277     256     257     259     199     178     179     181
       8     278     277     259     265     200     199     181     187
       8     279     278     265     280     201     200     187     202
       8     281     280     265     264     203     202     187     186
       8     282     281     264     266     204     203     186     188
       8     283     282     266     267     205     204     188     189
       8     284     283     267     285     206     205     189     207
       8     239     285     267     237     161     207     189     159
       8     286     287     238     268     208     209     160     190
       8     288     286     268     269     210     208     190     191
       8     289     288     269     270     211     210     191     192
       8     290     289     270     246     212     211     192     168
       8     291     290     246     245     213     212     168     167
       8     292     291     245     248     214     213     167     170
       8     293     292     248     271     215     214     170     193
       8     294     293     271     272     216     215     193     194
       8     295     294     272     273     217     216     194     195
       8     296     295     273     274     218     217     195     196
       8     297     296     274     275     219     218     196     197
       8     298     297     275     276     220     219     197     198
       8     299     298     276     255     221     220     198     177
       8     300     299     255     254     222     221     177     176
       8     301     300     254     256     223     222     176     178
       8     302     301     256     277     224     223     178     199
       8     303     302     277     278     225     224     199     200
       8     304     303     278     279     226     225     200     201
       8     305     304     279     280     227     226     201     202
       8     306     305     280     281     228     227     202     203
       8     307     306     281     282     229     228     203     204
       8     308     307     282     283     230     229     204     205
       8     309     308     283     284     231     230     205     206
       8     310     309     284     285     232     231     206     207
       8     311     310     285     239     233     232     207     161
       8     287     311     239     238     209     233     161     160
       8     312     313     314     315     234     235     236     237
       8     314     316     317     315     236     238     239     237
       8     318     313     312     319     240     235     234     241
       8     312     320     321     319     234     242     243     241
       8     322     323     324     318     244     245     246     240
       8     325     326     323     322     247     248     245     244
       8     319     325     322     318     241     247     244     240
       8     327     328     320     329     249     250     242     251
       8     330     331     328     327     252     253     250     249
       8     332     333     331     330     254     255     253     252
       8     334     332     330     335     256     254     252     257
       8     336     321     320     328     258     243     242     250
       8     327     337     335     330     249     259     257     252
       8     312     315     329     320     234     237     251     242
       8     338     325     319     321     260     247     241     243
       8     339     338     321     336     261     260     243     258
       8     340     339     336     341     262     261     258     263
       8     331     341     336     328     253     263     258     250
       8     342     343     337     327     264     265     259     249
       8     344     342     327     329     266     264     249     251
       8     345     344     329     315     267     266     251     237
       8     346     316     314     347     268     238     236     269
       8     348     347     314     313     270     269     236     235
       8     324     348     313     318     246     270     235     240
       8     349     326     325     338     271     248     247     260
       8     350     349     338     339     272     271     260     261
       8     351     350     339     340     273     272     261     262
       8     352     351     340     353     274     273     262     275
       8     354     353     340     341     276     275     262     263
       8     333     354     341     331     255     276     263     253
       8     355     334     335     337     277     256     257     259
       8     356     355     337     343     278     277     259     265
       8     357     356     343     358     279     278     265     280
       8     359     358     343     342     281     280     265     264
       8     360     359     342     344     282     281     264     266
       8     361     360     344     345     283     282     266     267
       8     362     361     345     363     284     283     267     285
       8     317     363     345     315     239     285     267     237
       8     364     365     316     346     286     287     238     268
       8     366     364     346     347     288     286     268     269
       8     367     366     347     348     289     288     269     270
       8     368     367     348     324     290     289     270     246
       8     369     368     324     323     291     290     246     245
       8     370     369     323     326     292     291     245     248
       8     371     370     326     349     293     292     248     271
       8     372     371     349     350     294     293     271     272
       8     373     372     350     351     295     294     272     273
       8     374     373     351     352     296     295     273     274
       8     375     374     352     353     297     296     274     275
       8     376     375     353     354     298     297     275     276
       8     377     376     354     333     299     298     276     255
       8     378     377     333     332     300     299     255     254
       8     379     378     332     334     301     300     254     256
       8     380     379     334     355     302     301     256     277
       8     381     380     355     356     303     302     277     278
       8     382     381     356     357     304     303     278     279
       8     383     382     357     358     305     304     279     280
       8     384     383     358     359     306     305     280     281
       8     385     384     359     360     307     306     281     282
       8     386     385     360     361     308     307     282     283
       8     387     386     361     362     309     308     283     284
       8     388     387     362     363     310     309     284     285
       8     389     388     363     317     311     310     285     239
       8     365     389     317     316     287     311     239     238
       8     390     391     392     393     312     313     314     315
       8     392     394     395     393     314     316     317     315
       8     396     391     390     397     318     313     312     319
       8     390     398     399     397     312     320     321     319
       8     400     401     402     396     322     323     324     318
       8     403     404     401     400     325     326     323     322
       8     397     403     400     396     319     325     322     318
       8     405     406     398     407     327     328     320     329
       8     408     409     406     405     330     331     328     327
       8     410     411     409     408     332     333     331     330
       8     412     410     408     413     334     332     330     335
       8     414     399     398     406     336     321     320     328
       8     405     415     413     408     327     337     335     330
       8     390     393     407     398     312     315     329     320
       8     416     403     397     399     338     325     319     321
       8     417     416     399     414     339     338     321     336
       8     418     417     414     419     340     339     336     341
       8     409     419     414     406     331     341     336     328
       8     420     421     415     405     342     343     337     327
       8     422     420     405     407     344     342     327     329
       8     423     422     407     393     345     344     329     315
       8     424     394     392     425     346     316     314     347
       8     426     425     392     391     348     347     314     313
       8     402     426     391     396     324     348     313     318
       8     427     404     403     416     349     326     325     338
       8     428     427     416     417     350     349     338     339
       8     429     428     417     418     351     350     339     340
       8     430     429     418     431     352     351     340     353
       8     432     431     418     419     354     353     340     341
       8     411     432     419     409     333     354     341     331
       8     433     412     413     415     355     334     335     337
       8     434     433     415     421     356     355     337     343
       8     435     434     421     436     357     356     343     358
       8     437     436     421     420     359     358     343     342
       8     438     437     420     422     360     359     342     344
       8     439     438     422     423     361     360     344     345
       8     440     439     423     441     362     361     345     363
       8     395     441     423     393     317     363     345     315
       8     442     443     394     424     364     365     316     346
       8     444     442     424     425     366     364     346     347
       8     445     444     425     426     367     366     347     348
       8     446     445     426     402     368     367     348     324
       8     447     446     402     401     369     368     324     323
       8     448     447     401     404     370     369     323     326
       8     449     448     404     427     371     370     326     349
       8     450     449     427     428     372     371     349     350
       8     451     450     428     429     373     372     350     351
       8     452     451     429     430     374     373     351     352
       8     453     452     430     431     375     374     352     353
       8     454     453     431     432     376     375     353     354
       8     455     454     432     411     377     376     354     333
       8     456     455     411     410     378     377     333     332
       8     457     456     410     412     379     378     332     334
       8     458     457     412     433     380     379     334     355
       8     459     458     433     434     381     380     355     356
       8     460     459     434     435     382     381     356     357
       8     461     460     435     436     383     382     357     358
       8     462     461     436     437     384     383     358     359
       8     463     462     437     438     385     384     359     360
       8     464     463     438     439     386     385     360     361
       8     465     464     439     440     387     386     361     362
       8     466     465     440     441     388     387     362     363
       8     467     466     441     395     389     388     363     317
       8     443     467     395     394     365     389     317     316
       8     468     469     470     471     390     391     392     393
       8     470     472     473     471     392     394     395     393
       8     474     469     468     475     396     391     390     397
       8     468     476     477     475     390     398     399     397
       8     478     479     480     474     400     401     402     396
       8     481     482     479     478     403     404     401     400
       8     475     481     478     474     397     403     400     396
       8     483     484     476     485     405     406     398     407
       8     486     487     484     483     408     409     406     405
       8     488     489     487     486     410     411     409     408
       8     490     488     486     491     412     410     408     413
       8     492     477     476     484     414     399     398     406
       8     483     493     491     486     405     415     413     408
       8     468     471     485     476     390     393     407     398
       8     494     481     475     477     416     403     397     399
       8     495     494     477     492     417     416     399     414
       8     496     495     492     497     418     417     414     419
       8     487     497     492     484     409     419     414     406
       8     498     499     493     483     420     421     415     405
       8     500     498     483     485     422     420     405     407
       8     501     500     485     471     423     422     407     393
       8     502     472     470     503     424     394     392     425
       8     504     503     470     469     426     425     392     391
       8     480     504     469     474     402     426     391     396
       8     505     482     481     494     427     404     403     416
       8     506     505     494     495     428     427     416     417
       8     507     506     495     496     429     428     417     418
       8     508     507     496     509     430     429     418     431
       8     510     509     496     497     432     431     418     419
       8     489     510     497     487     411     432     419     409
       8     511     490     491     493     433     412     413     415
       8     512     511     493     499     434     433     415     421
       8     513     512     499     514     435     434     421     436
       8     515     514     499     498     437     436     421     420
       8     516     515     498     500     438     437     420     422
       8     517     516     500     501     439     438     422     423
       8     518     517     501     519     440     439     423     441
       8     473     519     501     471     395     441     423     393
       8     520     521     472     502     442     443     394     424
       8     522     520     502     503     444     442     424     425
       8     523     522     503     504     445     444     425     426
       8     524     523     504     480     446     445     426     402
       8     525     524     480     479     447     446     402     401
       8     526     525     479     482     448     447     401     404
       8     527     526     482     505     449     448     404     427
       8     528     527     505     506     450     449     427     428
       8     529     528     506     507     451     450     428     429
       8     530     529     507     508     452     451     429     430
       8     531     530     508     509     453     452     430     431
       8     532     531     509     510     454     453     431     432
       8     533     532     510     489     455     454     432     411
       8     534     533     489     488     456     455     411     410
       8     535     534     488     490     457     456     410     412
       8     536     535     490     511     458     457     412     433
       8     537     536     511     512     459     458     433     434
       8     538     537     512     513     460     459     434     435
       8     539     538     513     514     461     460     435     436
       8     540     539     514     515     462     461     436     437
       8     541     540     515     516     463     462     437     438
       8     542     541     516     517     464     463     438     439
       8     543     542     517     518     465     464     439     440
       8     544     543     518     519     466     465     440     441
       8     545     544     519     473     467     466     441     395
       8     521     545     473     472     443     467     395     394
       8     546     547     548     549     468     469     470     471
       8     548     550     551     549     470     472     473     471
       8     552     547     546     553     474     469     468     475
       8     546     554     555     553     468     476     477     475
       8     556     557     558     552     478     479     480     474
       8     559     560     557     556     481     482     479     478
       8     553     559     556     552     475     481     478     474
       8     561     562     554     563     483     484     476     485
       8     564     565     562     561     486     487     484     483
       8     566     567     565     564     488     489     487     486
       8     568     566     564     569     490     488     486     491
       8     570     555     554     562     492     477     476     484
       8     561     571     569     564     483     493     491     486
       8     546     549     563     554     468     471     485     476
       8     572     559     553     555     494     481     475     477
       8     573     572     555     570     495     494     477     492
       8     574     573     570     575     496     495     492     497
       8     565     575     570     562     487     497     492     484
       8     576     577     571     561     498     499     493     483
       8     578     576     561     563     500     498     483     485
       8     579     578     563     549     501     500     485     471
       8     580     550     548     581     502     472     470     503
       8     582     581     548     547     504     503     470     469
       8     558     582     547     552     480     504     469     474
       8     583     560     559     572     505     482     481     494
       8     584     583     572     573     506     505     494     495
       8     585     584     573     574     507     506     495     496
       8     586     585     574     587     508     507     496     509
       8     588     587     574     575     510     509     496     497
       8     567     588     575     565     489     510     497     487
       8     589     568     569     571     511     490     491     493
       8     590     589     571     577     512     511     493     499
       8     591     590     577     592     513     512     499     514
       8     593     592     577     576     515     514     499     498
       8     594     593     576     578     516     515     498     500
       8     595     594     578     579     517     516     500     501
       8     596     595     579     597     518     517     501     519
       8     551     597     579     549     473     519     501     471
       8     598     599     550     580     520     521     472     502
       8     600     598     580     581     522     520     502     503
       8     601     600     581     582     523     522     503     504
       8     602     601     582     558     524     523     504     480
       8     603     602     558     557     525     524     480     479
       8     604     603     557     560     526     525     479     482
       8     605     604     560     583     527     526     482     505
       8     606     605     583     584     528     527     505     506
       8     607     606     584     585     529     528     506     507
       8     608     607     585     586     530     529     507     508
       8     609     608     586     587     531     530     508     509
       8     610     609     587     588     532     531     509     510
       8     611     610     588     567     533     532     510     489
       8     612     611     567     566     534     533     489     488
       8     613     612     566     568     535     534     488     490
       8     614     613     568     589     536     535     490     511
       8     615     614     589     590     537     536     511     512
       8     616     615     590     591     538     537     512     513
       8     617     616     591     592     539     538     513     514
       8     618     617     592     593     540     539     514     515
       8     619     618     593     594     541     540     515     516
       8     620     619     594     595     542     541     516     517
       8     621     620     595     596     543     542     517     518
       8     622     621     596     597     544     543     518     519
       8     623     622     597     551     545     544     519     473
       8     599     623     551     550     521     545     473     472
       8     624     625     626     627     546     547     548     549
       8     626     628     629     627     548     550     551     549
       8     630     625     624     631     552     547     546     553
       8     624     632     633     631     546     554     555     553
       8     634     635     636     630     556     557     558     552
       8     637     638     635     634     559     560     557     556
       8     631     637     634     630     553     559     556     552
       8     639     640     632     641     561     562     554     563
       8     642     643     640     639     564     565     562     561
       8     644     645     643     642     566     567     565     564
       8     646     644     642     647     568     566     564     569
       8     648     633     632     640     570     555     554     562
       8     639     649     647     642     561     571     569     564
       8     624     627     641     632     546     549     563     554
       8     650     637     631     633     572     559     553     555
       8     651     650     633     648     573     572     555     570
       8     652     651     648     653     574     573     570     575
       8     643     653     648     640     565     575     570     562
       8     654     655     649     639     576     577     571     561
       8     656     654     639     641     578     576     561     563
       8     657     656     641     627     579     578     563     549
       8     658     628     626     659     580     550     548     581
       8     660     659     626     625     582     581     548     547
       8     636     660     625     630     558     582     547     552
       8     661     638     637     650     583     560     559     572
       8     662     661     650     651     584     583     572     573
       8     663     662     651     652     585     584     573     574
       8     664     663     652     665     586     585     574     587
       8     666     665     652     653     588     587     574     575
       8     645     666     653     643     567     588     575     565
       8     667     646     647     649     589     568     569     571
       8     668     667     649     655     590     589     571     577
       8     669     668     655     670     591     590     577     592
       8     671     670     655     654     593     592     577     576
       8     672     671     654     656     594     593     576     578
       8     673     672     656     657     595     594     578     579
       8     674     673     657     675     596     595     579     597
       8     629     675     657     627     551     597     579     549
       8     676     677     628     658     598     599     550     580
       8     678     676     658     659     600     598     580     581
       8     679     678     659     660     601     600     581     582
       8     680     679     660     636     602     601     582     558
       8     681     680     636     635     603     602     558     557
       8     682     681     635     638     604     603     557     560
       8     683     682     638     661     605     604     560     583
       8     684     683     661     662     606     605     583     584
       8     685     684     662     663     607     606     584     585
       8     686     685     663     664     608     607     585     586
       8     687     686     664     665     609     608     586     587
       8     688     687     665     666     610     609     587     588
       8     689     688     666     645     611     610     588     567
       8     690     689     645     644     612     611     567     566
       8     691     690     644     646     613     612     566     568
       8     692     691     646     667     614     613     568     589
       8     693     692     667     668     615     614     589     590
       8     694     693     668     669     616     615     590     591
       8     695     694     669     670     617     616     591     592
       8     696     695     670     671     618     617     592     593
       8     697     696     671     672     619     618     593     594
       8     698     697     672     673     620     619     594     595
       8     699     698     673     674     621     620     595     596
       8     700     699     674     675     622     621     596     597
       8     701     700     675     629     623     622     597     551
       8     677     701     629     628     599     623     551     550
       8     702     703     704     705     624     625     626     627
       8     704     706     707     705     626     628     629     627
       8     708     703     702     709     630     625     624     631
       8     702     710     711     709     624     632     633     631
       8     712     713     714     708     634     635     636     630
       8     715     716     713     712     637     638     635     634
       8     709     715     712     708     631     637     634     630
       8     717     718     710     719     639     640     632     641
       8     720     721     718     717     642     643     640     639
       8     722     723     721     720     644     645     643     642
       8     724     722     720     725     646     644     642     647
       8     726     711     710     718     648     633     632     640
       8     717     727     725     720     639     649     647     642
       8     702     705     719     710     624     627     641     632
       8     728     715     709     711     650     637     631     633
       8     729     728     711     726     651     650     633     648
       8     730     729     726     731     652     651     648     653
       8     721     731     726     718     643     653     648     640
       8     732     733     727     717     654     655     649     639
       8     734     732     717     719     656     654     639     641
       8     735     734     719     705     657     656     641     627
       8     736     706     704     737     658     628     626     659
       8     738     737     704     703     660     659     626     625
       8     714     738     703     708     636     660     625     630
       8     739     716     715     728     661     638     637     650
       8     740     739     728     729     662     661     650     651
       8     741     740     729     730     663     662     651     652
       8     742     741     730     743     664     663     652     665
       8     744     743     730     731     666     665     652     653
       8     723     744     731     721     645     666     653     643
       8     745     724     725     727     667     646     647     649
       8     746     745     727     733     668     667     649     655
       8     747     746     733     748     669     668     655     670
       8     749     748     733     732     671     670     655     654
       8     750     749     732     734     672     671     654     656
       8     751     750     734     735     673     672     656     657
       8     752     751     735     753     674     673     657     675
       8     707     753     735     705     629     675     657     627
       8     754     755     706     736     676     677     628     658
       8     756     754     736     737     678     676     658     659
       8     757     756     737     738     679     678     659     660
       8     758     757     738     714     680     679     660     636
       8     759     758     714     713     681     680     636     635
       8     760     759     713     716     682     681     635     638
       8     761     760     716     739     683     682     638     661
       8     762     761     739     740     684     683     661     662
       8     763     762     740     741     685     684     662     663
       8     764     763     741     742     686     685     663     664
       8     765     764     742     743     687     686     664     665
       8     766     765     743     744     688     687     665     666
       8     767     766     744     723     689     688     666     645
       8     768     767     723     722     690     689     645     644
       8     769     768     722     724     691     690     644     646
       8     770     769     724     745     692     691     646     667
       8     771     770     745     746     693     692     667     668
       8     772     771     746     747     694     693     668     669
       8     773     772     747     748     695     694     669     670
       8     774     773     748     749     696     695     670     671
       8     775     774     749     750     697     696     671     672
       8     776     775     750     751     698     697     672     673
       8     777     776     751     752     699     698     673     674
       8     778     777     752     753     700     699     674     675
       8     779     778     753     707     701     700     675     629
       8     755     779     707     706     677     701     629     628
       8     780     781     782     783     702     703     704     705
       8     782     784     785     783     704     706     707     705
       8     786     781     780     787     708     703     702     709
       8     780     788     789     787     702     710     711     709
       8     790     791     792     786     712     713     714     708
       8     793     794     791     790     715     716     713     712
       8     787     793     790     786     709     715     712     708
       8     795     796     788     797     717     718     710     719
       8     798     799     796     795     720     721     718     717
       8     800     801     799     798     722     723     721     720
       8     802     800     798     803     724     722     720     725
       8     804     789     788     796     726     711     710     718
       8     795     805     803     798     717     727     725     720
       8     780     783     797     788     702     705     719     710
       8     806     793     787     789     728     715     709     711
       8     807     806     789     804     729     728     711     726
       8     808     807     804     809     730     729     726     731
       8     799     809     804     796     721     731     726     718
       8     810     811     805     795     732     733     727     717
       8     812     810     795     797     734     732     717     719
       8     813     812     797     783     735     734     719     705
       8     814     784     782     815     736     706     704     737
       8     816     815     782     781     738     737     704     703
       8     792     816     781     786     714     738     703     708
       8     817     794     793     806     739     716     715     728
       8     818     817     806     807     740     739     728     729
       8     819     818     807     808     741     740     729     730
       8     820     819     808     821     742     741     730     743
       8     822     821     808     809     744     743     730     731
       8     801     822     809     799     723     744     731     721
       8     823     802     803     805     745     724     725     727
       8     824     823     805     811     746     745     727     733
       8     825     824     811     826     747     746     733     748
       8     827     826     811     810     749     748     733     732
       8     828     827     810     812     750     749     732     734
       8     829     828     812     813     751     750     734     735
       8     830     829     813     831     752     751     735     753
       8     785     831     813     783     707     753     735     705
       8     832     833     784     814     754     755     706     736
       8     834     832     814     815     756     754     736     737
       8     835     834     815     816     757     756     737     738
       8     836     835     816     792     758     757     738     714
       8     837     836     792     791     759     758     714     713
       8     838     837     791     794     760     759     713     716
       8     839     838     794     817     761     760     716     739
       8     840     839     817     818     762     761     739     740
       8     841     840     818     819     763     762     740     741
       8     842     841     819     820     764     763     741     742
       8     843     842     820     821     765     764     742     743
       8     844     843     821     822     766     765     743     744
       8     845     844     822     801     767     766     744     723
       8     846     845     801     800     768     767     723     722
       8     847     846     800     802     769     768     722     724
       8     848     847     802     823     770     769     724     745
       8     849     848     823     824     771     770     745     746
       8     850     849     824     825     772     771     746     747
       8     851     850     825     826     773     772     747     748
       8     852     851     826     827     774     773     748     749
       8     853     852     827     828     775     774     749     750
       8     854     853     828     829     776     775     750     751
       8     855     854     829     830     777     776     751     752
       8     856     855     830     831     778     777     752     753
       8     857     856     831     785     779     778     753     707
       8     833     857     785     784     755     779     707     706
       8     858     859     860     861     780     781     782     783
       8     860     862     863     861     782     784     785     783
       8     864     859     858     865     786     781     780     787
       8     858     866     867     865     780     788     789     787
       8     868     869     870     864     790     791     792     786
       8     871     872     869     868     793     794     791     790
       8     865     871     868     864     787     793     790     786
       8     873     874     866     875     795     796     788     797
       8     876     877     874     873     798     799     796     795
       8     878     879     877     876     800     801     799     798
       8     880     878     876     881     802     800     798     803
       8     882     867     866     874     804     789     788     796
       8     873     883     881     876     795     805     803     798
       8     858     861     875     866     780     783     797     788
       8     884     871     865     867     806     793     787     789
       8     885     884     867     882     807     806     789     804
       8     886     885     882     887     808     807     804     809
       8     877     887     882     874     799     809     804     796
       8     888     889     883     873     810     811     805     795
       8     890     888     873     875     812     810     795     797
       8     891     890     875     861     813     812     797     783
       8     892     862     860     893     814     784     782     815
       8     894     893     860     859     816     815     782     781
       8     870     894     859     864     792     816     781     786
       8     895     872     871     884     817     794     793     806
       8     896     895     884     885     818     817     806     807
       8     897     896     885     886     819     818     807     808
       8     898     897     886     899     820     819     808     821
       8     900     899     886     887     822     821     808     809
       8     879     900     887     877     801     822     809     799
       8     901     880     881     883     823     802     803     805
       8     902     901     883     889     824     823     805     811
       8     903     902     889     904     825     824     811     826
       8     905     904     889     888     827     826     811     810
       8     906     905     888     890     828     827     810     812
       8     907     906     890     891     829     828     812     813
       8     908     907     891     909     830     829     813     831
       8     863     909     891     861     785     831     813     783
       8     910     911     862     892     832     833     784     814
       8     912     910     892     893     834     832     814     815
       8     913     912     893     894     835     834     815     816
       8     914     913     894     870     836     835     816     792
       8     915     914     870     869     837     836     792     791
       8     916     915     869     872     838     837     791     794
       8     917     916     872     895     839     838     794     817
       8     918     917     895     896     840     839     817     818
       8     919     918     896     897     841     840     818     819
       8     920     919     897     898     842     841     819     820
       8     921     920     898     899     843     842     820     821
       8     922     921     899     900     844     843     821     822
       8     923     922     900     879     845     844     822     801
       8     924     923     879     878     846     845     801     800
       8     925     924     878     880     847     846     800     802
       8     926     925     880     901     848     847     802     823
       8     927     926     901     902     849     848     823     824
       8     928     927     902     903     850     849     824     825
       8     929     928     903     904     851     850     825     826
       8     930     929     904     905     852     851     826     827
       8     931     930     905     906     853     852     827     828
       8     932     931     906     907     854     853     828     829
       8     933     932     907     908     855     854     829     830
       8     934     933     908     909     856     855     830     831
       8     935     934     909     863     857     856     831     785
       8     911     935     863     862     833     857     785     784
       8     936     937     938     939     858     859     860     861
       8     938     940     941     939     860     862     863     861
       8     942     937     936     943     864     859     858     865
       8     936     944     945     943     858     866     867     865
       8     946     947     948     942     868     869     870     864
       8     949     950     947     946     871     872     869     868
       8     943     949     946     942     865     871     868     864
       8     951     952     944     953     873     874     866     875
       8     954     955     952     951     876     877     874     873
       8     956     957     955     954     878     879     877     876
       8     958     956     954     959     880     878     876     881
       8     960     945     944     952     882     867     866     874
       8     951     961     959     954     873     883     881     876
       8     936     939     953     944     858     861     875     866
       8     962     949     943     945     884     871     865     867
       8     963     962     945     960     885     884     867     882
       8     964     963     960     965     886     885     882     887
       8     955     965     960     952     877     887     882     874
       8     966     967     961     951     888     889     883     873
       8     968     966     951     953     890     888     873     875
       8     969     968     953     939     891     890     875     861
       8     970     940     938     971     892     862     860     893
       8     972     971     938     937     894     893     860     859
       8     948     972     937     942     870     894     859     864
       8     973     950     949     962     895     872     871     884
       8     974     973     962     963     896     895     884     885
       8     975     974     963     964     897     896     885     886
       8     976     975     964     977     898     897     886     899
       8     978     977     964     965     900     899     886     887
       8     957     978     965     955     879     900     887     877
       8     979     958     959     961     901     880     881     883
       8     980     979     961     967     902     901     883     889
       8     981     980     967     982     903     902     889     904
       8     983     982     967     966     905     904     889     888
       8     984     983     966     968     906     905     888     890
       8     985     984     968     969     907     906     890     891
       8     986     985     969     987     908     907     891     909
       8     941     987     969     939     863     909     891     861
       8     988     989     940     970     910     911     862     892
       8     990     988     970     971     912     910     892     893
       8     991     990     971     972     913     912     893     894
       8     992     991     972     948     914     913     894     870
       8     993     992     948     947     915     914     870     869
       8     994     993     947     950     916     915     869     872
       8     995     994     950     973     917     916     872     895
       8     996     995     973     974     918     917     895     896
       8     997     996     974     975     919     918     896     897
       8     998     997     975     976     920     919     897     898
       8     999     998     976     977     921     920     898     899
       8    1000     999     977     978     922     921     899     900
       8    1001    1000     978     957     923     922     900     879
       8    1002    1001     957     956     924     923     879     878
       8    1003    1002     956     958     925     924     878     880
       8    1004    1003     958     979     926     925     880     901
       8    1005    1004     979     980     927     926     901     902
       8    1006    1005     980     981     928     927     902     903
       8    1007    1006     981     982     929     928     903     904
       8    1008    1007     982     983     930     929     904     905
       8    1009    1008     983     984     931     930     905     906
       8    1010    1009     984     985     932     931     906     907
       8    1011    1010     985     986     933     932     907     908
       8    1012    1011     986     987     934     933     908     909
       8    1013    1012     987     941     935     934     909     863
       8     989    1013     941     940     911     935     863     862
       8    1014    1015    1016    1017     936     937     938     939
       8    1016    1018    1019    1017     938     940     941     939
       8    1020    1015    1014    1021     942     937     936     943
       8    1014    1022    1023    1021     936     944     945     943
       8    1024    1025    1026    1020     946     947     948     942
       8    1027    1028    1025    1024     949     950     947     946
       8    1021    1027    1024    1020     943     949     946     942
       8    1029    1030    1022    1031     951     952     944     953
       8    1032    1033    1030    1029     954     955     952     951
       8    1034    1035    1033    1032     956     957     955     954
       8    1036    1034    1032    1037     958     956     954     959
       8    1038    1023    1022    1030     960     945     944     952
       8    1029    1039    1037    1032     951     961     959     954
       8    1014    1017    1031    1022     936     939     953     944
       8    1040    1027    1021    1023     962     949     943     945
       8    1041    1040    1023    1038     963     962     945     960
       8    1042    1041    1038    1043     964     963     960     965
       8    1033    1043    1038    1030     955     965     960     952
       8    1044    1045    1039    1029     966     967     961     951
       8    1046    1044    1029    1031     968     966     951     953
       8    1047    1046    1031    1017     969     968     953     939
       8    1048    1018    1016    1049     970     940     938     971
       8    1050    1049    1016    1015     972     971     938     937
       8    1026    1050    1015    1020     948     972     937     942
       8    1051    1028    1027    1040     973     950     949     962
       8    1052    1051    1040    1041     974     973     962     963
       8    1053    1052    1041    1042     975     974     963     964
       8    1054    1053    1042    1055     976     975     964     977
       8    1056    1055    1042    1043     978     977     964     965
       8    1035    1056    1043    1033     957     978     965     955
       8    1057    1036    1037    1039     979     958     959     961
       8    1058    1057    1039    1045     980     979     961     967
       8    1059    1058    1045    1060     981     980     967     982
       8    1061    1060    1045    1044     983     982     967     966
       8    1062    1061    1044    1046     984     983     966     968
       8    1063    1062    1046    1047     985     984     968     969
       8    1064    1063    1047    1065     986     985     969     987
       8    1019    1065    1047    1017     941     987     969     939
       8    1066    1067    1018    1048     988     989     940     970
       8    1068    1066    1048    1049     990     988     970     971
       8    1069    1068    1049    1050     991     990     971     972
       8    1070    1069    1050    1026     992     991     972     948
       8    1071    1070    1026    1025     993     992     948     947
       8    1072    1071    1025    1028     994     993     947     950
       8    1073    1072    1028    1051     995     994     950     973
       8    1074    1073    1051    1052     996     995     973     974
       8    1075    1074    1052    1053     997     996     974     975
       8    1076    1075    1053    1054     998     997     975     976
       8    1077    1076    1054    1055     999     998     976     977
       8    1078    1077    1055    1056    1000     999     977     978
       8    1079    1078    1056    1035    1001    1000     978     957
       8    1080    1079    1035    1034    1002    1001     957     956
       8    1081    1080    1034    1036    1003    1002     956     958
       8    1082    1081    1036    1057    1004    1003     958     979
       8    1083    1082    1057    1058    1005    1004     979     980
       8    1084    1083    1058    1059    1006    1005     980     981
       8    1085    1084    1059    1060    1007    1006     981     982
       8    1086    1085    1060    1061    1008    1007     982     983
       8    1087    1086    1061    1062    1009    1008     983     984
       8    1088    1087    1062    1063    1010    1009     984     985
       8    1089    1088    1063    1064    1011    1010     985     986
       8    1090    1089    1064    1065    1012    1011     986     987
       8    1091    1090    1065    1019    1013    1012     987     941
       8    1067    1091    1019    1018     989    1013     941     940
       8    1092    1093    1094    1095    1014    1015    1016    1017
       8    1094    1096    1097    1095    1016    1018    1019    1017
       8    1098    1093    1092    1099    1020    1015    1014    1021
       8    1092    1100    1101    1099    1014    1022    1023    1021
       8    1102    1103    1104    1098    1024    1025    1026    1020
       8    1105    1106    1103    1102    1027    1028    1025    1024
       8    1099    1105    1102    1098    1021    1027    1024    1020
       8    1107    1108    1100    1109    1029    1030    1022    1031
       8    1110    1111    1108    1107    1032    1033    1030    1029
       8    1112    1113    1111    1110    1034    1035    1033    1032
       8    1114    1112    1110    1115    1036    1034    1032    1037
       8    1116    1101    1100    1108    1038    1023    1022    1030
       8    1107    1117    1115    1110    1029    1039    1037    1032
       8    1092    1095    1109    1100    1014    1017    1031    1022
       8    1118    1105    1099    1101    1040    1027    1021    1023
       8    1119    1118    1101    1116    1041    1040    1023    1038
       8    1120    1119    1116    1121    1042    1041    1038    1043
       8    1111    1121    1116    1108    1033    1043    1038    1030
       8    1122    1123    1117    1107    1044    1045    1039    1029
       8    1124    1122    1107    1109    1046    1044    1029    1031
       8    1125    1124    1109    1095    1047    1046    1031    1017
       8    1126    1096    1094    1127    1048    1018    1016    1049
       8    1128    1127    1094    1093    1050    1049    1016    1015
       8    1104    1128    1093    1098    1026    1050    1015    1020
       8    1129    1106    1105    1118    1051    1028    1027    1040
       8    1130    1129    1118    1119    1052    1051    1040    1041
       8    1131    1130    1119    1120    1053    1052    1041    1042
       8    1132    1131    1120    1133    1054    1053    1042    1055
       8    1134    1133    1120    1121    1056    1055    1042    1043
       8    1113    1134    1121    1111    1035    1056    1043    1033
       8    1135    1114    1115    1117    1057    1036    1037    1039
       8    1136    1135    1117    1123    1058    1057    1039    1045
       8    1137    1136    1123    1138    1059    1058    1045    1060
       8    1139    1138    1123    1122    1061    1060    1045    1044
       8    1140    1139    1122    1124    1062    1061    1044    1046
       8    1141    1140    1124    1125    1063    1062    1046    1047
       8    1142    1141    1125    1143    1064    1063    1047    1065
       8    1097    1143    1125    1095    1019    1065    1047    1017
       8    1144    1145    1096    1126    1066    1067    1018    1048
       8    1146    1144    1126    1127    1068    1066    1048    1049
       8    1147    1146    1127    1128    1069    1068    1049    1050
       8    1148    1147    1128    1104    1070    1069    1050    1026
       8    1149    1148    1104    1103    1071    1070    1026    1025
       8    1150    1149    1103    1106    1072    1071    1025    1028
       8    1151    1150    1106    1129    1073    1072    1028    1051
       8    1152    1151    1129    1130    1074    1073    1051    1052
       8    1153    1152    1130    1131    1075    1074    1052    1053
       8    1154    1153    1131    1132    1076    1075    1053    1054
       8    1155    1154    1132    1133    1077    1076    1054    1055
       8    1156    1155    1133    1134    1078    1077    1055    1056
       8    1157    1156    1134    1113    1079    1078    1056    1035
       8    1158    1157    1113    1112    1080    1079    1035    1034
       8    1159    1158    1112    1114    1081    1080    1034    1036
       8    1160    1159    1114    1135    1082    1081    1036    1057
       8    1161    1160    1135    1136    1083    1082    1057    1058
       8    1162    1161    1136    1137    1084    1083    1058    1059
       8    1163    1162    1137    1138    1085    1084    1059    1060
       8    1164    1163    1138    1139    1086    1085    1060    1061
       8    1165    1164    1139    1140    1087    1086    1061    1062
       8    1166    1165    1140    1141    1088    1087    1062    1063
       8    1167    1166    1141    1142    1089    1088    1063    1064
       8    1168    1167    1142    1143    1090    1089    1064    1065
       8    1169    1168    1143    1097    1091    1090    1065    1019
       8    1145    1169    1097    1096    1067    1091    1019    1018
       8    1170    1171    1172    1173    1092    1093    1094    1095
       8    1172    1174    1175    1173    1094    1096    1097    1095
       8    1176    1171    1170    1177    1098    1093    1092    1099
       8    1170    1178    1179    1177    1092    1100    1101    1099
       8    1180    1181    1182    1176    1102    1103    1104    1098
       8    1183    1184    1181    1180    1105    1106    1103    1102
       8    1177    1183    1180    1176    1099    1105    1102    1098
       8    1185    1186    1178    1187    1107    1108    1100    1109
       8    1188    1189    1186    1185    1110    1111    1108    1107
       8    1190    1191    1189    1188    1112    1113    1111    1110
       8    1192    1190    1188    1193    1114    1112    1110    1115
       8    1194    1179    1178    1186    1116    1101    1100    1108
       8    1185    1195    1193    1188    1107    1117    1115    1110
       8    1170    1173    1187    1178    1092    1095    1109    1100
       8    1196    1183    1177    1179    1118    1105    1099    1101
       8    1197    1196    1179    1194    1119    1118    1101    1116
       8    1198    1197    1194    1199    1120    1119    1116    1121
       8    1189    1199    1194    1186    1111    1121    1116    1108
       8    1200    1201    1195    1185    1122    1123    1117    1107
       8    1202    1200    1185    1187    1124    1122    1107    1109
       8    1203    1202    1187    1173    1125    1124    1109    1095
       8    1204    1174    1172    1205    1126    1096    1094    1127
       8    1206    1205    1172    1171    1128    1127    1094    1093
       8    1182    1206    1171    1176    1104    1128    1093    1098
       8    1207    1184    1183    1196    1129    1106    1105    1118
       8    1208    1207    1196    1197    1130    1129    1118    1119
       8    1209    1208    1197    1198    1131    1130    1119    1120
       8    1210    1209    1198    1211    1132    1131    1120    1133
       8    1212    1211    1198    1199    1134    1133    1120    1121
       8    1191    1212    1199    1189    1113    1134    1121    1111
       8    1213    1192    1193    1195    1135    1114    1115    1117
       8    1214    1213    1195    1201    1136    1135    1117    1123
       8    1215    1214    1201    1216    1137    1136    1123    1138
       8    1217    1216    1201    1200    1139    1138    1123    1122
       8    1218    1217    1200    1202    1140    1139    1122    1124
       8    1219    1218    1202    1203    1141    1140    1124    1125
       8    1220    1219    1203    1221    1142    1141    1125    1143
       8    1175    1221    1203    1173    1097    1143    1125    1095
       8    1222    1223    1174    1204    1144    1145    1096    1126
       8    1224    1222    1204    1205    1146    1144    1126    1127
       8    1225    1224    1205    1206    1147    1146    1127    1128
       8    1226    1225    1206    1182    1148    1147    1128    1104
       8    1227    1226    1182    1181    1149    1148    1104    1103
       8    1228    1227    1181    1184    1150    1149    1103    1106
       8    1229    1228    1184    1207    1151    1150    1106    1129
       8    1230    1229    1207    1208    1152    1151    1129    1130
       8    1231    1230    1208    1209    1153    1152    1130    1131
       8    1232    1231    1209    1210    1154    1153    1131    1132
       8    1233    1232    1210    1211    1155    1154    1132    1133
       8    1234    1233    1211    1212    1156    1155    1133    1134
       8    1235    1234    1212    1191    1157    1156    1134    1113
       8    1236    1235    1191    1190    1158    1157    1113    1112
       8    1237    1236    1190    1192    1159    1158    1112    1114
       8    1238    1237    1192    1213    1160    1159    1114    1135
       8    1239    1238    1213    1214    1161    1160    1135    1136
       8    1240    1239    1214    1215    1162    1161    1136    1137
       8    1241    1240    1215    1216    1163    1162    1137    1138
       8    1242    1241    1216    1217    1164    1163    1138    1139
       8    1243    1242    1217    1218    1165    1164    1139    1140
       8    1244    1243    1218    1219    1166    1165    1140    1141
       8    1245    1244    1219    1220    1167    1166    1141    1142
       8    1246    1245    1220    1221    1168    1167    1142    1143
       8    1247    1246    1221    1175    1169    1168    1143    1097
       8    1223    1247    1175    1174    1145    1169    1097    1096
       8    1248    1249    1250    1251    1170    1171    1172    1173
       8    1250    1252    1253    1251    1172    1174    1175    1173
       8    1254    1249    1248    1255    1176    1171    1170    1177
       8    1248    1256    1257    1255    1170    1178    1179    1177
       8    1258    1259    1260    1254    1180    1181    1182    1176
       8    1261    1262    1259    1258    1183    1184    1181    1180
       8    1255    1261    1258    1254    1177    1183    1180    1176
       8    1263    1264    1256    1265    1185    1186    1178    1187
       8    1266    1267    1264    1263    1188    1189    1186    1185
       8    1268    1269    1267    1266    1190    1191    1189    1188
       8    1270    1268    1266    1271    1192    1190    1188    1193
       8    1272    1257    1256    1264    1194    1179    1178    1186
       8    1263    1273    1271    1266    1185    1195    1193    1188
       8    1248    1251    1265    1256    1170    1173    1187    1178
       8    1274    1261    1255    1257    1196    1183    1177    1179
       8    1275    1274    1257    1272    1197    1196    1179    1194
       8    1276    1275    1272    1277    1198    1197    1194    1199
       8    1267    1277    1272    1264    1189    1199    1194    1186
       8    1278    1279    1273    1263    1200    1201    1195    1185
       8    1280    1278    1263    1265    1202    1200    1185    1187
       8    1281    1280    1265    1251    1203    1202    1187    1173
       8    1282    1252    1250    1283    1204    1174    1172    1205
       8    1284    1283    1250    1249    1206    1205    1172    1171
       8    1260    1284    1249    1254    1182    1206    1171    1176
       8    1285    1262    1261    1274    1207    1184    1183    1196
       8    1286    1285    1274    1275    1208    1207    1196    1197
       8    1287    1286    1275    1276    1209    1208    1197    1198
       8    1288    1287    1276    1289    1210    1209    1198    1211
       8    1290    1289    1276    1277    1212    1211    1198    1199
       8    1269    1290    1277    1267    1191    1212    1199    1189
       8    1291    1270    1271    1273    1213    1192    1193    1195
       8    1292    1291    1273    1279    1214    1213    1195    1201
       8    1293    1292    1279    1294    1215    1214    1201    1216
       8    1295    1294    1279    1278    1217    1216    1201    1200
       8    1296    1295    1278    1280    1218    1217    1200    1202
       8    1297    1296    1280    1281    1219    1218    1202    1203
       8    1298    1297    1281    1299    1220    1219    1203    1221
       8    1253    1299    1281    1251    1175    1221    1203    1173
       8    1300    1301    1252    1282    1222    1223    1174    1204
       8    1302    1300    1282    1283    1224    1222    1204    1205
       8    1303    1302    1283    1284    1225    1224    1205    1206
       8    1304    1303    1284    1260    1226    1225    1206    1182
       8    1305    1304    1260    1259    1227    1226    1182    1181
       8    1306    1305    1259    1262    1228    1227    1181    1184
       8    1307    1306    1262    1285    1229    1228    1184    1207
       8    1308    1307    1285    1286    1230    1229    1207    1208
       8    1309    1308    1286    1287    1231    1230    1208    1209
       8    1310    1309    1287    1288    1232    1231    1209    1210
       8    1311    1310    1288    1289    1233    1232    1210    1211
       8    1312    1311    1289    1290    1234    1233    1211    1212
       8    1313    1312    1290    1269    1235    1234    1212    1191
       8    1314    1313    1269    1268    1236    1235    1191    1190
       8    1315    1314    1268    1270    1237    1236    1190    1192
       8    1316    1315    1270    1291    1238    1237    1192    1213
       8    1317    1316    1291    1292    1239    1238    1213    1214
       8    1318    1317    1292    1293    1240    1239    1214    1215
       8    1319    1318    1293    1294    1241    1240    1215    1216
       8    1320    1319    1294    1295    1242    1241    1216    1217
       8    1321    1320    1295    1296    1243    1242    1217    1218
       8    1322    1321    1296    1297    1244    1243    1218    1219
       8    1323    1322    1297    1298    1245    1244    1219    1220
       8    1324    1323    1298    1299    1246    1245    1220    1221
       8    1325    1324    1299    1253    1247    1246    1221    1175
       8    1301    1325    1253    1252    1223    1247    1175    1174
       8    1326    1327    1328    1329    1248    1249    1250    1251
       8    1328    1330    1331    1329    1250    1252    1253    1251
       8    1332    1327    1326    1333    1254    1249    1248    1255
       8    1326    1334    1335    1333    1248    1256    1257    1255
       8    1336    1337    1338    1332    1258    1259    1260    1254
       8    1339    1340    1337    1336    1261    1262    1259    1258
       8    1333    1339    1336    1332    1255    1261    1258    1254
       8    1341    1342    1334    1343    1263    1264    1256    1265
       8    1344    1345    1342    1341    1266    1267    1264    1263
       8    1346    1347    1345    1344    1268    1269    1267    1266
       8    1348    1346    1344    1349    1270    1268    1266    1271
       8    1350    1335    1334    1342    1272    1257    1256    1264
       8    1341    1351    1349    1344    1263    1273    1271    1266
       8    1326    1329    1343    1334    1248    1251    1265    1256
       8    1352    1339    1333    1335    1274    1261    1255    1257
       8    1353    1352    1335    1350    1275    1274    1257    1272
       8    1354    1353    1350    1355    1276    1275    1272    1277
       8    1345    1355    1350    1342    1267    1277    1272    1264
       8    1356    1357    1351    1341    1278    1279    1273    1263
       8    1358    1356    1341    1343    1280    1278    1263    1265
       8    1359    1358    1343    1329    1281    1280    1265    1251
       8    1360    1330    1328    1361    1282    1252    1250    1283
       8    1362    1361    1328    1327    1284    1283    1250    1249
       8    1338    1362    1327    1332    1260    1284    1249    1254
       8    1363    1340    1339    1352    1285    1262    1261    1274
       8    1364    1363    1352    1353    1286    1285    1274    1275
       8    1365    1364    1353    1354    1287    1286    1275    1276
       8    1366    1365    1354    1367    1288    1287    1276    1289
       8    1368    1367    1354    1355    1290    1289    1276    1277
       8    1347    1368    1355    1345    1269    1290    1277    1267
       8    1369    1348    1349    1351    1291    1270    1271    1273
       8    1370    1369    1351    1357    1292    1291    1273    1279
       8    1371    1370    1357    1372    1293    1292    1279    1294
       8    1373    1372    1357    1356    1295    1294    1279    1278
       8    1374    1373    1356    1358    1296    1295    1278    1280
       8    1375    1374    1358    1359    1297    1296    1280    1281
       8    1376    1375    1359    1377    1298    1297    1281    1299
       8    1331    1377    1359    1329    1253    1299    1281    1251
       8    1378    1379    1330    1360    1300    1301    1252    1282
       8    1380    1378    1360    1361    1302    1300    1282    1283
       8    1381    1380    1361    1362    1303    1302    1283    1284
       8    1382    1381    1362    1338    1304    1303    1284    1260
       8    1383    1382    1338    1337    1305    1304    1260    1259
       8    1384    1383    1337    1340    1306    1305    1259    1262
       8    1385    1384    1340    1363    1307    1306    1262    1285
       8    1386    1385    1363    1364    1308    1307    1285    1286
       8    1387    1386    1364    1365    1309    1308    1286    1287
       8    1388    1387    1365    1366    1310    1309    1287    1288
       8    1389    1388    1366    1367    1311    1310    1288    1289
       8    1390    1389    1367    1368    1312    1311    1289    1290
       8    1391    1390    1368    1347    1313    1312    1290    1269
       8    1392    1391    1347    1346    1314    1313    1269    1268
       8    1393    1392    1346    1348    1315    1314    1268    1270
       8    1394    1393    1348    1369    1316    1315    1270    1291
       8    1395    1394    1369    1370    1317    1316    1291    1292
       8    1396    1395    1370    1371    1318    1317    1292    1293
       8    1397    1396    1371    1372    1319    1318    1293    1294
       8    1398    1397    1372    1373    1320    1319    1294    1295
       8    1399    1398    1373    1374    1321    1320    1295    1296
       8    1400    1399    1374    1375    1322    1321    1296    1297
       8    1401    1400    1375    1376    1323    1322    1297    1298
       8    1402    1401    1376    1377    1324    1323    1298    1299
       8    1403    1402    1377    1331    1325    1324    1299    1253
       8    1379    1403    1331    1330    1301    1325    1253    1252
       8    1404    1405    1406    1407    1326    1327    1328    1329
       8    1406    1408    1409    1407    1328    1330    1331    1329
       8    1410    1405    1404    1411    1332    1327    1326    1333
       8    1404    1412    1413    1411    1326    1334    1335    1333
       8    1414    1415    1416    1410    1336    1337    1338    1332
       8    1417    1418    1415    1414    1339    1340    1337    1336
       8    1411    1417    1414    1410    1333    1339    1336    1332
       8    1419    1420    1412    1421    1341    1342    1334    1343
       8    1422    1423    1420    1419    1344    1345    1342    1341
       8    1424    1425    1423    1422    1346    1347    1345    1344
       8    1426    1424    1422    1427    1348    1346    1344    1349
       8    1428    1413    1412    1420    1350    1335    1334    1342
       8    1419    1429    1427    1422    1341    1351    1349    1344
       8    1404    1407    1421    1412    1326    1329    1343    1334
       8    1430    1417    1411    1413    1352    1339    1333    1335
       8    1431    1430    1413    1428    1353    1352    1335    1350
       8    1432    1431    1428    1433    1354    1353    1350    1355
       8    1423    1433    1428    1420    1345    1355    1350    1342
       8    1434    1435    1429    1419    1356    1357    1351    1341
       8    1436    1434    1419    1421    1358    1356    1341    1343
       8    1437    1436    1421    1407    1359    1358    1343    1329
       8    1438    1408    1406    1439    1360    1330    1328    1361
       8    1440    1439    1406    1405    1362    1361    1328    1327
       8    1416    1440    1405    1410    1338    1362    1327    1332
       8    1441    1418    1417    1430    1363    1340    1339    1352
       8    1442    1441    1430    1431    1364    1363    1352    1353
       8    1443    1442    1431    1432    1365    1364    1353    1354
       8    1444    1443    1432    1445    1366    1365    1354    1367
       8    1446    1445    1432    1433    1368    1367    1354    1355
       8    1425    1446    1433    1423    1347    1368    1355    1345
       8    1447    1426    1427    1429    1369    1348    1349    1351
       8    1448    1447    1429    1435    1370    1369    1351    1357
       8    1449    1448    1435    1450    1371    1370    1357    1372
       8    1451    1450    1435    1434    1373    1372    1357    1356
       8    1452    1451    1434    1436    1374    1373    1356    1358
       8    1453    1452    1436    1437    1375    1374    1358    1359
       8    1454    1453    1437    1455    1376    1375    1359    1377
       8    1409    1455    1437    1407    1331    1377    1359    1329
       8    1456    1457    1408    1438    1378    1379    1330    1360
       8    1458    1456    1438    1439    1380    1378    1360    1361
       8    1459    1458    1439    1440    1381    1380    1361    1362
       8    1460    1459    1440    1416    1382    1381    1362    1338
       8    1461    1460    1416    1415    1383    1382    1338    1337
       8    1462    1461    1415    1418    1384    1383    1337    1340
       8    1463    1462    1418    1441    1385    1384    1340    1363
       8    1464    1463    1441    1442    1386    1385    1363    1364
       8    1465    1464    1442    1443    1387    1386    1364    1365
       8    1466    1465    1443    1444    1388    1387    1365    1366
       8    1467    1466    1444    1445    1389    1388    1366    1367
       8    1468    1467    1445    1446    1390    1389    1367    1368
       8    1469    1468    1446    1425    1391    1390    1368    1347
       8    1470    1469    1425    1424    1392    1391    1347    1346
       8    1471    1470    1424    1426    1393    1392    1346    1348
       8    1472    1471    1426    1447    1394    1393    1348    1369
       8    1473    1472    1447    1448    1395    1394    1369    1370
       8    1474    1473    1448    1449    1396    1395    1370    1371
       8    1475    1474    1449    1450    1397    1396    1371    1372
       8    1476    1475    1450    1451    1398    1397    1372    1373
       8    1477    1476    1451    1452    1399    1398    1373    1374
       8    1478    1477    1452    1453    1400    1399    1374    1375
       8    1479    1478    1453    1454    1401    1400    1375    1376
       8    1480    1479    1454    1455    1402    1401    1376    1377
       8    1481    1480    1455    1409    1403    1402    1377    1331
       8    1457    1481    1409    1408    1379    1403    1331    1330
       8    1482    1483    1484    1485    1404    1405    1406    1407
       8    1484    1486    1487    1485    1406    1408    1409    1407
       8    1488    1483    1482    1489    1410    1405    1404    1411
       8    1482    1490    1491    1489    1404    1412    1413    1411
       8    1492    1493    1494    1488    1414    1415    1416    1410
       8    1495    1496    1493    1492    1417    1418    1415    1414
       8    1489    1495    1492    1488    1411    1417    1414    1410
       8    1497    1498    1490    1499    1419    1420    1412    1421
       8    1500    1501    1498    1497    1422    1423    1420    1419
       8    1502    1503    1501    1500    1424    1425    1423    1422
       8    1504    1502    1500    1505    1426    1424    1422    1427
       8    1506    1491    1490    1498    1428    1413    1412    1420
       8    1497    1507    1505    1500    1419    1429    1427    1422
       8    1482    1485    1499    1490    1404    1407    1421    1412
       8    1508    1495    1489    1491    1430    1417    1411    1413
       8    1509    1508    1491    1506    1431    1430    1413    1428
       8    1510    1509    1506    1511    1432    1431    1428    1433
       8    1501    1511    1506    1498    1423    1433    1428    1420
       8    1512    1513    1507    1497    1434    1435    1429    1419
       8    1514    1512    1497    1499    1436    1434    1419    1421
       8    1515    1514    1499    1485    1437    1436    1421    1407
       8    1516    1486    1484    1517    1438    1408    1406    1439
       8    1518    1517    1484    1483    1440    1439    1406    1405
       8    1494    1518    1483    1488    1416    1440    1405    1410
       8    1519    1496    1495    1508    1441    1418    1417    1430
       8    1520    1519    1508    1509    1442    1441    1430    1431
       8    1521    1520    1509    1510    1443    1442    1431    1432
       8    1522    1521    1510    1523    1444    1443    1432    1445
       8    1524    1523    1510    1511    1446    1445    1432    1433
       8    1503    1524    1511    1501    1425    1446    1433    1423
       8    1525    1504    1505    1507    1447    1426    1427    1429
       8    1526    1525    1507    1513    1448    1447    1429    1435
       8    1527    1526    1513    1528    1449    1448    1435    1450
       8    1529    1528    1513    1512    1451    1450    1435    1434
       8    1530    1529    1512    1514    1452    1451    1434    1436
       8    1531    1530    1514    1515    1453    1452    1436    1437
       8    1532    1531    1515    1533    1454    1453    1437    1455
       8    1487    1533    1515    1485    1409    1455    1437    1407
       8    1534    1535    1486    1516    1456    1457    1408    1438
       8    1536    1534    1516    1517    1458    1456    1438    1439
       8    1537    1536    1517    1518    1459    1458    1439    1440
       8    1538    1537    1518    1494    1460    1459    1440    1416
       8    1539    1538    1494    1493    1461    1460    1416    1415
       8    1540    1539    1493    1496    1462    1461    1415    1418
       8    1541    1540    1496    1519    1463    1462    1418    1441
       8    1542    1541    1519    1520    1464    1463    1441    1442
       8    1543    1542    1520    1521    1465    1464    1442    1443
       8    1544    1543    1521    1522    1466    1465    1443    1444
       8    1545    1544    1522    1523    1467    1466    1444    1445
       8    1546    1545    1523    1524    1468    1467    1445    1446
       8    1547    1546    1524    1503    1469    1468    1446    1425
       8    1548    1547    1503    1502    1470    1469    1425    1424
       8    1549    1548    1502    1504    1471    1470    1424    1426
       8    1550    1549    1504    1525    1472    1471    1426    1447
       8    1551    1550    1525    1526    1473    1472    1447    1448
       8    1552    1551    1526    1527    1474    1473    1448    1449
       8    1553    1552    1527    1528    1475    1474    1449    1450
       8    1554    1553    1528    1529    1476    1475    1450    1451
       8    1555    1554    1529    1530    1477    1476    1451    1452
       8    1556    1555    1530    1531    1478    1477    1452    1453
       8    1557    1556    1531    1532    1479    1478    1453    1454
       8    1558    1557    1532    1533    1480    1479    1454    1455
       8    1559    1558    1533    1487    1481    1480    1455    1409
       8    1535    1559    1487    1486    1457    1481    1409    1408
       8    1560    1561    1562    1563    1482    1483    1484    1485
       8    1562    1564    1565    1563    1484    1486    1487    1485
       8    1566    1561    1560    1567    1488    1483    1482    1489
       8    1560    1568    1569    1567    1482    1490    1491    1489
       8    1570    1571    1572    1566    1492    1493    1494    1488
       8    1573    1574    1571    1570    1495    1496    1493    1492
       8    1567    1573    1570    1566    1489    1495    1492    1488
       8    1575    1576    1568    1577    1497    1498    1490    1499
       8    1578    1579    1576    1575    1500    1501    1498    1497
       8    1580    1581    1579    1578    1502    1503    1501    1500
       8    1582    1580    1578    1583    1504    1502    1500    1505
       8    1584    1569    1568    1576    1506    1491    1490    1498
       8    1575    1585    1583    1578    1497    1507    1505    1500
       8    1560    1563    1577    1568    1482    1485    1499    1490
       8    1586    1573    1567    1569    1508    1495    1489    1491
       8    1587    1586    1569    1584    1509    1508    1491    1506
       8    1588    1587    1584    1589    1510    1509    1506    1511
       8    1579    1589    1584    1576    1501    1511    1506    1498
       8    1590    1591    1585    1575    1512    1513    1507    1497
       8    1592    1590    1575    1577    1514    1512    1497    1499
       8    1593    1592    1577    1563    1515    1514    1499    1485
       8    1594    1564    1562    1595    1516    1486    1484    1517
       8    1596    1595    1562    1561    1518    1517    1484    1483
       8    1572    1596    1561    1566    1494    1518    1483    1488
       8    1597    1574    1573    1586    1519    1496    1495    1508
       8    1598    1597    1586    1587    1520    1519    1508    1509
       8    1599    1598    1587    1588    1521    1520    1509    1510
       8    1600    1599    1588    1601    1522    1521    1510    1523
       8    1602    1601    1588    1589    1524    1523    1510    1511
       8    1581    1602    1589    1579    1503    1524    1511    1501
       8    1603    1582    1583    1585    1525    1504    1505    1507
       8    1604    1603    1585    1591    1526    1525    1507    1513
       8    1605    1604    1591    1606    1527    1526    1513    1528
       8    1607    1606    1591    1590    1529    1528    1513    1512
       8    1608    1607    1590    1592    1530    1529    1512    1514
       8    1609    1608    1592    1593    1531    1530    1514    1515
       8    1610    1609    1593    1611    1532    1531    1515    1533
       8    1565    1611    1593    1563    1487    1533    1515    1485
       8    1612    1613    1564    1594    1534    1535    1486    1516
       8    1614    1612    1594    1595    1536    1534    1516    1517
       8    1615    1614    1595    1596    1537    1536    1517    1518
       8    1616    1615    1596    1572    1538    1537    1518    1494
       8    1617    1616    1572    1571    1539    1538    1494    1493
       8    1618    1617    1571    1574    1540    1539    1493    1496
       8    1619    1618    1574    1597    1541    1540    1496    1519
       8    1620    1619    1597    1598    1542    1541    1519    1520
       8    1621    1620    1598    1599    1543    1542    1520    1521
       8    1622    1621    1599    1600    1544    1543    1521    1522
       8    1623    1622    1600    1601    1545    1544    1522    1523
       8    1624    1623    1601    1602    1546    1545    1523    1524
       8    1625    1624    1602    1581    1547    1546    1524    1503
       8    1626    1625    1581    1580    1548    1547    1503    1502
       8    1627    1626    1580    1582    1549    1548    1502    1504
       8    1628    1627    1582    1603    1550    1549    1504    1525
       8    1629    1628    1603    1604    1551    1550    1525    1526
       8    1630    1629    1604    1605    1552    1551    1526    1527
       8    1631    1630    1605    1606    1553    1552    1527    1528
       8    1632    1631    1606    1607    1554    1553    1528    1529
       8    1633    1632    1607    1608    1555    1554    1529    1530
       8    1634    1633    1608    1609    1556    1555    1530    1531
       8    1635    1634    1609    1610    1557    1556    1531    1532
       8    1636    1635    1610    1611    1558    1557    1532    1533
       8    1637    1636    1611    1565    1559    1558    1533    1487
       8    1613    1637    1565    1564    1535    1559    1487    1486
       8    1638    1639    1640    1641    1560    1561    1562    1563
       8    1640    1642    1643    1641    1562    1564    1565    1563
       8    1644    1639    1638    1645    1566    1561    1560    1567
       8    1638    1646    1647    1645    1560    1568    1569    1567
       8    1648    1649    1650    1644    1570    1571    1572    1566
       8    1651    1652    1649    1648    1573    1574    1571    1570
       8    1645    1651    1648    1644    1567    1573    1570    1566
       8    1653    1654    1646    1655    1575    1576    1568    1577
       8    1656    1657    1654    1653    1578    1579    1576    1575
       8    1658    1659    1657    1656    1580    1581    1579    1578
       8    1660    1658    1656    1661    1582    1580    1578    1583
       8    1662    1647    1646    1654    1584    1569    1568    1576
       8    1653    1663    1661    1656    1575    1585    1583    1578
       8    1638    1641    1655    1646    1560    1563    1577    1568
       8    1664    1651    1645    1647    1586    1573    1567    1569
       8    1665    1664    1647    1662    1587    1586    1569    1584
       8    1666    1665    1662    1667    1588    1587    1584    1589
       8    1657    1667    1662    1654    1579    1589    1584    1576
       8    1668    1669    1663    1653    1590    1591    1585    1575
       8    1670    1668    1653    1655    1592    1590    1575    1577
       8    1671    1670    1655    1641    1593    1592    1577    1563
       8    1672    1642    1640    1673    1594    1564    1562    1595
       8    1674    1673    1640    1639    1596    1595    1562    1561
       8    1650    1674    1639    1644    1572    1596    1561    1566
       8    1675    1652    1651    1664    1597    1574    1573    1586
       8    1676    1675    1664    1665    1598    1597    1586    1587
       8    1677    1676    1665    1666    1599    1598    1587    1588
       8    1678    1677    1666    1679    1600    1599    1588    1601
       8    1680    1679    1666    1667    1602    1601    1588    1589
       8    1659    1680    1667    1657    1581    1602    1589    1579
       8    1681    1660    1661    1663    1603    1582    1583    1585
       8    1682    1681    1663    1669    1604    1603    1585    1591
       8    1683    1682    1669    1684    1605    1604    1591    1606
       8    1685    1684    1669    1668    1607    1606    1591    1590
       8    1686    1685    1668    1670    1608    1607    1590    1592
       8    1687    1686    1670    1671    1609    1608    1592    1593
       8    1688    1687    1671    1689    1610    1609    1593    1611
       8    1643    1689    1671    1641    1565    1611    1593    1563
       8    1690    1691    1642    1672    1612    1613    1564    1594
       8    1692    1690    1672    1673    1614    1612    1594    1595
       8    1693    1692    1673    1674    1615    1614    1595    1596
       8    1694    1693    1674    1650    1616    1615    1596    1572
       8    1695    1694    1650    1649    1617    1616    1572    1571
       8    1696    1695    1649    1652    1618    1617    1571    1574
       8    1697    1696    1652    1675    1619    1618    1574    1597
       8    1698    1697    1675    1676    1620    1619    1597    1598
       8    1699    1698    1676    1677    1621    1620    1598    1599
       8    1700    1699    1677    1678    1622    1621    1599    1600
       8    1701    1700    1678    1679    1623    1622    1600    1601
       8    1702    1701    1679    1680    1624    1623    1601    1602
       8    1703    1702    1680    1659    1625    1624    1602    1581
       8    1704    1703    1659    1658    1626    1625    1581    1580
       8    1705    1704    1658    1660    1627    1626    1580    1582
       8    1706    1705    1660    1681    1628    1627    1582    1603
       8    1707    1706    1681    1682    1629    1628    1603    1604
       8    1708    1707    1682    1683    1630    1629    1604    1605
       8    1709    1708    1683    1684    1631    1630    1605    1606
       8    1710    1709    1684    1685    1632    1631    1606    1607
       8    1711    1710    1685    1686    1633    1632    1607    1608
       8    1712    1711    1686    1687    1634    1633    1608    1609
       8    1713    1712    1687    1688    1635    1634    1609    1610
       8    1714    1713    1688    1689    1636    1635    1610    1611
       8    1715    1714    1689    1643    1637    1636    1611    1565
       8    1691    1715    1643    1642    1613    1637    1565    1564
       8    1716    1717    1718    1719    1638    1639    1640    1641
       8    1718    1720    1721    1719    1640    1642    1643    1641
       8    1722    1717    1716    1723    1644    1639    1638    1645
       8    1716    1724    1725    1723    1638    1646    1647    1645
       8    1726    1727    1728    1722    1648    1649    1650    1644
       8    1729    1730    1727    1726    1651    1652    1649    1648
       8    1723    1729    1726    1722    1645    1651    1648    1644
       8    1731    1732    1724    1733    1653    1654    1646    1655
       8    1734    1735    1732    1731    1656    1657    1654    1653
       8    1736    1737    1735    1734    1658    1659    1657    1656
       8    1738    1736    1734    1739    1660    1658    1656    1661
       8    1740    1725    1724    1732    1662    1647    1646    1654
       8    1731    1741    1739    1734    1653    1663    1661    1656
       8    1716    1719    1733    1724    1638    1641    1655    1646
       8    1742    1729    1723    1725    1664    1651    1645    1647
       8    1743    1742    1725    1740    1665    1664    1647    1662
       8    1744    1743    1740    1745    1666    1665    1662    1667
       8    1735    1745    1740    1732    1657    1667    1662    1654
       8    1746    1747    1741    1731    1668    1669    1663    1653
       8    1748    1746    1731    1733    1670    1668    1653    1655
       8    1749    1748    1733    1719    1671    1670    1655    1641
       8    1750    1720    1718    1751    1672    1642    1640    1673
       8    1752    1751    1718    1717    1674    1673    1640    1639
       8    1728    1752    1717    1722    1650    1674    1639    1644
       8    1753    1730    1729    1742    1675    1652    1651    1664
       8    1754    1753    1742    1743    1676    1675    1664    1665
       8    1755    1754    1743    1744    1677    1676    1665    1666
       8    1756    1755    1744    1757    1678    1677    1666    1679
       8    1758    1757    1744    1745    1680    1679    1666    1667
       8    1737    1758    1745    1735    1659    1680    1667    1657
       8    1759    1738    1739    1741    1681    1660    1661    1663
       8    1760    1759    1741    1747    1682    1681    1663    1669
       8    1761    1760    1747    1762    1683    1682    1669    1684
       8    1763    1762    1747    1746    1685    1684    1669    1668
       8    1764    1763    1746    1748    1686    1685    1668    1670
       8    1765    1764    1748    1749    1687    1686    1670    1671
       8    1766    1765    1749    1767    1688    1687    1671    1689
       8    1721    1767    1749    1719    1643    1689    1671    1641
       8    1768    1769    1720    1750    1690    1691    1642    1672
       8    1770    1768    1750    1751    1692    1690    1672    1673
       8    1771    1770    1751    1752    1693    1692    1673    1674
       8    1772    1771    1752    1728    1694    1693    1674    1650
       8    1773    1772    1728    1727    1695    1694    1650    1649
       8    1774    1773    1727    1730    1696    1695    1649    1652
       8    1775    1774    1730    1753    1697    1696    1652    1675
       8    1776    1775    1753    1754    1698    1697    1675    1676
       8    1777    1776    1754    1755    1699    1698    1676    1677
       8    1778    1777    1755    1756    1700    1699    1677    1678
       8    1779    1778    1756    1757    1701    1700    1678    1679
       8    1780    1779    1757    1758    1702    1701    1679    1680
       8    1781    1780    1758    1737    1703    1702    1680    1659
       8    1782    1781    1737    1736    1704    1703    1659    1658
       8    1783    1782    1736    1738    1705    1704    1658    1660
       8    1784    1783    1738    1759    1706    1705    1660    1681
       8    1785    1784    1759    1760    1707    1706    1681    1682
       8    1786    1785    1760    1761    1708    1707    1682    1683
       8    1787    1786    1761    1762    1709    1708    1683    1684
       8    1788    1787    1762    1763    1710    1709    1684    1685
       8    1789    1788    1763    1764    1711    1710    1685    1686
       8    1790    1789    1764    1765    1712    1711    1686    1687
       8    1791    1790    1765    1766    1713    1712    1687    1688
       8    1792    1791    1766    1767    1714    1713    1688    1689
       8    1793    1792    1767    1721    1715    1714    1689    1643
       8    1769    1793    1721    1720    1691    1715    1643    1642
       8    1794    1795    1796    1797    1716    1717    1718    1719
       8    1796    1798    1799    1797    1718    1720    1721    1719
       8    1800    1795    1794    1801    1722    1717    1716    1723
       8    1794    1802    1803    1801    1716    1724    1725    1723
       8    1804    1805    1806    1800    1726    1727    1728    1722
       8    1807    1808    1805    1804    1729    1730    1727    1726
       8    1801    1807    1804    1800    1723    1729    1726    1722
       8    1809    1810    1802    1811    1731    1732    1724    1733
       8    1812    1813    1810    1809    1734    1735    1732    1731
       8    1814    1815    1813    1812    1736    1737    1735    1734
       8    1816    1814    1812    1817    1738    1736    1734    1739
       8    1818    1803    1802    1810    1740    1725    1724    1732
       8    1809    1819    1817    1812    1731    1741    1739    1734
       8    1794    1797    1811    1802    1716    1719    1733    1724
       8    1820    1807    1801    1803    1742    1729    1723    1725
       8    1821    1820    1803    1818    1743    1742    1725    1740
       8    1822    1821    1818    1823    1744    1743    1740    1745
       8    1813    1823    1818    1810    1735    1745    1740    1732
       8    1824    1825    1819    1809    1746    1747    1741    1731
       8    1826    1824    1809    1811    1748    1746    1731    1733
       8    1827    1826    1811    1797    1749    1748    1733    1719
       8    1828    1798    1796    1829    1750    1720    1718    1751
       8    1830    1829    1796    1795    1752    1751    1718    1717
       8    1806    1830    1795    1800    1728    1752    1717    1722
       8    1831    1808    1807    1820    1753    1730    1729    1742
       8    1832    1831    1820    1821    1754    1753    1742    1743
       8    1833    1832    1821    1822    1755    1754    1743    1744
       8    1834    1833    1822    1835    1756    1755    1744    1757
       8    1836    1835    1822    1823    1758    1757    1744    1745
       8    1815    1836    1823    1813    1737    1758    1745    1735
       8    1837    1816    1817    1819    1759    1738    1739    1741
       8    1838    1837    1819    1825    1760    1759    1741    1747
       8    1839    1838    1825    1840    1761    1760    1747    1762
       8    1841    1840    1825    1824    1763    1762    1747    1746
       8    1842    1841    1824    1826    1764    1763    1746    1748
       8    1843    1842    1826    1827    1765    1764    1748    1749
       8    1844    1843    1827    1845    1766    1765    1749    1767
       8    1799    1845    1827    1797    1721    1767    1749    1719
       8    1846    1847    1798    1828    1768    1769    1720    1750
       8    1848    1846    1828    1829    1770    1768    1750    1751
       8    1849    1848    1829    1830    1771    1770    1751    1752
       8    1850    1849    1830    1806    1772    1771    1752    1728
       8    1851    1850    1806    1805    1773    1772    1728    1727
       8    1852    1851    1805    1808    1774    1773    1727    1730
       8    1853    1852    1808    1831    1775    1774    1730    1753
       8    1854    1853    1831    1832    1776    1775    1753    1754
       8    1855    1854    1832    1833    1777    1776    1754    1755
       8    1856    1855    1833    1834    1778    1777    1755    1756
       8    1857    1856    1834    1835    1779    1778    1756    1757
       8    1858    1857    1835    1836    1780    1779    1757    1758
       8    1859    1858    1836    1815    1781    1780    1758    1737
       8    1860    1859    1815    1814    1782    1781    1737    1736
       8    1861    1860    1814    1816    1783    1782    1736    1738
       8    1862    1861    1816    1837    1784    1783    1738    1759
       8    1863    1862    1837    1838    1785    1784    1759    1760
       8    1864    1863    1838    1839    1786    1785    1760    1761
       8    1865    1864    1839    1840    1787    1786    1761    1762
       8    1866    1865    1840    1841    1788    1787    1762    1763
       8    1867    1866    1841    1842    1789    1788    1763    1764
       8    1868    1867    1842    1843    1790    1789    1764    1765
       8    1869    1868    1843    1844    1791    1790    1765    1766
       8    1870    1869    1844    1845    1792    1791    1766    1767
       8    1871    1870    1845    1799    1793    1792    1767    1721
       8    1847    1871    1799    1798    1769    1793    1721    1720
       8    1872    1873    1874    1875    1794    1795    1796    1797
       8    1874    1876    1877    1875    1796    1798    1799    1797
       8    1878    1873    1872    1879    1800    1795    1794    1801
       8    1872    1880    1881    1879    1794    1802    1803    1801
       8    1882    1883    1884    1878    1804    1805    1806    1800
       8    1885    1886    1883    1882    1807    1808    1805    1804
       8    1879    1885    1882    1878    1801    1807    1804    1800
       8    1887    1888    1880    1889    1809    1810    1802    1811
       8    1890    1891    1888    1887    1812    1813    1810    1809
       8    1892    1893    1891    1890    1814    1815    1813    1812
       8    1894    1892    1890    1895    1816    1814    1812    1817
       8    1896    1881    1880    1888    1818    1803    1802    1810
       8    1887    1897    1895    1890    1809    1819    1817    1812
       8    1872    1875    1889    1880    1794    1797    1811    1802
       8    1898    1885    1879    1881    1820    1807    1801    1803
       8    1899    1898    1881    1896    1821    1820    1803    1818
       8    1900    1899    1896    1901    1822    1821    1818    1823
       8    1891    1901    1896    1888    1813    1823    1818    1810
       8    1902    1903    1897    1887    1824    1825    1819    1809
       8    1904    1902    1887    1889    1826    1824    1809    1811
       8    1905    1904    1889    1875    1827    1826    1811    1797
       8    1906    1876    1874    1907    1828    1798    1796    1829
       8    1908    1907    1874    1873    1830    1829    1796    1795
       8    1884    1908    1873    1878    1806    1830    1795    1800
       8    1909    1886    1885    1898    1831    1808    1807    1820
       8    1910    1909    1898    1899    1832    1831    1820    1821
       8    1911    1910    1899    1900    1833    1832    1821    1822
       8    1912    1911    1900    1913    1834    1833    1822    1835
       8    1914    1913    1900    1901    1836    1835    1822    1823
       8    1893    1914    1901    1891    1815    1836    1823    1813
       8    1915    1894    1895    1897    1837    1816    1817    1819
       8    1916    1915    1897    1903    1838    1837    1819    1825
       8    1917    1916    1903    1918    1839    1838    1825    1840
       8    1919    1918    1903    1902    1841    1840    1825    1824
       8    1920    1919    1902    1904    1842    1841    1824    1826
       8    1921    1920    1904    1905    1843    1842    1826    1827
       8    1922    1921    1905    1923    1844    1843    1827    1845
       8    1877    1923    1905    1875    1799    1845    1827    1797
       8    1924    1925    1876    1906    1846    1847    1798    1828
       8    1926    1924    1906    1907    1848    1846    1828    1829
       8    1927    1926    1907    1908    1849    1848    1829    1830
       8    1928    1927    1908    1884    1850    1849    1830    1806
       8    1929    1928    1884    1883    1851    1850    1806    1805
       8    1930    1929    1883    1886    1852    1851    1805    1808
       8    1931    1930    1886    1909    1853    1852    1808    1831
       8    1932    1931    1909    1910    1854    1853    1831    1832
       8    1933    1932    1910    1911    1855    1854    1832    1833
       8    1934    1933    1911    1912    1856    1855    1833    1834
       8    1935    1934    1912    1913    1857    1856    1834    1835
       8    1936    1935    1913    1914    1858    1857    1835    1836
       8    1937    1936    1914    1893    1859    1858    1836    1815
       8    1938    1937    1893    1892    1860    1859    1815    1814
       8    1939    1938    1892    1894    1861    1860    1814    1816
       8    1940    1939    1894    1915    1862    1861    1816    1837
       8    1941    1940    1915    1916    1863    1862    1837    1838
       8    1942    1941    1916    1917    1864    1863    1838    1839
       8    1943    1942    1917    1918    1865    1864    1839    1840
       8    1944    1943    1918    1919    1866    1865    1840    1841
       8    1945    1944    1919    1920    1867    1866    1841    1842
       8    1946    1945    1920    1921    1868    1867    1842    1843
       8    1947    1946    1921    1922    1869    1868    1843    1844
       8    1948    1947    1922    1923    1870    1869    1844    1845
       8    1949    1948    1923    1877    1871    1870    1845    1799
       8    1925    1949    1877    1876    1847    1871    1799    1798
  
CELL_TYPES    3486
       1
       1
       1
       1
       1
       1
       1
       1
       1
       1
       1
       1
       1
       1
       1
       1
       1
       1
       1
       1
       1
       1
       1
       1
       1
       1
       1
       1
       1
       1
       1
       1
       1
       1
       1
       1
       1
       1
       1
       1
       1
       1
       1
       1
       1
       1
       1
       1
       1
       1
       1
       1
       1
       1
       1
       1
       1
       1
       1
       1
       1
       1
       1
       1
       1
       1
       1
       1
       1
       1
       1
       1
       1
       1
       1
       1
       1
       1
       1
       1
       1
       1
       1
       1
       1
       1
       1
       1
       1
       1
       1
       1
       1
       1
       1
       1
       1
       1
       1
       1
       1
       1
       1
       1
       1
       1
       1
       1
       1
       1
       1
       1
       1
       1
       1
       1
       1
       1
       1
       1
       1
       1
       1
       1
       1
       1
       1
       1
       1
       1
       1
       1
       1
       1
       1
       1
       1
       1
       1
       1
       1
       1
       1
       1
       1
       1
       1
       1
       1
       1
       1
       1
       1
       1
       1
       1
       1
       1
       1
       1
       1
       1
       1
       1
       1
       1
       1
       1
       1
       1
       1
       1
       1
       1
       1
       1
       1
       1
       1
       1
       1
       1
       1
       1
       1
       1
       1
       1
       1
       1
       1
       1
       1
       1
       1
       1
       1
       1
       1
       1
       1
       1
       1
       1
       1
       1
       1
       1
       1
       1
       1
       1
       1
       1
       1
       1
       1
       1
       1
       1
       1
       1
       1
       1
       1
       1
       1
       1
       1
       1
       1
       1
       1
       1
       1
       1
       1
       1
       1
       1
       1
       1
       1
       1
       1
       1
       1
       1
       1
       1
       1
       1
       1
       1
       1
       1
       1
       1
       1
       1
       1
       1
       1
       1
       1
       1
       1
       1
       1
       1
       1
       1
       1
       1
       1
       1
       1
       1
       1
       1
       1
       1
       1
       1
       1
       1
       1
       1
       1
       1
       1
       1
       1
       1
       1
       1
       1
       1
       1
       1
       1
       1
       1
       1
       1
       1
       1
       1
       1
       1
       1
       1
       1
       1
       1
       1
       1
       1
       1
       1
       1
       1
       1
       1
       1
       1
       1
       1
       1
       1
       1
       1
       1
       1
       1
       1
       1
       1
       1
       1
       1
       1
       1
       1
       1
       1
       1
       1
       1
       1
       1
       1
       1
       1
       1
       1
       1
       1
       1
       1
       1
       1
       1
       1
       1
       1
       1
       1
       1
       1
       1
       1
       1
       1
       1
       1
       1
       1
       1
       1
       1
       1
       1
       1
       1
       1
       1
       1
       1
       1
       1
       1
       1
       1
       1
       1
       1
       1
       1
       1
       1
       1
       1
       1
       1
       1
       1
       1
       1
       1
       1
       1
       1
       1
       1
       1
       1
       1
       1
       1
       1
       1
       1
       1
       1
       1
       1
       1
       1
       1
       1
       1
       1
       1
       1
       1
       1
       1
       1
       1
       1
       1
       1
       1
       1
       1
       1
       1
       1
       1
       1
       1
       1
       1
       1
       1
       1
       1
       1
       1
       1
       1
       1
       1
       1
       1
       1
       1
       1
       1
       1
       1
       1
       1
       1
       1
       1
       1
       1
       1
       1
       1
       1
       1
       1
       1
       1
       1
       1
       1
       1
       1
       1
       1
       1
       1
       1
       1
       1
       1
       1
       1
       1
       1
       1
       1
       1
       1
       1
       1
       1
       1
       1
       1
       1
       1
       1
       1
       1
       1
       1
       1
       1
       1
       1
       1
       1
       1
       1
       1
       1
       1
       1
       1
       1
       1
       1
       1
       1
       1
       1
       1
       1
       1
       1
       1
       1
       1
       1
       1
       1
       1
       1
       1
       1
       1
       1
       1
       1
       1
       1
       1
       1
       1
       1
       1
       1
       1
       1
       1
       1
       1
       1
       1
       1
       1
       1
       1
       1
       1
       1
       1
       1
       1
       1
       1
       1
       1
       1
       1
       1
       1
       1
       1
       1
       1
       1
       1
       1
       1
       1
       1
       1
       1
       1
       1
       1
       1
       1
       1
       1
       1
       1
       1
       1
       1
       1
       1
       1
       1
       1
       1
       1
       1
       1
       1
       1
       1
       1
       1
       1
       1
       1
       1
       1
       1
       1
       1
       1
       1
       1
       1
       1
       1
       1
       1
       1
       1
       1
       1
       1
       1
       1
       1
       1
       1
       1
       1
       1
       1
       1
       1
       1
       1
       1
       1
       1
       1
       1
       1
       1
       1
       1
       1
       1
       1
       1
       1
       1
       1
       1
       1
       1
       1
       1
       1
       1
       1
       1
       1
       1
       1
       1
       1
       1
       1
       1
       1
       1
       1
       1
       1
       1
       1
       1
       1
       1
       1
       1
       1
       1
       1
       1
       1
       1
       1
       1
       1
       1
       1
       1
       1
       1
       1
       1
       1
       1
       1
       1
       1
       1
       1
       1
       1
       1
       1
       1
       1
       1
       1
       1
       1
       1
       1
       1
       1
       1
       1
       1
       1
       1
       1
       1
       1
       1
       1
       1
       1
       1
       1
       1
       1
       1
       1
       1
       1
       1
       1
       1
       1
       1
       1
       1
       1
       1
       1
       1
       1
       1
       1
       1
       1
       1
       1
       1
       1
       1
       1
       1
       1
       1
       1
       1
       1
       1
       1
       1
       1
       1
       1
       1
       1
       1
       1
       1
       1
       1
       1
       1
       1
       1
       1
       1
       1
       1
       1
       1
       1
       1
       1
       1
       1
       1
       1
       1
       1
       1
       1
       1
       1
       1
       1
       1
       1
       1
       1
       1
       1
       1
       1
       1
       1
       1
       1
       1
       1
       1
       1
       1
       1
       1
       1
       1
       1
       1
       1
       1
       1
       1
       1
       1
       1
       1
       1
       1
       1
       1
       1
       1
       1
       1
       1
       1
       1
       1
       1
       1
       1
       1
       1
       1
       1
       1
       1
       1
       1
       1
       1
       1
       1
       1
       1
       1
       1
       1
       1
       1
       1
       1
       1
       1
       1
       1
       1
       1
       1
       1
       1
       1
       1
       1
       1
       1
       1
       1
       1
       1
       1
       1
       1
       1
       1
       1
       1
       1
       1
       1
       1
       1
       1
       1
       1
       1
       1
       1
       1
       1
       1
       1
       1
       1
       1
       1
       1
       1
       1
       1
       1
       1
       1
       1
       1
       1
       1
       1
       1
       1
       1
       1
       1
       1
       1
       1
       1
       1
       1
       1
       1
       1
       1
       1
       1
       1
       1
       1
       1
       1
       1
       1
       1
       1
       1
       1
       1
       1
       1
       1
       1
       1
       1
       1
       1
       1
       1
       1
       1
       1
       1
       1
       1
       1
       1
       1
       1
       1
       1
       1
       1
       1
       1
       1
       1
       1
       1
       1
       1
       1
       1
       1
       1
       1
       1
       1
       1
       1
       1
       1
       1
       1
       1
       1
       1
       1
       1
       1
       1
       1
       1
       1
       1
       1
       1
       1
       1
       1
       1
       1
       1
       1
       1
       1
       1
       1
       1
       1
       1
       1
       1
       1
       1
       1
       1
       1
       1
       1
       1
       1
       1
       1
       1
       1
       1
       1
       1
       1
       1
       1
       1
       1
       1
       1
       1
       1
       1
       1
       1
       1
       1
       1
       1
       1
       1
       1
       1
       1
       1
       1
       1
       1
       1
       1
       1
       1
       1
       1
       1
       1
       1
       1
       1
       1
       1
       1
       1
       1
       1
       1
       1
       1
       1
       1
       1
       1
       1
       1
       1
       1
       1
       1
       1
       1
       1
       1
       1
       1
       1
       1
       1
       1
       1
       1
       1
       1
       1
       1
       1
       1
       1
       1
       1
       1
       1
       1
       1
       1
       1
       1
       1
       1
       1
       1
       1
       1
       1
       1
       1
       1
       1
       1
       1
       1
       1
       1
       1
       1
       1
       1
       1
       1
       1
       1
       1
       1
       1
       1
       1
       1
       1
       1
       1
       1
       1
       1
       1
       1
       1
       1
       1
       1
       1
       1
       1
       1
       1
       1
       1
       1
       1
       1
       1
       1
       1
       1
       1
       1
       1
       1
       1
       1
       1
       1
       1
       1
       1
       1
       1
       1
       1
       1
       1
       1
       1
       1
       1
       1
       1
       1
       1
       1
       1
       1
       1
       1
       1
       1
       1
       1
       1
       1
       1
       1
       1
       1
       1
       1
       1
       1
       1
       1
       1
       1
       1
       1
       1
       1
       1
       1
       1
       1
       1
       1
       1
       1
       1
       1
       1
       1
       1
       1
       1
       1
       1
       1
       1
       1
       1
       1
       1
       1
       1
       1
       1
       1
       1
       1
       1
       1
       1
       1
       1
       1
       1
       1
       1
       1
       1
       1
       1
       1
       1
       1
       1
       1
       1
       1
       1
       1
       1
       1
       1
       1
       1
       1
       1
       1
       1
       1
       1
       1
       1
       1
       1
       1
       1
       1
       1
       1
       1
       1
       1
       1
       1
       1
       1
       1
       1
       1
       1
       1
       1
       1
       1
       1
       1
       1
       1
       1
       1
       1
       1
       1
       1
       1
       1
       1
       1
       1
       1
       1
       1
       1
       1
       1
       1
       1
       1
       1
       1
       1
       1
       1
       1
       1
       1
       1
       1
       1
       1
       1
       1
       1
       1
       1
       1
       1
       1
       1
       1
       1
       1
       1
       1
       1
       1
       1
       1
       1
       1
       1
       1
       1
       1
       1
       1
       1
       1
       1
       1
       1
       1
       1
       1
       1
       1
       1
       1
       1
       1
       1
       1
       1
       1
       1
       1
       1
       1
       1
       1
       1
       1
       1
       1
       1
       1
       1
       1
       1
       1
       1
       1
       1
       1
       1
       1
       1
       1
       1
       1
       1
       1
       1
       1
       1
       1
       1
       1
       1
       1
       1
       1
       1
       1
       1
       1
       1
       1
       1
       1
       1
       1
       1
       1
       1
       1
       1
       1
       1
       1
       1
       1
       1
       1
       1
       1
       1
       1
       1
       1
       1
       1
       1
       1
       1
       1
       1
       1
       1
       1
       1
       1
       1
       1
       1
       1
       1
       1
       1
       1
       1
       1
       1
       1
       1
       1
       1
       1
       1
       1
       1
       1
       1
       1
       1
       1
       1
       1
       1
       1
       1
       1
       1
       1
       1
       1
       1
       1
       1
       1
       1
       1
       1
       1
       1
       1
       1
       1
       1
       1
       1
       1
       1
       1
       1
       1
       1
       1
       1
       1
       1
       1
       1
       1
       1
       1
       1
       1
       1
       1
       1
       1
       1
       1
       1
       1
       1
       1
       1
       1
       1
       1
       1
       1
       1
       1
       1
       1
       1
       1
       1
       1
       1
       1
       1
       1
       1
       1
       1
       1
       1
       1
       1
       1
       1
       1
       1
       1
       1
       1
       1
       1
       1
       1
       1
       1
       1
       1
       1
       1
       1
       1
       1
       1
       1
       1
       1
       1
       1
       1
       1
       1
       1
       1
       1
       1
       1
       1
       1
       1
       1
       1
       1
       1
       1
       1
       1
       1
       1
       1
       1
       1
       1
       1
       1
       1
       1
       1
       1
       1
       1
       1
       1
       1
       1
       1
       1
       1
       1
       1
       1
       1
       1
       1
       1
       1
       1
       1
       1
       1
       1
       1
       1
       1
       1
       1
       1
       1
       1
       1
       1
       1
       1
       1
       1
       1
       1
       1
       1
       1
       1
       1
       1
       1
       1
       1
       1
       1
       1
       1
       1
       1
       1
       1
       1
       1
       1
       1
       1
       1
       1
       1
       1
       1
       1
       1
       1
       1
       1
       1
       1
       1
       1
       1
       1
       1
       1
       1
       1
       1
       1
       1
       1
       1
       1
       1
       1
       1
       1
       1
       1
       1
       1
       1
       1
       1
       1
       1
       1
       1
       1
       1
       1
       1
       1
       1
       1
       1
       1
       1
       1
       1
       1
       1
       1
       1
       1
       1
       1
       1
       1
       1
       1
       1
       1
       1
       1
       1
       1
       1
       1
       1
       1
       1
       1
       1
       1
       1
       1
       1
       1
       1
       1
       1
       1
       1
       1
       1
       1
       1
       1
       1
       1
       1
       1
       1
       1
       1
       1
       1
       1
       1
       1
       1
       1
       1
       1
       1
       1
       1
       1
       1
       1
       1
       1
       1
       1
       1
       1
       1
       1
       1
       1
       1
       1
       1
       1
       1
       1
       1
       1
       1
       1
       1
       1
       1
       1
       1
       1
       1
       1
       1
       1
       1
       1
       1
       1
       1
       1
       1
       1
       1
       1
       1
       1
       1
       1
       1
       1
       1
       1
       1
       1
       1
       1
       1
       1
       1
       1
       1
       1
       1
       1
       1
       1
       1
       1
       1
       1
       1
       1
       1
       1
       1
       1
       1
       1
       1
       1
       1
       1
       1
       1
       1
       1
       1
       1
       1
       1
       1
       1
       1
       1
       1
       1
       1
       1
       1
       1
       1
       1
       1
       1
       1
       1
       1
       1
       1
       1
       1
       1
       1
      12
      12
      12
      12
      12
      12
      12
      12
      12
      12
      12
      12
      12
      12
      12
      12
      12
      12
      12
      12
      12
      12
      12
      12
      12
      12
      12
      12
      12
      12
      12
      12
      12
      12
      12
      12
      12
      12
      12
      12
      12
      12
      12
      12
      12
      12
      12
      12
      12
      12
      12
      12
      12
      12
      12
      12
      12
      12
      12
      12
      12
      12
      12
      12
      12
      12
      12
      12
      12
      12
      12
      12
      12
      12
      12
      12
      12
      12
      12
      12
      12
      12
      12
      12
      12
      12
      12
      12
      12
      12
      12
      12
      12
      12
      12
      12
      12
      12
      12
      12
      12
      12
      12
      12
      12
      12
      12
      12
      12
      12
      12
      12
      12
      12
      12
      12
      12
      12
      12
      12
      12
      12
      12
      12
      12
      12
      12
      12
      12
      12
      12
      12
      12
      12
      12
      12
      12
      12
      12
      12
      12
      12
      12
      12
      12
      12
      12
      12
      12
      12
      12
      12
      12
      12
      12
      12
      12
      12
      12
      12
      12
      12
      12
      12
      12
      12
      12
      12
      12
      12
      12
      12
      12
      12
      12
      12
      12
      12
      12
      12
      12
      12
      12
      12
      12
      12
      12
      12
      12
      12
      12
      12
      12
      12
      12
      12
      12
      12
      12
      12
      12
      12
      12
      12
      12
      12
      12
      12
      12
      12
      12
      12
      12
      12
      12
      12
      12
      12
      12
      12
      12
      12
      12
      12
      12
      12
      12
      12
      12
      12
      12
      12
      12
      12
      12
      12
      12
      12
      12
      12
      12
      12
      12
      12
      12
      12
      12
      12
      12
      12
      12
      12
      12
      12
      12
      12
      12
      12
      12
      12
      12
      12
      12
      12
      12
      12
      12
      12
      12
      12
      12
      12
      12
      12
      12
      12
      12
      12
      12
      12
      12
      12
      12
      12
      12
      12
      12
      12
      12
      12
      12
      12
      12
      12
      12
      12
      12
      12
      12
      12
      12
      12
      12
      12
      12
      12
      12
      12
      12
      12
      12
      12
      12
      12
      12
      12
      12
      12
      12
      12
      12
      12
      12
      12
      12
      12
      12
      12
      12
      12
      12
      12
      12
      12
      12
      12
      12
      12
      12
      12
      12
      12
      12
      12
      12
      12
      12
      12
      12
      12
      12
      12
      12
      12
      12
      12
      12
      12
      12
      12
      12
      12
      12
      12
      12
      12
      12
      12
      12
      12
      12
      12
      12
      12
      12
      12
      12
      12
      12
      12
      12
      12
      12
      12
      12
      12
      12
      12
      12
      12
      12
      12
      12
      12
      12
      12
      12
      12
      12
      12
      12
      12
      12
      12
      12
      12
      12
      12
      12
      12
      12
      12
      12
      12
      12
      12
      12
      12
      12
      12
      12
      12
      12
      12
      12
      12
      12
      12
      12
      12
      12
      12
      12
      12
      12
      12
      12
      12
      12
      12
      12
      12
      12
      12
      12
      12
      12
      12
      12
      12
      12
      12
      12
      12
      12
      12
      12
      12
      12
      12
      12
      12
      12
      12
      12
      12
      12
      12
      12
      12
      12
      12
      12
      12
      12
      12
      12
      12
      12
      12
      12
      12
      12
      12
      12
      12
      12
      12
      12
      12
      12
      12
      12
      12
      12
      12
      12
      12
      12
      12
      12
      12
      12
      12
      12
      12
      12
      12
      12
      12
      12
      12
      12
      12
      12
      12
      12
      12
      12
      12
      12
      12
      12
      12
      12
      12
      12
      12
      12
      12
      12
      12
      12
      12
      12
      12
      12
      12
      12
      12
      12
      12
      12
      12
      12
      12
      12
      12
      12
      12
      12
      12
      12
      12
      12
      12
      12
      12
      12
      12
      12
      12
      12
      12
      12
      12
      12
      12
      12
      12
      12
      12
      12
      12
      12
      12
      12
      12
      12
      12
      12
      12
      12
      12
      12
      12
      12
      12
      12
      12
      12
      12
      12
      12
      12
      12
      12
      12
      12
      12
      12
      12
      12
      12
      12
      12
      12
      12
      12
      12
      12
      12
      12
      12
      12
      12
      12
      12
      12
      12
      12
      12
      12
      12
      12
      12
      12
      12
      12
      12
      12
      12
      12
      12
      12
      12
      12
      12
      12
      12
      12
      12
      12
      12
      12
      12
      12
      12
      12
      12
      12
      12
      12
      12
      12
      12
      12
      12
      12
      12
      12
      12
      12
      12
      12
      12
      12
      12
      12
      12
      12
      12
      12
      12
      12
      12
      12
      12
      12
      12
      12
      12
      12
      12
      12
      12
      12
      12
      12
      12
      12
      12
      12
      12
      12
      12
      12
      12
      12
      12
      12
      12
      12
      12
      12
      12
      12
      12
      12
      12
      12
      12
      12
      12
      12
      12
      12
      12
      12
      12
      12
      12
      12
      12
      12
      12
      12
      12
      12
      12
      12
      12
      12
      12
      12
      12
      12
      12
      12
      12
      12
      12
      12
      12
      12
      12
      12
      12
      12
      12
      12
      12
      12
      12
      12
      12
      12
      12
      12
      12
      12
      12
      12
      12
      12
      12
      12
      12
      12
      12
      12
      12
      12
      12
      12
      12
      12
      12
      12
      12
      12
      12
      12
      12
      12
      12
      12
      12
      12
      12
      12
      12
      12
      12
      12
      12
      12
      12
      12
      12
      12
      12
      12
      12
      12
      12
      12
      12
      12
      12
      12
      12
      12
      12
      12
      12
      12
      12
      12
      12
      12
      12
      12
      12
      12
      12
      12
      12
      12
      12
      12
      12
      12
      12
      12
      12
      12
      12
      12
      12
      12
      12
      12
      12
      12
      12
      12
      12
      12
      12
      12
      12
      12
      12
      12
      12
      12
      12
      12
      12
      12
      12
      12
      12
      12
      12
      12
      12
      12
      12
      12
      12
      12
      12
      12
      12
      12
      12
      12
      12
      12
      12
      12
      12
      12
      12
      12
      12
      12
      12
      12
      12
      12
      12
      12
      12
      12
      12
      12
      12
      12
      12
      12
      12
      12
      12
      12
      12
      12
      12
      12
      12
      12
      12
      12
      12
      12
      12
      12
      12
      12
      12
      12
      12
      12
      12
      12
      12
      12
      12
      12
      12
      12
      12
      12
      12
      12
      12
      12
      12
      12
      12
      12
      12
      12
      12
      12
      12
      12
      12
      12
      12
      12
      12
      12
      12
      12
      12
      12
      12
      12
      12
      12
      12
      12
      12
      12
      12
      12
      12
      12
      12
      12
      12
      12
      12
      12
      12
      12
      12
      12
      12
      12
      12
      12
      12
      12
      12
      12
      12
      12
      12
      12
      12
      12
      12
      12
      12
      12
      12
      12
      12
      12
      12
      12
      12
      12
      12
      12
      12
      12
      12
      12
      12
      12
      12
      12
      12
      12
      12
      12
      12
      12
      12
      12
      12
      12
      12
      12
      12
      12
      12
      12
      12
      12
      12
      12
      12
      12
      12
      12
      12
      12
      12
      12
      12
      12
      12
      12
      12
      12
      12
      12
      12
      12
      12
      12
      12
      12
      12
      12
      12
      12
      12
      12
      12
      12
      12
      12
      12
      12
      12
      12
      12
      12
      12
      12
      12
      12
      12
      12
      12
      12
      12
      12
      12
      12
      12
      12
      12
      12
      12
      12
      12
      12
      12
      12
      12
      12
      12
      12
      12
      12
      12
      12
      12
      12
      12
      12
      12
      12
      12
      12
      12
      12
      12
      12
      12
      12
      12
      12
      12
      12
      12
      12
      12
      12
      12
      12
      12
      12
      12
      12
      12
      12
      12
      12
      12
      12
      12
      12
      12
      12
      12
      12
      12
      12
      12
      12
      12
      12
      12
      12
      12
      12
      12
      12
      12
      12
      12
      12
      12
      12
      12
      12
      12
      12
      12
      12
      12
      12
      12
      12
      12
      12
      12
      12
      12
      12
      12
      12
      12
      12
      12
      12
      12
      12
      12
      12
      12
      12
      12
      12
      12
      12
      12
      12
      12
      12
      12
      12
      12
      12
      12
      12
      12
      12
      12
      12
      12
      12
      12
      12
      12
      12
      12
      12
      12
      12
      12
      12
      12
      12
      12
      12
      12
      12
      12
      12
      12
      12
      12
      12
      12
      12
      12
      12
      12
      12
      12
      12
      12
      12
      12
      12
      12
      12
      12
      12
      12
      12
      12
      12
      12
      12
      12
      12
      12
      12
      12
      12
      12
      12
      12
      12
      12
      12
      12
      12
      12
      12
      12
      12
      12
      12
      12
      12
      12
      12
      12
      12
      12
      12
      12
      12
      12
      12
      12
      12
      12
      12
      12
      12
      12
      12
      12
      12
      12
      12
      12
      12
      12
      12
      12
      12
      12
      12
      12
      12
      12
      12
      12
      12
      12
      12
      12
      12
      12
      12
      12
      12
      12
      12
      12
      12
      12
      12
      12
      12
      12
      12
      12
      12
      12
      12
      12
      12
      12
      12
      12
      12
      12
      12
      12
      12
      12
      12
      12
      12
      12
      12
      12
      12
      12
      12
      12
      12
      12
      12
      12
      12
      12
      12
      12
      12
      12
      12
      12
      12
      12
      12
      12
      12
      12
      12
      12
      12
      12
      12
      12
      12
      12
      12
      12
      12
      12
      12
      12
      12
      12
      12
      12
      12
      12
      12
      12
      12
      12
      12
      12
      12
      12
      12
      12
      12
      12
      12
      12
      12
      12
      12
      12
      12
      12
      12
      12
      12
      12
      12
      12
      12
      12
      12
      12
      12
      12
      12
      12
      12
      12
      12
      12
      12
      12
      12
      12
      12
      12
      12
      12
      12
      12
      12
      12
      12
      12
      12
      12
      12
      12
      12
      12
      12
      12
      12
      12
      12
      12
      12
      12
      12
      12
      12
      12
      12
      12
      12
      12
      12
      12
      12
      12
      12
      12
      12
      12
      12
      12
      12
      12
      12
      12
      12
      12
      12
      12
      12
      12
      12
      12
      12
      12
      12
      12
      12
      12
      12
      12
      12
      12
      12
      12
      12
      12
      12
      12
      12
      12
      12
      12
      12
      12
      12
      12
      12
      12
      12
      12
      12
      12
      12
      12
      12
      12
      12
      12
      12
      12
      12
      12
      12
      12
      12
      12
      12
      12
  
  
POINT_DATA       1950
  
SCALARS                  material_type  double 1
LOOKUP_TABLE default
                   2
                   2
                   2
                   2
                   2
                   2
                   2
                   2
                   2
                   2
                   2
                   2
                   2
                   2
                   2
                   2
                   2
                   2
                   2
                   2
                   2
                   2
                   2
                   2
                   2
                   2
                   2
                   2
                   2
                   2
                   2
                   2
                   2
                   2
                   2
                   2
                   2
                   2
                   2
                   2
                   2
                   2
                   2
                   2
                   2
                   2
                   2
                   2
                   2
                   2
                   2
                   2
                   2
                   2
                   2
                   2
                   2
                   2
                   2
                   2
                   2
                   2
                   2
                   2
                   2
                   2
                   2
                   2
                   2
                   2
                   2
                   2
                   2
                   2
                   2
                   2
                   2
                   2
                   2
                   2
                   2
                   2
                   2
                   2
                   2
                   2
                   2
                   2
                   2
                   2
                   2
                   2
                   2
                   2
                   2
                   2
                   2
                   2
                   2
                   2
                   2
                   2
                   2
                   2
                   2
                   2
                   2
                   2
                   2
                   2
                   2
                   2
                   2
                   2
                   2
                   2
                   2
                   2
                   2
                   2
                   2
                   2
                   2
                   2
                   2
                   2
                   2
                   2
                   2
                   2
                   2
                   2
                   2
                   2
                   2
                   2
                   2
                   2
                   2
                   2
                   2
                   2
                   2
                   2
                   2
                   2
                   2
                   2
                   2
                   2
                   2
                   2
                   2
                   2
                   2
                   2
                   2
                   2
                   2
                   2
                   2
                   2
                   2
                   2
                   2
                   2
                   2
                   2
                   2
                   2
                   2
                   2
                   2
                   2
                   2
                   2
                   2
                   2
                   2
                   2
                   2
                   2
                   2
                   2
                   2
                   2
                   2
                   2
                   2
                   2
                   2
                   2
                   2
                   2
                   2
                   2
                   2
                   2
                   2
                   2
                   2
                   2
                   2
                   2
                   2
                   2
                   2
                   2
                   2
                   2
                   2
                   2
                   2
                   2
                   2
                   2
                   2
                   2
                   2
                   2
                   2
                   2
                   2
                   2
                   2
                   2
                   2
                   2
                   2
                   2
                   2
                   2
                   2
                   2
                   2
                   2
                   2
                   2
                   2
                   2
                   2
                   2
                   2
                   2
                   2
                   2
                   2
                   2
                   2
                   2
                   2
                   2
                   2
                   2
                   2
                   2
                   2
                   2
                   2
                   2
                   2
                   2
                   2
                   2
                   2
                   2
                   2
                   2
                   2
                   2
                   2
                   2
                   2
                   2
                   2
                   2
                   2
                   2
                   2
                   2
                   2
                   2
                   2
                   2
                   2
                   2
                   2
                   2
                   2
                   2
                   2
                   2
                   2
                   2
                   2
                   2
                   2
                   2
                   2
                   2
                   2
                   2
                   2
                   2
                   2
                   2
                   2
                   2
                   2
                   2
                   2
                   2
                   2
                   2
                   2
                   2
                   2
                   2
                   2
                   2
                   2
                   2
                   2
                   2
                   2
                   2
                   2
                   2
                   2
                   2
                   2
                   2
                   2
                   2
                   2
                   2
                   2
                   2
                   2
                   2
                   2
                   2
                   2
                   2
                   2
                   2
                   2
                   2
                   2
                   2
                   2
                   2
                   2
                   2
                   2
                   2
                   2
                   2
                   2
                   2
                   2
                   2
                   2
                   2
                   2
                   2
                   2
                   2
                   2
                   2
                   2
                   2
                   2
                   2
                   2
                   2
                   2
                   2
                   2
                   2
                   2
                   2
                   2
                   2
                   2
                   2
                   2
                   2
                   2
                   2
                   2
                   2
                   2
                   2
                   2
                   2
                   2
                   2
                   2
                   2
                   2
                   2
                   2
                   2
                   2
                   2
                   2
                   2
                   2
                   2
                   2
                   2
                   2
                   2
                   2
                   2
                   2
                   2
                   2
                   2
                   2
                   2
                   2
                   2
                   2
                   2
                   2
                   2
                   2
                   2
                   2
                   2
                   2
                   2
                   2
                   2
                   2
                   2
                   2
                   2
                   2
                   2
                   2
                   2
                   2
                   2
                   2
                   2
                   2
                   2
                   2
                   2
                   2
                   2
                   2
                   2
                   2
                   2
                   2
                   2
                   2
                   2
                   2
                   2
                   2
                   2
                   2
                   2
                   2
                   2
                   2
                   2
                   2
                   2
                   2
                   2
                   2
                   2
                   2
                   2
                   2
                   2
                   2
                   2
                   2
                   2
                   2
                   2
                   2
                   2
                   2
                   2
                   2
                   2
                   2
                   2
                   2
                   2
                   2
                   2
                   2
                   2
                   2
                   2
                   2
                   2
                   2
                   2
                   2
                   2
                   2
                   2
                   2
                   2
                   2
                   2
                   2
                   2
                   2
                   2
                   2
                   2
                   2
                   2
                   2
                   2
                   2
                   2
                   2
                   2
                   2
                   2
                   2
                   2
                   2
                   2
                   2
                   2
                   2
                   2
                   2
                   2
                   2
                   2
                   2
                   2
                   2
                   2
                   2
                   2
                   2
                   2
                   2
                   2
                   2
                   2
                   2
                   2
                   2
                   2
                   2
                   2
                   2
                   2
                   2
                   2
                   2
                   2
                   2
                   2
                   2
                   2
                   2
                   2
                   2
                   2
                   2
                   2
                   2
                   2
                   2
                   2
                   2
                   2
                   2
                   2
                   2
                   2
                   2
                   2
                   2
                   2
                   2
                   2
                   2
                   2
                   2
                   2
                   2
                   2
                   2
                   2
                   2
                   2
                   2
                   2
                   2
                   2
                   2
                   2
                   2
                   2
                   2
                   2
                   2
                   2
                   2
                   2
                   2
                   2
                   2
                   2
                   2
                   2
                   2
                   2
                   2
                   2
                   2
                   2
                   2
                   2
                   2
                   2
                   2
                   2
                   2
                   2
                   2
                   2
                   2
                   2
                   2
                   2
                   2
                   2
                   2
                   2
                   2
                   2
                   2
                   2
                   2
                   2
                   2
                   2
                   2
                   2
                   2
                   2
                   2
                   2
                   2
                   2
                   2
                   2
                   2
                   2
                   2
                   2
                   2
                   2
                   2
                   2
                   2
                   2
                   2
                   2
                   2
                   2
                   2
                   2
                   2
                   2
                   2
                   2
                   2
                   2
                   2
                   2
                   2
                   2
                   2
                   2
                   2
                   2
                   2
                   2
                   2
                   2
                   2
                   2
                   2
                   2
                   2
                   2
                   2
                   2
                   2
                   2
                   2
                   2
                   2
                   2
                   2
                   2
                   2
                   2
                   2
                   2
                   2
                   2
                   2
                   2
                   2
                   2
                   2
                   2
                   2
                   2
                   2
                   2
                   2
                   2
                   2
                   2
                   2
                   2
                   2
                   2
                   2
                   2
                   2
                   2
                   2
                   2
                   2
                   2
                   2
                   2
                   2
                   2
                   2
                   2
                   2
                   2
                   2
                   2
                   2
                   2
                   2
                   2
                   2
                   2
                   2
                   2
                   2
                   2
                   2
                   2
                   2
                   2
                   2
                   2
                   2
                   2
                   2
                   2
                   2
                   2
                   2
                   2
                   2
                   2
                   2
                   2
                   2
                   2
                   2
                   2
                   2
                   2
                   2
                   2
                   2
                   2
                   2
                   2
                   2
                   2
                   2
                   2
                   2
                   2
                   2
                   2
                   2
                   2
                   2
                   2
                   2
                   2
                   2
                   2
                   2
                   2
                   2
                   2
                   2
                   2
                   2
                   2
                   2
                   2
                   2
                   2
                   2
                   2
                   2
                   2
                   2
                   2
                   2
                   2
                   2
                   2
                   2
                   2
                   2
                   2
                   2
                   2
                   2
                   2
                   2
                   2
                   2
                   2
                   2
                   2
                   2
                   2
                   2
                   2
                   2
                   2
                   2
                   2
                   2
                   2
                   2
                   2
                   2
                   2
                   2
                   2
                   2
                   2
                   2
                   2
                   2
                   2
                   2
                   2
                   2
                   2
                   2
                   2
                   2
                   2
                   2
                   2
                   2
                   2
                   2
                   2
                   2
                   2
                   2
                   2
                   2
                   2
                   2
                   2
                   2
                   2
                   2
                   2
                   2
                   2
                   2
                   2
                   2
                   2
                   2
                   2
                   2
                   2
                   2
                   2
                   2
                   2
                   2
                   2
                   2
                   2
                   2
                   2
                   2
                   2
                   2
                   2
                   2
                   2
                   2
                   2
                   2
                   2
                   2
                   2
                   2
                   2
                   2
                   2
                   2
                   2
                   2
                   2
                   2
                   2
                   2
                   2
                   2
                   2
                   2
                   2
                   2
                   2
                   2
                   2
                   2
                   2
                   2
                   2
                   2
                   2
                   2
                   2
                   2
                   2
                   2
                   2
                   2
                   2
                   2
                   2
                   2
                   2
                   2
                   2
                   2
                   2
                   2
                   2
                   2
                   2
                   2
                   2
                   2
                   2
                   2
                   2
                   2
                   2
                   2
                   2
                   2
                   2
                   2
                   2
                   2
                   2
                   2
                   2
                   2
                   2
                   2
                   2
                   2
                   2
                   2
                   2
                   2
                   2
                   2
                   2
                   2
                   2
                   2
                   2
                   2
                   2
                   2
                   2
                   2
                   2
                   2
                   2
                   2
                   2
                   2
                   2
                   2
                   2
                   2
                   2
                   2
                   2
                   2
                   2
                   2
                   2
                   2
                   2
                   2
                   2
                   2
                   2
                   2
                   2
                   2
                   2
                   2
                   2
                   2
                   2
                   2
                   2
                   2
                   2
                   2
                   2
                   2
                   2
                   2
                   2
                   2
                   2
                   2
                   2
                   2
                   2
                   2
                   2
                   2
                   2
                   2
                   2
                   2
                   2
                   2
                   2
                   2
                   2
                   2
                   2
                   2
                   2
                   2
                   2
                   2
                   2
                   2
                   2
                   2
                   2
                   2
                   2
                   2
                   2
                   2
                   2
                   2
                   2
                   2
                   2
                   2
                   2
                   2
                   2
                   2
                   2
                   2
                   2
                   2
                   2
                   2
                   2
                   2
                   2
                   2
                   2
                   2
                   2
                   2
                   2
                   2
                   2
                   2
                   2
                   2
                   2
                   2
                   2
                   2
                   2
                   2
                   2
                   2
                   2
                   2
                   2
                   2
                   2
                   2
                   2
                   2
                   2
                   2
                   2
                   2
                   2
                   2
                   2
                   2
                   2
                   2
                   2
                   2
                   2
                   2
                   2
                   2
                   2
                   2
                   2
                   2
                   2
                   2
                   2
                   2
                   2
                   2
                   2
                   2
                   2
                   2
                   2
                   2
                   2
                   2
                   2
                   2
                   2
                   2
                   2
                   2
                   2
                   2
                   2
                   2
                   2
                   2
                   2
                   2
                   2
                   2
                   2
                   2
                   2
                   2
                   2
                   2
                   2
                   2
                   2
                   2
                   2
                   2
                   2
                   2
                   2
                   2
                   2
                   2
                   2
                   2
                   2
                   2
                   2
                   2
                   2
                   2
                   2
                   2
                   2
                   2
                   2
                   2
                   2
                   2
                   2
                   2
                   2
                   2
                   2
                   2
                   2
                   2
                   2
                   2
                   2
                   2
                   2
                   2
                   2
                   2
                   2
                   2
                   2
                   2
                   2
                   2
                   2
                   2
                   2
                   2
                   2
                   2
                   2
                   2
                   2
                   2
                   2
                   2
                   2
                   2
                   2
                   2
                   2
                   2
                   2
                   2
                   2
                   2
                   2
                   2
                   2
                   2
                   2
                   2
                   2
                   2
                   2
                   2
                   2
                   2
                   2
                   2
                   2
                   2
                   2
                   2
                   2
                   2
                   2
                   2
                   2
                   2
                   2
                   2
                   2
                   2
                   2
                   2
                   2
                   2
                   2
                   2
                   2
                   2
                   2
                   2
                   2
                   2
                   2
                   2
                   2
                   2
                   2
                   2
                   2
                   2
                   2
                   2
                   2
                   2
                   2
                   2
                   2
                   2
                   2
                   2
                   2
                   2
                   2
                   2
                   2
                   2
                   2
                   2
                   2
                   2
                   2
                   2
                   2
                   2
                   2
                   2
                   2
                   2
                   2
                   2
                   2
                   2
                   2
                   2
                   2
                   2
                   2
                   2
                   2
                   2
                   2
                   2
                   2
                   2
                   2
                   2
                   2
                   2
                   2
                   2
                   2
                   2
                   2
                   2
                   2
                   2
                   2
                   2
                   2
                   2
                   2
                   2
                   2
                   2
                   2
                   2
                   2
                   2
                   2
                   2
                   2
                   2
                   2
                   2
                   2
                   2
                   2
                   2
                   2
                   2
                   2
                   2
                   2
                   2
                   2
                   2
                   2
                   2
                   2
                   2
                   2
                   2
                   2
                   2
                   2
                   2
                   2
                   2
                   2
                   2
                   2
                   2
                   2
                   2
                   2
                   2
                   2
                   2
                   2
                   2
                   2
                   2
                   2
                   2
                   2
                   2
                   2
                   2
                   2
                   2
                   2
                   2
                   2
                   2
                   2
                   2
                   2
                   2
                   2
                   2
                   2
                   2
                   2
                   2
                   2
                   2
                   2
                   2
                   2
                   2
                   2
                   2
                   2
                   2
                   2
                   2
                   2
                   2
                   2
                   2
                   2
                   2
                   2
                   2
                   2
                   2
                   2
                   2
                   2
                   2
                   2
                   2
                   2
                   2
                   2
                   2
                   2
                   2
                   2
                   2
                   2
                   2
                   2
                   2
                   2
                   2
                   2
                   2
                   2
                   2
                   2
                   2
                   2
                   2
                   2
                   2
                   2
                   2
                   2
                   2
                   2
                   2
                   2
                   2
                   2
                   2
                   2
                   2
                   2
                   2
                   2
                   2
                   2
                   2
                   2
                   2
                   2
                   2
                   2
                   2
                   2
                   2
                   2
                   2
                   2
                   2
                   2
                   2
                   2
                   2
                   2
                   2
                   2
                   2
                   2
                   2
                   2
                   2
                   2
                   2
                   2
                   2
                   2
                   2
                   2
                   2
                   2
                   2
                   2
                   2
                   2
                   2
                   2
                   2
                   2
                   2
                   2
                   2
                   2
                   2
                   2
                   2
                   2
                   2
                   2
                   2
                   2
                   2
                   2
                   2
                   2
                   2
                   2
                   2
                   2
                   2
                   2
                   2
                   2
                   2
                   2
                   2
                   2
                   2
                   2
                   2
                   2
                   2
                   2
                   2
                   2
                   2
                   2
                   2
                   2
                   2
                   2
                   2
                   2
                   2
                   2
                   2
                   2
                   2
                   2
                   2
                   2
                   2
                   2
                   2
                   2
                   2
                   2
                   2
                   2
                   2
                   2
                   2
                   2
                   2
                   2
                   2
                   2
                   2
                   2
                   2
                   2
                   2
                   2
                   2
                   2
                   2
                   2
                   2
                   2
                   2
                   2
                   2
                   2
                   2
                   2
                   2
                   2
                   2
                   2
                   2
                   2
                   2
                   2
                   2
                   2
                   2
                   2
                   2
                   2
                   2
                   2
                   2
                   2
                   2
                   2
                   2
                   2
                   2
                   2
                   2
                   2
                   2
                   2
                   2
                   2
                   2
                   2
                   2
                   2
                   2
                   2
                   2
                   2
                   2
                   2
                   2
                   2
                   2
                   2
                   2
                   2
                   2
                   2
                   2
                   2
                   2
                   2
                   2
                   2
                   2
                   2
                   2
                   2
                   2
                   2
                   2
                   2
                   2
                   2
                   2
                   2
                   2
                   2
                   2
                   2
                   2
                   2
                   2
                   2
                   2
                   2
                   2
                   2
                   2
                   2
                   2
                   2
                   2
                   2
                   2
                   2
                   2
                   2
                   2
                   2
                   2
                   2
                   2
                   2
                   2
                   2
                   2
                   2
                   2
                   2
                   2
                   2
                   2
                   2
                   2
                   2
                   2
                   2
                   2
                   2
                   2
                   2
                   2
                   2
                   2
                   2
                   2
                   2
                   2
                   2
                   2
                   2
                   2
                   2
                   2
                   2
                   2
                   2
                   2
                   2
                   2
                   2
                   2
                   2
                   2
                   2
                   2
                   2
                   2
                   2
                   2
                   2
                   2
                   2
                   2
                   2
                   2
                   2
                   2
                   2
                   2
                   2
                   2
                   2
                   2
                   2
                   2
                   2
                   2
                   2
                   2
                   2
                   2
                   2
                   2
                   2
                   2
                   2
                   2
                   2
                   2
                   2
                   2
                   2
                   2
                   2
                   2
                   2
                   2
                   2
                   2
                   2
                   2
                   2
                   2
                   2
                   2
                   2
                   2
                   2
                   2
                   2
                   2
                   2
                   2
                   2
                   2
                   2
                   2
                   2
                   2
                   2
                   2
                   2
                   2
                   2
                   2
                   2
                   2
                   2
                   2
                   2
                   2
                   2
                   2
                   2
                   2
                   2
                   2
                   2
                   2
                   2
                   2
                   2
                   2
                   2
                   2
                   2
                   2
                   2
                   2
                   2
                   2
                   2
                   2
                   2
                   2
                   2
                   2
                   2
                   2
                   2
                   2
                   2
                   2
                   2
                   2
                   2
                   2
                   2
                   2
                   2
                   2
                   2
                   2
                   2
                   2
                   2
                   2
                   2
                   2
                   2
                   2
                   2
                   2
                   2
                   2
                   2
                   2
                   2
                   2
                   2
                   2
                   2
                   2
                   2
                   2
                   2
                   2
                   2
                   2
                   2
                   2
                   2
                   2
                   2
                   2
                   2
                   2
                   2
                   2
                   2
                   2
                   2
                   2
                   2
                   2
                   2
                   2
                   2
                   2
                   2
                   2
                   2
                   2
                   2
  
SCALARS                        node_id  double 1
LOOKUP_TABLE default
                   1
                   2
                   3
                   4
                   5
                   6
                   7
                   8
                   9
                  10
                  11
                  12
                  13
                  14
                  15
                  16
                  17
                  18
                  19
                  20
                  21
                  22
                  23
                  24
                  25
                  26
                  27
                  28
                  29
                  30
                  31
                  32
                  33
                  34
                  35
                  36
                  37
                  38
                  39
                  40
                  41
                  42
                  43
                  44
                  45
                  46
                  47
                  48
                  49
                  50
                  51
                  52
                  53
                  54
                  55
                  56
                  57
                  58
                  59
                  60
                  61
                  62
                  63
                  64
                  65
                  66
                  67
                  68
                  69
                  70
                  71
                  72
                  73
                  74
                  75
                  76
                  77
                  78
                  79
                  80
                  81
                  82
                  83
                  84
                  85
                  86
                  87
                  88
                  89
                  90
                  91
                  92
                  93
                  94
                  95
                  96
                  97
                  98
                  99
                 100
                 101
                 102
                 103
                 104
                 105
                 106
                 107
                 108
                 109
                 110
                 111
                 112
                 113
                 114
                 115
                 116
                 117
                 118
                 119
                 120
                 121
                 122
                 123
                 124
                 125
                 126
                 127
                 128
                 129
                 130
                 131
                 132
                 133
                 134
                 135
                 136
                 137
                 138
                 139
                 140
                 141
                 142
                 143
                 144
                 145
                 146
                 147
                 148
                 149
                 150
                 151
                 152
                 153
                 154
                 155
                 156
                 157
                 158
                 159
                 160
                 161
                 162
                 163
                 164
                 165
                 166
                 167
                 168
                 169
                 170
                 171
                 172
                 173
                 174
                 175
                 176
                 177
                 178
                 179
                 180
                 181
                 182
                 183
                 184
                 185
                 186
                 187
                 188
                 189
                 190
                 191
                 192
                 193
                 194
                 195
                 196
                 197
                 198
                 199
                 200
                 201
                 202
                 203
                 204
                 205
                 206
                 207
                 208
                 209
                 210
                 211
                 212
                 213
                 214
                 215
                 216
                 217
                 218
                 219
                 220
                 221
                 222
                 223
                 224
                 225
                 226
                 227
                 228
                 229
                 230
                 231
                 232
                 233
                 234
                 235
                 236
                 237
                 238
                 239
                 240
                 241
                 242
                 243
                 244
                 245
                 246
                 247
                 248
                 249
                 250
                 251
                 252
                 253
                 254
                 255
                 256
                 257
                 258
                 259
                 260
                 261
                 262
                 263
                 264
                 265
                 266
                 267
                 268
                 269
                 270
                 271
                 272
                 273
                 274
                 275
                 276
                 277
                 278
                 279
                 280
                 281
                 282
                 283
                 284
                 285
                 286
                 287
                 288
                 289
                 290
                 291
                 292
                 293
                 294
                 295
                 296
                 297
                 298
                 299
                 300
                 301
                 302
                 303
                 304
                 305
                 306
                 307
                 308
                 309
                 310
                 311
                 312
                 313
                 314
                 315
                 316
                 317
                 318
                 319
                 320
                 321
                 322
                 323
                 324
                 325
                 326
                 327
                 328
                 329
                 330
                 331
                 332
                 333
                 334
                 335
                 336
                 337
                 338
                 339
                 340
                 341
                 342
                 343
                 344
                 345
                 346
                 347
                 348
                 349
                 350
                 351
                 352
                 353
                 354
                 355
                 356
                 357
                 358
                 359
                 360
                 361
                 362
                 363
                 364
                 365
                 366
                 367
                 368
                 369
                 370
                 371
                 372
                 373
                 374
                 375
                 376
                 377
                 378
                 379
                 380
                 381
                 382
                 383
                 384
                 385
                 386
                 387
                 388
                 389
                 390
                 391
                 392
                 393
                 394
                 395
                 396
                 397
                 398
                 399
                 400
                 401
                 402
                 403
                 404
                 405
                 406
                 407
                 408
                 409
                 410
                 411
                 412
                 413
                 414
                 415
                 416
                 417
                 418
                 419
                 420
                 421
                 422
                 423
                 424
                 425
                 426
                 427
                 428
                 429
                 430
                 431
                 432
                 433
                 434
                 435
                 436
                 437
                 438
                 439
                 440
                 441
                 442
                 443
                 444
                 445
                 446
                 447
                 448
                 449
                 450
                 451
                 452
                 453
                 454
                 455
                 456
                 457
                 458
                 459
                 460
                 461
                 462
                 463
                 464
                 465
                 466
                 467
                 468
                 469
                 470
                 471
                 472
                 473
                 474
                 475
                 476
                 477
                 478
                 479
                 480
                 481
                 482
                 483
                 484
                 485
                 486
                 487
                 488
                 489
                 490
                 491
                 492
                 493
                 494
                 495
                 496
                 497
                 498
                 499
                 500
                 501
                 502
                 503
                 504
                 505
                 506
                 507
                 508
                 509
                 510
                 511
                 512
                 513
                 514
                 515
                 516
                 517
                 518
                 519
                 520
                 521
                 522
                 523
                 524
                 525
                 526
                 527
                 528
                 529
                 530
                 531
                 532
                 533
                 534
                 535
                 536
                 537
                 538
                 539
                 540
                 541
                 542
                 543
                 544
                 545
                 546
                 547
                 548
                 549
                 550
                 551
                 552
                 553
                 554
                 555
                 556
                 557
                 558
                 559
                 560
                 561
                 562
                 563
                 564
                 565
                 566
                 567
                 568
                 569
                 570
                 571
                 572
                 573
                 574
                 575
                 576
                 577
                 578
                 579
                 580
                 581
                 582
                 583
                 584
                 585
                 586
                 587
                 588
                 589
                 590
                 591
                 592
                 593
                 594
                 595
                 596
                 597
                 598
                 599
                 600
                 601
                 602
                 603
                 604
                 605
                 606
                 607
                 608
                 609
                 610
                 611
                 612
                 613
                 614
                 615
                 616
                 617
                 618
                 619
                 620
                 621
                 622
                 623
                 624
                 625
                 626
                 627
                 628
                 629
                 630
                 631
                 632
                 633
                 634
                 635
                 636
                 637
                 638
                 639
                 640
                 641
                 642
                 643
                 644
                 645
                 646
                 647
                 648
                 649
                 650
                 651
                 652
                 653
                 654
                 655
                 656
                 657
                 658
                 659
                 660
                 661
                 662
                 663
                 664
                 665
                 666
                 667
                 668
                 669
                 670
                 671
                 672
                 673
                 674
                 675
                 676
                 677
                 678
                 679
                 680
                 681
                 682
                 683
                 684
                 685
                 686
                 687
                 688
                 689
                 690
                 691
                 692
                 693
                 694
                 695
                 696
                 697
                 698
                 699
                 700
                 701
                 702
                 703
                 704
                 705
                 706
                 707
                 708
                 709
                 710
                 711
                 712
                 713
                 714
                 715
                 716
                 717
                 718
                 719
                 720
                 721
                 722
                 723
                 724
                 725
                 726
                 727
                 728
                 729
                 730
                 731
                 732
                 733
                 734
                 735
                 736
                 737
                 738
                 739
                 740
                 741
                 742
                 743
                 744
                 745
                 746
                 747
                 748
                 749
                 750
                 751
                 752
                 753
                 754
                 755
                 756
                 757
                 758
                 759
                 760
                 761
                 762
                 763
                 764
                 765
                 766
                 767
                 768
                 769
                 770
                 771
                 772
                 773
                 774
                 775
                 776
                 777
                 778
                 779
                 780
                 781
                 782
                 783
                 784
                 785
                 786
                 787
                 788
                 789
                 790
                 791
                 792
                 793
                 794
                 795
                 796
                 797
                 798
                 799
                 800
                 801
                 802
                 803
                 804
                 805
                 806
                 807
                 808
                 809
                 810
                 811
                 812
                 813
                 814
                 815
                 816
                 817
                 818
                 819
                 820
                 821
                 822
                 823
                 824
                 825
                 826
                 827
                 828
                 829
                 830
                 831
                 832
                 833
                 834
                 835
                 836
                 837
                 838
                 839
                 840
                 841
                 842
                 843
                 844
                 845
                 846
                 847
                 848
                 849
                 850
                 851
                 852
                 853
                 854
                 855
                 856
                 857
                 858
                 859
                 860
                 861
                 862
                 863
                 864
                 865
                 866
                 867
                 868
                 869
                 870
                 871
                 872
                 873
                 874
                 875
                 876
                 877
                 878
                 879
                 880
                 881
                 882
                 883
                 884
                 885
                 886
                 887
                 888
                 889
                 890
                 891
                 892
                 893
                 894
                 895
                 896
                 897
                 898
                 899
                 900
                 901
                 902
                 903
                 904
                 905
                 906
                 907
                 908
                 909
                 910
                 911
                 912
                 913
                 914
                 915
                 916
                 917
                 918
                 919
                 920
                 921
                 922
                 923
                 924
                 925
                 926
                 927
                 928
                 929
                 930
                 931
                 932
                 933
                 934
                 935
                 936
                 937
                 938
                 939
                 940
                 941
                 942
                 943
                 944
                 945
                 946
                 947
                 948
                 949
                 950
                 951
                 952
                 953
                 954
                 955
                 956
                 957
                 958
                 959
                 960
                 961
                 962
                 963
                 964
                 965
                 966
                 967
                 968
                 969
                 970
                 971
                 972
                 973
                 974
                 975
                 976
                 977
                 978
                 979
                 980
                 981
                 982
                 983
                 984
                 985
                 986
                 987
                 988
                 989
                 990
                 991
                 992
                 993
                 994
                 995
                 996
                 997
                 998
                 999
                1000
                1001
                1002
                1003
                1004
                1005
                1006
                1007
                1008
                1009
                1010
                1011
                1012
                1013
                1014
                1015
                1016
                1017
                1018
                1019
                1020
                1021
                1022
                1023
                1024
                1025
                1026
                1027
                1028
                1029
                1030
                1031
                1032
                1033
                1034
                1035
                1036
                1037
                1038
                1039
                1040
                1041
                1042
                1043
                1044
                1045
                1046
                1047
                1048
                1049
                1050
                1051
                1052
                1053
                1054
                1055
                1056
                1057
                1058
                1059
                1060
                1061
                1062
                1063
                1064
                1065
                1066
                1067
                1068
                1069
                1070
                1071
                1072
                1073
                1074
                1075
                1076
                1077
                1078
                1079
                1080
                1081
                1082
                1083
                1084
                1085
                1086
                1087
                1088
                1089
                1090
                1091
                1092
                1093
                1094
                1095
                1096
                1097
                1098
                1099
                1100
                1101
                1102
                1103
                1104
                1105
                1106
                1107
                1108
                1109
                1110
                1111
                1112
                1113
                1114
                1115
                1116
                1117
                1118
                1119
                1120
                1121
                1122
                1123
                1124
                1125
                1126
                1127
                1128
                1129
                1130
                1131
                1132
                1133
                1134
                1135
                1136
                1137
                1138
                1139
                1140
                1141
                1142
                1143
                1144
                1145
                1146
                1147
                1148
                1149
                1150
                1151
                1152
                1153
                1154
                1155
                1156
                1157
                1158
                1159
                1160
                1161
                1162
                1163
                1164
                1165
                1166
                1167
                1168
                1169
                1170
                1171
                1172
                1173
                1174
                1175
                1176
                1177
                1178
                1179
                1180
                1181
                1182
                1183
                1184
                1185
                1186
                1187
                1188
                1189
                1190
                1191
                1192
                1193
                1194
                1195
                1196
                1197
                1198
                1199
                1200
                1201
                1202
                1203
                1204
                1205
                1206
                1207
                1208
                1209
                1210
                1211
                1212
                1213
                1214
                1215
                1216
                1217
                1218
                1219
                1220
                1221
                1222
                1223
                1224
                1225
                1226
                1227
                1228
                1229
                1230
                1231
                1232
                1233
                1234
                1235
                1236
                1237
                1238
                1239
                1240
                1241
                1242
                1243
                1244
                1245
                1246
                1247
                1248
                1249
                1250
                1251
                1252
                1253
                1254
                1255
                1256
                1257
                1258
                1259
                1260
                1261
                1262
                1263
                1264
                1265
                1266
                1267
                1268
                1269
                1270
                1271
                1272
                1273
                1274
                1275
                1276
                1277
                1278
                1279
                1280
                1281
                1282
                1283
                1284
                1285
                1286
                1287
                1288
                1289
                1290
                1291
                1292
                1293
                1294
                1295
                1296
                1297
                1298
                1299
                1300
                1301
                1302
                1303
                1304
                1305
                1306
                1307
                1308
                1309
                1310
                1311
                1312
                1313
                1314
                1315
                1316
                1317
                1318
                1319
                1320
                1321
                1322
                1323
                1324
                1325
                1326
                1327
                1328
                1329
                1330
                1331
                1332
                1333
                1334
                1335
                1336
                1337
                1338
                1339
                1340
                1341
                1342
                1343
                1344
                1345
                1346
                1347
                1348
                1349
                1350
                1351
                1352
                1353
                1354
                1355
                1356
                1357
                1358
                1359
                1360
                1361
                1362
                1363
                1364
                1365
                1366
                1367
                1368
                1369
                1370
                1371
                1372
                1373
                1374
                1375
                1376
                1377
                1378
                1379
                1380
                1381
                1382
                1383
                1384
                1385
                1386
                1387
                1388
                1389
                1390
                1391
                1392
                1393
                1394
                1395
                1396
                1397
                1398
                1399
                1400
                1401
                1402
                1403
                1404
                1405
                1406
                1407
                1408
                1409
                1410
                1411
                1412
                1413
                1414
                1415
                1416
                1417
                1418
                1419
                1420
                1421
                1422
                1423
                1424
                1425
                1426
                1427
                1428
                1429
                1430
                1431
                1432
                1433
                1434
                1435
                1436
                1437
                1438
                1439
                1440
                1441
                1442
                1443
                1444
                1445
                1446
                1447
                1448
                1449
                1450
                1451
                1452
                1453
                1454
                1455
                1456
                1457
                1458
                1459
                1460
                1461
                1462
                1463
                1464
                1465
                1466
                1467
                1468
                1469
                1470
                1471
                1472
                1473
                1474
                1475
                1476
                1477
                1478
                1479
                1480
                1481
                1482
                1483
                1484
                1485
                1486
                1487
                1488
                1489
                1490
                1491
                1492
                1493
                1494
                1495
                1496
                1497
                1498
                1499
                1500
                1501
                1502
                1503
                1504
                1505
                1506
                1507
                1508
                1509
                1510
                1511
                1512
                1513
                1514
                1515
                1516
                1517
                1518
                1519
                1520
                1521
                1522
                1523
                1524
                1525
                1526
                1527
                1528
                1529
                1530
                1531
                1532
                1533
                1534
                1535
                1536
                1537
                1538
                1539
                1540
                1541
                1542
                1543
                1544
                1545
                1546
                1547
                1548
                1549
                1550
                1551
                1552
                1553
                1554
                1555
                1556
                1557
                1558
                1559
                1560
                1561
                1562
                1563
                1564
                1565
                1566
                1567
                1568
                1569
                1570
                1571
                1572
                1573
                1574
                1575
                1576
                1577
                1578
                1579
                1580
                1581
                1582
                1583
                1584
                1585
                1586
                1587
                1588
                1589
                1590
                1591
                1592
                1593
                1594
                1595
                1596
                1597
                1598
                1599
                1600
                1601
                1602
                1603
                1604
                1605
                1606
                1607
                1608
                1609
                1610
                1611
                1612
                1613
                1614
                1615
                1616
                1617
                1618
                1619
                1620
                1621
                1622
                1623
                1624
                1625
                1626
                1627
                1628
                1629
                1630
                1631
                1632
                1633
                1634
                1635
                1636
                1637
                1638
                1639
                1640
                1641
                1642
                1643
                1644
                1645
                1646
                1647
                1648
                1649
                1650
                1651
                1652
                1653
                1654
                1655
                1656
                1657
                1658
                1659
                1660
                1661
                1662
                1663
                1664
                1665
                1666
                1667
                1668
                1669
                1670
                1671
                1672
                1673
                1674
                1675
                1676
                1677
                1678
                1679
                1680
                1681
                1682
                1683
                1684
                1685
                1686
                1687
                1688
                1689
                1690
                1691
                1692
                1693
                1694
                1695
                1696
                1697
                1698
                1699
                1700
                1701
                1702
                1703
                1704
                1705
                1706
                1707
                1708
                1709
                1710
                1711
                1712
                1713
                1714
                1715
                1716
                1717
                1718
                1719
                1720
                1721
                1722
                1723
                1724
                1725
                1726
                1727
                1728
                1729
                1730
                1731
                1732
                1733
                1734
                1735
                1736
                1737
                1738
                1739
                1740
                1741
                1742
                1743
                1744
                1745
                1746
                1747
                1748
                1749
                1750
                1751
                1752
                1753
                1754
                1755
                1756
                1757
                1758
                1759
                1760
                1761
                1762
                1763
                1764
                1765
                1766
                1767
                1768
                1769
                1770
                1771
                1772
                1773
                1774
                1775
                1776
                1777
                1778
                1779
                1780
                1781
                1782
                1783
                1784
                1785
                1786
                1787
                1788
                1789
                1790
                1791
                1792
                1793
                1794
                1795
                1796
                1797
                1798
                1799
                1800
                1801
                1802
                1803
                1804
                1805
                1806
                1807
                1808
                1809
                1810
                1811
                1812
                1813
                1814
                1815
                1816
                1817
                1818
                1819
                1820
                1821
                1822
                1823
                1824
                1825
                1826
                1827
                1828
                1829
                1830
                1831
                1832
                1833
                1834
                1835
                1836
                1837
                1838
                1839
                1840
                1841
                1842
                1843
                1844
                1845
                1846
                1847
                1848
                1849
                1850
                1851
                1852
                1853
                1854
                1855
                1856
                1857
                1858
                1859
                1860
                1861
                1862
                1863
                1864
                1865
                1866
                1867
                1868
                1869
                1870
                1871
                1872
                1873
                1874
                1875
                1876
                1877
                1878
                1879
                1880
                1881
                1882
                1883
                1884
                1885
                1886
                1887
                1888
                1889
                1890
                1891
                1892
                1893
                1894
                1895
                1896
                1897
                1898
                1899
                1900
                1901
                1902
                1903
                1904
                1905
                1906
                1907
                1908
                1909
                1910
                1911
                1912
                1913
                1914
                1915
                1916
                1917
                1918
                1919
                1920
                1921
                1922
                1923
                1924
                1925
                1926
                1927
                1928
                1929
                1930
                1931
                1932
                1933
                1934
                1935
                1936
                1937
                1938
                1939
                1940
                1941
                1942
                1943
                1944
                1945
                1946
                1947
                1948
                1949
                1950
  
SCALARS                         bodyid  double 1
LOOKUP_TABLE default
                   1
                   1
                   1
                   1
                   1
                   1
                   1
                   1
                   1
                   1
                   1
                   1
                   1
                   1
                   1
                   1
                   1
                   1
                   1
                   1
                   1
                   1
                   1
                   1
                   1
                   1
                   1
                   1
                   1
                   1
                   1
                   1
                   1
                   1
                   1
                   1
                   1
                   1
                   1
                   1
                   1
                   1
                   1
                   1
                   1
                   1
                   1
                   1
                   1
                   1
                   1
                   1
                   1
                   1
                   1
                   1
                   1
                   1
                   1
                   1
                   1
                   1
                   1
                   1
                   1
                   1
                   1
                   1
                   1
                   1
                   1
                   1
                   1
                   1
                   1
                   1
                   1
                   1
                   1
                   1
                   1
                   1
                   1
                   1
                   1
                   1
                   1
                   1
                   1
                   1
                   1
                   1
                   1
                   1
                   1
                   1
                   1
                   1
                   1
                   1
                   1
                   1
                   1
                   1
                   1
                   1
                   1
                   1
                   1
                   1
                   1
                   1
                   1
                   1
                   1
                   1
                   1
                   1
                   1
                   1
                   1
                   1
                   1
                   1
                   1
                   1
                   1
                   1
                   1
                   1
                   1
                   1
                   1
                   1
                   1
                   1
                   1
                   1
                   1
                   1
                   1
                   1
                   1
                   1
                   1
                   1
                   1
                   1
                   1
                   1
                   1
                   1
                   1
                   1
                   1
                   1
                   1
                   1
                   1
                   1
                   1
                   1
                   1
                   1
                   1
                   1
                   1
                   1
                   1
                   1
                   1
                   1
                   1
                   1
                   1
                   1
                   1
                   1
                   1
                   1
                   1
                   1
                   1
                   1
                   1
                   1
                   1
                   1
                   1
                   1
                   1
                   1
                   1
                   1
                   1
                   1
                   1
                   1
                   1
                   1
                   1
                   1
                   1
                   1
                   1
                   1
                   1
                   1
                   1
                   1
                   1
                   1
                   1
                   1
                   1
                   1
                   1
                   1
                   1
                   1
                   1
                   1
                   1
                   1
                   1
                   1
                   1
                   1
                   1
                   1
                   1
                   1
                   1
                   1
                   1
                   1
                   1
                   1
                   1
                   1
                   1
                   1
                   1
                   1
                   1
                   1
                   1
                   1
                   1
                   1
                   1
                   1
                   1
                   1
                   1
                   1
                   1
                   1
                   1
                   1
                   1
                   1
                   1
                   1
                   1
                   1
                   1
                   1
                   1
                   1
                   1
                   1
                   1
                   1
                   1
                   1
                   1
                   1
                   1
                   1
                   1
                   1
                   1
                   1
                   1
                   1
                   1
                   1
                   1
                   1
                   1
                   1
                   1
                   1
                   1
                   1
                   1
                   1
                   1
                   1
                   1
                   1
                   1
                   1
                   1
                   1
                   1
                   1
                   1
                   1
                   1
                   1
                   1
                   1
                   1
                   1
                   1
                   1
                   1
                   1
                   1
                   1
                   1
                   1
                   1
                   1
                   1
                   1
                   1
                   1
                   1
                   1
                   1
                   1
                   1
                   1
                   1
                   1
                   1
                   1
                   1
                   1
                   1
                   1
                   1
                   1
                   1
                   1
                   1
                   1
                   1
                   1
                   1
                   1
                   1
                   1
                   1
                   1
                   1
                   1
                   1
                   1
                   1
                   1
                   1
                   1
                   1
                   1
                   1
                   1
                   1
                   1
                   1
                   1
                   1
                   1
                   1
                   1
                   1
                   1
                   1
                   1
                   1
                   1
                   1
                   1
                   1
                   1
                   1
                   1
                   1
                   1
                   1
                   1
                   1
                   1
                   1
                   1
                   1
                   1
                   1
                   1
                   1
                   1
                   1
                   1
                   1
                   1
                   1
                   1
                   1
                   1
                   1
                   1
                   1
                   1
                   1
                   1
                   1
                   1
                   1
                   1
                   1
                   1
                   1
                   1
                   1
                   1
                   1
                   1
                   1
                   1
                   1
                   1
                   1
                   1
                   1
                   1
                   1
                   1
                   1
                   1
                   1
                   1
                   1
                   1
                   1
                   1
                   1
                   1
                   1
                   1
                   1
                   1
                   1
                   1
                   1
                   1
                   1
                   1
                   1
                   1
                   1
                   1
                   1
                   1
                   1
                   1
                   1
                   1
                   1
                   1
                   1
                   1
                   1
                   1
                   1
                   1
                   1
                   1
                   1
                   1
                   1
                   1
                   1
                   1
                   1
                   1
                   1
                   1
                   1
                   1
                   1
                   1
                   1
                   1
                   1
                   1
                   1
                   1
                   1
                   1
                   1
                   1
                   1
                   1
                   1
                   1
                   1
                   1
                   1
                   1
                   1
                   1
                   1
                   1
                   1
                   1
                   1
                   1
                   1
                   1
                   1
                   1
                   1
                   1
                   1
                   1
                   1
                   1
                   1
                   1
                   1
                   1
                   1
                   1
                   1
                   1
                   1
                   1
                   1
                   1
                   1
                   1
                   1
                   1
                   1
                   1
                   1
                   1
                   1
                   1
                   1
                   1
                   1
                   1
                   1
                   1
                   1
                   1
                   1
                   1
                   1
                   1
                   1
                   1
                   1
                   1
                   1
                   1
                   1
                   1
                   1
                   1
                   1
                   1
                   1
                   1
                   1
                   1
                   1
                   1
                   1
                   1
                   1
                   1
                   1
                   1
                   1
                   1
                   1
                   1
                   1
                   1
                   1
                   1
                   1
                   1
                   1
                   1
                   1
                   1
                   1
                   1
                   1
                   1
                   1
                   1
                   1
                   1
                   1
                   1
                   1
                   1
                   1
                   1
                   1
                   1
                   1
                   1
                   1
                   1
                   1
                   1
                   1
                   1
                   1
                   1
                   1
                   1
                   1
                   1
                   1
                   1
                   1
                   1
                   1
                   1
                   1
                   1
                   1
                   1
                   1
                   1
                   1
                   1
                   1
                   1
                   1
                   1
                   1
                   1
                   1
                   1
                   1
                   1
                   1
                   1
                   1
                   1
                   1
                   1
                   1
                   1
                   1
                   1
                   1
                   1
                   1
                   1
                   1
                   1
                   1
                   1
                   1
                   1
                   1
                   1
                   1
                   1
                   1
                   1
                   1
                   1
                   1
                   1
                   1
                   1
                   1
                   1
                   1
                   1
                   1
                   1
                   1
                   1
                   1
                   1
                   1
                   1
                   1
                   1
                   1
                   1
                   1
                   1
                   1
                   1
                   1
                   1
                   1
                   1
                   1
                   1
                   1
                   1
                   1
                   1
                   1
                   1
                   1
                   1
                   1
                   1
                   1
                   1
                   1
                   1
                   1
                   1
                   1
                   1
                   1
                   1
                   1
                   1
                   1
                   1
                   1
                   1
                   1
                   1
                   1
                   1
                   1
                   1
                   1
                   1
                   1
                   1
                   1
                   1
                   1
                   1
                   1
                   1
                   1
                   1
                   1
                   1
                   1
                   1
                   1
                   1
                   1
                   1
                   1
                   1
                   1
                   1
                   1
                   1
                   1
                   1
                   1
                   1
                   1
                   1
                   1
                   1
                   1
                   1
                   1
                   1
                   1
                   1
                   1
                   1
                   1
                   1
                   1
                   1
                   1
                   1
                   1
                   1
                   1
                   1
                   1
                   1
                   1
                   1
                   1
                   1
                   1
                   1
                   1
                   1
                   1
                   1
                   1
                   1
                   1
                   1
                   1
                   1
                   1
                   1
                   1
                   1
                   1
                   1
                   1
                   1
                   1
                   1
                   1
                   1
                   1
                   1
                   1
                   1
                   1
                   1
                   1
                   1
                   1
                   1
                   1
                   1
                   1
                   1
                   1
                   1
                   1
                   1
                   1
                   1
                   1
                   1
                   1
                   1
                   1
                   1
                   1
                   1
                   1
                   1
                   1
                   1
                   1
                   1
                   1
                   1
                   1
                   1
                   1
                   1
                   1
                   1
                   1
                   1
                   1
                   1
                   1
                   1
                   1
                   1
                   1
                   1
                   1
                   1
                   1
                   1
                   1
                   1
                   1
                   1
                   1
                   1
                   1
                   1
                   1
                   1
                   1
                   1
                   1
                   1
                   1
                   1
                   1
                   1
                   1
                   1
                   1
                   1
                   1
                   1
                   1
                   1
                   1
                   1
                   1
                   1
                   1
                   1
                   1
                   1
                   1
                   1
                   1
                   1
                   1
                   1
                   1
                   1
                   1
                   1
                   1
                   1
                   1
                   1
                   1
                   1
                   1
                   1
                   1
                   1
                   1
                   1
                   1
                   1
                   1
                   1
                   1
                   1
                   1
                   1
                   1
                   1
                   1
                   1
                   1
                   1
                   1
                   1
                   1
                   1
                   1
                   1
                   1
                   1
                   1
                   1
                   1
                   1
                   1
                   1
                   1
                   1
                   1
                   1
                   1
                   1
                   1
                   1
                   1
                   1
                   1
                   1
                   1
                   1
                   1
                   1
                   1
                   1
                   1
                   1
                   1
                   1
                   1
                   1
                   1
                   1
                   1
                   1
                   1
                   1
                   1
                   1
                   1
                   1
                   1
                   1
                   1
                   1
                   1
                   1
                   1
                   1
                   1
                   1
                   1
                   1
                   1
                   1
                   1
                   1
                   1
                   1
                   1
                   1
                   1
                   1
                   1
                   1
                   1
                   1
                   1
                   1
                   1
                   1
                   1
                   1
                   1
                   1
                   1
                   1
                   1
                   1
                   1
                   1
                   1
                   1
                   1
                   1
                   1
                   1
                   1
                   1
                   1
                   1
                   1
                   1
                   1
                   1
                   1
                   1
                   1
                   1
                   1
                   1
                   1
                   1
                   1
                   1
                   1
                   1
                   1
                   1
                   1
                   1
                   1
                   1
                   1
                   1
                   1
                   1
                   1
                   1
                   1
                   1
                   1
                   1
                   1
                   1
                   1
                   1
                   1
                   1
                   1
                   1
                   1
                   1
                   1
                   1
                   1
                   1
                   1
                   1
                   1
                   1
                   1
                   1
                   1
                   1
                   1
                   1
                   1
                   1
                   1
                   1
                   1
                   1
                   1
                   1
                   1
                   1
                   1
                   1
                   1
                   1
                   1
                   1
                   1
                   1
                   1
                   1
                   1
                   1
                   1
                   1
                   1
                   1
                   1
                   1
                   1
                   1
                   1
                   1
                   1
                   1
                   1
                   1
                   1
                   1
                   1
                   1
                   1
                   1
                   1
                   1
                   1
                   1
                   1
                   1
                   1
                   1
                   1
                   1
                   1
                   1
                   1
                   1
                   1
                   1
                   1
                   1
                   1
                   1
                   1
                   1
                   1
                   1
                   1
                   1
                   1
                   1
                   1
                   1
                   1
                   1
                   1
                   1
                   1
                   1
                   1
                   1
                   1
                   1
                   1
                   1
                   1
                   1
                   1
                   1
                   1
                   1
                   1
                   1
                   1
                   1
                   1
                   1
                   1
                   1
                   1
                   1
                   1
                   1
                   1
                   1
                   1
                   1
                   1
                   1
                   1
                   1
                   1
                   1
                   1
                   1
                   1
                   1
                   1
                   1
                   1
                   1
                   1
                   1
                   1
                   1
                   1
                   1
                   1
                   1
                   1
                   1
                   1
                   1
                   1
                   1
                   1
                   1
                   1
                   1
                   1
                   1
                   1
                   1
                   1
                   1
                   1
                   1
                   1
                   1
                   1
                   1
                   1
                   1
                   1
                   1
                   1
                   1
                   1
                   1
                   1
                   1
                   1
                   1
                   1
                   1
                   1
                   1
                   1
                   1
                   1
                   1
                   1
                   1
                   1
                   1
                   1
                   1
                   1
                   1
                   1
                   1
                   1
                   1
                   1
                   1
                   1
                   1
                   1
                   1
                   1
                   1
                   1
                   1
                   1
                   1
                   1
                   1
                   1
                   1
                   1
                   1
                   1
                   1
                   1
                   1
                   1
                   1
                   1
                   1
                   1
                   1
                   1
                   1
                   1
                   1
                   1
                   1
                   1
                   1
                   1
                   1
                   1
                   1
                   1
                   1
                   1
                   1
                   1
                   1
                   1
                   1
                   1
                   1
                   1
                   1
                   1
                   1
                   1
                   1
                   1
                   1
                   1
                   1
                   1
                   1
                   1
                   1
                   1
                   1
                   1
                   1
                   1
                   1
                   1
                   1
                   1
                   1
                   1
                   1
                   1
                   1
                   1
                   1
                   1
                   1
                   1
                   1
                   1
                   1
                   1
                   1
                   1
                   1
                   1
                   1
                   1
                   1
                   1
                   1
                   1
                   1
                   1
                   1
                   1
                   1
                   1
                   1
                   1
                   1
                   1
                   1
                   1
                   1
                   1
                   1
                   1
                   1
                   1
                   1
                   1
                   1
                   1
                   1
                   1
                   1
                   1
                   1
                   1
                   1
                   1
                   1
                   1
                   1
                   1
                   1
                   1
                   1
                   1
                   1
                   1
                   1
                   1
                   1
                   1
                   1
                   1
                   1
                   1
                   1
                   1
                   1
                   1
                   1
                   1
                   1
                   1
                   1
                   1
                   1
                   1
                   1
                   1
                   1
                   1
                   1
                   1
                   1
                   1
                   1
                   1
                   1
                   1
                   1
                   1
                   1
                   1
                   1
                   1
                   1
                   1
                   1
                   1
                   1
                   1
                   1
                   1
                   1
                   1
                   1
                   1
                   1
                   1
                   1
                   1
                   1
                   1
                   1
                   1
                   1
                   1
                   1
                   1
                   1
                   1
                   1
                   1
                   1
                   1
                   1
                   1
                   1
                   1
                   1
                   1
                   1
                   1
                   1
                   1
                   1
                   1
                   1
                   1
                   1
                   1
                   1
                   1
                   1
                   1
                   1
                   1
                   1
                   1
                   1
                   1
                   1
                   1
                   1
                   1
                   1
                   1
                   1
                   1
                   1
                   1
                   1
                   1
                   1
                   1
                   1
                   1
                   1
                   1
                   1
                   1
                   1
                   1
                   1
                   1
                   1
                   1
                   1
                   1
                   1
                   1
                   1
                   1
                   1
                   1
                   1
                   1
                   1
                   1
                   1
                   1
                   1
                   1
                   1
                   1
                   1
                   1
                   1
                   1
                   1
                   1
                   1
                   1
                   1
                   1
                   1
                   1
                   1
                   1
                   1
                   1
                   1
                   1
                   1
                   1
                   1
                   1
                   1
                   1
                   1
                   1
                   1
                   1
                   1
                   1
                   1
                   1
                   1
                   1
                   1
                   1
                   1
                   1
                   1
                   1
                   1
                   1
                   1
                   1
                   1
                   1
                   1
                   1
                   1
                   1
                   1
                   1
                   1
                   1
                   1
                   1
                   1
                   1
                   1
                   1
                   1
                   1
                   1
                   1
                   1
                   1
                   1
                   1
                   1
                   1
                   1
                   1
                   1
                   1
                   1
                   1
                   1
                   1
                   1
                   1
                   1
                   1
                   1
                   1
                   1
                   1
                   1
                   1
                   1
                   1
                   1
                   1
                   1
                   1
                   1
                   1
                   1
                   1
                   1
                   1
                   1
                   1
                   1
                   1
                   1
                   1
                   1
                   1
                   1
                   1
                   1
                   1
                   1
                   1
                   1
                   1
                   1
                   1
                   1
                   1
                   1
                   1
                   1
                   1
                   1
                   1
                   1
                   1
                   1
                   1
                   1
                   1
                   1
                   1
                   1
                   1
                   1
                   1
                   1
                   1
                   1
                   1
                   1
                   1
                   1
                   1
                   1
                   1
                   1
                   1
                   1
                   1
                   1
                   1
                   1
                   1
                   1
                   1
                   1
                   1
                   1
                   1
                   1
                   1
                   1
                   1
                   1
                   1
                   1
                   1
                   1
                   1
                   1
                   1
                   1
                   1
                   1
                   1
                   1
                   1
                   1
                   1
                   1
                   1
                   1
                   1
                   1
                   1
                   1
                   1
                   1
                   1
                   1
                   1
                   1
                   1
                   1
                   1
                   1
                   1
                   1
                   1
                   1
                   1
                   1
                   1
                   1
                   1
                   1
                   1
                   1
                   1
                   1
                   1
                   1
                   1
                   1
                   1
                   1
                   1
                   1
                   1
                   1
                   1
                   1
                   1
                   1
                   1
                   1
                   1
                   1
                   1
                   1
                   1
                   1
                   1
                   1
                   1
                   1
                   1
                   1
                   1
                   1
                   1
                   1
                   1
                   1
                   1
                   1
                   1
                   1
                   1
                   1
                   1
                   1
                   1
                   1
                   1
                   1
                   1
                   1
                   1
                   1
                   1
                   1
                   1
                   1
                   1
                   1
                   1
                   1
                   1
                   1
                   1
                   1
                   1
                   1
                   1
                   1
                   1
                   1
                   1
                   1
                   1
                   1
                   1
                   1
                   1
                   1
                   1
                   1
                   1
                   1
                   1
                   1
                   1
                   1
                   1
                   1
                   1
                   1
                   1
                   1
                   1
                   1
                   1
                   1
                   1
                   1
                   1
                   1
                   1
                   1
                   1
                   1
                   1
                   1
                   1
                   1
                   1
                   1
                   1
                   1
                   1
                   1
                   1
                   1
                   1
                   1
                   1
                   1
                   1
                   1
                   1
                   1
                   1
                   1
                   1
                   1
                   1
                   1
                   1
                   1
                   1
                   1
                   1
                   1
                   1
                   1
                   1
                   1
                   1
                   1
                   1
                   1
                   1
                   1
                   1
                   1
                   1
                   1
                   1
                   1
                   1
                   1
                   1
                   1
                   1
                   1
                   1
                   1
                   1
                   1
                   1
                   1
                   1
                   1
                   1
                   1
                   1
                   1
                   1
                   1
                   1
                   1
  
SCALARS                  material_type  double 1
LOOKUP_TABLE default
                   2
                   2
                   2
                   2
                   2
                   2
                   2
                   2
                   2
                   2
                   2
                   2
                   2
                   2
                   2
                   2
                   2
                   2
                   2
                   2
                   2
                   2
                   2
                   2
                   2
                   2
                   2
                   2
                   2
                   2
                   2
                   2
                   2
                   2
                   2
                   2
                   2
                   2
                   2
                   2
                   2
                   2
                   2
                   2
                   2
                   2
                   2
                   2
                   2
                   2
                   2
                   2
                   2
                   2
                   2
                   2
                   2
                   2
                   2
                   2
                   2
                   2
                   2
                   2
                   2
                   2
                   2
                   2
                   2
                   2
                   2
                   2
                   2
                   2
                   2
                   2
                   2
                   2
                   2
                   2
                   2
                   2
                   2
                   2
                   2
                   2
                   2
                   2
                   2
                   2
                   2
                   2
                   2
                   2
                   2
                   2
                   2
                   2
                   2
                   2
                   2
                   2
                   2
                   2
                   2
                   2
                   2
                   2
                   2
                   2
                   2
                   2
                   2
                   2
                   2
                   2
                   2
                   2
                   2
                   2
                   2
                   2
                   2
                   2
                   2
                   2
                   2
                   2
                   2
                   2
                   2
                   2
                   2
                   2
                   2
                   2
                   2
                   2
                   2
                   2
                   2
                   2
                   2
                   2
                   2
                   2
                   2
                   2
                   2
                   2
                   2
                   2
                   2
                   2
                   2
                   2
                   2
                   2
                   2
                   2
                   2
                   2
                   2
                   2
                   2
                   2
                   2
                   2
                   2
                   2
                   2
                   2
                   2
                   2
                   2
                   2
                   2
                   2
                   2
                   2
                   2
                   2
                   2
                   2
                   2
                   2
                   2
                   2
                   2
                   2
                   2
                   2
                   2
                   2
                   2
                   2
                   2
                   2
                   2
                   2
                   2
                   2
                   2
                   2
                   2
                   2
                   2
                   2
                   2
                   2
                   2
                   2
                   2
                   2
                   2
                   2
                   2
                   2
                   2
                   2
                   2
                   2
                   2
                   2
                   2
                   2
                   2
                   2
                   2
                   2
                   2
                   2
                   2
                   2
                   2
                   2
                   2
                   2
                   2
                   2
                   2
                   2
                   2
                   2
                   2
                   2
                   2
                   2
                   2
                   2
                   2
                   2
                   2
                   2
                   2
                   2
                   2
                   2
                   2
                   2
                   2
                   2
                   2
                   2
                   2
                   2
                   2
                   2
                   2
                   2
                   2
                   2
                   2
                   2
                   2
                   2
                   2
                   2
                   2
                   2
                   2
                   2
                   2
                   2
                   2
                   2
                   2
                   2
                   2
                   2
                   2
                   2
                   2
                   2
                   2
                   2
                   2
                   2
                   2
                   2
                   2
                   2
                   2
                   2
                   2
                   2
                   2
                   2
                   2
                   2
                   2
                   2
                   2
                   2
                   2
                   2
                   2
                   2
                   2
                   2
                   2
                   2
                   2
                   2
                   2
                   2
                   2
                   2
                   2
                   2
                   2
                   2
                   2
                   2
                   2
                   2
                   2
                   2
                   2
                   2
                   2
                   2
                   2
                   2
                   2
                   2
                   2
                   2
                   2
                   2
                   2
                   2
                   2
                   2
                   2
                   2
                   2
                   2
                   2
                   2
                   2
                   2
                   2
                   2
                   2
                   2
                   2
                   2
                   2
                   2
                   2
                   2
                   2
                   2
                   2
                   2
                   2
                   2
                   2
                   2
                   2
                   2
                   2
                   2
                   2
                   2
                   2
                   2
                   2
                   2
                   2
                   2
                   2
                   2
                   2
                   2
                   2
                   2
                   2
                   2
                   2
                   2
                   2
                   2
                   2
                   2
                   2
                   2
                   2
                   2
                   2
                   2
                   2
                   2
                   2
                   2
                   2
                   2
                   2
                   2
                   2
                   2
                   2
                   2
                   2
                   2
                   2
                   2
                   2
                   2
                   2
                   2
                   2
                   2
                   2
                   2
                   2
                   2
                   2
                   2
                   2
                   2
                   2
                   2
                   2
                   2
                   2
                   2
                   2
                   2
                   2
                   2
                   2
                   2
                   2
                   2
                   2
                   2
                   2
                   2
                   2
                   2
                   2
                   2
                   2
                   2
                   2
                   2
                   2
                   2
                   2
                   2
                   2
                   2
                   2
                   2
                   2
                   2
                   2
                   2
                   2
                   2
                   2
                   2
                   2
                   2
                   2
                   2
                   2
                   2
                   2
                   2
                   2
                   2
                   2
                   2
                   2
                   2
                   2
                   2
                   2
                   2
                   2
                   2
                   2
                   2
                   2
                   2
                   2
                   2
                   2
                   2
                   2
                   2
                   2
                   2
                   2
                   2
                   2
                   2
                   2
                   2
                   2
                   2
                   2
                   2
                   2
                   2
                   2
                   2
                   2
                   2
                   2
                   2
                   2
                   2
                   2
                   2
                   2
                   2
                   2
                   2
                   2
                   2
                   2
                   2
                   2
                   2
                   2
                   2
                   2
                   2
                   2
                   2
                   2
                   2
                   2
                   2
                   2
                   2
                   2
                   2
                   2
                   2
                   2
                   2
                   2
                   2
                   2
                   2
                   2
                   2
                   2
                   2
                   2
                   2
                   2
                   2
                   2
                   2
                   2
                   2
                   2
                   2
                   2
                   2
                   2
                   2
                   2
                   2
                   2
                   2
                   2
                   2
                   2
                   2
                   2
                   2
                   2
                   2
                   2
                   2
                   2
                   2
                   2
                   2
                   2
                   2
                   2
                   2
                   2
                   2
                   2
                   2
                   2
                   2
                   2
                   2
                   2
                   2
                   2
                   2
                   2
                   2
                   2
                   2
                   2
                   2
                   2
                   2
                   2
                   2
                   2
                   2
                   2
                   2
                   2
                   2
                   2
                   2
                   2
                   2
                   2
                   2
                   2
                   2
                   2
                   2
                   2
                   2
                   2
                   2
                   2
                   2
                   2
                   2
                   2
                   2
                   2
                   2
                   2
                   2
                   2
                   2
                   2
                   2
                   2
                   2
                   2
                   2
                   2
                   2
                   2
                   2
                   2
                   2
                   2
                   2
                   2
                   2
                   2
                   2
                   2
                   2
                   2
                   2
                   2
                   2
                   2
                   2
                   2
                   2
                   2
                   2
                   2
                   2
                   2
                   2
                   2
                   2
                   2
                   2
                   2
                   2
                   2
                   2
                   2
                   2
                   2
                   2
                   2
                   2
                   2
                   2
                   2
                   2
                   2
                   2
                   2
                   2
                   2
                   2
                   2
                   2
                   2
                   2
                   2
                   2
                   2
                   2
                   2
                   2
                   2
                   2
                   2
                   2
                   2
                   2
                   2
                   2
                   2
                   2
                   2
                   2
                   2
                   2
                   2
                   2
                   2
                   2
                   2
                   2
                   2
                   2
                   2
                   2
                   2
                   2
                   2
                   2
                   2
                   2
                   2
                   2
                   2
                   2
                   2
                   2
                   2
                   2
                   2
                   2
                   2
                   2
                   2
                   2
                   2
                   2
                   2
                   2
                   2
                   2
                   2
                   2
                   2
                   2
                   2
                   2
                   2
                   2
                   2
                   2
                   2
                   2
                   2
                   2
                   2
                   2
                   2
                   2
                   2
                   2
                   2
                   2
                   2
                   2
                   2
                   2
                   2
                   2
                   2
                   2
                   2
                   2
                   2
                   2
                   2
                   2
                   2
                   2
                   2
                   2
                   2
                   2
                   2
                   2
                   2
                   2
                   2
                   2
                   2
                   2
                   2
                   2
                   2
                   2
                   2
                   2
                   2
                   2
                   2
                   2
                   2
                   2
                   2
                   2
                   2
                   2
                   2
                   2
                   2
                   2
                   2
                   2
                   2
                   2
                   2
                   2
                   2
                   2
                   2
                   2
                   2
                   2
                   2
                   2
                   2
                   2
                   2
                   2
                   2
                   2
                   2
                   2
                   2
                   2
                   2
                   2
                   2
                   2
                   2
                   2
                   2
                   2
                   2
                   2
                   2
                   2
                   2
                   2
                   2
                   2
                   2
                   2
                   2
                   2
                   2
                   2
                   2
                   2
                   2
                   2
                   2
                   2
                   2
                   2
                   2
                   2
                   2
                   2
                   2
                   2
                   2
                   2
                   2
                   2
                   2
                   2
                   2
                   2
                   2
                   2
                   2
                   2
                   2
                   2
                   2
                   2
                   2
                   2
                   2
                   2
                   2
                   2
                   2
                   2
                   2
                   2
                   2
                   2
                   2
                   2
                   2
                   2
                   2
                   2
                   2
                   2
                   2
                   2
                   2
                   2
                   2
                   2
                   2
                   2
                   2
                   2
                   2
                   2
                   2
                   2
                   2
                   2
                   2
                   2
                   2
                   2
                   2
                   2
                   2
                   2
                   2
                   2
                   2
                   2
                   2
                   2
                   2
                   2
                   2
                   2
                   2
                   2
                   2
                   2
                   2
                   2
                   2
                   2
                   2
                   2
                   2
                   2
                   2
                   2
                   2
                   2
                   2
                   2
                   2
                   2
                   2
                   2
                   2
                   2
                   2
                   2
                   2
                   2
                   2
                   2
                   2
                   2
                   2
                   2
                   2
                   2
                   2
                   2
                   2
                   2
                   2
                   2
                   2
                   2
                   2
                   2
                   2
                   2
                   2
                   2
                   2
                   2
                   2
                   2
                   2
                   2
                   2
                   2
                   2
                   2
                   2
                   2
                   2
                   2
                   2
                   2
                   2
                   2
                   2
                   2
                   2
                   2
                   2
                   2
                   2
                   2
                   2
                   2
                   2
                   2
                   2
                   2
                   2
                   2
                   2
                   2
                   2
                   2
                   2
                   2
                   2
                   2
                   2
                   2
                   2
                   2
                   2
                   2
                   2
                   2
                   2
                   2
                   2
                   2
                   2
                   2
                   2
                   2
                   2
                   2
                   2
                   2
                   2
                   2
                   2
                   2
                   2
                   2
                   2
                   2
                   2
                   2
                   2
                   2
                   2
                   2
                   2
                   2
                   2
                   2
                   2
                   2
                   2
                   2
                   2
                   2
                   2
                   2
                   2
                   2
                   2
                   2
                   2
                   2
                   2
                   2
                   2
                   2
                   2
                   2
                   2
                   2
                   2
                   2
                   2
                   2
                   2
                   2
                   2
                   2
                   2
                   2
                   2
                   2
                   2
                   2
                   2
                   2
                   2
                   2
                   2
                   2
                   2
                   2
                   2
                   2
                   2
                   2
                   2
                   2
                   2
                   2
                   2
                   2
                   2
                   2
                   2
                   2
                   2
                   2
                   2
                   2
                   2
                   2
                   2
                   2
                   2
                   2
                   2
                   2
                   2
                   2
                   2
                   2
                   2
                   2
                   2
                   2
                   2
                   2
                   2
                   2
                   2
                   2
                   2
                   2
                   2
                   2
                   2
                   2
                   2
                   2
                   2
                   2
                   2
                   2
                   2
                   2
                   2
                   2
                   2
                   2
                   2
                   2
                   2
                   2
                   2
                   2
                   2
                   2
                   2
                   2
                   2
                   2
                   2
                   2
                   2
                   2
                   2
                   2
                   2
                   2
                   2
                   2
                   2
                   2
                   2
                   2
                   2
                   2
                   2
                   2
                   2
                   2
                   2
                   2
                   2
                   2
                   2
                   2
                   2
                   2
                   2
                   2
                   2
                   2
                   2
                   2
                   2
                   2
                   2
                   2
                   2
                   2
                   2
                   2
                   2
                   2
                   2
                   2
                   2
                   2
                   2
                   2
                   2
                   2
                   2
                   2
                   2
                   2
                   2
                   2
                   2
                   2
                   2
                   2
                   2
                   2
                   2
                   2
                   2
                   2
                   2
                   2
                   2
                   2
                   2
                   2
                   2
                   2
                   2
                   2
                   2
                   2
                   2
                   2
                   2
                   2
                   2
                   2
                   2
                   2
                   2
                   2
                   2
                   2
                   2
                   2
                   2
                   2
                   2
                   2
                   2
                   2
                   2
                   2
                   2
                   2
                   2
                   2
                   2
                   2
                   2
                   2
                   2
                   2
                   2
                   2
                   2
                   2
                   2
                   2
                   2
                   2
                   2
                   2
                   2
                   2
                   2
                   2
                   2
                   2
                   2
                   2
                   2
                   2
                   2
                   2
                   2
                   2
                   2
                   2
                   2
                   2
                   2
                   2
                   2
                   2
                   2
                   2
                   2
                   2
                   2
                   2
                   2
                   2
                   2
                   2
                   2
                   2
                   2
                   2
                   2
                   2
                   2
                   2
                   2
                   2
                   2
                   2
                   2
                   2
                   2
                   2
                   2
                   2
                   2
                   2
                   2
                   2
                   2
                   2
                   2
                   2
                   2
                   2
                   2
                   2
                   2
                   2
                   2
                   2
                   2
                   2
                   2
                   2
                   2
                   2
                   2
                   2
                   2
                   2
                   2
                   2
                   2
                   2
                   2
                   2
                   2
                   2
                   2
                   2
                   2
                   2
                   2
                   2
                   2
                   2
                   2
                   2
                   2
                   2
                   2
                   2
                   2
                   2
                   2
                   2
                   2
                   2
                   2
                   2
                   2
                   2
                   2
                   2
                   2
                   2
                   2
                   2
                   2
                   2
                   2
                   2
                   2
                   2
                   2
                   2
                   2
                   2
                   2
                   2
                   2
                   2
                   2
                   2
                   2
                   2
                   2
                   2
                   2
                   2
                   2
                   2
                   2
                   2
                   2
                   2
                   2
                   2
                   2
                   2
                   2
                   2
                   2
                   2
                   2
                   2
                   2
                   2
                   2
                   2
                   2
                   2
                   2
                   2
                   2
                   2
                   2
                   2
                   2
                   2
                   2
                   2
                   2
                   2
                   2
                   2
                   2
                   2
                   2
                   2
                   2
                   2
                   2
                   2
                   2
                   2
                   2
                   2
                   2
                   2
                   2
                   2
                   2
                   2
                   2
                   2
                   2
                   2
                   2
                   2
                   2
                   2
                   2
                   2
                   2
                   2
                   2
                   2
                   2
                   2
                   2
                   2
                   2
                   2
                   2
                   2
                   2
                   2
                   2
                   2
                   2
                   2
                   2
                   2
                   2
                   2
                   2
                   2
                   2
                   2
                   2
                   2
                   2
                   2
                   2
                   2
                   2
                   2
                   2
                   2
                   2
                   2
                   2
                   2
                   2
                   2
                   2
                   2
                   2
                   2
                   2
                   2
                   2
                   2
                   2
                   2
                   2
                   2
                   2
                   2
                   2
                   2
                   2
                   2
                   2
                   2
                   2
                   2
                   2
                   2
                   2
                   2
                   2
                   2
                   2
                   2
                   2
                   2
                   2
                   2
                   2
                   2
                   2
                   2
                   2
                   2
                   2
                   2
                   2
                   2
                   2
                   2
                   2
                   2
                   2
                   2
                   2
                   2
                   2
                   2
                   2
                   2
                   2
                   2
                   2
                   2
                   2
                   2
                   2
                   2
                   2
                   2
                   2
                   2
                   2
                   2
                   2
                   2
                   2
                   2
                   2
                   2
                   2
                   2
                   2
                   2
                   2
                   2
                   2
                   2
                   2
                   2
                   2
                   2
                   2
                   2
                   2
                   2
                   2
                   2
                   2
                   2
                   2
                   2
                   2
                   2
                   2
                   2
                   2
                   2
                   2
                   2
                   2
                   2
                   2
                   2
                   2
                   2
                   2
                   2
                   2
                   2
                   2
                   2
                   2
                   2
                   2
                   2
                   2
                   2
                   2
                   2
                   2
                   2
                   2
                   2
                   2
                   2
                   2
                   2
                   2
                   2
                   2
                   2
                   2
                   2
                   2
                   2
                   2
                   2
                   2
                   2
                   2
                   2
                   2
                   2
                   2
                   2
                   2
                   2
                   2
                   2
                   2
                   2
                   2
                   2
                   2
                   2
                   2
                   2
                   2
                   2
                   2
                   2
                   2
                   2
                   2
                   2
                   2
                   2
                   2
                   2
                   2
                   2
                   2
                   2
                   2
                   2
                   2
                   2
                   2
                   2
                   2
                   2
                   2
                   2
                   2
                   2
                   2
                   2
                   2
                   2
                   2
                   2
                   2
                   2
                   2
                   2
                   2
                   2
                   2
                   2
                   2
                   2
                   2
                   2
                   2
                   2
                   2
                   2
                   2
                   2
                   2
                   2
                   2
                   2
                   2
                   2
                   2
                   2
                   2
                   2
                   2
                   2
                   2
                   2
                   2
                   2
                   2
                   2
                   2
                   2
                   2
                   2
                   2
                   2
                   2
                   2
                   2
                   2
                   2
                   2
                   2
                   2
                   2
                   2
                   2
                   2
                   2
                   2
                   2
                   2
                   2
                   2
                   2
                   2
                   2
                   2
                   2
                   2
                   2
                   2
                   2
                   2
                   2
                   2
                   2
                   2
                   2
                   2
                   2
                   2
                   2
                   2
                   2
                   2
                   2
                   2
                   2
                   2
                   2
                   2
                   2
                   2
                   2
                   2
                   2
                   2
                   2
                   2
                   2
                   2
                   2
                   2
                   2
                   2
                   2
                   2
                   2
                   2
                   2
                   2
                   2
                   2
                   2
                   2
                   2
                   2
                   2
                   2
                   2
                   2
                   2
                   2
                   2
                   2
                   2
                   2
                   2
                   2
                   2
                   2
                   2
                   2
                   2
                   2
                   2
                   2
                   2
                   2
                   2
                   2
                   2
                   2
                   2
                   2
                   2
                   2
                   2
                   2
                   2
                   2
                   2
                   2
                   2
                   2
                   2
                   2
                   2
                   2
                   2
                   2
                   2
                   2
                   2
                   2
  
SCALARS                       fixity_x  double 1
LOOKUP_TABLE default
                   0
                   0
                   0
                   0
                   0
                   0
                   0
                   0
                   0
                   0
                   0
                   0
                   0
                   0
                   0
                   0
                   0
                   0
                   0
                   0
                   0
                   0
                   0
                   0
                   0
                   0
                   0
                   0
                   0
                   0
                   0
                   0
                   0
                   0
                   0
                   0
                   0
                   0
                   0
                   0
                   0
                   0
                   0
                   0
                   0
                   0
                   0
                   0
                   0
                   0
                   0
                   0
                   0
                   0
                   0
                   0
                   0
                   0
                   0
                   0
                   0
                   0
                   0
                   0
                   0
                   0
                   0
                   0
                   0
                   0
                   0
                   0
                   0
                   0
                   0
                   0
                   0
                   0
                   0
                   0
                   0
                   0
                   0
                   0
                   0
                   0
                   0
                   0
                   0
                   0
                   0
                   0
                   0
                   0
                   0
                   0
                   0
                   0
                   0
                   0
                   0
                   0
                   0
                   0
                   0
                   0
                   0
                   0
                   0
                   0
                   0
                   0
                   0
                   0
                   0
                   0
                   0
                   0
                   0
                   0
                   0
                   0
                   0
                   0
                   0
                   0
                   0
                   0
                   0
                   0
                   0
                   0
                   0
                   0
                   0
                   0
                   0
                   0
                   0
                   0
                   0
                   0
                   0
                   0
                   0
                   0
                   0
                   0
                   0
                   0
                   0
                   0
                   0
                   0
                   0
                   0
                   0
                   0
                   0
                   0
                   0
                   0
                   0
                   0
                   0
                   0
                   0
                   0
                   0
                   0
                   0
                   0
                   0
                   0
                   0
                   0
                   0
                   0
                   0
                   0
                   0
                   0
                   0
                   0
                   0
                   0
                   0
                   0
                   0
                   0
                   0
                   0
                   0
                   0
                   0
                   0
                   0
                   0
                   0
                   0
                   0
                   0
                   0
                   0
                   0
                   0
                   0
                   0
                   0
                   0
                   0
                   0
                   0
                   0
                   0
                   0
                   0
                   0
                   0
                   0
                   0
                   0
                   0
                   0
                   0
                   0
                   0
                   0
                   0
                   0
                   0
                   0
                   0
                   0
                   0
                   0
                   0
                   0
                   0
                   0
                   0
                   0
                   0
                   0
                   0
                   0
                   0
                   0
                   0
                   0
                   0
                   0
                   0
                   0
                   0
                   0
                   0
                   0
                   0
                   0
                   0
                   0
                   0
                   0
                   0
                   0
                   0
                   0
                   0
                   0
                   0
                   0
                   0
                   0
                   0
                   0
                   0
                   0
                   0
                   0
                   0
                   0
                   0
                   0
                   0
                   0
                   0
                   0
                   0
                   0
                   0
                   0
                   0
                   0
                   0
                   0
                   0
                   0
                   0
                   0
                   0
                   0
                   0
                   0
                   0
                   0
                   0
                   0
                   0
                   0
                   0
                   0
                   0
                   0
                   0
                   0
                   0
                   0
                   0
                   0
                   0
                   0
                   0
                   0
                   0
                   0
                   0
                   0
                   0
                   0
                   0
                   0
                   0
                   0
                   0
                   0
                   0
                   0
                   0
                   0
                   0
                   0
                   0
                   0
                   0
                   0
                   0
                   0
                   0
                   0
                   0
                   0
                   0
                   0
                   0
                   0
                   0
                   0
                   0
                   0
                   0
                   0
                   0
                   0
                   0
                   0
                   0
                   0
                   0
                   0
                   0
                   0
                   0
                   0
                   0
                   0
                   0
                   0
                   0
                   0
                   0
                   0
                   0
                   0
                   0
                   0
                   0
                   0
                   0
                   0
                   0
                   0
                   0
                   0
                   0
                   0
                   0
                   0
                   0
                   0
                   0
                   0
                   0
                   0
                   0
                   0
                   0
                   0
                   0
                   0
                   0
                   0
                   0
                   0
                   0
                   0
                   0
                   0
                   0
                   0
                   0
                   0
                   0
                   0
                   0
                   0
                   0
                   0
                   0
                   0
                   0
                   0
                   0
                   0
                   0
                   0
                   0
                   0
                   0
                   0
                   0
                   0
                   0
                   0
                   0
                   0
                   0
                   0
                   0
                   0
                   0
                   0
                   0
                   0
                   0
                   0
                   0
                   0
                   0
                   0
                   0
                   0
                   0
                   0
                   0
                   0
                   0
                   0
                   0
                   0
                   0
                   0
                   0
                   0
                   0
                   0
                   0
                   0
                   0
                   0
                   0
                   0
                   0
                   0
                   0
                   0
                   0
                   0
                   0
                   0
                   0
                   0
                   0
                   0
                   0
                   0
                   0
                   0
                   0
                   0
                   0
                   0
                   0
                   0
                   0
                   0
                   0
                   0
                   0
                   0
                   0
                   0
                   0
                   0
                   0
                   0
                   0
                   0
                   0
                   0
                   0
                   0
                   0
                   0
                   0
                   0
                   0
                   0
                   0
                   0
                   0
                   0
                   0
                   0
                   0
                   0
                   0
                   0
                   0
                   0
                   0
                   0
                   0
                   0
                   0
                   0
                   0
                   0
                   0
                   0
                   0
                   0
                   0
                   0
                   0
                   0
                   0
                   0
                   0
                   0
                   0
                   0
                   0
                   0
                   0
                   0
                   0
                   0
                   0
                   0
                   0
                   0
                   0
                   0
                   0
                   0
                   0
                   0
                   0
                   0
                   0
                   0
                   0
                   0
                   0
                   0
                   0
                   0
                   0
                   0
                   0
                   0
                   0
                   0
                   0
                   0
                   0
                   0
                   0
                   0
                   0
                   0
                   0
                   0
                   0
                   0
                   0
                   0
                   0
                   0
                   0
                   0
                   0
                   0
                   0
                   0
                   0
                   0
                   0
                   0
                   0
                   0
                   0
                   0
                   0
                   0
                   0
                   0
                   0
                   0
                   0
                   0
                   0
                   0
                   0
                   0
                   0
                   0
                   0
                   0
                   0
                   0
                   0
                   0
                   0
                   0
                   0
                   0
                   0
                   0
                   0
                   0
                   0
                   0
                   0
                   0
                   0
                   0
                   0
                   0
                   0
                   0
                   0
                   0
                   0
                   0
                   0
                   0
                   0
                   0
                   0
                   0
                   0
                   0
                   0
                   0
                   0
                   0
                   0
                   0
                   0
                   0
                   0
                   0
                   0
                   0
                   0
                   0
                   0
                   0
                   0
                   0
                   0
                   0
                   0
                   0
                   0
                   0
                   0
                   0
                   0
                   0
                   0
                   0
                   0
                   0
                   0
                   0
                   0
                   0
                   0
                   0
                   0
                   0
                   0
                   0
                   0
                   0
                   0
                   0
                   0
                   0
                   0
                   0
                   0
                   0
                   0
                   0
                   0
                   0
                   0
                   0
                   0
                   0
                   0
                   0
                   0
                   0
                   0
                   0
                   0
                   0
                   0
                   0
                   0
                   0
                   0
                   0
                   0
                   0
                   0
                   0
                   0
                   0
                   0
                   0
                   0
                   0
                   0
                   0
                   0
                   0
                   0
                   0
                   0
                   0
                   0
                   0
                   0
                   0
                   0
                   0
                   0
                   0
                   0
                   0
                   0
                   0
                   0
                   0
                   0
                   0
                   0
                   0
                   0
                   0
                   0
                   0
                   0
                   0
                   0
                   0
                   0
                   0
                   0
                   0
                   0
                   0
                   0
                   0
                   0
                   0
                   0
                   0
                   0
                   0
                   0
                   0
                   0
                   0
                   0
                   0
                   0
                   0
                   0
                   0
                   0
                   0
                   0
                   0
                   0
                   0
                   0
                   0
                   0
                   0
                   0
                   0
                   0
                   0
                   0
                   0
                   0
                   0
                   0
                   0
                   0
                   0
                   0
                   0
                   0
                   0
                   0
                   0
                   0
                   0
                   0
                   0
                   0
                   0
                   0
                   0
                   0
                   0
                   0
                   0
                   0
                   0
                   0
                   0
                   0
                   0
                   0
                   0
                   0
                   0
                   0
                   0
                   0
                   0
                   0
                   0
                   0
                   0
                   0
                   0
                   0
                   0
                   0
                   0
                   0
                   0
                   0
                   0
                   0
                   0
                   0
                   0
                   0
                   0
                   0
                   0
                   0
                   0
                   0
                   0
                   0
                   0
                   0
                   0
                   0
                   0
                   0
                   0
                   0
                   0
                   0
                   0
                   0
                   0
                   0
                   0
                   0
                   0
                   0
                   0
                   0
                   0
                   0
                   0
                   0
                   0
                   0
                   0
                   0
                   0
                   0
                   0
                   0
                   0
                   0
                   0
                   0
                   0
                   0
                   0
                   0
                   0
                   0
                   0
                   0
                   0
                   0
                   0
                   0
                   0
                   0
                   0
                   0
                   0
                   0
                   0
                   0
                   0
                   0
                   0
                   0
                   0
                   0
                   0
                   0
                   0
                   0
                   0
                   0
                   0
                   0
                   0
                   0
                   0
                   0
                   0
                   0
                   0
                   0
                   0
                   0
                   0
                   0
                   0
                   0
                   0
                   0
                   0
                   0
                   0
                   0
                   0
                   0
                   0
                   0
                   0
                   0
                   0
                   0
                   0
                   0
                   0
                   0
                   0
                   0
                   0
                   0
                   0
                   0
                   0
                   0
                   0
                   0
                   0
                   0
                   0
                   0
                   0
                   0
                   0
                   0
                   0
                   0
                   0
                   0
                   0
                   0
                   0
                   0
                   0
                   0
                   0
                   0
                   0
                   0
                   0
                   0
                   0
                   0
                   0
                   0
                   0
                   0
                   0
                   0
                   0
                   0
                   0
                   0
                   0
                   0
                   0
                   0
                   0
                   0
                   0
                   0
                   0
                   0
                   0
                   0
                   0
                   0
                   0
                   0
                   0
                   0
                   0
                   0
                   0
                   0
                   0
                   0
                   0
                   0
                   0
                   0
                   0
                   0
                   0
                   0
                   0
                   0
                   0
                   0
                   0
                   0
                   0
                   0
                   0
                   0
                   0
                   0
                   0
                   0
                   0
                   0
                   0
                   0
                   0
                   0
                   0
                   0
                   0
                   0
                   0
                   0
                   0
                   0
                   0
                   0
                   0
                   0
                   0
                   0
                   0
                   0
                   0
                   0
                   0
                   0
                   0
                   0
                   0
                   0
                   0
                   0
                   0
                   0
                   0
                   0
                   0
                   0
                   0
                   0
                   0
                   0
                   0
                   0
                   0
                   0
                   0
                   0
                   0
                   0
                   0
                   0
                   0
                   0
                   0
                   0
                   0
                   0
                   0
                   0
                   0
                   0
                   0
                   0
                   0
                   0
                   0
                   0
                   0
                   0
                   0
                   0
                   0
                   0
                   0
                   0
                   0
                   0
                   0
                   0
                   0
                   0
                   0
                   0
                   0
                   0
                   0
                   0
                   0
                   0
                   0
                   0
                   0
                   0
                   0
                   0
                   0
                   0
                   0
                   0
                   0
                   0
                   0
                   0
                   0
                   0
                   0
                   0
                   0
                   0
                   0
                   0
                   0
                   0
                   0
                   0
                   0
                   0
                   0
                   0
                   0
                   0
                   0
                   0
                   0
                   0
                   0
                   0
                   0
                   0
                   0
                   0
                   0
                   0
                   0
                   0
                   0
                   0
                   0
                   0
                   0
                   0
                   0
                   0
                   0
                   0
                   0
                   0
                   0
                   0
                   0
                   0
                   0
                   0
                   0
                   0
                   0
                   0
                   0
                   0
                   0
                   0
                   0
                   0
                   0
                   0
                   0
                   0
                   0
                   0
                   0
                   0
                   0
                   0
                   0
                   0
                   0
                   0
                   0
                   0
                   0
                   0
                   0
                   0
                   0
                   0
                   0
                   0
                   0
                   0
                   0
                   0
                   0
                   0
                   0
                   0
                   0
                   0
                   0
                   0
                   0
                   0
                   0
                   0
                   0
                   0
                   0
                   0
                   0
                   0
                   0
                   0
                   0
                   0
                   0
                   0
                   0
                   0
                   0
                   0
                   0
                   0
                   0
                   0
                   0
                   0
                   0
                   0
                   0
                   0
                   0
                   0
                   0
                   0
                   0
                   0
                   0
                   0
                   0
                   0
                   0
                   0
                   0
                   0
                   0
                   0
                   0
                   0
                   0
                   0
                   0
                   0
                   0
                   0
                   0
                   0
                   0
                   0
                   0
                   0
                   0
                   0
                   0
                   0
                   0
                   0
                   0
                   0
                   0
                   0
                   0
                   0
                   0
                   0
                   0
                   0
                   0
                   0
                   0
                   0
                   0
                   0
                   0
                   0
                   0
                   0
                   0
                   0
                   0
                   0
                   0
                   0
                   0
                   0
                   0
                   0
                   0
                   0
                   0
                   0
                   0
                   0
                   0
                   0
                   0
                   0
                   0
                   0
                   0
                   0
                   0
                   0
                   0
                   0
                   0
                   0
                   0
                   0
                   0
                   0
                   0
                   0
                   0
                   0
                   0
                   0
                   0
                   0
                   0
                   0
                   0
                   0
                   0
                   0
                   0
                   0
                   0
                   0
                   0
                   0
                   0
                   0
                   0
                   0
                   0
                   0
                   0
                   0
                   0
                   0
                   0
                   0
                   0
                   0
                   0
                   0
                   0
                   0
                   0
                   0
                   0
                   0
                   0
                   0
                   0
                   0
                   0
                   0
                   0
                   0
                   0
                   0
                   0
                   0
                   0
                   0
                   0
                   0
                   0
                   0
                   0
                   0
                   0
                   0
                   0
                   0
                   0
                   0
                   0
                   0
                   0
                   0
                   0
                   0
                   0
                   0
                   0
                   0
                   0
                   0
                   0
                   0
                   0
                   0
                   0
                   0
                   0
                   0
                   0
                   0
                   0
                   0
                   0
                   0
                   0
                   0
                   0
                   0
                   0
                   0
                   0
                   0
                   0
                   0
                   0
                   0
                   0
                   0
                   0
                   0
                   0
                   0
                   0
                   0
                   0
                   0
                   0
                   0
                   0
                   0
                   0
                   0
                   0
                   0
                   0
                   0
                   0
                   0
                   0
                   0
                   0
                   0
                   0
                   0
                   0
                   0
                   0
                   0
                   0
                   0
                   0
                   0
                   0
                   0
                   0
                   0
                   0
                   0
                   0
                   0
                   0
                   0
                   0
                   0
                   0
                   0
                   0
                   0
                   0
                   0
                   0
                   0
                   0
                   0
                   0
                   0
                   0
                   0
                   0
                   0
                   0
                   0
                   0
                   0
                   0
                   0
                   0
                   0
                   0
                   0
                   0
                   0
                   0
                   0
                   0
                   0
                   0
                   0
                   0
                   0
                   0
                   0
                   0
                   0
                   0
                   0
                   0
                   0
                   0
                   0
                   0
                   0
                   0
                   0
                   0
                   0
                   0
                   0
                   0
                   0
                   0
                   0
                   0
                   0
                   0
                   0
                   0
                   0
                   0
                   0
                   0
                   0
                   0
                   0
                   0
                   0
                   0
                   0
                   0
                   0
                   0
                   0
                   0
                   0
                   0
                   0
                   0
                   0
                   0
                   0
                   0
                   0
                   0
                   0
                   0
                   0
                   0
                   0
                   0
                   0
                   0
                   0
                   0
                   0
                   0
                   0
                   0
                   0
                   0
                   0
                   0
                   0
                   0
                   0
                   0
                   0
                   0
                   0
                   0
                   0
                   0
                   0
                   0
                   0
                   0
                   0
                   0
                   0
                   0
                   0
                   0
                   0
                   0
                   0
                   0
                   0
                   0
                   0
                   0
                   0
                   0
                   0
                   0
                   0
                   0
                   0
                   0
                   0
                   0
                   0
                   0
                   0
                   0
                   0
                   0
                   0
                   0
                   0
                   0
                   0
                   0
                   0
                   0
                   0
                   0
                   0
                   0
                   0
                   0
                   0
                   0
                   0
                   0
                   0
                   0
                   0
                   0
                   0
                   0
                   0
                   0
                   0
                   0
                   0
                   0
                   0
                   0
                   0
                   0
                   0
                   0
                   0
                   0
                   0
                   0
                   0
                   0
                   0
                   0
                   0
                   0
                   0
                   0
                   0
                   0
                   0
                   0
                   0
                   0
                   0
                   0
                   0
                   0
                   0
                   0
                   0
                   0
                   0
                   0
                   0
                   0
                   0
                   0
                   0
                   0
                   0
                   0
                   0
                   0
                   0
                   0
                   0
                   0
                   0
                   0
                   0
                   0
                   0
                   0
                   0
                   0
                   0
                   0
                   0
                   0
                   0
                   0
                   0
                   0
                   0
                   0
                   0
                   0
                   0
                   0
                   0
                   0
                   0
                   0
                   0
                   0
                   0
                   0
                   0
                   0
                   0
                   0
                   0
                   0
                   0
                   0
                   0
                   0
                   0
                   0
                   0
                   0
                   0
                   0
                   0
                   0
                   0
                   0
                   0
                   0
                   0
                   0
                   0
                   0
                   0
                   0
                   0
                   0
                   0
                   0
                   0
                   0
                   0
                   0
                   0
                   0
                   0
                   0
                   0
                   0
                   0
                   0
                   0
                   0
                   0
                   0
                   0
                   0
                   0
                   0
                   0
                   0
                   0
                   0
                   0
                   0
                   0
                   0
                   0
                   0
                   0
                   0
                   0
                   0
                   0
                   0
                   0
                   0
                   0
                   0
                   0
                   0
                   0
                   0
                   0
                   0
                   0
                   0
                   0
                   0
                   0
                   0
                   0
                   0
                   0
                   0
                   0
                   0
                   0
                   0
                   0
                   0
                   0
                   0
                   0
                   0
                   0
                   0
                   0
                   0
                   0
                   0
                   0
                   0
                   0
                   0
                   0
                   0
                   0
                   0
                   0
                   0
                   0
                   0
                   0
                   0
                   0
                   0
                   0
                   0
                   0
                   0
                   0
                   0
  
SCALARS                       fixity_y  double 1
LOOKUP_TABLE default
                   0
                   0
                   0
                   0
                   0
                   0
                   0
                   0
                   0
                   0
                   0
                   0
                   0
                   0
                   0
                   0
                   0
                   0
                   0
                   0
                   0
                   0
                   0
                   0
                   0
                   0
                   0
                   0
                   0
                   0
                   0
                   0
                   0
                   0
                   0
                   0
                   0
                   0
                   0
                   0
                   0
                   0
                   0
                   0
                   0
                   0
                   0
                   0
                   0
                   0
                   0
                   0
                   0
                   0
                   0
                   0
                   0
                   0
                   0
                   0
                   0
                   0
                   0
                   0
                   0
                   0
                   0
                   0
                   0
                   0
                   0
                   0
                   0
                   0
                   0
                   0
                   0
                   0
                   0
                   0
                   0
                   0
                   0
                   0
                   0
                   0
                   0
                   0
                   0
                   0
                   0
                   0
                   0
                   0
                   0
                   0
                   0
                   0
                   0
                   0
                   0
                   0
                   0
                   0
                   0
                   0
                   0
                   0
                   0
                   0
                   0
                   0
                   0
                   0
                   0
                   0
                   0
                   0
                   0
                   0
                   0
                   0
                   0
                   0
                   0
                   0
                   0
                   0
                   0
                   0
                   0
                   0
                   0
                   0
                   0
                   0
                   0
                   0
                   0
                   0
                   0
                   0
                   0
                   0
                   0
                   0
                   0
                   0
                   0
                   0
                   0
                   0
                   0
                   0
                   0
                   0
                   0
                   0
                   0
                   0
                   0
                   0
                   0
                   0
                   0
                   0
                   0
                   0
                   0
                   0
                   0
                   0
                   0
                   0
                   0
                   0
                   0
                   0
                   0
                   0
                   0
                   0
                   0
                   0
                   0
                   0
                   0
                   0
                   0
                   0
                   0
                   0
                   0
                   0
                   0
                   0
                   0
                   0
                   0
                   0
                   0
                   0
                   0
                   0
                   0
                   0
                   0
                   0
                   0
                   0
                   0
                   0
                   0
                   0
                   0
                   0
                   0
                   0
                   0
                   0
                   0
                   0
                   0
                   0
                   0
                   0
                   0
                   0
                   0
                   0
                   0
                   0
                   0
                   0
                   0
                   0
                   0
                   0
                   0
                   0
                   0
                   0
                   0
                   0
                   0
                   0
                   0
                   0
                   0
                   0
                   0
                   0
                   0
                   0
                   0
                   0
                   0
                   0
                   0
                   0
                   0
                   0
                   0
                   0
                   0
                   0
                   0
                   0
                   0
                   0
                   0
                   0
                   0
                   0
                   0
                   0
                   0
                   0
                   0
                   0
                   0
                   0
                   0
                   0
                   0
                   0
                   0
                   0
                   0
                   0
                   0
                   0
                   0
                   0
                   0
                   0
                   0
                   0
                   0
                   0
                   0
                   0
                   0
                   0
                   0
                   0
                   0
                   0
                   0
                   0
                   0
                   0
                   0
                   0
                   0
                   0
                   0
                   0
                   0
                   0
                   0
                   0
                   0
                   0
                   0
                   0
                   0
                   0
                   0
                   0
                   0
                   0
                   0
                   0
                   0
                   0
                   0
                   0
                   0
                   0
                   0
                   0
                   0
                   0
                   0
                   0
                   0
                   0
                   0
                   0
                   0
                   0
                   0
                   0
                   0
                   0
                   0
                   0
                   0
                   0
                   0
                   0
                   0
                   0
                   0
                   0
                   0
                   0
                   0
                   0
                   0
                   0
                   0
                   0
                   0
                   0
                   0
                   0
                   0
                   0
                   0
                   0
                   0
                   0
                   0
                   0
                   0
                   0
                   0
                   0
                   0
                   0
                   0
                   0
                   0
                   0
                   0
                   0
                   0
                   0
                   0
                   0
                   0
                   0
                   0
                   0
                   0
                   0
                   0
                   0
                   0
                   0
                   0
                   0
                   0
                   0
                   0
                   0
                   0
                   0
                   0
                   0
                   0
                   0
                   0
                   0
                   0
                   0
                   0
                   0
                   0
                   0
                   0
                   0
                   0
                   0
                   0
                   0
                   0
                   0
                   0
                   0
                   0
                   0
                   0
                   0
                   0
                   0
                   0
                   0
                   0
                   0
                   0
                   0
                   0
                   0
                   0
                   0
                   0
                   0
                   0
                   0
                   0
                   0
                   0
                   0
                   0
                   0
                   0
                   0
                   0
                   0
                   0
                   0
                   0
                   0
                   0
                   0
                   0
                   0
                   0
                   0
                   0
                   0
                   0
                   0
                   0
                   0
                   0
                   0
                   0
                   0
                   0
                   0
                   0
                   0
                   0
                   0
                   0
                   0
                   0
                   0
                   0
                   0
                   0
                   0
                   0
                   0
                   0
                   0
                   0
                   0
                   0
                   0
                   0
                   0
                   0
                   0
                   0
                   0
                   0
                   0
                   0
                   0
                   0
                   0
                   0
                   0
                   0
                   0
                   0
                   0
                   0
                   0
                   0
                   0
                   0
                   0
                   0
                   0
                   0
                   0
                   0
                   0
                   0
                   0
                   0
                   0
                   0
                   0
                   0
                   0
                   0
                   0
                   0
                   0
                   0
                   0
                   0
                   0
                   0
                   0
                   0
                   0
                   0
                   0
                   0
                   0
                   0
                   0
                   0
                   0
                   0
                   0
                   0
                   0
                   0
                   0
                   0
                   0
                   0
                   0
                   0
                   0
                   0
                   0
                   0
                   0
                   0
                   0
                   0
                   0
                   0
                   0
                   0
                   0
                   0
                   0
                   0
                   0
                   0
                   0
                   0
                   0
                   0
                   0
                   0
                   0
                   0
                   0
                   0
                   0
                   0
                   0
                   0
                   0
                   0
                   0
                   0
                   0
                   0
                   0
                   0
                   0
                   0
                   0
                   0
                   0
                   0
                   0
                   0
                   0
                   0
                   0
                   0
                   0
                   0
                   0
                   0
                   0
                   0
                   0
                   0
                   0
                   0
                   0
                   0
                   0
                   0
                   0
                   0
                   0
                   0
                   0
                   0
                   0
                   0
                   0
                   0
                   0
                   0
                   0
                   0
                   0
                   0
                   0
                   0
                   0
                   0
                   0
                   0
                   0
                   0
                   0
                   0
                   0
                   0
                   0
                   0
                   0
                   0
                   0
                   0
                   0
                   0
                   0
                   0
                   0
                   0
                   0
                   0
                   0
                   0
                   0
                   0
                   0
                   0
                   0
                   0
                   0
                   0
                   0
                   0
                   0
                   0
                   0
                   0
                   0
                   0
                   0
                   0
                   0
                   0
                   0
                   0
                   0
                   0
                   0
                   0
                   0
                   0
                   0
                   0
                   0
                   0
                   0
                   0
                   0
                   0
                   0
                   0
                   0
                   0
                   0
                   0
                   0
                   0
                   0
                   0
                   0
                   0
                   0
                   0
                   0
                   0
                   0
                   0
                   0
                   0
                   0
                   0
                   0
                   0
                   0
                   0
                   0
                   0
                   0
                   0
                   0
                   0
                   0
                   0
                   0
                   0
                   0
                   0
                   0
                   0
                   0
                   0
                   0
                   0
                   0
                   0
                   0
                   0
                   0
                   0
                   0
                   0
                   0
                   0
                   0
                   0
                   0
                   0
                   0
                   0
                   0
                   0
                   0
                   0
                   0
                   0
                   0
                   0
                   0
                   0
                   0
                   0
                   0
                   0
                   0
                   0
                   0
                   0
                   0
                   0
                   0
                   0
                   0
                   0
                   0
                   0
                   0
                   0
                   0
                   0
                   0
                   0
                   0
                   0
                   0
                   0
                   0
                   0
                   0
                   0
                   0
                   0
                   0
                   0
                   0
                   0
                   0
                   0
                   0
                   0
                   0
                   0
                   0
                   0
                   0
                   0
                   0
                   0
                   0
                   0
                   0
                   0
                   0
                   0
                   0
                   0
                   0
                   0
                   0
                   0
                   0
                   0
                   0
                   0
                   0
                   0
                   0
                   0
                   0
                   0
                   0
                   0
                   0
                   0
                   0
                   0
                   0
                   0
                   0
                   0
                   0
                   0
                   0
                   0
                   0
                   0
                   0
                   0
                   0
                   0
                   0
                   0
                   0
                   0
                   0
                   0
                   0
                   0
                   0
                   0
                   0
                   0
                   0
                   0
                   0
                   0
                   0
                   0
                   0
                   0
                   0
                   0
                   0
                   0
                   0
                   0
                   0
                   0
                   0
                   0
                   0
                   0
                   0
                   0
                   0
                   0
                   0
                   0
                   0
                   0
                   0
                   0
                   0
                   0
                   0
                   0
                   0
                   0
                   0
                   0
                   0
                   0
                   0
                   0
                   0
                   0
                   0
                   0
                   0
                   0
                   0
                   0
                   0
                   0
                   0
                   0
                   0
                   0
                   0
                   0
                   0
                   0
                   0
                   0
                   0
                   0
                   0
                   0
                   0
                   0
                   0
                   0
                   0
                   0
                   0
                   0
                   0
                   0
                   0
                   0
                   0
                   0
                   0
                   0
                   0
                   0
                   0
                   0
                   0
                   0
                   0
                   0
                   0
                   0
                   0
                   0
                   0
                   0
                   0
                   0
                   0
                   0
                   0
                   0
                   0
                   0
                   0
                   0
                   0
                   0
                   0
                   0
                   0
                   0
                   0
                   0
                   0
                   0
                   0
                   0
                   0
                   0
                   0
                   0
                   0
                   0
                   0
                   0
                   0
                   0
                   0
                   0
                   0
                   0
                   0
                   0
                   0
                   0
                   0
                   0
                   0
                   0
                   0
                   0
                   0
                   0
                   0
                   0
                   0
                   0
                   0
                   0
                   0
                   0
                   0
                   0
                   0
                   0
                   0
                   0
                   0
                   0
                   0
                   0
                   0
                   0
                   0
                   0
                   0
                   0
                   0
                   0
                   0
                   0
                   0
                   0
                   0
                   0
                   0
                   0
                   0
                   0
                   0
                   0
                   0
                   0
                   0
                   0
                   0
                   0
                   0
                   0
                   0
                   0
                   0
                   0
                   0
                   0
                   0
                   0
                   0
                   0
                   0
                   0
                   0
                   0
                   0
                   0
                   0
                   0
                   0
                   0
                   0
                   0
                   0
                   0
                   0
                   0
                   0
                   0
                   0
                   0
                   0
                   0
                   0
                   0
                   0
                   0
                   0
                   0
                   0
                   0
                   0
                   0
                   0
                   0
                   0
                   0
                   0
                   0
                   0
                   0
                   0
                   0
                   0
                   0
                   0
                   0
                   0
                   0
                   0
                   0
                   0
                   0
                   0
                   0
                   0
                   0
                   0
                   0
                   0
                   0
                   0
                   0
                   0
                   0
                   0
                   0
                   0
                   0
                   0
                   0
                   0
                   0
                   0
                   0
                   0
                   0
                   0
                   0
                   0
                   0
                   0
                   0
                   0
                   0
                   0
                   0
                   0
                   0
                   0
                   0
                   0
                   0
                   0
                   0
                   0
                   0
                   0
                   0
                   0
                   0
                   0
                   0
                   0
                   0
                   0
                   0
                   0
                   0
                   0
                   0
                   0
                   0
                   0
                   0
                   0
                   0
                   0
                   0
                   0
                   0
                   0
                   0
                   0
                   0
                   0
                   0
                   0
                   0
                   0
                   0
                   0
                   0
                   0
                   0
                   0
                   0
                   0
                   0
                   0
                   0
                   0
                   0
                   0
                   0
                   0
                   0
                   0
                   0
                   0
                   0
                   0
                   0
                   0
                   0
                   0
                   0
                   0
                   0
                   0
                   0
                   0
                   0
                   0
                   0
                   0
                   0
                   0
                   0
                   0
                   0
                   0
                   0
                   0
                   0
                   0
                   0
                   0
                   0
                   0
                   0
                   0
                   0
                   0
                   0
                   0
                   0
                   0
                   0
                   0
                   0
                   0
                   0
                   0
                   0
                   0
                   0
                   0
                   0
                   0
                   0
                   0
                   0
                   0
                   0
                   0
                   0
                   0
                   0
                   0
                   0
                   0
                   0
                   0
                   0
                   0
                   0
                   0
                   0
                   0
                   0
                   0
                   0
                   0
                   0
                   0
                   0
                   0
                   0
                   0
                   0
                   0
                   0
                   0
                   0
                   0
                   0
                   0
                   0
                   0
                   0
                   0
                   0
                   0
                   0
                   0
                   0
                   0
                   0
                   0
                   0
                   0
                   0
                   0
                   0
                   0
                   0
                   0
                   0
                   0
                   0
                   0
                   0
                   0
                   0
                   0
                   0
                   0
                   0
                   0
                   0
                   0
                   0
                   0
                   0
                   0
                   0
                   0
                   0
                   0
                   0
                   0
                   0
                   0
                   0
                   0
                   0
                   0
                   0
                   0
                   0
                   0
                   0
                   0
                   0
                   0
                   0
                   0
                   0
                   0
                   0
                   0
                   0
                   0
                   0
                   0
                   0
                   0
                   0
                   0
                   0
                   0
                   0
                   0
                   0
                   0
                   0
                   0
                   0
                   0
                   0
                   0
                   0
                   0
                   0
                   0
                   0
                   0
                   0
                   0
                   0
                   0
                   0
                   0
                   0
                   0
                   0
                   0
                   0
                   0
                   0
                   0
                   0
                   0
                   0
                   0
                   0
                   0
                   0
                   0
                   0
                   0
                   0
                   0
                   0
                   0
                   0
                   0
                   0
                   0
                   0
                   0
                   0
                   0
                   0
                   0
                   0
                   0
                   0
                   0
                   0
                   0
                   0
                   0
                   0
                   0
                   0
                   0
                   0
                   0
                   0
                   0
                   0
                   0
                   0
                   0
                   0
                   0
                   0
                   0
                   0
                   0
                   0
                   0
                   0
                   0
                   0
                   0
                   0
                   0
                   0
                   0
                   0
                   0
                   0
                   0
                   0
                   0
                   0
                   0
                   0
                   0
                   0
                   0
                   0
                   0
                   0
                   0
                   0
                   0
                   0
                   0
                   0
                   0
                   0
                   0
                   0
                   0
                   0
                   0
                   0
                   0
                   0
                   0
                   0
                   0
                   0
                   0
                   0
                   0
                   0
                   0
                   0
                   0
                   0
                   0
                   0
                   0
                   0
                   0
                   0
                   0
                   0
                   0
                   0
                   0
                   0
                   0
                   0
                   0
                   0
                   0
                   0
                   0
                   0
                   0
                   0
                   0
                   0
                   0
                   0
                   0
                   0
                   0
                   0
                   0
                   0
                   0
                   0
                   0
                   0
                   0
                   0
                   0
                   0
                   0
                   0
                   0
                   0
                   0
                   0
                   0
                   0
                   0
                   0
                   0
                   0
                   0
                   0
                   0
                   0
                   0
                   0
                   0
                   0
                   0
                   0
                   0
                   0
                   0
                   0
                   0
                   0
                   0
                   0
                   0
                   0
                   0
                   0
                   0
                   0
                   0
                   0
                   0
                   0
                   0
                   0
                   0
                   0
                   0
                   0
                   0
                   0
                   0
                   0
                   0
                   0
                   0
                   0
                   0
                   0
                   0
                   0
                   0
                   0
                   0
                   0
                   0
                   0
                   0
                   0
                   0
                   0
                   0
                   0
                   0
                   0
                   0
                   0
                   0
                   0
                   0
                   0
                   0
                   0
                   0
                   0
                   0
                   0
                   0
                   0
                   0
                   0
                   0
                   0
                   0
                   0
                   0
                   0
                   0
                   0
                   0
                   0
                   0
                   0
                   0
                   0
                   0
                   0
                   0
                   0
                   0
                   0
                   0
                   0
                   0
                   0
                   0
                   0
                   0
                   0
                   0
                   0
                   0
                   0
                   0
                   0
                   0
                   0
                   0
                   0
                   0
                   0
                   0
                   0
                   0
                   0
                   0
                   0
                   0
                   0
                   0
                   0
                   0
                   0
                   0
                   0
                   0
                   0
                   0
                   0
                   0
                   0
                   0
                   0
                   0
                   0
                   0
                   0
                   0
                   0
                   0
                   0
                   0
                   0
                   0
                   0
                   0
                   0
                   0
                   0
                   0
                   0
                   0
                   0
                   0
                   0
                   0
                   0
                   0
                   0
                   0
                   0
                   0
                   0
                   0
                   0
                   0
                   0
                   0
                   0
                   0
                   0
                   0
                   0
                   0
                   0
                   0
                   0
                   0
                   0
                   0
                   0
                   0
                   0
                   0
                   0
                   0
                   0
                   0
                   0
                   0
                   0
                   0
                   0
                   0
                   0
                   0
                   0
                   0
                   0
                   0
                   0
                   0
                   0
                   0
                   0
                   0
                   0
                   0
                   0
                   0
                   0
                   0
                   0
                   0
                   0
                   0
                   0
                   0
                   0
                   0
                   0
                   0
                   0
                   0
                   0
                   0
                   0
                   0
                   0
                   0
                   0
                   0
                   0
                   0
                   0
                   0
                   0
                   0
                   0
                   0
                   0
                   0
                   0
                   0
                   0
                   0
                   0
                   0
                   0
                   0
                   0
                   0
                   0
                   0
                   0
                   0
                   0
                   0
                   0
                   0
                   0
                   0
                   0
                   0
                   0
                   0
                   0
                   0
                   0
                   0
                   0
                   0
                   0
                   0
                   0
                   0
                   0
                   0
                   0
                   0
                   0
                   0
                   0
                   0
                   0
                   0
                   0
                   0
                   0
                   0
                   0
                   0
                   0
                   0
                   0
                   0
                   0
                   0
                   0
                   0
                   0
                   0
                   0
                   0
                   0
                   0
                   0
                   0
                   0
                   0
                   0
                   0
                   0
                   0
                   0
                   0
                   0
                   0
                   0
                   0
                   0
                   0
                   0
                   0
                   0
                   0
                   0
                   0
                   0
                   0
                   0
                   0
                   0
                   0
                   0
                   0
                   0
                   0
                   0
                   0
                   0
                   0
                   0
                   0
                   0
                   0
                   0
                   0
  
SCALARS                       fixity_z  double 1
LOOKUP_TABLE default
                   0
                   0
                   0
                   0
                   1
                   1
                   1
                   1
                   0
                   0
                   1
                   1
                   0
                   0
                   1
                   1
                   0
                   0
                   1
                   1
                   0
                   0
                   0
                   1
                   1
                   1
                   0
                   0
                   1
                   1
                   0
                   0
                   0
                   1
                   1
                   1
                   0
                   0
                   1
                   1
                   0
                   0
                   1
                   1
                   0
                   0
                   1
                   1
                   0
                   1
                   0
                   1
                   0
                   1
                   0
                   1
                   0
                   0
                   1
                   1
                   0
                   0
                   1
                   1
                   0
                   1
                   0
                   1
                   0
                   0
                   1
                   1
                   0
                   1
                   0
                   1
                   0
                   1
                   0
                   1
                   0
                   0
                   1
                   1
                   0
                   1
                   0
                   1
                   0
                   1
                   0
                   0
                   1
                   1
                   0
                   1
                   0
                   1
                   0
                   1
                   0
                   0
                   1
                   1
                   0
                   0
                   1
                   1
                   0
                   1
                   0
                   1
                   0
                   1
                   0
                   1
                   0
                   1
                   0
                   1
                   0
                   1
                   0
                   1
                   0
                   1
                   0
                   1
                   0
                   1
                   0
                   1
                   0
                   1
                   0
                   1
                   0
                   1
                   0
                   1
                   0
                   1
                   0
                   1
                   0
                   1
                   0
                   1
                   0
                   1
                   0
                   1
                   0
                   1
                   0
                   1
                   0
                   0
                   0
                   0
                   0
                   0
                   0
                   0
                   0
                   0
                   0
                   0
                   0
                   0
                   0
                   0
                   0
                   0
                   0
                   0
                   0
                   0
                   0
                   0
                   0
                   0
                   0
                   0
                   0
                   0
                   0
                   0
                   0
                   0
                   0
                   0
                   0
                   0
                   0
                   0
                   0
                   0
                   0
                   0
                   0
                   0
                   0
                   0
                   0
                   0
                   0
                   0
                   0
                   0
                   0
                   0
                   0
                   0
                   0
                   0
                   0
                   0
                   0
                   0
                   0
                   0
                   0
                   0
                   0
                   0
                   0
                   0
                   0
                   0
                   0
                   0
                   0
                   0
                   0
                   0
                   0
                   0
                   0
                   0
                   0
                   0
                   0
                   0
                   0
                   0
                   0
                   0
                   0
                   0
                   0
                   0
                   0
                   0
                   0
                   0
                   0
                   0
                   0
                   0
                   0
                   0
                   0
                   0
                   0
                   0
                   0
                   0
                   0
                   0
                   0
                   0
                   0
                   0
                   0
                   0
                   0
                   0
                   0
                   0
                   0
                   0
                   0
                   0
                   0
                   0
                   0
                   0
                   0
                   0
                   0
                   0
                   0
                   0
                   0
                   0
                   0
                   0
                   0
                   0
                   0
                   0
                   0
                   0
                   0
                   0
                   0
                   0
                   0
                   0
                   0
                   0
                   0
                   0
                   0
                   0
                   0
                   0
                   0
                   0
                   0
                   0
                   0
                   0
                   0
                   0
                   0
                   0
                   0
                   0
                   0
                   0
                   0
                   0
                   0
                   0
                   0
                   0
                   0
                   0
                   0
                   0
                   0
                   0
                   0
                   0
                   0
                   0
                   0
                   0
                   0
                   0
                   0
                   0
                   0
                   0
                   0
                   0
                   0
                   0
                   0
                   0
                   0
                   0
                   0
                   0
                   0
                   0
                   0
                   0
                   0
                   0
                   0
                   0
                   0
                   0
                   0
                   0
                   0
                   0
                   0
                   0
                   0
                   0
                   0
                   0
                   0
                   0
                   0
                   0
                   0
                   0
                   0
                   0
                   0
                   0
                   0
                   0
                   0
                   0
                   0
                   0
                   0
                   0
                   0
                   0
                   0
                   0
                   0
                   0
                   0
                   0
                   0
                   0
                   0
                   0
                   0
                   0
                   0
                   0
                   0
                   0
                   0
                   0
                   0
                   0
                   0
                   0
                   0
                   0
                   0
                   0
                   0
                   0
                   0
                   0
                   0
                   0
                   0
                   0
                   0
                   0
                   0
                   0
                   0
                   0
                   0
                   0
                   0
                   0
                   0
                   0
                   0
                   0
                   0
                   0
                   0
                   0
                   0
                   0
                   0
                   0
                   0
                   0
                   0
                   0
                   0
                   0
                   0
                   0
                   0
                   0
                   0
                   0
                   0
                   0
                   0
                   0
                   0
                   0
                   0
                   0
                   0
                   0
                   0
                   0
                   0
                   0
                   0
                   0
                   0
                   0
                   0
                   0
                   0
                   0
                   0
                   0
                   0
                   0
                   0
                   0
                   0
                   0
                   0
                   0
                   0
                   0
                   0
                   0
                   0
                   0
                   0
                   0
                   0
                   0
                   0
                   0
                   0
                   0
                   0
                   0
                   0
                   0
                   0
                   0
                   0
                   0
                   0
                   0
                   0
                   0
                   0
                   0
                   0
                   0
                   0
                   0
                   0
                   0
                   0
                   0
                   0
                   0
                   0
                   0
                   0
                   0
                   0
                   0
                   0
                   0
                   0
                   0
                   0
                   0
                   0
                   0
                   0
                   0
                   0
                   0
                   0
                   0
                   0
                   0
                   0
                   0
                   0
                   0
                   0
                   0
                   0
                   0
                   0
                   0
                   0
                   0
                   0
                   0
                   0
                   0
                   0
                   0
                   0
                   0
                   0
                   0
                   0
                   0
                   0
                   0
                   0
                   0
                   0
                   0
                   0
                   0
                   0
                   0
                   0
                   0
                   0
                   0
                   0
                   0
                   0
                   0
                   0
                   0
                   0
                   0
                   0
                   0
                   0
                   0
                   0
                   0
                   0
                   0
                   0
                   0
                   0
                   0
                   0
                   0
                   0
                   0
                   0
                   0
                   0
                   0
                   0
                   0
                   0
                   0
                   0
                   0
                   0
                   0
                   0
                   0
                   0
                   0
                   0
                   0
                   0
                   0
                   0
                   0
                   0
                   0
                   0
                   0
                   0
                   0
                   0
                   0
                   0
                   0
                   0
                   0
                   0
                   0
                   0
                   0
                   0
                   0
                   0
                   0
                   0
                   0
                   0
                   0
                   0
                   0
                   0
                   0
                   0
                   0
                   0
                   0
                   0
                   0
                   0
                   0
                   0
                   0
                   0
                   0
                   0
                   0
                   0
                   0
                   0
                   0
                   0
                   0
                   0
                   0
                   0
                   0
                   0
                   0
                   0
                   0
                   0
                   0
                   0
                   0
                   0
                   0
                   0
                   0
                   0
                   0
                   0
                   0
                   0
                   0
                   0
                   0
                   0
                   0
                   0
                   0
                   0
                   0
                   0
                   0
                   0
                   0
                   0
                   0
                   0
                   0
                   0
                   0
                   0
                   0
                   0
                   0
                   0
                   0
                   0
                   0
                   0
                   0
                   0
                   0
                   0
                   0
                   0
                   0
                   0
                   0
                   0
                   0
                   0
                   0
                   0
                   0
                   0
                   0
                   0
                   0
                   0
                   0
                   0
                   0
                   0
                   0
                   0
                   0
                   0
                   0
                   0
                   0
                   0
                   0
                   0
                   0
                   0
                   0
                   0
                   0
                   0
                   0
                   0
                   0
                   0
                   0
                   0
                   0
                   0
                   0
                   0
                   0
                   0
                   0
                   0
                   0
                   0
                   0
                   0
                   0
                   0
                   0
                   0
                   0
                   0
                   0
                   0
                   0
                   0
                   0
                   0
                   0
                   0
                   0
                   0
                   0
                   0
                   0
                   0
                   0
                   0
                   0
                   0
                   0
                   0
                   0
                   0
                   0
                   0
                   0
                   0
                   0
                   0
                   0
                   0
                   0
                   0
                   0
                   0
                   0
                   0
                   0
                   0
                   0
                   0
                   0
                   0
                   0
                   0
                   0
                   0
                   0
                   0
                   0
                   0
                   0
                   0
                   0
                   0
                   0
                   0
                   0
                   0
                   0
                   0
                   0
                   0
                   0
                   0
                   0
                   0
                   0
                   0
                   0
                   0
                   0
                   0
                   0
                   0
                   0
                   0
                   0
                   0
                   0
                   0
                   0
                   0
                   0
                   0
                   0
                   0
                   0
                   0
                   0
                   0
                   0
                   0
                   0
                   0
                   0
                   0
                   0
                   0
                   0
                   0
                   0
                   0
                   0
                   0
                   0
                   0
                   0
                   0
                   0
                   0
                   0
                   0
                   0
                   0
                   0
                   0
                   0
                   0
                   0
                   0
                   0
                   0
                   0
                   0
                   0
                   0
                   0
                   0
                   0
                   0
                   0
                   0
                   0
                   0
                   0
                   0
                   0
                   0
                   0
                   0
                   0
                   0
                   0
                   0
                   0
                   0
                   0
                   0
                   0
                   0
                   0
                   0
                   0
                   0
                   0
                   0
                   0
                   0
                   0
                   0
                   0
                   0
                   0
                   0
                   0
                   0
                   0
                   0
                   0
                   0
                   0
                   0
                   0
                   0
                   0
                   0
                   0
                   0
                   0
                   0
                   0
                   0
                   0
                   0
                   0
                   0
                   0
                   0
                   0
                   0
                   0
                   0
                   0
                   0
                   0
                   0
                   0
                   0
                   0
                   0
                   0
                   0
                   0
                   0
                   0
                   0
                   0
                   0
                   0
                   0
                   0
                   0
                   0
                   0
                   0
                   0
                   0
                   0
                   0
                   0
                   0
                   0
                   0
                   0
                   0
                   0
                   0
                   0
                   0
                   0
                   0
                   0
                   0
                   0
                   0
                   0
                   0
                   0
                   0
                   0
                   0
                   0
                   0
                   0
                   0
                   0
                   0
                   0
                   0
                   0
                   0
                   0
                   0
                   0
                   0
                   0
                   0
                   0
                   0
                   0
                   0
                   0
                   0
                   0
                   0
                   0
                   0
                   0
                   0
                   0
                   0
                   0
                   0
                   0
                   0
                   0
                   0
                   0
                   0
                   0
                   0
                   0
                   0
                   0
                   0
                   0
                   0
                   0
                   0
                   0
                   0
                   0
                   0
                   0
                   0
                   0
                   0
                   0
                   0
                   0
                   0
                   0
                   0
                   0
                   0
                   0
                   0
                   0
                   0
                   0
                   0
                   0
                   0
                   0
                   0
                   0
                   0
                   0
                   0
                   0
                   0
                   0
                   0
                   0
                   0
                   0
                   0
                   0
                   0
                   0
                   0
                   0
                   0
                   0
                   0
                   0
                   0
                   0
                   0
                   0
                   0
                   0
                   0
                   0
                   0
                   0
                   0
                   0
                   0
                   0
                   0
                   0
                   0
                   0
                   0
                   0
                   0
                   0
                   0
                   0
                   0
                   0
                   0
                   0
                   0
                   0
                   0
                   0
                   0
                   0
                   0
                   0
                   0
                   0
                   0
                   0
                   0
                   0
                   0
                   0
                   0
                   0
                   0
                   0
                   0
                   0
                   0
                   0
                   0
                   0
                   0
                   0
                   0
                   0
                   0
                   0
                   0
                   0
                   0
                   0
                   0
                   0
                   0
                   0
                   0
                   0
                   0
                   0
                   0
                   0
                   0
                   0
                   0
                   0
                   0
                   0
                   0
                   0
                   0
                   0
                   0
                   0
                   0
                   0
                   0
                   0
                   0
                   0
                   0
                   0
                   0
                   0
                   0
                   0
                   0
                   0
                   0
                   0
                   0
                   0
                   0
                   0
                   0
                   0
                   0
                   0
                   0
                   0
                   0
                   0
                   0
                   0
                   0
                   0
                   0
                   0
                   0
                   0
                   0
                   0
                   0
                   0
                   0
                   0
                   0
                   0
                   0
                   0
                   0
                   0
                   0
                   0
                   0
                   0
                   0
                   0
                   0
                   0
                   0
                   0
                   0
                   0
                   0
                   0
                   0
                   0
                   0
                   0
                   0
                   0
                   0
                   0
                   0
                   0
                   0
                   0
                   0
                   0
                   0
                   0
                   0
                   0
                   0
                   0
                   0
                   0
                   0
                   0
                   0
                   0
                   0
                   0
                   0
                   0
                   0
                   0
                   0
                   0
                   0
                   0
                   0
                   0
                   0
                   0
                   0
                   0
                   0
                   0
                   0
                   0
                   0
                   0
                   0
                   0
                   0
                   0
                   0
                   0
                   0
                   0
                   0
                   0
                   0
                   0
                   0
                   0
                   0
                   0
                   0
                   0
                   0
                   0
                   0
                   0
                   0
                   0
                   0
                   0
                   0
                   0
                   0
                   0
                   0
                   0
                   0
                   0
                   0
                   0
                   0
                   0
                   0
                   0
                   0
                   0
                   0
                   0
                   0
                   0
                   0
                   0
                   0
                   0
                   0
                   0
                   0
                   0
                   0
                   0
                   0
                   0
                   0
                   0
                   0
                   0
                   0
                   0
                   0
                   0
                   0
                   0
                   0
                   0
                   0
                   0
                   0
                   0
                   0
                   0
                   0
                   0
                   0
                   0
                   0
                   0
                   0
                   0
                   0
                   0
                   0
                   0
                   0
                   0
                   0
                   0
                   0
                   0
                   0
                   0
                   0
                   0
                   0
                   0
                   0
                   0
                   0
                   0
                   0
                   0
                   0
                   0
                   0
                   0
                   0
                   0
                   0
                   0
                   0
                   0
                   0
                   0
                   0
                   0
                   0
                   0
                   0
                   0
                   0
                   0
                   0
                   0
                   0
                   0
                   0
                   0
                   0
                   0
                   0
                   0
                   0
                   0
                   0
                   0
                   0
                   0
                   0
                   0
                   0
                   0
                   0
                   0
                   0
                   0
                   0
                   0
                   0
                   0
                   0
                   0
                   0
                   0
                   0
                   0
                   0
                   0
                   0
                   0
                   0
                   0
                   0
                   0
                   0
                   0
                   0
                   0
                   0
                   0
                   0
                   0
                   0
                   0
                   0
                   0
                   0
                   0
                   0
                   0
                   0
                   0
                   0
                   0
                   0
                   0
                   0
                   0
                   0
                   0
                   0
                   0
                   0
                   0
                   0
                   0
                   0
                   0
                   0
                   0
                   0
                   0
                   0
                   0
                   0
                   0
                   0
                   0
                   0
                   0
                   0
                   0
                   0
                   0
                   0
                   0
                   0
                   0
                   0
                   0
                   0
                   0
                   0
                   0
                   0
                   0
                   0
                   0
                   0
                   0
                   0
                   0
                   0
                   0
                   0
                   0
                   0
                   0
                   0
                   0
                   0
                   0
                   0
                   0
                   0
                   0
                   0
                   0
                   0
                   0
                   0
                   0
                   0
                   0
                   0
                   0
                   0
                   0
                   0
                   0
                   0
                   0
                   0
                   0
                   0
                   0
                   0
                   0
                   0
                   0
                   0
                   0
                   0
                   0
                   0
                   0
                   0
                   0
                   0
                   0
                   0
                   0
                   0
                   0
                   0
                   0
                   0
                   0
                   0
                   0
                   0
                   0
                   0
                   0
                   0
                   0
                   0
                   0
                   0
                   0
                   0
                   0
                   0
                   0
                   0
                   0
                   0
                   0
                   0
                   0
                   0
                   0
                   0
                   0
                   0
                   0
                   0
                   0
                   0
                   0
                   0
                   0
                   0
                   0
                   0
                   0
                   0
                   0
                   0
                   0
                   0
                   0
                   0
                   0
                   0
                   0
                   0
                   0
                   0
                   0
                   0
                   0
                   0
                   0
                   0
                   0
                   0
                   0
                   0
                   0
                   0
                   0
                   0
                   0
                   0
                   0
                   0
                   0
                   0
                   0
                   0
                   0
                   0
                   0
                   0
                   0
                   0
                   0
                   0
                   0
                   0
                   0
                   0
                   0
                   0
                   0
                   0
                   0
                   0
                   0
                   0
                   0
                   0
                   0
                   0
                   0
                   0
                   0
                   0
                   0
                   0
                   0
                   0
                   0
                   0
                   0
                   0
                   0
                   0
                   0
                   0
                   0
                   0
                   0
                   0
                   0
                   0
                   0
                   0
                   0
                   0
                   0
                   0
                   0
                   0
                   0
                   0
                   0
                   0
                   0
                   0
                   0
                   0
                   0
                   0
                   0
                   0
                   0
                   0
                   0
                   0
                   0
                   0
                   0
                   0
                   0
                   0
                   0
                   0
                   0
                   0
                   0
                   0
                   0
                   0
                   0
                   0
                   0
                   0
                   0
                   0
                   0
                   0
                   0
                   0
                   0
                   0
                   0
                   0
                   0
                   0
                   0
                   0
                   0
                   0
                   0
                   0
                   0
                   0
                   0
                   0
                   0
                   0
                   0
                   0
                   0
                   0
                   0
                   0
                   0
                   0
                   0
                   0
                   0
                   0
                   0
                   0
                   0
                   0
                   0
                   0
                   0
                   0
                   0
                   0
                   0
                   0
                   0
                   0
                   0
                   0
                   0
                   0
                   0
                   0
                   0
                   0
                   0
                   0
                   0
                   0
                   0
                   0
                   0
                   0
                   0
                   0
                   0
                   0
                   0
                   0
                   0
                   0
                   0
                   0
                   0
                   0
                   0
                   0
                   0
                   0
                   0
                   0
                   0
                   0
                   0
                   0
                   0
                   0
                   0
                   0
                   0
                   0
                   0
                   0
                   0
                   0
                   0
                   0
                   0
                   0
                   0
                   0
                   0
                   0
                   0
                   0
                   0
                   0
                   0
                   0
                   0
                   0
                   0
                   0
                   0
                   0
                   0
                   0
                   0
                   0
                   0
                   0
                   0
                   0
                   0
                   0
                   0
                   0
                   0
                   0
                   0
                   0
                   0
                   0
                   0
                   0
                   0
                   0
                   0
                   0
                   0
                   0
                   0
                   0
                   0
                   0
                   0
                   0
                   0
                   0
                   0
                   0
  
SCALARS                         Ispace  double 1
LOOKUP_TABLE default
                  12
                  12
                  12
                  12
                  12
                  12
                  12
                  12
                  12
                  12
                  12
                  12
                  12
                  11
                  12
                  11
                  11
                  11
                  11
                  11
                  11
                  12
                  12
                  11
                  12
                  12
                  11
                  11
                  11
                  11
                  11
                  11
                  11
                  11
                  11
                  11
                  11
                  11
                  11
                  11
                  11
                  11
                  11
                  11
                  11
                  11
                  11
                  11
                  11
                  11
                  11
                  11
                  11
                  11
                  11
                  11
                  11
                  11
                  11
                  11
                  11
                  11
                  11
                  11
                  11
                  11
                  12
                  12
                  12
                  12
                  12
                  12
                  12
                  12
                  11
                  11
                  11
                  11
                  11
                  11
                  11
                  11
                  11
                  11
                  11
                  11
                  11
                  11
                  11
                  11
                  11
                  11
                  11
                  11
                  11
                  11
                  12
                  12
                  12
                  12
                  12
                  12
                  12
                  12
                  12
                  12
                  12
                  12
                  12
                  12
                  12
                  12
                  12
                  12
                  12
                  12
                  11
                  11
                  11
                  11
                  11
                  11
                  11
                  11
                  11
                  11
                  11
                  11
                  11
                  11
                  11
                  11
                  11
                  11
                  11
                  11
                  11
                  11
                  11
                  11
                  11
                  11
                  11
                  11
                  11
                  11
                  12
                  12
                  12
                  12
                  12
                  12
                  12
                  12
                  12
                  12
                  12
                  12
                  12
                  12
                  12
                  12
                  12
                  11
                  11
                  11
                  11
                  12
                  12
                  11
                  11
                  11
                  11
                  11
                  11
                  11
                  11
                  11
                  11
                  11
                  11
                  11
                  11
                  11
                  11
                  11
                  11
                  11
                  11
                  12
                  12
                  12
                  12
                  11
                  11
                  11
                  11
                  11
                  11
                  11
                  11
                  11
                  11
                  11
                  12
                  12
                  12
                  12
                  12
                  12
                  12
                  12
                  12
                  12
                  11
                  11
                  11
                  11
                  11
                  11
                  11
                  11
                  11
                  11
                  11
                  11
                  11
                  11
                  11
                  12
                  12
                  12
                  12
                  12
                  12
                  12
                  12
                  12
                  12
                  12
                  12
                  11
                  11
                  11
                  11
                  12
                  12
                  11
                  11
                  11
                  11
                  11
                  11
                  11
                  11
                  11
                  11
                  11
                  11
                  11
                  11
                  11
                  11
                  11
                  11
                  11
                  11
                  12
                  12
                  12
                  12
                  11
                  11
                  11
                  11
                  11
                  11
                  11
                  11
                  11
                  11
                  11
                  12
                  12
                  12
                  12
                  12
                  12
                  12
                  12
                  12
                  12
                  11
                  11
                  11
                  11
                  11
                  11
                  11
                  11
                  11
                  11
                  11
                  11
                  11
                  11
                  11
                  12
                  12
                  12
                  12
                  12
                  12
                  12
                  12
                  12
                  12
                  12
                  12
                  11
                  11
                  11
                  11
                  12
                  12
                  11
                  11
                  11
                  11
                  11
                  11
                  11
                  11
                  11
                  11
                  11
                  11
                  11
                  11
                  11
                  11
                  11
                  11
                  11
                  11
                  12
                  12
                  12
                  12
                  11
                  11
                  11
                  11
                  11
                  11
                  11
                  11
                  11
                  11
                  11
                  12
                  12
                  12
                  12
                  12
                  12
                  12
                  12
                  12
                  12
                  11
                  11
                  11
                  11
                  11
                  11
                  11
                  11
                  11
                  11
                  11
                  11
                  11
                  11
                  11
                  12
                  12
                  12
                  12
                  12
                  12
                  12
                  12
                  12
                  12
                  12
                  12
                  11
                  11
                  11
                  11
                  12
                  12
                  11
                  11
                  11
                  11
                  11
                  11
                  11
                  11
                  11
                  11
                  11
                  11
                  11
                  11
                  11
                  11
                  11
                  11
                  11
                  11
                  12
                  12
                  12
                  12
                  11
                  11
                  11
                  11
                  11
                  11
                  11
                  11
                  11
                  11
                  11
                  12
                  12
                  12
                  12
                  12
                  12
                  12
                  12
                  12
                  12
                  11
                  11
                  11
                  11
                  11
                  11
                  11
                  11
                  11
                  11
                  11
                  11
                  11
                  11
                  11
                  12
                  12
                  12
                  12
                  12
                  12
                  12
                  12
                  12
                  12
                  12
                  12
                  11
                  11
                  11
                  11
                  12
                  12
                  11
                  11
                  11
                  11
                  11
                  11
                  11
                  11
                  11
                  11
                  11
                  11
                  11
                  11
                  11
                  11
                  11
                  11
                  11
                  11
                  12
                  12
                  12
                  12
                  11
                  11
                  11
                  11
                  11
                  11
                  11
                  11
                  11
                  11
                  11
                  12
                  12
                  12
                  12
                  12
                  12
                  12
                  12
                  12
                  12
                  11
                  11
                  11
                  11
                  11
                  11
                  11
                  11
                  11
                  11
                  11
                  11
                  11
                  11
                  11
                  12
                  12
                  12
                  12
                  12
                  12
                  12
                  12
                  12
                  12
                  12
                  12
                  11
                  11
                  11
                  11
                  12
                  12
                  11
                  11
                  11
                  11
                  11
                  11
                  11
                  11
                  11
                  11
                  11
                  11
                  11
                  11
                  11
                  11
                  11
                  11
                  11
                  11
                  12
                  12
                  12
                  12
                  11
                  11
                  11
                  11
                  11
                  11
                  11
                  11
                  11
                  11
                  11
                  12
                  12
                  12
                  12
                  12
                  12
                  12
                  12
                  12
                  12
                  11
                  11
                  11
                  11
                  11
                  11
                  11
                  11
                  11
                  11
                  11
                  11
                  11
                  11
                  11
                  12
                  12
                  12
                  12
                  12
                  12
                  12
                  12
                  12
                  12
                  12
                  12
                  11
                  11
                  11
                  11
                  12
                  12
                  11
                  11
                  11
                  11
                  11
                  11
                  11
                  11
                  11
                  11
                  11
                  11
                  11
                  11
                  11
                  11
                  11
                  11
                  11
                  11
                  12
                  12
                  12
                  12
                  11
                  11
                  11
                  11
                  11
                  11
                  11
                  11
                  11
                  11
                  11
                  12
                  12
                  12
                  12
                  12
                  12
                  12
                  12
                  12
                  12
                  11
                  11
                  11
                  11
                  11
                  11
                  11
                  11
                  11
                  11
                  11
                  11
                  11
                  11
                  11
                  12
                  12
                  12
                  12
                  12
                  12
                  12
                  12
                  12
                  12
                  12
                  12
                  11
                  11
                  11
                  11
                  12
                  12
                  11
                  11
                  11
                  11
                  11
                  11
                  11
                  11
                  11
                  11
                  11
                  11
                  11
                  11
                  11
                  11
                  11
                  11
                  11
                  11
                  12
                  12
                  12
                  12
                  11
                  11
                  11
                  11
                  11
                  11
                  11
                  11
                  11
                  11
                  11
                  12
                  12
                  12
                  12
                  12
                  12
                  12
                  12
                  12
                  12
                  11
                  11
                  11
                  11
                  11
                  11
                  11
                  11
                  11
                  11
                  11
                  11
                  11
                  11
                  11
                  12
                  12
                  12
                  12
                  12
                  12
                  12
                  12
                  12
                  12
                  12
                  12
                  11
                  11
                  11
                  11
                  12
                  12
                  11
                  11
                  11
                  11
                  11
                  11
                  11
                  11
                  11
                  11
                  11
                  11
                  11
                  11
                  11
                  11
                  11
                  11
                  11
                  11
                  12
                  12
                  12
                  12
                  11
                  11
                  11
                  11
                  11
                  11
                  11
                  11
                  11
                  11
                  11
                  12
                  12
                  12
                  12
                  12
                  12
                  12
                  12
                  12
                  12
                  11
                  11
                  11
                  11
                  11
                  11
                  11
                  11
                  11
                  11
                  11
                  11
                  11
                  11
                  11
                  12
                  12
                  12
                  12
                  12
                  12
                  12
                  12
                  12
                  12
                  12
                  12
                  11
                  11
                  11
                  11
                  12
                  12
                  11
                  11
                  11
                  11
                  11
                  11
                  11
                  11
                  11
                  11
                  11
                  11
                  11
                  11
                  11
                  11
                  11
                  11
                  11
                  11
                  12
                  12
                  12
                  12
                  11
                  11
                  11
                  11
                  11
                  11
                  11
                  11
                  11
                  11
                  11
                  12
                  12
                  12
                  12
                  12
                  12
                  12
                  12
                  12
                  12
                  11
                  11
                  11
                  11
                  11
                  11
                  11
                  11
                  11
                  11
                  11
                  11
                  11
                  11
                  11
                  12
                  12
                  12
                  12
                  12
                  12
                  12
                  12
                  12
                  12
                  12
                  12
                  11
                  11
                  11
                  11
                  12
                  12
                  11
                  11
                  11
                  11
                  11
                  11
                  11
                  11
                  11
                  11
                  11
                  11
                  11
                  11
                  11
                  11
                  11
                  11
                  11
                  11
                  12
                  12
                  12
                  12
                  11
                  11
                  11
                  11
                  11
                  11
                  11
                  11
                  11
                  11
                  11
                  12
                  12
                  12
                  12
                  12
                  12
                  12
                  12
                  12
                  12
                  11
                  11
                  11
                  11
                  11
                  11
                  11
                  11
                  11
                  11
                  11
                  11
                  11
                  11
                  11
                  12
                  12
                  12
                  12
                  12
                  12
                  12
                  12
                  12
                  12
                  12
                  12
                  11
                  11
                  11
                  11
                  12
                  12
                  11
                  11
                  11
                  11
                  11
                  11
                  11
                  11
                  11
                  11
                  11
                  11
                  11
                  11
                  11
                  11
                  11
                  11
                  11
                  11
                  12
                  12
                  12
                  12
                  11
                  11
                  11
                  11
                  11
                  11
                  11
                  11
                  11
                  11
                  11
                  12
                  12
                  12
                  12
                  12
                  12
                  12
                  12
                  12
                  12
                  11
                  11
                  11
                  11
                  11
                  11
                  11
                  11
                  11
                  11
                  11
                  11
                  11
                  11
                  11
                  12
                  12
                  12
                  12
                  12
                  12
                  12
                  12
                  12
                  12
                  12
                  12
                  11
                  11
                  11
                  11
                  12
                  12
                  11
                  11
                  11
                  11
                  11
                  11
                  11
                  11
                  11
                  11
                  11
                  11
                  11
                  11
                  11
                  11
                  11
                  11
                  11
                  11
                  12
                  12
                  12
                  12
                  11
                  11
                  11
                  11
                  11
                  11
                  11
                  11
                  11
                  11
                  11
                  12
                  12
                  12
                  12
                  12
                  12
                  12
                  12
                  12
                  12
                  11
                  11
                  11
                  11
                  11
                  11
                  11
                  11
                  11
                  11
                  11
                  11
                  11
                  11
                  11
                  12
                  12
                  12
                  12
                  12
                  12
                  12
                  12
                  12
                  12
                  12
                  12
                  11
                  11
                  11
                  11
                  12
                  12
                  11
                  11
                  11
                  11
                  11
                  11
                  11
                  11
                  11
                  11
                  11
                  11
                  11
                  11
                  11
                  11
                  11
                  11
                  11
                  11
                  12
                  12
                  12
                  12
                  11
                  11
                  11
                  11
                  11
                  11
                  11
                  11
                  11
                  11
                  11
                  12
                  12
                  12
                  12
                  12
                  12
                  12
                  12
                  12
                  12
                  11
                  11
                  11
                  11
                  11
                  11
                  11
                  11
                  11
                  11
                  11
                  11
                  11
                  11
                  11
                  12
                  12
                  12
                  12
                  12
                  12
                  12
                  12
                  12
                  12
                  12
                  12
                  11
                  11
                  11
                  11
                  12
                  12
                  11
                  11
                  11
                  11
                  11
                  11
                  11
                  11
                  11
                  11
                  11
                  11
                  11
                  11
                  11
                  11
                  11
                  11
                  11
                  11
                  12
                  12
                  12
                  12
                  11
                  11
                  11
                  11
                  11
                  11
                  11
                  11
                  11
                  11
                  11
                  12
                  12
                  12
                  12
                  12
                  12
                  12
                  12
                  12
                  12
                  11
                  11
                  11
                  11
                  11
                  11
                  11
                  11
                  11
                  11
                  11
                  11
                  11
                  11
                  11
                  12
                  12
                  12
                  12
                  12
                  12
                  12
                  12
                  12
                  12
                  12
                  12
                  11
                  11
                  11
                  11
                  12
                  12
                  11
                  11
                  11
                  11
                  11
                  11
                  11
                  11
                  11
                  11
                  11
                  11
                  11
                  11
                  11
                  11
                  11
                  11
                  11
                  11
                  12
                  12
                  12
                  12
                  11
                  11
                  11
                  11
                  11
                  11
                  11
                  11
                  11
                  11
                  11
                  12
                  12
                  12
                  12
                  12
                  12
                  12
                  12
                  12
                  12
                  11
                  11
                  11
                  11
                  11
                  11
                  11
                  11
                  11
                  11
                  11
                  11
                  11
                  11
                  11
                  12
                  12
                  12
                  12
                  12
                  12
                  12
                  12
                  12
                  12
                  12
                  12
                  11
                  11
                  11
                  11
                  12
                  12
                  11
                  11
                  11
                  11
                  11
                  11
                  11
                  11
                  11
                  11
                  11
                  11
                  11
                  11
                  11
                  11
                  11
                  11
                  11
                  11
                  12
                  12
                  12
                  12
                  11
                  11
                  11
                  11
                  11
                  11
                  11
                  11
                  11
                  11
                  11
                  12
                  12
                  12
                  12
                  12
                  12
                  12
                  12
                  12
                  12
                  11
                  11
                  11
                  11
                  11
                  11
                  11
                  11
                  11
                  11
                  11
                  11
                  11
                  11
                  11
                  12
                  12
                  12
                  12
                  12
                  12
                  12
                  12
                  12
                  12
                  12
                  12
                  11
                  11
                  11
                  11
                  12
                  12
                  11
                  11
                  11
                  11
                  11
                  11
                  11
                  11
                  11
                  11
                  11
                  11
                  11
                  11
                  11
                  11
                  11
                  11
                  11
                  11
                  12
                  12
                  12
                  12
                  11
                  11
                  11
                  11
                  11
                  11
                  11
                  11
                  11
                  11
                  11
                  12
                  12
                  12
                  12
                  12
                  12
                  12
                  12
                  12
                  12
                  11
                  11
                  11
                  11
                  11
                  11
                  11
                  11
                  11
                  11
                  11
                  11
                  11
                  11
                  11
                  12
                  12
                  12
                  12
                  12
                  12
                  12
                  12
                  12
                  12
                  12
                  12
                  11
                  11
                  11
                  11
                  12
                  12
                  11
                  11
                  11
                  11
                  11
                  11
                  11
                  11
                  11
                  11
                  11
                  11
                  11
                  11
                  11
                  11
                  11
                  11
                  11
                  11
                  12
                  12
                  12
                  12
                  11
                  11
                  11
                  11
                  11
                  11
                  11
                  11
                  11
                  11
                  11
                  12
                  12
                  12
                  12
                  12
                  12
                  12
                  12
                  12
                  12
                  11
                  11
                  11
                  11
                  11
                  11
                  11
                  11
                  11
                  11
                  11
                  11
                  11
                  11
                  11
                  12
                  12
                  12
                  12
                  12
                  12
                  12
                  12
                  12
                  12
                  12
                  12
                  11
                  11
                  11
                  11
                  12
                  12
                  11
                  11
                  11
                  11
                  11
                  11
                  11
                  11
                  11
                  11
                  11
                  11
                  11
                  11
                  11
                  11
                  11
                  11
                  11
                  11
                  12
                  12
                  12
                  12
                  11
                  11
                  11
                  11
                  11
                  11
                  11
                  11
                  11
                  11
                  11
                  12
                  12
                  12
                  12
                  12
                  12
                  12
                  12
                  12
                  12
                  11
                  11
                  11
                  11
                  11
                  11
                  11
                  11
                  11
                  11
                  11
                  11
                  11
                  11
                  11
                  12
                  12
                  12
                  12
                  12
                  12
                  12
                  12
                  12
                  12
                  12
                  12
                  11
                  11
                  11
                  11
                  12
                  12
                  11
                  11
                  11
                  11
                  11
                  11
                  11
                  11
                  11
                  11
                  11
                  11
                  11
                  11
                  11
                  11
                  11
                  11
                  11
                  11
                  12
                  12
                  12
                  12
                  11
                  11
                  11
                  11
                  11
                  11
                  11
                  11
                  11
                  11
                  11
                  12
                  12
                  12
                  12
                  12
                  12
                  12
                  12
                  12
                  12
                  11
                  11
                  11
                  11
                  11
                  11
                  11
                  11
                  11
                  11
                  11
                  11
                  11
                  11
                  11
                  12
                  12
                  12
                  12
                  12
                  12
                  12
                  12
                  12
                  12
                  12
                  12
                  11
                  11
                  11
                  11
                  12
                  12
                  11
                  11
                  11
                  11
                  11
                  11
                  11
                  11
                  11
                  11
                  11
                  11
                  11
                  11
                  11
                  11
                  11
                  11
                  11
                  11
                  12
                  12
                  12
                  12
                  11
                  11
                  11
                  11
                  11
                  11
                  11
                  11
                  11
                  11
                  11
                  12
                  12
                  12
                  12
                  12
                  12
                  12
                  12
                  12
                  12
                  11
                  11
                  11
                  11
                  11
                  11
                  11
                  11
                  11
                  11
                  11
                  11
                  11
                  11
                  11
                  12
                  12
                  12
                  12
                  12
                  12
                  12
                  12
                  12
                  12
                  12
                  12
                  11
                  11
                  11
                  11
                  12
                  12
                  11
                  11
                  11
                  11
                  11
                  11
                  11
                  11
                  11
                  11
                  11
                  11
                  11
                  11
                  11
                  11
                  11
                  11
                  11
                  11
                  12
                  12
                  12
                  12
                  11
                  11
                  11
                  11
                  11
                  11
                  11
                  11
                  11
                  11
                  11
                  12
                  12
                  12
                  12
                  12
                  12
                  12
                  12
                  12
                  12
                  11
                  11
                  11
                  11
                  11
                  11
                  11
                  11
                  11
                  11
                  11
                  11
                  11
                  11
                  11
                  12
                  12
                  12
                  12
                  12
  
SCALARS                         Jspace  double 1
LOOKUP_TABLE default
                  11
                  12
                  11
                  11
                  11
                  12
                  11
                  11
                  11
                  11
                  11
                  11
                  12
                  12
                  12
                  12
                  11
                  12
                  11
                  12
                  12
                  12
                  12
                  12
                  12
                  12
                  12
                  12
                  12
                  12
                  11
                  11
                  11
                  11
                  11
                  11
                  11
                  11
                  11
                  11
                  11
                  11
                  11
                  11
                  11
                  11
                  11
                  11
                  11
                  11
                  11
                  11
                  12
                  12
                  12
                  12
                  12
                  11
                  12
                  11
                  11
                  11
                  11
                  11
                  11
                  11
                  11
                  11
                  11
                  12
                  11
                  12
                  12
                  12
                  12
                  12
                  12
                  12
                  12
                  12
                  12
                  12
                  12
                  12
                  11
                  11
                  11
                  11
                  11
                  11
                  11
                  11
                  11
                  11
                  11
                  11
                  11
                  11
                  11
                  11
                  11
                  11
                  11
                  11
                  11
                  11
                  11
                  11
                  12
                  12
                  12
                  12
                  12
                  12
                  12
                  12
                  12
                  12
                  12
                  12
                  12
                  12
                  12
                  12
                  12
                  12
                  12
                  12
                  11
                  11
                  11
                  11
                  11
                  11
                  11
                  11
                  11
                  11
                  11
                  11
                  11
                  11
                  11
                  11
                  11
                  11
                  11
                  11
                  11
                  11
                  11
                  11
                  11
                  11
                  11
                  11
                  11
                  12
                  11
                  11
                  11
                  11
                  12
                  12
                  11
                  12
                  12
                  12
                  12
                  12
                  12
                  11
                  11
                  11
                  11
                  11
                  11
                  11
                  11
                  11
                  11
                  11
                  12
                  12
                  12
                  11
                  11
                  11
                  11
                  11
                  11
                  12
                  12
                  12
                  12
                  12
                  12
                  12
                  11
                  11
                  11
                  11
                  11
                  11
                  11
                  11
                  11
                  11
                  11
                  11
                  12
                  12
                  12
                  12
                  12
                  12
                  12
                  12
                  12
                  12
                  11
                  11
                  11
                  11
                  11
                  11
                  11
                  11
                  11
                  11
                  11
                  11
                  11
                  11
                  11
                  12
                  11
                  11
                  11
                  11
                  12
                  12
                  11
                  12
                  12
                  12
                  12
                  12
                  12
                  11
                  11
                  11
                  11
                  11
                  11
                  11
                  11
                  11
                  11
                  11
                  12
                  12
                  12
                  11
                  11
                  11
                  11
                  11
                  11
                  12
                  12
                  12
                  12
                  12
                  12
                  12
                  11
                  11
                  11
                  11
                  11
                  11
                  11
                  11
                  11
                  11
                  11
                  11
                  12
                  12
                  12
                  12
                  12
                  12
                  12
                  12
                  12
                  12
                  11
                  11
                  11
                  11
                  11
                  11
                  11
                  11
                  11
                  11
                  11
                  11
                  11
                  11
                  11
                  12
                  11
                  11
                  11
                  11
                  12
                  12
                  11
                  12
                  12
                  12
                  12
                  12
                  12
                  11
                  11
                  11
                  11
                  11
                  11
                  11
                  11
                  11
                  11
                  11
                  12
                  12
                  12
                  11
                  11
                  11
                  11
                  11
                  11
                  12
                  12
                  12
                  12
                  12
                  12
                  12
                  11
                  11
                  11
                  11
                  11
                  11
                  11
                  11
                  11
                  11
                  11
                  11
                  12
                  12
                  12
                  12
                  12
                  12
                  12
                  12
                  12
                  12
                  11
                  11
                  11
                  11
                  11
                  11
                  11
                  11
                  11
                  11
                  11
                  11
                  11
                  11
                  11
                  12
                  11
                  11
                  11
                  11
                  12
                  12
                  11
                  12
                  12
                  12
                  12
                  12
                  12
                  11
                  11
                  11
                  11
                  11
                  11
                  11
                  11
                  11
                  11
                  11
                  12
                  12
                  12
                  11
                  11
                  11
                  11
                  11
                  11
                  12
                  12
                  12
                  12
                  12
                  12
                  12
                  11
                  11
                  11
                  11
                  11
                  11
                  11
                  11
                  11
                  11
                  11
                  11
                  12
                  12
                  12
                  12
                  12
                  12
                  12
                  12
                  12
                  12
                  11
                  11
                  11
                  11
                  11
                  11
                  11
                  11
                  11
                  11
                  11
                  11
                  11
                  11
                  11
                  12
                  11
                  11
                  11
                  11
                  12
                  12
                  11
                  12
                  12
                  12
                  12
                  12
                  12
                  11
                  11
                  11
                  11
                  11
                  11
                  11
                  11
                  11
                  11
                  11
                  12
                  12
                  12
                  11
                  11
                  11
                  11
                  11
                  11
                  12
                  12
                  12
                  12
                  12
                  12
                  12
                  11
                  11
                  11
                  11
                  11
                  11
                  11
                  11
                  11
                  11
                  11
                  11
                  12
                  12
                  12
                  12
                  12
                  12
                  12
                  12
                  12
                  12
                  11
                  11
                  11
                  11
                  11
                  11
                  11
                  11
                  11
                  11
                  11
                  11
                  11
                  11
                  11
                  12
                  11
                  11
                  11
                  11
                  12
                  12
                  11
                  12
                  12
                  12
                  12
                  12
                  12
                  11
                  11
                  11
                  11
                  11
                  11
                  11
                  11
                  11
                  11
                  11
                  12
                  12
                  12
                  11
                  11
                  11
                  11
                  11
                  11
                  12
                  12
                  12
                  12
                  12
                  12
                  12
                  11
                  11
                  11
                  11
                  11
                  11
                  11
                  11
                  11
                  11
                  11
                  11
                  12
                  12
                  12
                  12
                  12
                  12
                  12
                  12
                  12
                  12
                  11
                  11
                  11
                  11
                  11
                  11
                  11
                  11
                  11
                  11
                  11
                  11
                  11
                  11
                  11
                  12
                  11
                  11
                  11
                  11
                  12
                  12
                  11
                  12
                  12
                  12
                  12
                  12
                  12
                  11
                  11
                  11
                  11
                  11
                  11
                  11
                  11
                  11
                  11
                  11
                  12
                  12
                  12
                  11
                  11
                  11
                  11
                  11
                  11
                  12
                  12
                  12
                  12
                  12
                  12
                  12
                  11
                  11
                  11
                  11
                  11
                  11
                  11
                  11
                  11
                  11
                  11
                  11
                  12
                  12
                  12
                  12
                  12
                  12
                  12
                  12
                  12
                  12
                  11
                  11
                  11
                  11
                  11
                  11
                  11
                  11
                  11
                  11
                  11
                  11
                  11
                  11
                  11
                  12
                  11
                  11
                  11
                  11
                  12
                  12
                  11
                  12
                  12
                  12
                  12
                  12
                  12
                  11
                  11
                  11
                  11
                  11
                  11
                  11
                  11
                  11
                  11
                  11
                  12
                  12
                  12
                  11
                  11
                  11
                  11
                  11
                  11
                  12
                  12
                  12
                  12
                  12
                  12
                  12
                  11
                  11
                  11
                  11
                  11
                  11
                  11
                  11
                  11
                  11
                  11
                  11
                  12
                  12
                  12
                  12
                  12
                  12
                  12
                  12
                  12
                  12
                  11
                  11
                  11
                  11
                  11
                  11
                  11
                  11
                  11
                  11
                  11
                  11
                  11
                  11
                  11
                  12
                  11
                  11
                  11
                  11
                  12
                  12
                  11
                  12
                  12
                  12
                  12
                  12
                  12
                  11
                  11
                  11
                  11
                  11
                  11
                  11
                  11
                  11
                  11
                  11
                  12
                  12
                  12
                  11
                  11
                  11
                  11
                  11
                  11
                  12
                  12
                  12
                  12
                  12
                  12
                  12
                  11
                  11
                  11
                  11
                  11
                  11
                  11
                  11
                  11
                  11
                  11
                  11
                  12
                  12
                  12
                  12
                  12
                  12
                  12
                  12
                  12
                  12
                  11
                  11
                  11
                  11
                  11
                  11
                  11
                  11
                  11
                  11
                  11
                  11
                  11
                  11
                  11
                  12
                  11
                  11
                  11
                  11
                  12
                  12
                  11
                  12
                  12
                  12
                  12
                  12
                  12
                  11
                  11
                  11
                  11
                  11
                  11
                  11
                  11
                  11
                  11
                  11
                  12
                  12
                  12
                  11
                  11
                  11
                  11
                  11
                  11
                  12
                  12
                  12
                  12
                  12
                  12
                  12
                  11
                  11
                  11
                  11
                  11
                  11
                  11
                  11
                  11
                  11
                  11
                  11
                  12
                  12
                  12
                  12
                  12
                  12
                  12
                  12
                  12
                  12
                  11
                  11
                  11
                  11
                  11
                  11
                  11
                  11
                  11
                  11
                  11
                  11
                  11
                  11
                  11
                  12
                  11
                  11
                  11
                  11
                  12
                  12
                  11
                  12
                  12
                  12
                  12
                  12
                  12
                  11
                  11
                  11
                  11
                  11
                  11
                  11
                  11
                  11
                  11
                  11
                  12
                  12
                  12
                  11
                  11
                  11
                  11
                  11
                  11
                  12
                  12
                  12
                  12
                  12
                  12
                  12
                  11
                  11
                  11
                  11
                  11
                  11
                  11
                  11
                  11
                  11
                  11
                  11
                  12
                  12
                  12
                  12
                  12
                  12
                  12
                  12
                  12
                  12
                  11
                  11
                  11
                  11
                  11
                  11
                  11
                  11
                  11
                  11
                  11
                  11
                  11
                  11
                  11
                  12
                  11
                  11
                  11
                  11
                  12
                  12
                  11
                  12
                  12
                  12
                  12
                  12
                  12
                  11
                  11
                  11
                  11
                  11
                  11
                  11
                  11
                  11
                  11
                  11
                  12
                  12
                  12
                  11
                  11
                  11
                  11
                  11
                  11
                  12
                  12
                  12
                  12
                  12
                  12
                  12
                  11
                  11
                  11
                  11
                  11
                  11
                  11
                  11
                  11
                  11
                  11
                  11
                  12
                  12
                  12
                  12
                  12
                  12
                  12
                  12
                  12
                  12
                  11
                  11
                  11
                  11
                  11
                  11
                  11
                  11
                  11
                  11
                  11
                  11
                  11
                  11
                  11
                  12
                  11
                  11
                  11
                  11
                  12
                  12
                  11
                  12
                  12
                  12
                  12
                  12
                  12
                  11
                  11
                  11
                  11
                  11
                  11
                  11
                  11
                  11
                  11
                  11
                  12
                  12
                  12
                  11
                  11
                  11
                  11
                  11
                  11
                  12
                  12
                  12
                  12
                  12
                  12
                  12
                  11
                  11
                  11
                  11
                  11
                  11
                  11
                  11
                  11
                  11
                  11
                  11
                  12
                  12
                  12
                  12
                  12
                  12
                  12
                  12
                  12
                  12
                  11
                  11
                  11
                  11
                  11
                  11
                  11
                  11
                  11
                  11
                  11
                  11
                  11
                  11
                  11
                  12
                  11
                  11
                  11
                  11
                  12
                  12
                  11
                  12
                  12
                  12
                  12
                  12
                  12
                  11
                  11
                  11
                  11
                  11
                  11
                  11
                  11
                  11
                  11
                  11
                  12
                  12
                  12
                  11
                  11
                  11
                  11
                  11
                  11
                  12
                  12
                  12
                  12
                  12
                  12
                  12
                  11
                  11
                  11
                  11
                  11
                  11
                  11
                  11
                  11
                  11
                  11
                  11
                  12
                  12
                  12
                  12
                  12
                  12
                  12
                  12
                  12
                  12
                  11
                  11
                  11
                  11
                  11
                  11
                  11
                  11
                  11
                  11
                  11
                  11
                  11
                  11
                  11
                  12
                  11
                  11
                  11
                  11
                  12
                  12
                  11
                  12
                  12
                  12
                  12
                  12
                  12
                  11
                  11
                  11
                  11
                  11
                  11
                  11
                  11
                  11
                  11
                  11
                  12
                  12
                  12
                  11
                  11
                  11
                  11
                  11
                  11
                  12
                  12
                  12
                  12
                  12
                  12
                  12
                  11
                  11
                  11
                  11
                  11
                  11
                  11
                  11
                  11
                  11
                  11
                  11
                  12
                  12
                  12
                  12
                  12
                  12
                  12
                  12
                  12
                  12
                  11
                  11
                  11
                  11
                  11
                  11
                  11
                  11
                  11
                  11
                  11
                  11
                  11
                  11
                  11
                  12
                  11
                  11
                  11
                  11
                  12
                  12
                  11
                  12
                  12
                  12
                  12
                  12
                  12
                  11
                  11
                  11
                  11
                  11
                  11
                  11
                  11
                  11
                  11
                  11
                  12
                  12
                  12
                  11
                  11
                  11
                  11
                  11
                  11
                  12
                  12
                  12
                  12
                  12
                  12
                  12
                  11
                  11
                  11
                  11
                  11
                  11
                  11
                  11
                  11
                  11
                  11
                  11
                  12
                  12
                  12
                  12
                  12
                  12
                  12
                  12
                  12
                  12
                  11
                  11
                  11
                  11
                  11
                  11
                  11
                  11
                  11
                  11
                  11
                  11
                  11
                  11
                  11
                  12
                  11
                  11
                  11
                  11
                  12
                  12
                  11
                  12
                  12
                  12
                  12
                  12
                  12
                  11
                  11
                  11
                  11
                  11
                  11
                  11
                  11
                  11
                  11
                  11
                  12
                  12
                  12
                  11
                  11
                  11
                  11
                  11
                  11
                  12
                  12
                  12
                  12
                  12
                  12
                  12
                  11
                  11
                  11
                  11
                  11
                  11
                  11
                  11
                  11
                  11
                  11
                  11
                  12
                  12
                  12
                  12
                  12
                  12
                  12
                  12
                  12
                  12
                  11
                  11
                  11
                  11
                  11
                  11
                  11
                  11
                  11
                  11
                  11
                  11
                  11
                  11
                  11
                  12
                  11
                  11
                  11
                  11
                  12
                  12
                  11
                  12
                  12
                  12
                  12
                  12
                  12
                  11
                  11
                  11
                  11
                  11
                  11
                  11
                  11
                  11
                  11
                  11
                  12
                  12
                  12
                  11
                  11
                  11
                  11
                  11
                  11
                  12
                  12
                  12
                  12
                  12
                  12
                  12
                  11
                  11
                  11
                  11
                  11
                  11
                  11
                  11
                  11
                  11
                  11
                  11
                  12
                  12
                  12
                  12
                  12
                  12
                  12
                  12
                  12
                  12
                  11
                  11
                  11
                  11
                  11
                  11
                  11
                  11
                  11
                  11
                  11
                  11
                  11
                  11
                  11
                  12
                  11
                  11
                  11
                  11
                  12
                  12
                  11
                  12
                  12
                  12
                  12
                  12
                  12
                  11
                  11
                  11
                  11
                  11
                  11
                  11
                  11
                  11
                  11
                  11
                  12
                  12
                  12
                  11
                  11
                  11
                  11
                  11
                  11
                  12
                  12
                  12
                  12
                  12
                  12
                  12
                  11
                  11
                  11
                  11
                  11
                  11
                  11
                  11
                  11
                  11
                  11
                  11
                  12
                  12
                  12
                  12
                  12
                  12
                  12
                  12
                  12
                  12
                  11
                  11
                  11
                  11
                  11
                  11
                  11
                  11
                  11
                  11
                  11
                  11
                  11
                  11
                  11
                  12
                  11
                  11
                  11
                  11
                  12
                  12
                  11
                  12
                  12
                  12
                  12
                  12
                  12
                  11
                  11
                  11
                  11
                  11
                  11
                  11
                  11
                  11
                  11
                  11
                  12
                  12
                  12
                  11
                  11
                  11
                  11
                  11
                  11
                  12
                  12
                  12
                  12
                  12
                  12
                  12
                  11
                  11
                  11
                  11
                  11
                  11
                  11
                  11
                  11
                  11
                  11
                  11
                  12
                  12
                  12
                  12
                  12
                  12
                  12
                  12
                  12
                  12
                  11
                  11
                  11
                  11
                  11
                  11
                  11
                  11
                  11
                  11
                  11
                  11
                  11
                  11
                  11
                  12
                  11
                  11
                  11
                  11
                  12
                  12
                  11
                  12
                  12
                  12
                  12
                  12
                  12
                  11
                  11
                  11
                  11
                  11
                  11
                  11
                  11
                  11
                  11
                  11
                  12
                  12
                  12
                  11
                  11
                  11
                  11
                  11
                  11
                  12
                  12
                  12
                  12
                  12
                  12
                  12
                  11
                  11
                  11
                  11
                  11
                  11
                  11
                  11
                  11
                  11
                  11
                  11
                  12
                  12
                  12
                  12
                  12
                  12
                  12
                  12
                  12
                  12
                  11
                  11
                  11
                  11
                  11
                  11
                  11
                  11
                  11
                  11
                  11
                  11
                  11
                  11
                  11
                  12
                  11
                  11
                  11
                  11
                  12
                  12
                  11
                  12
                  12
                  12
                  12
                  12
                  12
                  11
                  11
                  11
                  11
                  11
                  11
                  11
                  11
                  11
                  11
                  11
                  12
                  12
                  12
                  11
                  11
                  11
                  11
                  11
                  11
                  12
                  12
                  12
                  12
                  12
                  12
                  12
                  11
                  11
                  11
                  11
                  11
                  11
                  11
                  11
                  11
                  11
                  11
                  11
                  12
                  12
                  12
                  12
                  12
                  12
                  12
                  12
                  12
                  12
                  11
                  11
                  11
                  11
                  11
                  11
                  11
                  11
                  11
                  11
                  11
                  11
                  11
                  11
                  11
                  12
                  11
                  11
                  11
                  11
                  12
                  12
                  11
                  12
                  12
                  12
                  12
                  12
                  12
                  11
                  11
                  11
                  11
                  11
                  11
                  11
                  11
                  11
                  11
                  11
                  12
                  12
                  12
                  11
                  11
                  11
                  11
                  11
                  11
                  12
                  12
                  12
                  12
                  12
                  12
                  12
                  11
                  11
                  11
                  11
                  11
                  11
                  11
                  11
                  11
                  11
                  11
                  11
                  12
                  12
                  12
                  12
                  12
                  12
                  12
                  12
                  12
                  12
                  11
                  11
                  11
                  11
                  11
                  11
                  11
                  11
                  11
                  11
                  11
                  11
                  11
                  11
  
SCALARS                         Kspace  double 1
LOOKUP_TABLE default
                  11
                  11
                  11
                  11
                  11
                  11
                  11
                  11
                  11
                  11
                  11
                  11
                  11
                  11
                  11
                  11
                  11
                  11
                  11
                  11
                  11
                  11
                  11
                  11
                  11
                  11
                  11
                  11
                  11
                  11
                  11
                  11
                  11
                  11
                  11
                  11
                  11
                  11
                  11
                  11
                  11
                  11
                  11
                  11
                  11
                  11
                  11
                  11
                  11
                  11
                  11
                  11
                  11
                  11
                  11
                  11
                  11
                  11
                  11
                  11
                  11
                  11
                  11
                  11
                  11
                  11
                  11
                  11
                  11
                  11
                  11
                  11
                  11
                  11
                  11
                  11
                  11
                  11
                  11
                  11
                  11
                  11
                  11
                  11
                  11
                  11
                  11
                  11
                  11
                  11
                  11
                  11
                  11
                  11
                  11
                  11
                  11
                  11
                  11
                  11
                  11
                  11
                  11
                  11
                  11
                  11
                  11
                  11
                  11
                  11
                  11
                  11
                  11
                  11
                  11
                  11
                  11
                  11
                  11
                  11
                  11
                  11
                  11
                  11
                  11
                  11
                  11
                  11
                  11
                  11
                  11
                  11
                  11
                  11
                  11
                  11
                  11
                  11
                  11
                  11
                  11
                  11
                  11
                  11
                  11
                  11
                  11
                  11
                  11
                  11
                  11
                  11
                  11
                  11
                  11
                  11
                  11
                  11
                  11
                  11
                  11
                  11
                  11
                  11
                  11
                  11
                  11
                  11
                  11
                  11
                  11
                  11
                  11
                  11
                  11
                  11
                  11
                  11
                  11
                  11
                  11
                  11
                  11
                  11
                  11
                  11
                  11
                  11
                  11
                  11
                  11
                  11
                  11
                  11
                  11
                  11
                  11
                  11
                  11
                  11
                  11
                  11
                  11
                  11
                  11
                  11
                  11
                  11
                  11
                  11
                  11
                  11
                  11
                  11
                  11
                  11
                  11
                  11
                  11
                  11
                  11
                  11
                  11
                  11
                  11
                  11
                  11
                  11
                  11
                  11
                  11
                  11
                  11
                  11
                  11
                  11
                  11
                  11
                  11
                  11
                  11
                  11
                  11
                  11
                  11
                  11
                  11
                  11
                  11
                  11
                  11
                  11
                  11
                  11
                  11
                  11
                  11
                  11
                  11
                  11
                  11
                  11
                  11
                  11
                  11
                  11
                  11
                  11
                  11
                  11
                  11
                  11
                  11
                  11
                  11
                  11
                  11
                  11
                  11
                  11
                  11
                  11
                  11
                  11
                  11
                  11
                  11
                  11
                  11
                  11
                  11
                  11
                  11
                  11
                  11
                  11
                  11
                  11
                  11
                  11
                  11
                  11
                  11
                  11
                  11
                  11
                  11
                  11
                  11
                  11
                  11
                  11
                  12
                  12
                  12
                  12
                  12
                  12
                  12
                  12
                  12
                  12
                  12
                  12
                  12
                  12
                  12
                  12
                  12
                  12
                  12
                  12
                  12
                  12
                  12
                  12
                  12
                  12
                  12
                  12
                  12
                  12
                  12
                  12
                  12
                  12
                  12
                  12
                  12
                  12
                  12
                  12
                  12
                  12
                  12
                  12
                  12
                  12
                  12
                  12
                  12
                  12
                  12
                  12
                  12
                  12
                  12
                  12
                  12
                  12
                  12
                  12
                  12
                  12
                  12
                  12
                  12
                  12
                  12
                  12
                  12
                  12
                  12
                  12
                  12
                  12
                  12
                  12
                  12
                  12
                  12
                  12
                  12
                  12
                  12
                  12
                  12
                  12
                  12
                  12
                  12
                  12
                  12
                  12
                  12
                  12
                  12
                  12
                  12
                  12
                  12
                  12
                  12
                  12
                  12
                  12
                  12
                  12
                  12
                  12
                  12
                  12
                  12
                  12
                  12
                  12
                  12
                  12
                  12
                  12
                  12
                  12
                  12
                  12
                  12
                  12
                  12
                  12
                  12
                  12
                  12
                  12
                  12
                  12
                  12
                  12
                  12
                  12
                  12
                  12
                  12
                  12
                  12
                  12
                  12
                  12
                  12
                  12
                  12
                  12
                  12
                  12
                  12
                  12
                  12
                  12
                  12
                  12
                  12
                  12
                  12
                  12
                  12
                  12
                  12
                  12
                  12
                  12
                  12
                  12
                  12
                  12
                  12
                  12
                  12
                  12
                  12
                  12
                  12
                  12
                  12
                  12
                  12
                  12
                  12
                  12
                  12
                  12
                  12
                  12
                  12
                  12
                  12
                  12
                  12
                  12
                  12
                  12
                  12
                  12
                  12
                  12
                  12
                  12
                  12
                  12
                  12
                  12
                  12
                  12
                  12
                  12
                  12
                  12
                  12
                  12
                  12
                  12
                  12
                  12
                  12
                  12
                  12
                  12
                  12
                  12
                  12
                  12
                  12
                  12
                  12
                  12
                  12
                  12
                  12
                  12
                  13
                  13
                  13
                  13
                  13
                  13
                  13
                  13
                  13
                  13
                  13
                  13
                  13
                  13
                  13
                  13
                  13
                  13
                  13
                  13
                  13
                  13
                  13
                  13
                  13
                  13
                  13
                  13
                  13
                  13
                  13
                  13
                  13
                  13
                  13
                  13
                  13
                  13
                  13
                  13
                  13
                  13
                  13
                  13
                  13
                  13
                  13
                  13
                  13
                  13
                  13
                  13
                  13
                  13
                  13
                  13
                  13
                  13
                  13
                  13
                  13
                  13
                  13
                  13
                  13
                  13
                  13
                  13
                  13
                  13
                  13
                  13
                  13
                  13
                  13
                  13
                  13
                  13
                  13
                  13
                  13
                  13
                  13
                  13
                  13
                  13
                  13
                  13
                  13
                  13
                  13
                  13
                  13
                  13
                  13
                  13
                  13
                  13
                  13
                  13
                  13
                  13
                  13
                  13
                  13
                  13
                  13
                  13
                  13
                  13
                  13
                  13
                  13
                  13
                  13
                  13
                  13
                  13
                  13
                  13
                  13
                  13
                  13
                  13
                  13
                  13
                  13
                  13
                  13
                  13
                  13
                  13
                  13
                  13
                  13
                  13
                  13
                  13
                  13
                  13
                  13
                  13
                  13
                  13
                  13
                  13
                  13
                  13
                  13
                  13
                  13
                  13
                  13
                  13
                  13
                  13
                  13
                  13
                  13
                  13
                  13
                  13
                  13
                  13
                  13
                  13
                  13
                  13
                  13
                  13
                  13
                  13
                  13
                  13
                  13
                  13
                  13
                  13
                  13
                  13
                  13
                  13
                  13
                  13
                  13
                  13
                  13
                  13
                  13
                  13
                  13
                  13
                  13
                  13
                  13
                  13
                  13
                  13
                  13
                  13
                  13
                  13
                  13
                  13
                  13
                  13
                  13
                  13
                  13
                  13
                  13
                  13
                  13
                  13
                  13
                  13
                  13
                  13
                  13
                  13
                  13
                  13
                  13
                  13
                  13
                  13
                  13
                  13
                  13
                  13
                  13
                  13
                  13
                  13
                  14
                  14
                  14
                  14
                  14
                  14
                  14
                  14
                  14
                  14
                  14
                  14
                  14
                  14
                  14
                  14
                  14
                  14
                  14
                  14
                  14
                  14
                  14
                  14
                  14
                  14
                  14
                  14
                  14
                  14
                  14
                  14
                  14
                  14
                  14
                  14
                  14
                  14
                  14
                  14
                  14
                  14
                  14
                  14
                  14
                  14
                  14
                  14
                  14
                  14
                  14
                  14
                  14
                  14
                  14
                  14
                  14
                  14
                  14
                  14
                  14
                  14
                  14
                  14
                  14
                  14
                  14
                  14
                  14
                  14
                  14
                  14
                  14
                  14
                  14
                  14
                  14
                  14
                  14
                  14
                  14
                  14
                  14
                  14
                  14
                  14
                  14
                  14
                  14
                  14
                  14
                  14
                  14
                  14
                  14
                  14
                  14
                  14
                  14
                  14
                  14
                  14
                  14
                  14
                  14
                  14
                  14
                  14
                  14
                  14
                  14
                  14
                  14
                  14
                  14
                  14
                  14
                  14
                  14
                  14
                  14
                  14
                  14
                  14
                  14
                  14
                  14
                  14
                  14
                  14
                  14
                  14
                  14
                  14
                  14
                  14
                  14
                  14
                  14
                  14
                  14
                  14
                  14
                  14
                  14
                  14
                  14
                  14
                  14
                  14
                  14
                  14
                  14
                  14
                  14
                  14
                  14
                  14
                  14
                  14
                  14
                  14
                  14
                  14
                  14
                  14
                  14
                  14
                  14
                  14
                  14
                  14
                  14
                  14
                  14
                  14
                  14
                  14
                  14
                  14
                  14
                  14
                  14
                  14
                  14
                  14
                  14
                  14
                  14
                  14
                  14
                  14
                  14
                  14
                  14
                  14
                  14
                  14
                  14
                  14
                  14
                  14
                  14
                  14
                  14
                  14
                  14
                  14
                  14
                  14
                  14
                  14
                  14
                  14
                  14
                  14
                  14
                  14
                  14
                  14
                  14
                  14
                  14
                  14
                  14
                  14
                  14
                  14
                  14
                  14
                  14
                  14
                  14
                  14
                  15
                  15
                  15
                  15
                  15
                  15
                  15
                  15
                  15
                  15
                  15
                  15
                  15
                  15
                  15
                  15
                  15
                  15
                  15
                  15
                  15
                  15
                  15
                  15
                  15
                  15
                  15
                  15
                  15
                  15
                  15
                  15
                  15
                  15
                  15
                  15
                  15
                  15
                  15
                  15
                  15
                  15
                  15
                  15
                  15
                  15
                  15
                  15
                  15
                  15
                  15
                  15
                  15
                  15
                  15
                  15
                  15
                  15
                  15
                  15
                  15
                  15
                  15
                  15
                  15
                  15
                  15
                  15
                  15
                  15
                  15
                  15
                  15
                  15
                  15
                  15
                  15
                  15
                  15
                  15
                  15
                  15
                  15
                  15
                  15
                  15
                  15
                  15
                  15
                  15
                  15
                  15
                  15
                  15
                  15
                  15
                  15
                  15
                  15
                  15
                  15
                  15
                  15
                  15
                  15
                  15
                  15
                  15
                  15
                  15
                  15
                  15
                  15
                  15
                  15
                  15
                  15
                  15
                  15
                  15
                  15
                  15
                  15
                  15
                  15
                  15
                  15
                  15
                  15
                  15
                  15
                  15
                  15
                  15
                  15
                  15
                  15
                  15
                  15
                  15
                  15
                  15
                  15
                  15
                  15
                  15
                  15
                  15
                  15
                  15
                  15
                  15
                  15
                  15
                  15
                  15
                  15
                  15
                  15
                  15
                  15
                  15
                  15
                  15
                  15
                  15
                  15
                  15
                  15
                  15
                  15
                  15
                  15
                  15
                  15
                  15
                  15
                  15
                  15
                  15
                  15
                  15
                  15
                  15
                  15
                  15
                  15
                  15
                  15
                  15
                  15
                  15
                  15
                  15
                  15
                  15
                  15
                  15
                  15
                  15
                  15
                  15
                  15
                  15
                  15
                  15
                  15
                  15
                  15
                  15
                  15
                  15
                  15
                  15
                  15
                  15
                  15
                  15
                  15
                  15
                  15
                  15
                  15
                  15
                  15
                  15
                  15
                  15
                  15
                  15
                  15
                  15
                  15
                  15
                  15
                  15
                  15
                  15
                  15
                  15
                  15
                  15
                  15
                  15
                  15
                  15
                  15
                  15
                  15
                  15
                  15
                  15
                  15
                  15
                  15
                  15
                  15
                  15
                  15
                  15
                  15
                  15
                  15
                  15
                  15
                  15
                  15
                  15
                  15
                  15
                  15
                  15
                  15
                  15
                  15
                  15
                  15
                  15
                  15
                  15
                  15
                  15
                  15
                  15
                  15
                  15
                  15
                  15
                  15
                  15
                  15
                  15
                  15
                  15
                  15
                  15
                  15
                  15
                  15
                  15
                  15
                  15
                  15
                  15
                  15
                  15
                  15
                  15
                  15
                  15
                  15
                  15
                  16
                  16
                  16
                  16
                  16
                  16
                  16
                  16
                  16
                  16
                  16
                  16
                  16
                  16
                  16
                  16
                  16
                  16
                  16
                  16
                  16
                  16
                  16
                  16
                  16
                  16
                  16
                  16
                  16
                  16
                  16
                  16
                  16
                  16
                  16
                  16
                  16
                  16
                  16
                  16
                  16
                  16
                  16
                  16
                  16
                  16
                  16
                  16
                  16
                  16
                  16
                  16
                  16
                  16
                  16
                  16
                  16
                  16
                  16
                  16
                  16
                  16
                  16
                  16
                  16
                  16
                  16
                  16
                  16
                  16
                  16
                  16
                  16
                  16
                  16
                  16
                  16
                  16
                  16
                  16
                  16
                  16
                  16
                  16
                  16
                  16
                  16
                  16
                  16
                  16
                  16
                  16
                  16
                  16
                  16
                  16
                  16
                  16
                  16
                  16
                  16
                  16
                  16
                  16
                  16
                  16
                  16
                  16
                  16
                  16
                  16
                  16
                  16
                  16
                  16
                  16
                  16
                  16
                  16
                  16
                  16
                  16
                  16
                  16
                  16
                  16
                  16
                  16
                  16
                  16
                  16
                  16
                  16
                  16
                  16
                  16
                  16
                  16
                  16
                  16
                  16
                  16
                  16
                  16
                  16
                  16
                  16
                  16
                  16
                  16
                  16
                  16
                  16
                  16
                  16
                  16
                  16
                  16
                  16
                  16
                  16
                  16
                  16
                  16
                  16
                  16
                  16
                  16
                  16
                  16
                  16
                  16
                  16
                  16
                  16
                  16
                  16
                  16
                  16
                  16
                  16
                  16
                  16
                  16
                  16
                  16
                  16
                  16
                  16
                  16
                  16
                  16
                  16
                  16
                  16
                  16
                  16
                  16
                  16
                  16
                  16
                  16
                  16
                  16
                  16
                  16
                  16
                  16
                  16
                  16
                  16
                  16
                  16
                  16
                  16
                  16
                  16
                  16
                  16
                  16
                  16
                  16
                  16
                  16
                  16
                  16
                  16
                  16
                  16
                  16
                  16
                  16
                  16
                  16
                  17
                  17
                  17
                  17
                  17
                  17
                  17
                  17
                  17
                  17
                  17
                  17
                  17
                  17
                  17
                  17
                  17
                  17
                  17
                  17
                  17
                  17
                  17
                  17
                  17
                  17
                  17
                  17
                  17
                  17
                  17
                  17
                  17
                  17
                  17
                  17
                  17
                  17
                  17
                  17
                  17
                  17
                  17
                  17
                  17
                  17
                  17
                  17
                  17
                  17
                  17
                  17
                  17
                  17
                  17
                  17
                  17
                  17
                  17
                  17
                  17
                  17
                  17
                  17
                  17
                  17
                  17
                  17
                  17
                  17
                  17
                  17
                  17
                  17
                  17
                  17
                  17
                  17
                  17
                  17
                  17
                  17
                  17
                  17
                  17
                  17
                  17
                  17
                  17
                  17
                  17
                  17
                  17
                  17
                  17
                  17
                  17
                  17
                  17
                  17
                  17
                  17
                  17
                  17
                  17
                  17
                  17
                  17
                  17
                  17
                  17
                  17
                  17
                  17
                  17
                  17
                  17
                  17
                  17
                  17
                  17
                  17
                  17
                  17
                  17
                  17
                  17
                  17
                  17
                  17
                  17
                  17
                  17
                  17
                  17
                  17
                  17
                  17
                  17
                  17
                  17
                  17
                  17
                  17
                  17
                  17
                  17
                  17
                  17
                  17
                  17
                  17
                  17
                  17
                  17
                  17
                  17
                  17
                  17
                  17
                  17
                  17
                  17
                  17
                  17
                  17
                  17
                  17
                  17
                  17
                  17
                  17
                  17
                  17
                  17
                  17
                  17
                  17
                  17
                  17
                  17
                  17
                  17
                  17
                  17
                  17
                  17
                  17
                  17
                  17
                  17
                  17
                  17
                  17
                  17
                  17
                  17
                  17
                  17
                  17
                  17
                  17
                  17
                  17
                  17
                  17
                  17
                  17
                  17
                  17
                  17
                  17
                  17
                  17
                  17
                  17
                  17
                  17
                  17
                  17
                  17
                  17
                  17
                  17
                  17
                  17
                  17
                  17
                  17
                  17
                  17
                  17
                  17
                  17
                  18
                  18
                  18
                  18
                  18
                  18
                  18
                  18
                  18
                  18
                  18
                  18
                  18
                  18
                  18
                  18
                  18
                  18
                  18
                  18
                  18
                  18
                  18
                  18
                  18
                  18
                  18
                  18
                  18
                  18
                  18
                  18
                  18
                  18
                  18
                  18
                  18
                  18
                  18
                  18
                  18
                  18
                  18
                  18
                  18
                  18
                  18
                  18
                  18
                  18
                  18
                  18
                  18
                  18
                  18
                  18
                  18
                  18
                  18
                  18
                  18
                  18
                  18
                  18
                  18
                  18
                  18
                  18
                  18
                  18
                  18
                  18
                  18
                  18
                  18
                  18
                  18
                  18
                  18
                  18
                  18
                  18
                  18
                  18
                  18
                  18
                  18
                  18
                  18
                  18
                  18
                  18
                  18
                  18
                  18
                  18
                  18
                  18
                  18
                  18
                  18
                  18
                  18
                  18
                  18
                  18
                  18
                  18
                  18
                  18
                  18
                  18
                  18
                  18
                  18
                  18
                  18
                  18
                  18
                  18
                  18
                  18
                  18
                  18
                  18
                  18
                  18
                  18
                  18
                  18
                  18
                  18
                  18
                  18
                  18
                  18
                  18
                  18
                  18
                  18
                  18
                  18
                  18
                  18
                  18
                  18
                  18
                  18
                  18
                  18
                  18
                  18
                  18
                  18
                  18
                  18
  
SCALARS                 displacement_x  double 1
LOOKUP_TABLE default
         0.00000E+00
         0.00000E+00
         0.00000E+00
         0.00000E+00
         0.00000E+00
         0.00000E+00
         0.00000E+00
         0.00000E+00
         0.00000E+00
         0.00000E+00
         0.00000E+00
         0.00000E+00
         0.00000E+00
         0.00000E+00
         0.00000E+00
         0.00000E+00
         0.00000E+00
         0.00000E+00
         0.00000E+00
         0.00000E+00
         0.00000E+00
         0.00000E+00
         0.00000E+00
         0.00000E+00
         0.00000E+00
         0.00000E+00
         0.00000E+00
         0.00000E+00
         0.00000E+00
         0.00000E+00
         0.00000E+00
         0.00000E+00
         0.00000E+00
         0.00000E+00
         0.00000E+00
         0.00000E+00
         0.00000E+00
         0.00000E+00
         0.00000E+00
         0.00000E+00
         0.00000E+00
         0.00000E+00
         0.00000E+00
         0.00000E+00
         0.00000E+00
         0.00000E+00
         0.00000E+00
         0.00000E+00
         0.00000E+00
         0.00000E+00
         0.00000E+00
         0.00000E+00
         0.00000E+00
         0.00000E+00
         0.00000E+00
         0.00000E+00
         0.00000E+00
         0.00000E+00
         0.00000E+00
         0.00000E+00
         0.00000E+00
         0.00000E+00
         0.00000E+00
         0.00000E+00
         0.00000E+00
         0.00000E+00
         0.00000E+00
         0.00000E+00
         0.00000E+00
         0.00000E+00
         0.00000E+00
         0.00000E+00
         0.00000E+00
         0.00000E+00
         0.00000E+00
         0.00000E+00
         0.00000E+00
         0.00000E+00
         0.00000E+00
         0.00000E+00
         0.00000E+00
         0.00000E+00
         0.00000E+00
         0.00000E+00
         0.00000E+00
         0.00000E+00
         0.00000E+00
         0.00000E+00
         0.00000E+00
         0.00000E+00
         0.00000E+00
         0.00000E+00
         0.00000E+00
         0.00000E+00
         0.00000E+00
         0.00000E+00
         0.00000E+00
         0.00000E+00
         0.00000E+00
         0.00000E+00
         0.00000E+00
         0.00000E+00
         0.00000E+00
         0.00000E+00
         0.00000E+00
         0.00000E+00
         0.00000E+00
         0.00000E+00
         0.00000E+00
         0.00000E+00
         0.00000E+00
         0.00000E+00
         0.00000E+00
         0.00000E+00
         0.00000E+00
         0.00000E+00
         0.00000E+00
         0.00000E+00
         0.00000E+00
         0.00000E+00
         0.00000E+00
         0.00000E+00
         0.00000E+00
         0.00000E+00
         0.00000E+00
         0.00000E+00
         0.00000E+00
         0.00000E+00
         0.00000E+00
         0.00000E+00
         0.00000E+00
         0.00000E+00
         0.00000E+00
         0.00000E+00
         0.00000E+00
         0.00000E+00
         0.00000E+00
         0.00000E+00
         0.00000E+00
         0.00000E+00
         0.00000E+00
         0.00000E+00
         0.00000E+00
         0.00000E+00
         0.00000E+00
         0.00000E+00
         0.00000E+00
         0.00000E+00
         0.00000E+00
         0.00000E+00
         0.00000E+00
         0.00000E+00
         0.00000E+00
         0.00000E+00
         0.00000E+00
         0.00000E+00
         0.00000E+00
         0.00000E+00
         0.00000E+00
         0.00000E+00
         0.00000E+00
         0.00000E+00
         0.00000E+00
         0.00000E+00
         0.00000E+00
         0.00000E+00
         0.00000E+00
         0.00000E+00
         0.00000E+00
         0.00000E+00
         0.00000E+00
         0.00000E+00
         0.00000E+00
         0.00000E+00
         0.00000E+00
         0.00000E+00
         0.00000E+00
         0.00000E+00
         0.00000E+00
         0.00000E+00
         0.00000E+00
         0.00000E+00
         0.00000E+00
         0.00000E+00
         0.00000E+00
         0.00000E+00
         0.00000E+00
         0.00000E+00
         0.00000E+00
         0.00000E+00
         0.00000E+00
         0.00000E+00
         0.00000E+00
         0.00000E+00
         0.00000E+00
         0.00000E+00
         0.00000E+00
         0.00000E+00
         0.00000E+00
         0.00000E+00
         0.00000E+00
         0.00000E+00
         0.00000E+00
         0.00000E+00
         0.00000E+00
         0.00000E+00
         0.00000E+00
         0.00000E+00
         0.00000E+00
         0.00000E+00
         0.00000E+00
         0.00000E+00
         0.00000E+00
         0.00000E+00
         0.00000E+00
         0.00000E+00
         0.00000E+00
         0.00000E+00
         0.00000E+00
         0.00000E+00
         0.00000E+00
         0.00000E+00
         0.00000E+00
         0.00000E+00
         0.00000E+00
         0.00000E+00
         0.00000E+00
         0.00000E+00
         0.00000E+00
         0.00000E+00
         0.00000E+00
         0.00000E+00
         0.00000E+00
         0.00000E+00
         0.00000E+00
         0.00000E+00
         0.00000E+00
         0.00000E+00
         0.00000E+00
         0.00000E+00
         0.00000E+00
         0.00000E+00
         0.00000E+00
         0.00000E+00
         0.00000E+00
         0.00000E+00
         0.00000E+00
         0.00000E+00
         0.00000E+00
         0.00000E+00
         0.00000E+00
         0.00000E+00
         0.00000E+00
         0.00000E+00
         0.00000E+00
         0.00000E+00
         0.00000E+00
         0.00000E+00
         0.00000E+00
         0.00000E+00
         0.00000E+00
         0.00000E+00
         0.00000E+00
         0.00000E+00
         0.00000E+00
         0.00000E+00
         0.00000E+00
         0.00000E+00
         0.00000E+00
         0.00000E+00
         0.00000E+00
         0.00000E+00
         0.00000E+00
         0.00000E+00
         0.00000E+00
         0.00000E+00
         0.00000E+00
         0.00000E+00
         0.00000E+00
         0.00000E+00
         0.00000E+00
         0.00000E+00
         0.00000E+00
         0.00000E+00
         0.00000E+00
         0.00000E+00
         0.00000E+00
         0.00000E+00
         0.00000E+00
         0.00000E+00
         0.00000E+00
         0.00000E+00
         0.00000E+00
         0.00000E+00
         0.00000E+00
         0.00000E+00
         0.00000E+00
         0.00000E+00
         0.00000E+00
         0.00000E+00
         0.00000E+00
         0.00000E+00
         0.00000E+00
         0.00000E+00
         0.00000E+00
         0.00000E+00
         0.00000E+00
         0.00000E+00
         0.00000E+00
         0.00000E+00
         0.00000E+00
         0.00000E+00
         0.00000E+00
         0.00000E+00
         0.00000E+00
         0.00000E+00
         0.00000E+00
         0.00000E+00
         0.00000E+00
         0.00000E+00
         0.00000E+00
         0.00000E+00
         0.00000E+00
         0.00000E+00
         0.00000E+00
         0.00000E+00
         0.00000E+00
         0.00000E+00
         0.00000E+00
         0.00000E+00
         0.00000E+00
         0.00000E+00
         0.00000E+00
         0.00000E+00
         0.00000E+00
         0.00000E+00
         0.00000E+00
         0.00000E+00
         0.00000E+00
         0.00000E+00
         0.00000E+00
         0.00000E+00
         0.00000E+00
         0.00000E+00
         0.00000E+00
         0.00000E+00
         0.00000E+00
         0.00000E+00
         0.00000E+00
         0.00000E+00
         0.00000E+00
         0.00000E+00
         0.00000E+00
         0.00000E+00
         0.00000E+00
         0.00000E+00
         0.00000E+00
         0.00000E+00
         0.00000E+00
         0.00000E+00
         0.00000E+00
         0.00000E+00
         0.00000E+00
         0.00000E+00
         0.00000E+00
         0.00000E+00
         0.00000E+00
         0.00000E+00
         0.00000E+00
         0.00000E+00
         0.00000E+00
         0.00000E+00
         0.00000E+00
         0.00000E+00
         0.00000E+00
         0.00000E+00
         0.00000E+00
         0.00000E+00
         0.00000E+00
         0.00000E+00
         0.00000E+00
         0.00000E+00
         0.00000E+00
         0.00000E+00
         0.00000E+00
         0.00000E+00
         0.00000E+00
         0.00000E+00
         0.00000E+00
         0.00000E+00
         0.00000E+00
         0.00000E+00
         0.00000E+00
         0.00000E+00
         0.00000E+00
         0.00000E+00
         0.00000E+00
         0.00000E+00
         0.00000E+00
         0.00000E+00
         0.00000E+00
         0.00000E+00
         0.00000E+00
         0.00000E+00
         0.00000E+00
         0.00000E+00
         0.00000E+00
         0.00000E+00
         0.00000E+00
         0.00000E+00
         0.00000E+00
         0.00000E+00
         0.00000E+00
         0.00000E+00
         0.00000E+00
         0.00000E+00
         0.00000E+00
         0.00000E+00
         0.00000E+00
         0.00000E+00
         0.00000E+00
         0.00000E+00
         0.00000E+00
         0.00000E+00
         0.00000E+00
         0.00000E+00
         0.00000E+00
         0.00000E+00
         0.00000E+00
         0.00000E+00
         0.00000E+00
         0.00000E+00
         0.00000E+00
         0.00000E+00
         0.00000E+00
         0.00000E+00
         0.00000E+00
         0.00000E+00
         0.00000E+00
         0.00000E+00
         0.00000E+00
         0.00000E+00
         0.00000E+00
         0.00000E+00
         0.00000E+00
         0.00000E+00
         0.00000E+00
         0.00000E+00
         0.00000E+00
         0.00000E+00
         0.00000E+00
         0.00000E+00
         0.00000E+00
         0.00000E+00
         0.00000E+00
         0.00000E+00
         0.00000E+00
         0.00000E+00
         0.00000E+00
         0.00000E+00
         0.00000E+00
         0.00000E+00
         0.00000E+00
         0.00000E+00
         0.00000E+00
         0.00000E+00
         0.00000E+00
         0.00000E+00
         0.00000E+00
         0.00000E+00
         0.00000E+00
         0.00000E+00
         0.00000E+00
         0.00000E+00
         0.00000E+00
         0.00000E+00
         0.00000E+00
         0.00000E+00
         0.00000E+00
         0.00000E+00
         0.00000E+00
         0.00000E+00
         0.00000E+00
         0.00000E+00
         0.00000E+00
         0.00000E+00
         0.00000E+00
         0.00000E+00
         0.00000E+00
         0.00000E+00
         0.00000E+00
         0.00000E+00
         0.00000E+00
         0.00000E+00
         0.00000E+00
         0.00000E+00
         0.00000E+00
         0.00000E+00
         0.00000E+00
         0.00000E+00
         0.00000E+00
         0.00000E+00
         0.00000E+00
         0.00000E+00
         0.00000E+00
         0.00000E+00
         0.00000E+00
         0.00000E+00
         0.00000E+00
         0.00000E+00
         0.00000E+00
         0.00000E+00
         0.00000E+00
         0.00000E+00
         0.00000E+00
         0.00000E+00
         0.00000E+00
         0.00000E+00
         0.00000E+00
         0.00000E+00
         0.00000E+00
         0.00000E+00
         0.00000E+00
         0.00000E+00
         0.00000E+00
         0.00000E+00
         0.00000E+00
         0.00000E+00
         0.00000E+00
         0.00000E+00
         0.00000E+00
         0.00000E+00
         0.00000E+00
         0.00000E+00
         0.00000E+00
         0.00000E+00
         0.00000E+00
         0.00000E+00
         0.00000E+00
         0.00000E+00
         0.00000E+00
         0.00000E+00
         0.00000E+00
         0.00000E+00
         0.00000E+00
         0.00000E+00
         0.00000E+00
         0.00000E+00
         0.00000E+00
         0.00000E+00
         0.00000E+00
         0.00000E+00
         0.00000E+00
         0.00000E+00
         0.00000E+00
         0.00000E+00
         0.00000E+00
         0.00000E+00
         0.00000E+00
         0.00000E+00
         0.00000E+00
         0.00000E+00
         0.00000E+00
         0.00000E+00
         0.00000E+00
         0.00000E+00
         0.00000E+00
         0.00000E+00
         0.00000E+00
         0.00000E+00
         0.00000E+00
         0.00000E+00
         0.00000E+00
         0.00000E+00
         0.00000E+00
         0.00000E+00
         0.00000E+00
         0.00000E+00
         0.00000E+00
         0.00000E+00
         0.00000E+00
         0.00000E+00
         0.00000E+00
         0.00000E+00
         0.00000E+00
         0.00000E+00
         0.00000E+00
         0.00000E+00
         0.00000E+00
         0.00000E+00
         0.00000E+00
         0.00000E+00
         0.00000E+00
         0.00000E+00
         0.00000E+00
         0.00000E+00
         0.00000E+00
         0.00000E+00
         0.00000E+00
         0.00000E+00
         0.00000E+00
         0.00000E+00
         0.00000E+00
         0.00000E+00
         0.00000E+00
         0.00000E+00
         0.00000E+00
         0.00000E+00
         0.00000E+00
         0.00000E+00
         0.00000E+00
         0.00000E+00
         0.00000E+00
         0.00000E+00
         0.00000E+00
         0.00000E+00
         0.00000E+00
         0.00000E+00
         0.00000E+00
         0.00000E+00
         0.00000E+00
         0.00000E+00
         0.00000E+00
         0.00000E+00
         0.00000E+00
         0.00000E+00
         0.00000E+00
         0.00000E+00
         0.00000E+00
         0.00000E+00
         0.00000E+00
         0.00000E+00
         0.00000E+00
         0.00000E+00
         0.00000E+00
         0.00000E+00
         0.00000E+00
         0.00000E+00
         0.00000E+00
         0.00000E+00
         0.00000E+00
         0.00000E+00
         0.00000E+00
         0.00000E+00
         0.00000E+00
         0.00000E+00
         0.00000E+00
         0.00000E+00
         0.00000E+00
         0.00000E+00
         0.00000E+00
         0.00000E+00
         0.00000E+00
         0.00000E+00
         0.00000E+00
         0.00000E+00
         0.00000E+00
         0.00000E+00
         0.00000E+00
         0.00000E+00
         0.00000E+00
         0.00000E+00
         0.00000E+00
         0.00000E+00
         0.00000E+00
         0.00000E+00
         0.00000E+00
         0.00000E+00
         0.00000E+00
         0.00000E+00
         0.00000E+00
         0.00000E+00
         0.00000E+00
         0.00000E+00
         0.00000E+00
         0.00000E+00
         0.00000E+00
         0.00000E+00
         0.00000E+00
         0.00000E+00
         0.00000E+00
         0.00000E+00
         0.00000E+00
         0.00000E+00
         0.00000E+00
         0.00000E+00
         0.00000E+00
         0.00000E+00
         0.00000E+00
         0.00000E+00
         0.00000E+00
         0.00000E+00
         0.00000E+00
         0.00000E+00
         0.00000E+00
         0.00000E+00
         0.00000E+00
         0.00000E+00
         0.00000E+00
         0.00000E+00
         0.00000E+00
         0.00000E+00
         0.00000E+00
         0.00000E+00
         0.00000E+00
         0.00000E+00
         0.00000E+00
         0.00000E+00
         0.00000E+00
         0.00000E+00
         0.00000E+00
         0.00000E+00
         0.00000E+00
         0.00000E+00
         0.00000E+00
         0.00000E+00
         0.00000E+00
         0.00000E+00
         0.00000E+00
         0.00000E+00
         0.00000E+00
         0.00000E+00
         0.00000E+00
         0.00000E+00
         0.00000E+00
         0.00000E+00
         0.00000E+00
         0.00000E+00
         0.00000E+00
         0.00000E+00
         0.00000E+00
         0.00000E+00
         0.00000E+00
         0.00000E+00
         0.00000E+00
         0.00000E+00
         0.00000E+00
         0.00000E+00
         0.00000E+00
         0.00000E+00
         0.00000E+00
         0.00000E+00
         0.00000E+00
         0.00000E+00
         0.00000E+00
         0.00000E+00
         0.00000E+00
         0.00000E+00
         0.00000E+00
         0.00000E+00
         0.00000E+00
         0.00000E+00
         0.00000E+00
         0.00000E+00
         0.00000E+00
         0.00000E+00
         0.00000E+00
         0.00000E+00
         0.00000E+00
         0.00000E+00
         0.00000E+00
         0.00000E+00
         0.00000E+00
         0.00000E+00
         0.00000E+00
         0.00000E+00
         0.00000E+00
         0.00000E+00
         0.00000E+00
         0.00000E+00
         0.00000E+00
         0.00000E+00
         0.00000E+00
         0.00000E+00
         0.00000E+00
         0.00000E+00
         0.00000E+00
         0.00000E+00
         0.00000E+00
         0.00000E+00
         0.00000E+00
         0.00000E+00
         0.00000E+00
         0.00000E+00
         0.00000E+00
         0.00000E+00
         0.00000E+00
         0.00000E+00
         0.00000E+00
         0.00000E+00
         0.00000E+00
         0.00000E+00
         0.00000E+00
         0.00000E+00
         0.00000E+00
         0.00000E+00
         0.00000E+00
         0.00000E+00
         0.00000E+00
         0.00000E+00
         0.00000E+00
         0.00000E+00
         0.00000E+00
         0.00000E+00
         0.00000E+00
         0.00000E+00
         0.00000E+00
         0.00000E+00
         0.00000E+00
         0.00000E+00
         0.00000E+00
         0.00000E+00
         0.00000E+00
         0.00000E+00
         0.00000E+00
         0.00000E+00
         0.00000E+00
         0.00000E+00
         0.00000E+00
         0.00000E+00
         0.00000E+00
         0.00000E+00
         0.00000E+00
         0.00000E+00
         0.00000E+00
         0.00000E+00
         0.00000E+00
         0.00000E+00
         0.00000E+00
         0.00000E+00
         0.00000E+00
         0.00000E+00
         0.00000E+00
         0.00000E+00
         0.00000E+00
         0.00000E+00
         0.00000E+00
         0.00000E+00
         0.00000E+00
         0.00000E+00
         0.00000E+00
         0.00000E+00
         0.00000E+00
         0.00000E+00
         0.00000E+00
         0.00000E+00
         0.00000E+00
         0.00000E+00
         0.00000E+00
         0.00000E+00
         0.00000E+00
         0.00000E+00
         0.00000E+00
         0.00000E+00
         0.00000E+00
         0.00000E+00
         0.00000E+00
         0.00000E+00
         0.00000E+00
         0.00000E+00
         0.00000E+00
         0.00000E+00
         0.00000E+00
         0.00000E+00
         0.00000E+00
         0.00000E+00
         0.00000E+00
         0.00000E+00
         0.00000E+00
         0.00000E+00
         0.00000E+00
         0.00000E+00
         0.00000E+00
         0.00000E+00
         0.00000E+00
         0.00000E+00
         0.00000E+00
         0.00000E+00
         0.00000E+00
         0.00000E+00
         0.00000E+00
         0.00000E+00
         0.00000E+00
         0.00000E+00
         0.00000E+00
         0.00000E+00
         0.00000E+00
         0.00000E+00
         0.00000E+00
         0.00000E+00
         0.00000E+00
         0.00000E+00
         0.00000E+00
         0.00000E+00
         0.00000E+00
         0.00000E+00
         0.00000E+00
         0.00000E+00
         0.00000E+00
         0.00000E+00
         0.00000E+00
         0.00000E+00
         0.00000E+00
         0.00000E+00
         0.00000E+00
         0.00000E+00
         0.00000E+00
         0.00000E+00
         0.00000E+00
         0.00000E+00
         0.00000E+00
         0.00000E+00
         0.00000E+00
         0.00000E+00
         0.00000E+00
         0.00000E+00
         0.00000E+00
         0.00000E+00
         0.00000E+00
         0.00000E+00
         0.00000E+00
         0.00000E+00
         0.00000E+00
         0.00000E+00
         0.00000E+00
         0.00000E+00
         0.00000E+00
         0.00000E+00
         0.00000E+00
         0.00000E+00
         0.00000E+00
         0.00000E+00
         0.00000E+00
         0.00000E+00
         0.00000E+00
         0.00000E+00
         0.00000E+00
         0.00000E+00
         0.00000E+00
         0.00000E+00
         0.00000E+00
         0.00000E+00
         0.00000E+00
         0.00000E+00
         0.00000E+00
         0.00000E+00
         0.00000E+00
         0.00000E+00
         0.00000E+00
         0.00000E+00
         0.00000E+00
         0.00000E+00
         0.00000E+00
         0.00000E+00
         0.00000E+00
         0.00000E+00
         0.00000E+00
         0.00000E+00
         0.00000E+00
         0.00000E+00
         0.00000E+00
         0.00000E+00
         0.00000E+00
         0.00000E+00
         0.00000E+00
         0.00000E+00
         0.00000E+00
         0.00000E+00
         0.00000E+00
         0.00000E+00
         0.00000E+00
         0.00000E+00
         0.00000E+00
         0.00000E+00
         0.00000E+00
         0.00000E+00
         0.00000E+00
         0.00000E+00
         0.00000E+00
         0.00000E+00
         0.00000E+00
         0.00000E+00
         0.00000E+00
         0.00000E+00
         0.00000E+00
         0.00000E+00
         0.00000E+00
         0.00000E+00
         0.00000E+00
         0.00000E+00
         0.00000E+00
         0.00000E+00
         0.00000E+00
         0.00000E+00
         0.00000E+00
         0.00000E+00
         0.00000E+00
         0.00000E+00
         0.00000E+00
         0.00000E+00
         0.00000E+00
         0.00000E+00
         0.00000E+00
         0.00000E+00
         0.00000E+00
         0.00000E+00
         0.00000E+00
         0.00000E+00
         0.00000E+00
         0.00000E+00
         0.00000E+00
         0.00000E+00
         0.00000E+00
         0.00000E+00
         0.00000E+00
         0.00000E+00
         0.00000E+00
         0.00000E+00
         0.00000E+00
         0.00000E+00
         0.00000E+00
         0.00000E+00
         0.00000E+00
         0.00000E+00
         0.00000E+00
         0.00000E+00
         0.00000E+00
         0.00000E+00
         0.00000E+00
         0.00000E+00
         0.00000E+00
         0.00000E+00
         0.00000E+00
         0.00000E+00
         0.00000E+00
         0.00000E+00
         0.00000E+00
         0.00000E+00
         0.00000E+00
         0.00000E+00
         0.00000E+00
         0.00000E+00
         0.00000E+00
         0.00000E+00
         0.00000E+00
         0.00000E+00
         0.00000E+00
         0.00000E+00
         0.00000E+00
         0.00000E+00
         0.00000E+00
         0.00000E+00
         0.00000E+00
         0.00000E+00
         0.00000E+00
         0.00000E+00
         0.00000E+00
         0.00000E+00
         0.00000E+00
         0.00000E+00
         0.00000E+00
         0.00000E+00
         0.00000E+00
         0.00000E+00
         0.00000E+00
         0.00000E+00
         0.00000E+00
         0.00000E+00
         0.00000E+00
         0.00000E+00
         0.00000E+00
         0.00000E+00
         0.00000E+00
         0.00000E+00
         0.00000E+00
         0.00000E+00
         0.00000E+00
         0.00000E+00
         0.00000E+00
         0.00000E+00
         0.00000E+00
         0.00000E+00
         0.00000E+00
         0.00000E+00
         0.00000E+00
         0.00000E+00
         0.00000E+00
         0.00000E+00
         0.00000E+00
         0.00000E+00
         0.00000E+00
         0.00000E+00
         0.00000E+00
         0.00000E+00
         0.00000E+00
         0.00000E+00
         0.00000E+00
         0.00000E+00
         0.00000E+00
         0.00000E+00
         0.00000E+00
         0.00000E+00
         0.00000E+00
         0.00000E+00
         0.00000E+00
         0.00000E+00
         0.00000E+00
         0.00000E+00
         0.00000E+00
         0.00000E+00
         0.00000E+00
         0.00000E+00
         0.00000E+00
         0.00000E+00
         0.00000E+00
         0.00000E+00
         0.00000E+00
         0.00000E+00
         0.00000E+00
         0.00000E+00
         0.00000E+00
         0.00000E+00
         0.00000E+00
         0.00000E+00
         0.00000E+00
         0.00000E+00
         0.00000E+00
         0.00000E+00
         0.00000E+00
         0.00000E+00
         0.00000E+00
         0.00000E+00
         0.00000E+00
         0.00000E+00
         0.00000E+00
         0.00000E+00
         0.00000E+00
         0.00000E+00
         0.00000E+00
         0.00000E+00
         0.00000E+00
         0.00000E+00
         0.00000E+00
         0.00000E+00
         0.00000E+00
         0.00000E+00
         0.00000E+00
         0.00000E+00
         0.00000E+00
         0.00000E+00
         0.00000E+00
         0.00000E+00
         0.00000E+00
         0.00000E+00
         0.00000E+00
         0.00000E+00
         0.00000E+00
         0.00000E+00
         0.00000E+00
         0.00000E+00
         0.00000E+00
         0.00000E+00
         0.00000E+00
         0.00000E+00
         0.00000E+00
         0.00000E+00
         0.00000E+00
         0.00000E+00
         0.00000E+00
         0.00000E+00
         0.00000E+00
         0.00000E+00
         0.00000E+00
         0.00000E+00
         0.00000E+00
         0.00000E+00
         0.00000E+00
         0.00000E+00
         0.00000E+00
         0.00000E+00
         0.00000E+00
         0.00000E+00
         0.00000E+00
         0.00000E+00
         0.00000E+00
         0.00000E+00
         0.00000E+00
         0.00000E+00
         0.00000E+00
         0.00000E+00
         0.00000E+00
         0.00000E+00
         0.00000E+00
         0.00000E+00
         0.00000E+00
         0.00000E+00
         0.00000E+00
         0.00000E+00
         0.00000E+00
         0.00000E+00
         0.00000E+00
         0.00000E+00
         0.00000E+00
         0.00000E+00
         0.00000E+00
         0.00000E+00
         0.00000E+00
         0.00000E+00
         0.00000E+00
         0.00000E+00
         0.00000E+00
         0.00000E+00
         0.00000E+00
         0.00000E+00
         0.00000E+00
         0.00000E+00
         0.00000E+00
         0.00000E+00
         0.00000E+00
         0.00000E+00
         0.00000E+00
         0.00000E+00
         0.00000E+00
         0.00000E+00
         0.00000E+00
         0.00000E+00
         0.00000E+00
         0.00000E+00
         0.00000E+00
         0.00000E+00
         0.00000E+00
         0.00000E+00
         0.00000E+00
         0.00000E+00
         0.00000E+00
         0.00000E+00
         0.00000E+00
         0.00000E+00
         0.00000E+00
         0.00000E+00
         0.00000E+00
         0.00000E+00
         0.00000E+00
         0.00000E+00
         0.00000E+00
         0.00000E+00
         0.00000E+00
         0.00000E+00
         0.00000E+00
         0.00000E+00
         0.00000E+00
         0.00000E+00
         0.00000E+00
         0.00000E+00
         0.00000E+00
         0.00000E+00
         0.00000E+00
         0.00000E+00
         0.00000E+00
         0.00000E+00
         0.00000E+00
         0.00000E+00
         0.00000E+00
         0.00000E+00
         0.00000E+00
         0.00000E+00
         0.00000E+00
         0.00000E+00
         0.00000E+00
         0.00000E+00
         0.00000E+00
         0.00000E+00
         0.00000E+00
         0.00000E+00
         0.00000E+00
         0.00000E+00
         0.00000E+00
         0.00000E+00
         0.00000E+00
         0.00000E+00
         0.00000E+00
         0.00000E+00
         0.00000E+00
         0.00000E+00
         0.00000E+00
         0.00000E+00
         0.00000E+00
         0.00000E+00
         0.00000E+00
         0.00000E+00
         0.00000E+00
         0.00000E+00
         0.00000E+00
         0.00000E+00
         0.00000E+00
         0.00000E+00
         0.00000E+00
         0.00000E+00
         0.00000E+00
         0.00000E+00
         0.00000E+00
         0.00000E+00
         0.00000E+00
         0.00000E+00
         0.00000E+00
         0.00000E+00
         0.00000E+00
         0.00000E+00
         0.00000E+00
         0.00000E+00
         0.00000E+00
         0.00000E+00
         0.00000E+00
         0.00000E+00
         0.00000E+00
         0.00000E+00
         0.00000E+00
         0.00000E+00
         0.00000E+00
         0.00000E+00
         0.00000E+00
         0.00000E+00
         0.00000E+00
         0.00000E+00
         0.00000E+00
         0.00000E+00
         0.00000E+00
         0.00000E+00
         0.00000E+00
         0.00000E+00
         0.00000E+00
         0.00000E+00
         0.00000E+00
         0.00000E+00
         0.00000E+00
         0.00000E+00
         0.00000E+00
         0.00000E+00
         0.00000E+00
         0.00000E+00
         0.00000E+00
         0.00000E+00
         0.00000E+00
         0.00000E+00
         0.00000E+00
         0.00000E+00
         0.00000E+00
         0.00000E+00
         0.00000E+00
         0.00000E+00
         0.00000E+00
         0.00000E+00
         0.00000E+00
         0.00000E+00
         0.00000E+00
         0.00000E+00
         0.00000E+00
         0.00000E+00
         0.00000E+00
         0.00000E+00
         0.00000E+00
         0.00000E+00
         0.00000E+00
         0.00000E+00
         0.00000E+00
         0.00000E+00
         0.00000E+00
         0.00000E+00
         0.00000E+00
         0.00000E+00
         0.00000E+00
         0.00000E+00
         0.00000E+00
         0.00000E+00
         0.00000E+00
         0.00000E+00
         0.00000E+00
         0.00000E+00
         0.00000E+00
         0.00000E+00
         0.00000E+00
         0.00000E+00
         0.00000E+00
         0.00000E+00
         0.00000E+00
         0.00000E+00
         0.00000E+00
         0.00000E+00
         0.00000E+00
         0.00000E+00
         0.00000E+00
         0.00000E+00
         0.00000E+00
         0.00000E+00
         0.00000E+00
         0.00000E+00
         0.00000E+00
         0.00000E+00
         0.00000E+00
         0.00000E+00
         0.00000E+00
         0.00000E+00
         0.00000E+00
         0.00000E+00
         0.00000E+00
         0.00000E+00
         0.00000E+00
         0.00000E+00
         0.00000E+00
         0.00000E+00
         0.00000E+00
         0.00000E+00
         0.00000E+00
         0.00000E+00
         0.00000E+00
         0.00000E+00
         0.00000E+00
         0.00000E+00
         0.00000E+00
         0.00000E+00
         0.00000E+00
         0.00000E+00
         0.00000E+00
         0.00000E+00
         0.00000E+00
         0.00000E+00
         0.00000E+00
         0.00000E+00
         0.00000E+00
         0.00000E+00
         0.00000E+00
         0.00000E+00
         0.00000E+00
         0.00000E+00
         0.00000E+00
         0.00000E+00
         0.00000E+00
         0.00000E+00
         0.00000E+00
         0.00000E+00
         0.00000E+00
         0.00000E+00
         0.00000E+00
         0.00000E+00
         0.00000E+00
         0.00000E+00
         0.00000E+00
         0.00000E+00
         0.00000E+00
         0.00000E+00
         0.00000E+00
         0.00000E+00
         0.00000E+00
         0.00000E+00
         0.00000E+00
         0.00000E+00
         0.00000E+00
         0.00000E+00
         0.00000E+00
         0.00000E+00
         0.00000E+00
         0.00000E+00
         0.00000E+00
         0.00000E+00
         0.00000E+00
         0.00000E+00
         0.00000E+00
         0.00000E+00
         0.00000E+00
         0.00000E+00
         0.00000E+00
         0.00000E+00
         0.00000E+00
         0.00000E+00
         0.00000E+00
         0.00000E+00
         0.00000E+00
         0.00000E+00
         0.00000E+00
         0.00000E+00
         0.00000E+00
         0.00000E+00
         0.00000E+00
         0.00000E+00
         0.00000E+00
         0.00000E+00
         0.00000E+00
         0.00000E+00
         0.00000E+00
         0.00000E+00
         0.00000E+00
         0.00000E+00
         0.00000E+00
         0.00000E+00
         0.00000E+00
         0.00000E+00
         0.00000E+00
         0.00000E+00
         0.00000E+00
         0.00000E+00
         0.00000E+00
         0.00000E+00
         0.00000E+00
         0.00000E+00
         0.00000E+00
         0.00000E+00
         0.00000E+00
         0.00000E+00
         0.00000E+00
         0.00000E+00
         0.00000E+00
         0.00000E+00
         0.00000E+00
         0.00000E+00
         0.00000E+00
         0.00000E+00
         0.00000E+00
         0.00000E+00
         0.00000E+00
         0.00000E+00
         0.00000E+00
         0.00000E+00
         0.00000E+00
         0.00000E+00
         0.00000E+00
         0.00000E+00
         0.00000E+00
         0.00000E+00
         0.00000E+00
         0.00000E+00
         0.00000E+00
         0.00000E+00
         0.00000E+00
         0.00000E+00
         0.00000E+00
         0.00000E+00
         0.00000E+00
         0.00000E+00
         0.00000E+00
         0.00000E+00
         0.00000E+00
         0.00000E+00
         0.00000E+00
         0.00000E+00
         0.00000E+00
         0.00000E+00
         0.00000E+00
         0.00000E+00
         0.00000E+00
         0.00000E+00
         0.00000E+00
         0.00000E+00
         0.00000E+00
         0.00000E+00
         0.00000E+00
         0.00000E+00
         0.00000E+00
         0.00000E+00
         0.00000E+00
         0.00000E+00
         0.00000E+00
         0.00000E+00
         0.00000E+00
         0.00000E+00
         0.00000E+00
         0.00000E+00
         0.00000E+00
         0.00000E+00
         0.00000E+00
         0.00000E+00
         0.00000E+00
         0.00000E+00
         0.00000E+00
         0.00000E+00
         0.00000E+00
         0.00000E+00
         0.00000E+00
         0.00000E+00
         0.00000E+00
         0.00000E+00
         0.00000E+00
         0.00000E+00
         0.00000E+00
         0.00000E+00
         0.00000E+00
         0.00000E+00
         0.00000E+00
         0.00000E+00
         0.00000E+00
         0.00000E+00
         0.00000E+00
         0.00000E+00
         0.00000E+00
         0.00000E+00
         0.00000E+00
         0.00000E+00
         0.00000E+00
         0.00000E+00
         0.00000E+00
         0.00000E+00
         0.00000E+00
         0.00000E+00
         0.00000E+00
         0.00000E+00
         0.00000E+00
         0.00000E+00
         0.00000E+00
         0.00000E+00
         0.00000E+00
         0.00000E+00
         0.00000E+00
         0.00000E+00
         0.00000E+00
         0.00000E+00
         0.00000E+00
         0.00000E+00
         0.00000E+00
         0.00000E+00
         0.00000E+00
         0.00000E+00
         0.00000E+00
         0.00000E+00
         0.00000E+00
         0.00000E+00
         0.00000E+00
         0.00000E+00
         0.00000E+00
         0.00000E+00
         0.00000E+00
         0.00000E+00
         0.00000E+00
         0.00000E+00
         0.00000E+00
         0.00000E+00
         0.00000E+00
         0.00000E+00
         0.00000E+00
         0.00000E+00
         0.00000E+00
         0.00000E+00
         0.00000E+00
         0.00000E+00
         0.00000E+00
         0.00000E+00
         0.00000E+00
         0.00000E+00
         0.00000E+00
         0.00000E+00
         0.00000E+00
         0.00000E+00
         0.00000E+00
         0.00000E+00
         0.00000E+00
         0.00000E+00
         0.00000E+00
         0.00000E+00
         0.00000E+00
         0.00000E+00
         0.00000E+00
         0.00000E+00
         0.00000E+00
         0.00000E+00
         0.00000E+00
         0.00000E+00
         0.00000E+00
         0.00000E+00
         0.00000E+00
         0.00000E+00
         0.00000E+00
         0.00000E+00
         0.00000E+00
         0.00000E+00
         0.00000E+00
         0.00000E+00
         0.00000E+00
         0.00000E+00
         0.00000E+00
         0.00000E+00
         0.00000E+00
         0.00000E+00
         0.00000E+00
         0.00000E+00
         0.00000E+00
         0.00000E+00
         0.00000E+00
         0.00000E+00
         0.00000E+00
         0.00000E+00
         0.00000E+00
         0.00000E+00
         0.00000E+00
         0.00000E+00
         0.00000E+00
         0.00000E+00
         0.00000E+00
         0.00000E+00
         0.00000E+00
         0.00000E+00
         0.00000E+00
         0.00000E+00
         0.00000E+00
         0.00000E+00
         0.00000E+00
         0.00000E+00
         0.00000E+00
         0.00000E+00
         0.00000E+00
         0.00000E+00
         0.00000E+00
         0.00000E+00
         0.00000E+00
         0.00000E+00
         0.00000E+00
         0.00000E+00
         0.00000E+00
         0.00000E+00
         0.00000E+00
         0.00000E+00
         0.00000E+00
         0.00000E+00
         0.00000E+00
         0.00000E+00
         0.00000E+00
         0.00000E+00
         0.00000E+00
         0.00000E+00
         0.00000E+00
         0.00000E+00
         0.00000E+00
         0.00000E+00
         0.00000E+00
         0.00000E+00
         0.00000E+00
         0.00000E+00
         0.00000E+00
         0.00000E+00
         0.00000E+00
         0.00000E+00
         0.00000E+00
         0.00000E+00
         0.00000E+00
         0.00000E+00
         0.00000E+00
         0.00000E+00
         0.00000E+00
         0.00000E+00
         0.00000E+00
         0.00000E+00
         0.00000E+00
         0.00000E+00
         0.00000E+00
         0.00000E+00
         0.00000E+00
         0.00000E+00
         0.00000E+00
         0.00000E+00
         0.00000E+00
         0.00000E+00
         0.00000E+00
         0.00000E+00
         0.00000E+00
         0.00000E+00
         0.00000E+00
         0.00000E+00
         0.00000E+00
         0.00000E+00
         0.00000E+00
         0.00000E+00
         0.00000E+00
         0.00000E+00
         0.00000E+00
         0.00000E+00
         0.00000E+00
         0.00000E+00
         0.00000E+00
         0.00000E+00
         0.00000E+00
         0.00000E+00
         0.00000E+00
         0.00000E+00
         0.00000E+00
         0.00000E+00
         0.00000E+00
         0.00000E+00
         0.00000E+00
         0.00000E+00
         0.00000E+00
         0.00000E+00
         0.00000E+00
         0.00000E+00
         0.00000E+00
         0.00000E+00
         0.00000E+00
         0.00000E+00
         0.00000E+00
         0.00000E+00
         0.00000E+00
         0.00000E+00
         0.00000E+00
         0.00000E+00
         0.00000E+00
         0.00000E+00
         0.00000E+00
         0.00000E+00
         0.00000E+00
         0.00000E+00
         0.00000E+00
         0.00000E+00
         0.00000E+00
         0.00000E+00
         0.00000E+00
         0.00000E+00
         0.00000E+00
         0.00000E+00
         0.00000E+00
         0.00000E+00
         0.00000E+00
         0.00000E+00
         0.00000E+00
         0.00000E+00
         0.00000E+00
         0.00000E+00
         0.00000E+00
         0.00000E+00
         0.00000E+00
         0.00000E+00
         0.00000E+00
         0.00000E+00
         0.00000E+00
         0.00000E+00
         0.00000E+00
         0.00000E+00
         0.00000E+00
         0.00000E+00
         0.00000E+00
         0.00000E+00
         0.00000E+00
         0.00000E+00
         0.00000E+00
         0.00000E+00
         0.00000E+00
         0.00000E+00
         0.00000E+00
         0.00000E+00
         0.00000E+00
         0.00000E+00
         0.00000E+00
         0.00000E+00
         0.00000E+00
         0.00000E+00
         0.00000E+00
         0.00000E+00
         0.00000E+00
         0.00000E+00
         0.00000E+00
         0.00000E+00
         0.00000E+00
         0.00000E+00
         0.00000E+00
         0.00000E+00
         0.00000E+00
         0.00000E+00
         0.00000E+00
         0.00000E+00
         0.00000E+00
         0.00000E+00
         0.00000E+00
         0.00000E+00
         0.00000E+00
         0.00000E+00
         0.00000E+00
         0.00000E+00
         0.00000E+00
         0.00000E+00
         0.00000E+00
         0.00000E+00
         0.00000E+00
         0.00000E+00
         0.00000E+00
         0.00000E+00
         0.00000E+00
         0.00000E+00
         0.00000E+00
         0.00000E+00
         0.00000E+00
         0.00000E+00
         0.00000E+00
         0.00000E+00
         0.00000E+00
         0.00000E+00
         0.00000E+00
         0.00000E+00
         0.00000E+00
         0.00000E+00
         0.00000E+00
         0.00000E+00
         0.00000E+00
         0.00000E+00
         0.00000E+00
         0.00000E+00
         0.00000E+00
         0.00000E+00
         0.00000E+00
         0.00000E+00
         0.00000E+00
         0.00000E+00
         0.00000E+00
         0.00000E+00
         0.00000E+00
         0.00000E+00
         0.00000E+00
         0.00000E+00
         0.00000E+00
         0.00000E+00
         0.00000E+00
         0.00000E+00
         0.00000E+00
         0.00000E+00
         0.00000E+00
         0.00000E+00
         0.00000E+00
         0.00000E+00
         0.00000E+00
         0.00000E+00
         0.00000E+00
         0.00000E+00
         0.00000E+00
         0.00000E+00
         0.00000E+00
         0.00000E+00
         0.00000E+00
         0.00000E+00
         0.00000E+00
         0.00000E+00
         0.00000E+00
         0.00000E+00
         0.00000E+00
         0.00000E+00
         0.00000E+00
         0.00000E+00
         0.00000E+00
         0.00000E+00
         0.00000E+00
         0.00000E+00
         0.00000E+00
         0.00000E+00
         0.00000E+00
         0.00000E+00
         0.00000E+00
         0.00000E+00
  
SCALARS                 displacement_y  double 1
LOOKUP_TABLE default
         0.00000E+00
         0.00000E+00
         0.00000E+00
         0.00000E+00
         0.00000E+00
         0.00000E+00
         0.00000E+00
         0.00000E+00
         0.00000E+00
         0.00000E+00
         0.00000E+00
         0.00000E+00
         0.00000E+00
         0.00000E+00
         0.00000E+00
         0.00000E+00
         0.00000E+00
         0.00000E+00
         0.00000E+00
         0.00000E+00
         0.00000E+00
         0.00000E+00
         0.00000E+00
         0.00000E+00
         0.00000E+00
         0.00000E+00
         0.00000E+00
         0.00000E+00
         0.00000E+00
         0.00000E+00
         0.00000E+00
         0.00000E+00
         0.00000E+00
         0.00000E+00
         0.00000E+00
         0.00000E+00
         0.00000E+00
         0.00000E+00
         0.00000E+00
         0.00000E+00
         0.00000E+00
         0.00000E+00
         0.00000E+00
         0.00000E+00
         0.00000E+00
         0.00000E+00
         0.00000E+00
         0.00000E+00
         0.00000E+00
         0.00000E+00
         0.00000E+00
         0.00000E+00
         0.00000E+00
         0.00000E+00
         0.00000E+00
         0.00000E+00
         0.00000E+00
         0.00000E+00
         0.00000E+00
         0.00000E+00
         0.00000E+00
         0.00000E+00
         0.00000E+00
         0.00000E+00
         0.00000E+00
         0.00000E+00
         0.00000E+00
         0.00000E+00
         0.00000E+00
         0.00000E+00
         0.00000E+00
         0.00000E+00
         0.00000E+00
         0.00000E+00
         0.00000E+00
         0.00000E+00
         0.00000E+00
         0.00000E+00
         0.00000E+00
         0.00000E+00
         0.00000E+00
         0.00000E+00
         0.00000E+00
         0.00000E+00
         0.00000E+00
         0.00000E+00
         0.00000E+00
         0.00000E+00
         0.00000E+00
         0.00000E+00
         0.00000E+00
         0.00000E+00
         0.00000E+00
         0.00000E+00
         0.00000E+00
         0.00000E+00
         0.00000E+00
         0.00000E+00
         0.00000E+00
         0.00000E+00
         0.00000E+00
         0.00000E+00
         0.00000E+00
         0.00000E+00
         0.00000E+00
         0.00000E+00
         0.00000E+00
         0.00000E+00
         0.00000E+00
         0.00000E+00
         0.00000E+00
         0.00000E+00
         0.00000E+00
         0.00000E+00
         0.00000E+00
         0.00000E+00
         0.00000E+00
         0.00000E+00
         0.00000E+00
         0.00000E+00
         0.00000E+00
         0.00000E+00
         0.00000E+00
         0.00000E+00
         0.00000E+00
         0.00000E+00
         0.00000E+00
         0.00000E+00
         0.00000E+00
         0.00000E+00
         0.00000E+00
         0.00000E+00
         0.00000E+00
         0.00000E+00
         0.00000E+00
         0.00000E+00
         0.00000E+00
         0.00000E+00
         0.00000E+00
         0.00000E+00
         0.00000E+00
         0.00000E+00
         0.00000E+00
         0.00000E+00
         0.00000E+00
         0.00000E+00
         0.00000E+00
         0.00000E+00
         0.00000E+00
         0.00000E+00
         0.00000E+00
         0.00000E+00
         0.00000E+00
         0.00000E+00
         0.00000E+00
         0.00000E+00
         0.00000E+00
         0.00000E+00
         0.00000E+00
         0.00000E+00
         0.00000E+00
         0.00000E+00
         0.00000E+00
         0.00000E+00
         0.00000E+00
         0.00000E+00
         0.00000E+00
         0.00000E+00
         0.00000E+00
         0.00000E+00
         0.00000E+00
         0.00000E+00
         0.00000E+00
         0.00000E+00
         0.00000E+00
         0.00000E+00
         0.00000E+00
         0.00000E+00
         0.00000E+00
         0.00000E+00
         0.00000E+00
         0.00000E+00
         0.00000E+00
         0.00000E+00
         0.00000E+00
         0.00000E+00
         0.00000E+00
         0.00000E+00
         0.00000E+00
         0.00000E+00
         0.00000E+00
         0.00000E+00
         0.00000E+00
         0.00000E+00
         0.00000E+00
         0.00000E+00
         0.00000E+00
         0.00000E+00
         0.00000E+00
         0.00000E+00
         0.00000E+00
         0.00000E+00
         0.00000E+00
         0.00000E+00
         0.00000E+00
         0.00000E+00
         0.00000E+00
         0.00000E+00
         0.00000E+00
         0.00000E+00
         0.00000E+00
         0.00000E+00
         0.00000E+00
         0.00000E+00
         0.00000E+00
         0.00000E+00
         0.00000E+00
         0.00000E+00
         0.00000E+00
         0.00000E+00
         0.00000E+00
         0.00000E+00
         0.00000E+00
         0.00000E+00
         0.00000E+00
         0.00000E+00
         0.00000E+00
         0.00000E+00
         0.00000E+00
         0.00000E+00
         0.00000E+00
         0.00000E+00
         0.00000E+00
         0.00000E+00
         0.00000E+00
         0.00000E+00
         0.00000E+00
         0.00000E+00
         0.00000E+00
         0.00000E+00
         0.00000E+00
         0.00000E+00
         0.00000E+00
         0.00000E+00
         0.00000E+00
         0.00000E+00
         0.00000E+00
         0.00000E+00
         0.00000E+00
         0.00000E+00
         0.00000E+00
         0.00000E+00
         0.00000E+00
         0.00000E+00
         0.00000E+00
         0.00000E+00
         0.00000E+00
         0.00000E+00
         0.00000E+00
         0.00000E+00
         0.00000E+00
         0.00000E+00
         0.00000E+00
         0.00000E+00
         0.00000E+00
         0.00000E+00
         0.00000E+00
         0.00000E+00
         0.00000E+00
         0.00000E+00
         0.00000E+00
         0.00000E+00
         0.00000E+00
         0.00000E+00
         0.00000E+00
         0.00000E+00
         0.00000E+00
         0.00000E+00
         0.00000E+00
         0.00000E+00
         0.00000E+00
         0.00000E+00
         0.00000E+00
         0.00000E+00
         0.00000E+00
         0.00000E+00
         0.00000E+00
         0.00000E+00
         0.00000E+00
         0.00000E+00
         0.00000E+00
         0.00000E+00
         0.00000E+00
         0.00000E+00
         0.00000E+00
         0.00000E+00
         0.00000E+00
         0.00000E+00
         0.00000E+00
         0.00000E+00
         0.00000E+00
         0.00000E+00
         0.00000E+00
         0.00000E+00
         0.00000E+00
         0.00000E+00
         0.00000E+00
         0.00000E+00
         0.00000E+00
         0.00000E+00
         0.00000E+00
         0.00000E+00
         0.00000E+00
         0.00000E+00
         0.00000E+00
         0.00000E+00
         0.00000E+00
         0.00000E+00
         0.00000E+00
         0.00000E+00
         0.00000E+00
         0.00000E+00
         0.00000E+00
         0.00000E+00
         0.00000E+00
         0.00000E+00
         0.00000E+00
         0.00000E+00
         0.00000E+00
         0.00000E+00
         0.00000E+00
         0.00000E+00
         0.00000E+00
         0.00000E+00
         0.00000E+00
         0.00000E+00
         0.00000E+00
         0.00000E+00
         0.00000E+00
         0.00000E+00
         0.00000E+00
         0.00000E+00
         0.00000E+00
         0.00000E+00
         0.00000E+00
         0.00000E+00
         0.00000E+00
         0.00000E+00
         0.00000E+00
         0.00000E+00
         0.00000E+00
         0.00000E+00
         0.00000E+00
         0.00000E+00
         0.00000E+00
         0.00000E+00
         0.00000E+00
         0.00000E+00
         0.00000E+00
         0.00000E+00
         0.00000E+00
         0.00000E+00
         0.00000E+00
         0.00000E+00
         0.00000E+00
         0.00000E+00
         0.00000E+00
         0.00000E+00
         0.00000E+00
         0.00000E+00
         0.00000E+00
         0.00000E+00
         0.00000E+00
         0.00000E+00
         0.00000E+00
         0.00000E+00
         0.00000E+00
         0.00000E+00
         0.00000E+00
         0.00000E+00
         0.00000E+00
         0.00000E+00
         0.00000E+00
         0.00000E+00
         0.00000E+00
         0.00000E+00
         0.00000E+00
         0.00000E+00
         0.00000E+00
         0.00000E+00
         0.00000E+00
         0.00000E+00
         0.00000E+00
         0.00000E+00
         0.00000E+00
         0.00000E+00
         0.00000E+00
         0.00000E+00
         0.00000E+00
         0.00000E+00
         0.00000E+00
         0.00000E+00
         0.00000E+00
         0.00000E+00
         0.00000E+00
         0.00000E+00
         0.00000E+00
         0.00000E+00
         0.00000E+00
         0.00000E+00
         0.00000E+00
         0.00000E+00
         0.00000E+00
         0.00000E+00
         0.00000E+00
         0.00000E+00
         0.00000E+00
         0.00000E+00
         0.00000E+00
         0.00000E+00
         0.00000E+00
         0.00000E+00
         0.00000E+00
         0.00000E+00
         0.00000E+00
         0.00000E+00
         0.00000E+00
         0.00000E+00
         0.00000E+00
         0.00000E+00
         0.00000E+00
         0.00000E+00
         0.00000E+00
         0.00000E+00
         0.00000E+00
         0.00000E+00
         0.00000E+00
         0.00000E+00
         0.00000E+00
         0.00000E+00
         0.00000E+00
         0.00000E+00
         0.00000E+00
         0.00000E+00
         0.00000E+00
         0.00000E+00
         0.00000E+00
         0.00000E+00
         0.00000E+00
         0.00000E+00
         0.00000E+00
         0.00000E+00
         0.00000E+00
         0.00000E+00
         0.00000E+00
         0.00000E+00
         0.00000E+00
         0.00000E+00
         0.00000E+00
         0.00000E+00
         0.00000E+00
         0.00000E+00
         0.00000E+00
         0.00000E+00
         0.00000E+00
         0.00000E+00
         0.00000E+00
         0.00000E+00
         0.00000E+00
         0.00000E+00
         0.00000E+00
         0.00000E+00
         0.00000E+00
         0.00000E+00
         0.00000E+00
         0.00000E+00
         0.00000E+00
         0.00000E+00
         0.00000E+00
         0.00000E+00
         0.00000E+00
         0.00000E+00
         0.00000E+00
         0.00000E+00
         0.00000E+00
         0.00000E+00
         0.00000E+00
         0.00000E+00
         0.00000E+00
         0.00000E+00
         0.00000E+00
         0.00000E+00
         0.00000E+00
         0.00000E+00
         0.00000E+00
         0.00000E+00
         0.00000E+00
         0.00000E+00
         0.00000E+00
         0.00000E+00
         0.00000E+00
         0.00000E+00
         0.00000E+00
         0.00000E+00
         0.00000E+00
         0.00000E+00
         0.00000E+00
         0.00000E+00
         0.00000E+00
         0.00000E+00
         0.00000E+00
         0.00000E+00
         0.00000E+00
         0.00000E+00
         0.00000E+00
         0.00000E+00
         0.00000E+00
         0.00000E+00
         0.00000E+00
         0.00000E+00
         0.00000E+00
         0.00000E+00
         0.00000E+00
         0.00000E+00
         0.00000E+00
         0.00000E+00
         0.00000E+00
         0.00000E+00
         0.00000E+00
         0.00000E+00
         0.00000E+00
         0.00000E+00
         0.00000E+00
         0.00000E+00
         0.00000E+00
         0.00000E+00
         0.00000E+00
         0.00000E+00
         0.00000E+00
         0.00000E+00
         0.00000E+00
         0.00000E+00
         0.00000E+00
         0.00000E+00
         0.00000E+00
         0.00000E+00
         0.00000E+00
         0.00000E+00
         0.00000E+00
         0.00000E+00
         0.00000E+00
         0.00000E+00
         0.00000E+00
         0.00000E+00
         0.00000E+00
         0.00000E+00
         0.00000E+00
         0.00000E+00
         0.00000E+00
         0.00000E+00
         0.00000E+00
         0.00000E+00
         0.00000E+00
         0.00000E+00
         0.00000E+00
         0.00000E+00
         0.00000E+00
         0.00000E+00
         0.00000E+00
         0.00000E+00
         0.00000E+00
         0.00000E+00
         0.00000E+00
         0.00000E+00
         0.00000E+00
         0.00000E+00
         0.00000E+00
         0.00000E+00
         0.00000E+00
         0.00000E+00
         0.00000E+00
         0.00000E+00
         0.00000E+00
         0.00000E+00
         0.00000E+00
         0.00000E+00
         0.00000E+00
         0.00000E+00
         0.00000E+00
         0.00000E+00
         0.00000E+00
         0.00000E+00
         0.00000E+00
         0.00000E+00
         0.00000E+00
         0.00000E+00
         0.00000E+00
         0.00000E+00
         0.00000E+00
         0.00000E+00
         0.00000E+00
         0.00000E+00
         0.00000E+00
         0.00000E+00
         0.00000E+00
         0.00000E+00
         0.00000E+00
         0.00000E+00
         0.00000E+00
         0.00000E+00
         0.00000E+00
         0.00000E+00
         0.00000E+00
         0.00000E+00
         0.00000E+00
         0.00000E+00
         0.00000E+00
         0.00000E+00
         0.00000E+00
         0.00000E+00
         0.00000E+00
         0.00000E+00
         0.00000E+00
         0.00000E+00
         0.00000E+00
         0.00000E+00
         0.00000E+00
         0.00000E+00
         0.00000E+00
         0.00000E+00
         0.00000E+00
         0.00000E+00
         0.00000E+00
         0.00000E+00
         0.00000E+00
         0.00000E+00
         0.00000E+00
         0.00000E+00
         0.00000E+00
         0.00000E+00
         0.00000E+00
         0.00000E+00
         0.00000E+00
         0.00000E+00
         0.00000E+00
         0.00000E+00
         0.00000E+00
         0.00000E+00
         0.00000E+00
         0.00000E+00
         0.00000E+00
         0.00000E+00
         0.00000E+00
         0.00000E+00
         0.00000E+00
         0.00000E+00
         0.00000E+00
         0.00000E+00
         0.00000E+00
         0.00000E+00
         0.00000E+00
         0.00000E+00
         0.00000E+00
         0.00000E+00
         0.00000E+00
         0.00000E+00
         0.00000E+00
         0.00000E+00
         0.00000E+00
         0.00000E+00
         0.00000E+00
         0.00000E+00
         0.00000E+00
         0.00000E+00
         0.00000E+00
         0.00000E+00
         0.00000E+00
         0.00000E+00
         0.00000E+00
         0.00000E+00
         0.00000E+00
         0.00000E+00
         0.00000E+00
         0.00000E+00
         0.00000E+00
         0.00000E+00
         0.00000E+00
         0.00000E+00
         0.00000E+00
         0.00000E+00
         0.00000E+00
         0.00000E+00
         0.00000E+00
         0.00000E+00
         0.00000E+00
         0.00000E+00
         0.00000E+00
         0.00000E+00
         0.00000E+00
         0.00000E+00
         0.00000E+00
         0.00000E+00
         0.00000E+00
         0.00000E+00
         0.00000E+00
         0.00000E+00
         0.00000E+00
         0.00000E+00
         0.00000E+00
         0.00000E+00
         0.00000E+00
         0.00000E+00
         0.00000E+00
         0.00000E+00
         0.00000E+00
         0.00000E+00
         0.00000E+00
         0.00000E+00
         0.00000E+00
         0.00000E+00
         0.00000E+00
         0.00000E+00
         0.00000E+00
         0.00000E+00
         0.00000E+00
         0.00000E+00
         0.00000E+00
         0.00000E+00
         0.00000E+00
         0.00000E+00
         0.00000E+00
         0.00000E+00
         0.00000E+00
         0.00000E+00
         0.00000E+00
         0.00000E+00
         0.00000E+00
         0.00000E+00
         0.00000E+00
         0.00000E+00
         0.00000E+00
         0.00000E+00
         0.00000E+00
         0.00000E+00
         0.00000E+00
         0.00000E+00
         0.00000E+00
         0.00000E+00
         0.00000E+00
         0.00000E+00
         0.00000E+00
         0.00000E+00
         0.00000E+00
         0.00000E+00
         0.00000E+00
         0.00000E+00
         0.00000E+00
         0.00000E+00
         0.00000E+00
         0.00000E+00
         0.00000E+00
         0.00000E+00
         0.00000E+00
         0.00000E+00
         0.00000E+00
         0.00000E+00
         0.00000E+00
         0.00000E+00
         0.00000E+00
         0.00000E+00
         0.00000E+00
         0.00000E+00
         0.00000E+00
         0.00000E+00
         0.00000E+00
         0.00000E+00
         0.00000E+00
         0.00000E+00
         0.00000E+00
         0.00000E+00
         0.00000E+00
         0.00000E+00
         0.00000E+00
         0.00000E+00
         0.00000E+00
         0.00000E+00
         0.00000E+00
         0.00000E+00
         0.00000E+00
         0.00000E+00
         0.00000E+00
         0.00000E+00
         0.00000E+00
         0.00000E+00
         0.00000E+00
         0.00000E+00
         0.00000E+00
         0.00000E+00
         0.00000E+00
         0.00000E+00
         0.00000E+00
         0.00000E+00
         0.00000E+00
         0.00000E+00
         0.00000E+00
         0.00000E+00
         0.00000E+00
         0.00000E+00
         0.00000E+00
         0.00000E+00
         0.00000E+00
         0.00000E+00
         0.00000E+00
         0.00000E+00
         0.00000E+00
         0.00000E+00
         0.00000E+00
         0.00000E+00
         0.00000E+00
         0.00000E+00
         0.00000E+00
         0.00000E+00
         0.00000E+00
         0.00000E+00
         0.00000E+00
         0.00000E+00
         0.00000E+00
         0.00000E+00
         0.00000E+00
         0.00000E+00
         0.00000E+00
         0.00000E+00
         0.00000E+00
         0.00000E+00
         0.00000E+00
         0.00000E+00
         0.00000E+00
         0.00000E+00
         0.00000E+00
         0.00000E+00
         0.00000E+00
         0.00000E+00
         0.00000E+00
         0.00000E+00
         0.00000E+00
         0.00000E+00
         0.00000E+00
         0.00000E+00
         0.00000E+00
         0.00000E+00
         0.00000E+00
         0.00000E+00
         0.00000E+00
         0.00000E+00
         0.00000E+00
         0.00000E+00
         0.00000E+00
         0.00000E+00
         0.00000E+00
         0.00000E+00
         0.00000E+00
         0.00000E+00
         0.00000E+00
         0.00000E+00
         0.00000E+00
         0.00000E+00
         0.00000E+00
         0.00000E+00
         0.00000E+00
         0.00000E+00
         0.00000E+00
         0.00000E+00
         0.00000E+00
         0.00000E+00
         0.00000E+00
         0.00000E+00
         0.00000E+00
         0.00000E+00
         0.00000E+00
         0.00000E+00
         0.00000E+00
         0.00000E+00
         0.00000E+00
         0.00000E+00
         0.00000E+00
         0.00000E+00
         0.00000E+00
         0.00000E+00
         0.00000E+00
         0.00000E+00
         0.00000E+00
         0.00000E+00
         0.00000E+00
         0.00000E+00
         0.00000E+00
         0.00000E+00
         0.00000E+00
         0.00000E+00
         0.00000E+00
         0.00000E+00
         0.00000E+00
         0.00000E+00
         0.00000E+00
         0.00000E+00
         0.00000E+00
         0.00000E+00
         0.00000E+00
         0.00000E+00
         0.00000E+00
         0.00000E+00
         0.00000E+00
         0.00000E+00
         0.00000E+00
         0.00000E+00
         0.00000E+00
         0.00000E+00
         0.00000E+00
         0.00000E+00
         0.00000E+00
         0.00000E+00
         0.00000E+00
         0.00000E+00
         0.00000E+00
         0.00000E+00
         0.00000E+00
         0.00000E+00
         0.00000E+00
         0.00000E+00
         0.00000E+00
         0.00000E+00
         0.00000E+00
         0.00000E+00
         0.00000E+00
         0.00000E+00
         0.00000E+00
         0.00000E+00
         0.00000E+00
         0.00000E+00
         0.00000E+00
         0.00000E+00
         0.00000E+00
         0.00000E+00
         0.00000E+00
         0.00000E+00
         0.00000E+00
         0.00000E+00
         0.00000E+00
         0.00000E+00
         0.00000E+00
         0.00000E+00
         0.00000E+00
         0.00000E+00
         0.00000E+00
         0.00000E+00
         0.00000E+00
         0.00000E+00
         0.00000E+00
         0.00000E+00
         0.00000E+00
         0.00000E+00
         0.00000E+00
         0.00000E+00
         0.00000E+00
         0.00000E+00
         0.00000E+00
         0.00000E+00
         0.00000E+00
         0.00000E+00
         0.00000E+00
         0.00000E+00
         0.00000E+00
         0.00000E+00
         0.00000E+00
         0.00000E+00
         0.00000E+00
         0.00000E+00
         0.00000E+00
         0.00000E+00
         0.00000E+00
         0.00000E+00
         0.00000E+00
         0.00000E+00
         0.00000E+00
         0.00000E+00
         0.00000E+00
         0.00000E+00
         0.00000E+00
         0.00000E+00
         0.00000E+00
         0.00000E+00
         0.00000E+00
         0.00000E+00
         0.00000E+00
         0.00000E+00
         0.00000E+00
         0.00000E+00
         0.00000E+00
         0.00000E+00
         0.00000E+00
         0.00000E+00
         0.00000E+00
         0.00000E+00
         0.00000E+00
         0.00000E+00
         0.00000E+00
         0.00000E+00
         0.00000E+00
         0.00000E+00
         0.00000E+00
         0.00000E+00
         0.00000E+00
         0.00000E+00
         0.00000E+00
         0.00000E+00
         0.00000E+00
         0.00000E+00
         0.00000E+00
         0.00000E+00
         0.00000E+00
         0.00000E+00
         0.00000E+00
         0.00000E+00
         0.00000E+00
         0.00000E+00
         0.00000E+00
         0.00000E+00
         0.00000E+00
         0.00000E+00
         0.00000E+00
         0.00000E+00
         0.00000E+00
         0.00000E+00
         0.00000E+00
         0.00000E+00
         0.00000E+00
         0.00000E+00
         0.00000E+00
         0.00000E+00
         0.00000E+00
         0.00000E+00
         0.00000E+00
         0.00000E+00
         0.00000E+00
         0.00000E+00
         0.00000E+00
         0.00000E+00
         0.00000E+00
         0.00000E+00
         0.00000E+00
         0.00000E+00
         0.00000E+00
         0.00000E+00
         0.00000E+00
         0.00000E+00
         0.00000E+00
         0.00000E+00
         0.00000E+00
         0.00000E+00
         0.00000E+00
         0.00000E+00
         0.00000E+00
         0.00000E+00
         0.00000E+00
         0.00000E+00
         0.00000E+00
         0.00000E+00
         0.00000E+00
         0.00000E+00
         0.00000E+00
         0.00000E+00
         0.00000E+00
         0.00000E+00
         0.00000E+00
         0.00000E+00
         0.00000E+00
         0.00000E+00
         0.00000E+00
         0.00000E+00
         0.00000E+00
         0.00000E+00
         0.00000E+00
         0.00000E+00
         0.00000E+00
         0.00000E+00
         0.00000E+00
         0.00000E+00
         0.00000E+00
         0.00000E+00
         0.00000E+00
         0.00000E+00
         0.00000E+00
         0.00000E+00
         0.00000E+00
         0.00000E+00
         0.00000E+00
         0.00000E+00
         0.00000E+00
         0.00000E+00
         0.00000E+00
         0.00000E+00
         0.00000E+00
         0.00000E+00
         0.00000E+00
         0.00000E+00
         0.00000E+00
         0.00000E+00
         0.00000E+00
         0.00000E+00
         0.00000E+00
         0.00000E+00
         0.00000E+00
         0.00000E+00
         0.00000E+00
         0.00000E+00
         0.00000E+00
         0.00000E+00
         0.00000E+00
         0.00000E+00
         0.00000E+00
         0.00000E+00
         0.00000E+00
         0.00000E+00
         0.00000E+00
         0.00000E+00
         0.00000E+00
         0.00000E+00
         0.00000E+00
         0.00000E+00
         0.00000E+00
         0.00000E+00
         0.00000E+00
         0.00000E+00
         0.00000E+00
         0.00000E+00
         0.00000E+00
         0.00000E+00
         0.00000E+00
         0.00000E+00
         0.00000E+00
         0.00000E+00
         0.00000E+00
         0.00000E+00
         0.00000E+00
         0.00000E+00
         0.00000E+00
         0.00000E+00
         0.00000E+00
         0.00000E+00
         0.00000E+00
         0.00000E+00
         0.00000E+00
         0.00000E+00
         0.00000E+00
         0.00000E+00
         0.00000E+00
         0.00000E+00
         0.00000E+00
         0.00000E+00
         0.00000E+00
         0.00000E+00
         0.00000E+00
         0.00000E+00
         0.00000E+00
         0.00000E+00
         0.00000E+00
         0.00000E+00
         0.00000E+00
         0.00000E+00
         0.00000E+00
         0.00000E+00
         0.00000E+00
         0.00000E+00
         0.00000E+00
         0.00000E+00
         0.00000E+00
         0.00000E+00
         0.00000E+00
         0.00000E+00
         0.00000E+00
         0.00000E+00
         0.00000E+00
         0.00000E+00
         0.00000E+00
         0.00000E+00
         0.00000E+00
         0.00000E+00
         0.00000E+00
         0.00000E+00
         0.00000E+00
         0.00000E+00
         0.00000E+00
         0.00000E+00
         0.00000E+00
         0.00000E+00
         0.00000E+00
         0.00000E+00
         0.00000E+00
         0.00000E+00
         0.00000E+00
         0.00000E+00
         0.00000E+00
         0.00000E+00
         0.00000E+00
         0.00000E+00
         0.00000E+00
         0.00000E+00
         0.00000E+00
         0.00000E+00
         0.00000E+00
         0.00000E+00
         0.00000E+00
         0.00000E+00
         0.00000E+00
         0.00000E+00
         0.00000E+00
         0.00000E+00
         0.00000E+00
         0.00000E+00
         0.00000E+00
         0.00000E+00
         0.00000E+00
         0.00000E+00
         0.00000E+00
         0.00000E+00
         0.00000E+00
         0.00000E+00
         0.00000E+00
         0.00000E+00
         0.00000E+00
         0.00000E+00
         0.00000E+00
         0.00000E+00
         0.00000E+00
         0.00000E+00
         0.00000E+00
         0.00000E+00
         0.00000E+00
         0.00000E+00
         0.00000E+00
         0.00000E+00
         0.00000E+00
         0.00000E+00
         0.00000E+00
         0.00000E+00
         0.00000E+00
         0.00000E+00
         0.00000E+00
         0.00000E+00
         0.00000E+00
         0.00000E+00
         0.00000E+00
         0.00000E+00
         0.00000E+00
         0.00000E+00
         0.00000E+00
         0.00000E+00
         0.00000E+00
         0.00000E+00
         0.00000E+00
         0.00000E+00
         0.00000E+00
         0.00000E+00
         0.00000E+00
         0.00000E+00
         0.00000E+00
         0.00000E+00
         0.00000E+00
         0.00000E+00
         0.00000E+00
         0.00000E+00
         0.00000E+00
         0.00000E+00
         0.00000E+00
         0.00000E+00
         0.00000E+00
         0.00000E+00
         0.00000E+00
         0.00000E+00
         0.00000E+00
         0.00000E+00
         0.00000E+00
         0.00000E+00
         0.00000E+00
         0.00000E+00
         0.00000E+00
         0.00000E+00
         0.00000E+00
         0.00000E+00
         0.00000E+00
         0.00000E+00
         0.00000E+00
         0.00000E+00
         0.00000E+00
         0.00000E+00
         0.00000E+00
         0.00000E+00
         0.00000E+00
         0.00000E+00
         0.00000E+00
         0.00000E+00
         0.00000E+00
         0.00000E+00
         0.00000E+00
         0.00000E+00
         0.00000E+00
         0.00000E+00
         0.00000E+00
         0.00000E+00
         0.00000E+00
         0.00000E+00
         0.00000E+00
         0.00000E+00
         0.00000E+00
         0.00000E+00
         0.00000E+00
         0.00000E+00
         0.00000E+00
         0.00000E+00
         0.00000E+00
         0.00000E+00
         0.00000E+00
         0.00000E+00
         0.00000E+00
         0.00000E+00
         0.00000E+00
         0.00000E+00
         0.00000E+00
         0.00000E+00
         0.00000E+00
         0.00000E+00
         0.00000E+00
         0.00000E+00
         0.00000E+00
         0.00000E+00
         0.00000E+00
         0.00000E+00
         0.00000E+00
         0.00000E+00
         0.00000E+00
         0.00000E+00
         0.00000E+00
         0.00000E+00
         0.00000E+00
         0.00000E+00
         0.00000E+00
         0.00000E+00
         0.00000E+00
         0.00000E+00
         0.00000E+00
         0.00000E+00
         0.00000E+00
         0.00000E+00
         0.00000E+00
         0.00000E+00
         0.00000E+00
         0.00000E+00
         0.00000E+00
         0.00000E+00
         0.00000E+00
         0.00000E+00
         0.00000E+00
         0.00000E+00
         0.00000E+00
         0.00000E+00
         0.00000E+00
         0.00000E+00
         0.00000E+00
         0.00000E+00
         0.00000E+00
         0.00000E+00
         0.00000E+00
         0.00000E+00
         0.00000E+00
         0.00000E+00
         0.00000E+00
         0.00000E+00
         0.00000E+00
         0.00000E+00
         0.00000E+00
         0.00000E+00
         0.00000E+00
         0.00000E+00
         0.00000E+00
         0.00000E+00
         0.00000E+00
         0.00000E+00
         0.00000E+00
         0.00000E+00
         0.00000E+00
         0.00000E+00
         0.00000E+00
         0.00000E+00
         0.00000E+00
         0.00000E+00
         0.00000E+00
         0.00000E+00
         0.00000E+00
         0.00000E+00
         0.00000E+00
         0.00000E+00
         0.00000E+00
         0.00000E+00
         0.00000E+00
         0.00000E+00
         0.00000E+00
         0.00000E+00
         0.00000E+00
         0.00000E+00
         0.00000E+00
         0.00000E+00
         0.00000E+00
         0.00000E+00
         0.00000E+00
         0.00000E+00
         0.00000E+00
         0.00000E+00
         0.00000E+00
         0.00000E+00
         0.00000E+00
         0.00000E+00
         0.00000E+00
         0.00000E+00
         0.00000E+00
         0.00000E+00
         0.00000E+00
         0.00000E+00
         0.00000E+00
         0.00000E+00
         0.00000E+00
         0.00000E+00
         0.00000E+00
         0.00000E+00
         0.00000E+00
         0.00000E+00
         0.00000E+00
         0.00000E+00
         0.00000E+00
         0.00000E+00
         0.00000E+00
         0.00000E+00
         0.00000E+00
         0.00000E+00
         0.00000E+00
         0.00000E+00
         0.00000E+00
         0.00000E+00
         0.00000E+00
         0.00000E+00
         0.00000E+00
         0.00000E+00
         0.00000E+00
         0.00000E+00
         0.00000E+00
         0.00000E+00
         0.00000E+00
         0.00000E+00
         0.00000E+00
         0.00000E+00
         0.00000E+00
         0.00000E+00
         0.00000E+00
         0.00000E+00
         0.00000E+00
         0.00000E+00
         0.00000E+00
         0.00000E+00
         0.00000E+00
         0.00000E+00
         0.00000E+00
         0.00000E+00
         0.00000E+00
         0.00000E+00
         0.00000E+00
         0.00000E+00
         0.00000E+00
         0.00000E+00
         0.00000E+00
         0.00000E+00
         0.00000E+00
         0.00000E+00
         0.00000E+00
         0.00000E+00
         0.00000E+00
         0.00000E+00
         0.00000E+00
         0.00000E+00
         0.00000E+00
         0.00000E+00
         0.00000E+00
         0.00000E+00
         0.00000E+00
         0.00000E+00
         0.00000E+00
         0.00000E+00
         0.00000E+00
         0.00000E+00
         0.00000E+00
         0.00000E+00
         0.00000E+00
         0.00000E+00
         0.00000E+00
         0.00000E+00
         0.00000E+00
         0.00000E+00
         0.00000E+00
         0.00000E+00
         0.00000E+00
         0.00000E+00
         0.00000E+00
         0.00000E+00
         0.00000E+00
         0.00000E+00
         0.00000E+00
         0.00000E+00
         0.00000E+00
         0.00000E+00
         0.00000E+00
         0.00000E+00
         0.00000E+00
         0.00000E+00
         0.00000E+00
         0.00000E+00
         0.00000E+00
         0.00000E+00
         0.00000E+00
         0.00000E+00
         0.00000E+00
         0.00000E+00
         0.00000E+00
         0.00000E+00
         0.00000E+00
         0.00000E+00
         0.00000E+00
         0.00000E+00
         0.00000E+00
         0.00000E+00
         0.00000E+00
         0.00000E+00
         0.00000E+00
         0.00000E+00
         0.00000E+00
         0.00000E+00
         0.00000E+00
         0.00000E+00
         0.00000E+00
         0.00000E+00
         0.00000E+00
         0.00000E+00
         0.00000E+00
         0.00000E+00
         0.00000E+00
         0.00000E+00
         0.00000E+00
         0.00000E+00
         0.00000E+00
         0.00000E+00
         0.00000E+00
         0.00000E+00
         0.00000E+00
         0.00000E+00
         0.00000E+00
         0.00000E+00
         0.00000E+00
         0.00000E+00
         0.00000E+00
         0.00000E+00
         0.00000E+00
         0.00000E+00
         0.00000E+00
         0.00000E+00
         0.00000E+00
         0.00000E+00
         0.00000E+00
         0.00000E+00
         0.00000E+00
         0.00000E+00
         0.00000E+00
         0.00000E+00
         0.00000E+00
         0.00000E+00
         0.00000E+00
         0.00000E+00
         0.00000E+00
         0.00000E+00
         0.00000E+00
         0.00000E+00
         0.00000E+00
         0.00000E+00
         0.00000E+00
         0.00000E+00
         0.00000E+00
         0.00000E+00
         0.00000E+00
         0.00000E+00
         0.00000E+00
         0.00000E+00
         0.00000E+00
         0.00000E+00
         0.00000E+00
         0.00000E+00
         0.00000E+00
         0.00000E+00
         0.00000E+00
         0.00000E+00
         0.00000E+00
         0.00000E+00
         0.00000E+00
         0.00000E+00
         0.00000E+00
         0.00000E+00
         0.00000E+00
         0.00000E+00
         0.00000E+00
         0.00000E+00
         0.00000E+00
         0.00000E+00
         0.00000E+00
         0.00000E+00
         0.00000E+00
         0.00000E+00
         0.00000E+00
         0.00000E+00
         0.00000E+00
         0.00000E+00
         0.00000E+00
         0.00000E+00
         0.00000E+00
         0.00000E+00
         0.00000E+00
         0.00000E+00
         0.00000E+00
         0.00000E+00
         0.00000E+00
         0.00000E+00
         0.00000E+00
         0.00000E+00
         0.00000E+00
         0.00000E+00
         0.00000E+00
         0.00000E+00
         0.00000E+00
         0.00000E+00
         0.00000E+00
         0.00000E+00
         0.00000E+00
         0.00000E+00
         0.00000E+00
         0.00000E+00
         0.00000E+00
         0.00000E+00
         0.00000E+00
         0.00000E+00
         0.00000E+00
         0.00000E+00
         0.00000E+00
         0.00000E+00
         0.00000E+00
         0.00000E+00
         0.00000E+00
         0.00000E+00
         0.00000E+00
         0.00000E+00
         0.00000E+00
         0.00000E+00
         0.00000E+00
         0.00000E+00
         0.00000E+00
         0.00000E+00
         0.00000E+00
         0.00000E+00
         0.00000E+00
         0.00000E+00
         0.00000E+00
         0.00000E+00
         0.00000E+00
         0.00000E+00
         0.00000E+00
         0.00000E+00
         0.00000E+00
         0.00000E+00
         0.00000E+00
         0.00000E+00
         0.00000E+00
         0.00000E+00
         0.00000E+00
         0.00000E+00
         0.00000E+00
         0.00000E+00
         0.00000E+00
         0.00000E+00
         0.00000E+00
         0.00000E+00
         0.00000E+00
         0.00000E+00
         0.00000E+00
         0.00000E+00
         0.00000E+00
         0.00000E+00
         0.00000E+00
         0.00000E+00
         0.00000E+00
         0.00000E+00
         0.00000E+00
         0.00000E+00
         0.00000E+00
         0.00000E+00
         0.00000E+00
         0.00000E+00
         0.00000E+00
         0.00000E+00
         0.00000E+00
         0.00000E+00
         0.00000E+00
         0.00000E+00
         0.00000E+00
         0.00000E+00
         0.00000E+00
         0.00000E+00
         0.00000E+00
         0.00000E+00
         0.00000E+00
         0.00000E+00
         0.00000E+00
         0.00000E+00
         0.00000E+00
         0.00000E+00
         0.00000E+00
         0.00000E+00
         0.00000E+00
         0.00000E+00
         0.00000E+00
         0.00000E+00
         0.00000E+00
         0.00000E+00
         0.00000E+00
         0.00000E+00
         0.00000E+00
         0.00000E+00
         0.00000E+00
         0.00000E+00
         0.00000E+00
         0.00000E+00
         0.00000E+00
         0.00000E+00
         0.00000E+00
         0.00000E+00
         0.00000E+00
         0.00000E+00
         0.00000E+00
         0.00000E+00
         0.00000E+00
         0.00000E+00
         0.00000E+00
         0.00000E+00
         0.00000E+00
         0.00000E+00
         0.00000E+00
         0.00000E+00
         0.00000E+00
         0.00000E+00
         0.00000E+00
         0.00000E+00
         0.00000E+00
         0.00000E+00
         0.00000E+00
         0.00000E+00
         0.00000E+00
         0.00000E+00
         0.00000E+00
         0.00000E+00
         0.00000E+00
         0.00000E+00
         0.00000E+00
         0.00000E+00
         0.00000E+00
         0.00000E+00
         0.00000E+00
         0.00000E+00
         0.00000E+00
         0.00000E+00
         0.00000E+00
         0.00000E+00
         0.00000E+00
         0.00000E+00
         0.00000E+00
         0.00000E+00
         0.00000E+00
         0.00000E+00
         0.00000E+00
         0.00000E+00
         0.00000E+00
         0.00000E+00
         0.00000E+00
         0.00000E+00
         0.00000E+00
         0.00000E+00
         0.00000E+00
         0.00000E+00
         0.00000E+00
         0.00000E+00
         0.00000E+00
         0.00000E+00
         0.00000E+00
         0.00000E+00
         0.00000E+00
         0.00000E+00
         0.00000E+00
         0.00000E+00
         0.00000E+00
         0.00000E+00
         0.00000E+00
         0.00000E+00
         0.00000E+00
         0.00000E+00
         0.00000E+00
         0.00000E+00
         0.00000E+00
         0.00000E+00
         0.00000E+00
         0.00000E+00
         0.00000E+00
         0.00000E+00
         0.00000E+00
         0.00000E+00
         0.00000E+00
         0.00000E+00
         0.00000E+00
         0.00000E+00
         0.00000E+00
         0.00000E+00
         0.00000E+00
         0.00000E+00
         0.00000E+00
         0.00000E+00
         0.00000E+00
         0.00000E+00
         0.00000E+00
         0.00000E+00
         0.00000E+00
         0.00000E+00
         0.00000E+00
         0.00000E+00
         0.00000E+00
         0.00000E+00
         0.00000E+00
         0.00000E+00
         0.00000E+00
         0.00000E+00
         0.00000E+00
         0.00000E+00
         0.00000E+00
         0.00000E+00
         0.00000E+00
         0.00000E+00
         0.00000E+00
         0.00000E+00
         0.00000E+00
         0.00000E+00
         0.00000E+00
         0.00000E+00
         0.00000E+00
         0.00000E+00
         0.00000E+00
         0.00000E+00
         0.00000E+00
         0.00000E+00
         0.00000E+00
         0.00000E+00
         0.00000E+00
         0.00000E+00
         0.00000E+00
         0.00000E+00
         0.00000E+00
         0.00000E+00
         0.00000E+00
         0.00000E+00
         0.00000E+00
         0.00000E+00
         0.00000E+00
         0.00000E+00
         0.00000E+00
         0.00000E+00
         0.00000E+00
         0.00000E+00
         0.00000E+00
         0.00000E+00
         0.00000E+00
         0.00000E+00
         0.00000E+00
         0.00000E+00
         0.00000E+00
         0.00000E+00
         0.00000E+00
         0.00000E+00
         0.00000E+00
         0.00000E+00
         0.00000E+00
         0.00000E+00
         0.00000E+00
         0.00000E+00
         0.00000E+00
         0.00000E+00
         0.00000E+00
         0.00000E+00
         0.00000E+00
         0.00000E+00
         0.00000E+00
         0.00000E+00
         0.00000E+00
         0.00000E+00
         0.00000E+00
         0.00000E+00
         0.00000E+00
         0.00000E+00
         0.00000E+00
         0.00000E+00
         0.00000E+00
         0.00000E+00
         0.00000E+00
         0.00000E+00
         0.00000E+00
         0.00000E+00
         0.00000E+00
         0.00000E+00
         0.00000E+00
         0.00000E+00
         0.00000E+00
         0.00000E+00
         0.00000E+00
         0.00000E+00
         0.00000E+00
         0.00000E+00
         0.00000E+00
         0.00000E+00
         0.00000E+00
         0.00000E+00
         0.00000E+00
         0.00000E+00
         0.00000E+00
         0.00000E+00
         0.00000E+00
         0.00000E+00
         0.00000E+00
         0.00000E+00
         0.00000E+00
         0.00000E+00
         0.00000E+00
         0.00000E+00
         0.00000E+00
         0.00000E+00
  
SCALARS                 displacement_z  double 1
LOOKUP_TABLE default
        -0.52057E-02
        -0.51975E-02
        -0.51962E-02
        -0.52115E-02
        -0.31990E-16
        -0.35871E-16
        -0.34348E-16
        -0.31205E-16
        -0.51806E-02
        -0.51990E-02
        -0.32258E-16
        -0.31218E-16
        -0.51884E-02
        -0.52002E-02
        -0.38328E-16
        -0.36038E-16
        -0.52064E-02
        -0.52086E-02
        -0.28322E-16
        -0.31412E-16
        -0.51822E-02
        -0.51751E-02
        -0.51785E-02
        -0.37987E-16
        -0.33175E-16
        -0.34257E-16
        -0.51967E-02
        -0.51920E-02
        -0.36443E-16
        -0.30734E-16
        -0.52130E-02
        -0.52170E-02
        -0.52102E-02
        -0.31100E-16
        -0.28913E-16
        -0.28111E-16
        -0.51965E-02
        -0.52133E-02
        -0.32903E-16
        -0.30024E-16
        -0.51916E-02
        -0.52057E-02
        -0.28437E-16
        -0.25175E-16
        -0.51785E-02
        -0.51852E-02
        -0.31163E-16
        -0.34820E-16
        -0.52182E-02
        -0.30443E-16
        -0.51943E-02
        -0.35773E-16
        -0.52120E-02
        -0.32148E-16
        -0.52171E-02
        -0.30837E-16
        -0.52030E-02
        -0.52142E-02
        -0.31419E-16
        -0.30599E-16
        -0.52092E-02
        -0.51942E-02
        -0.31507E-16
        -0.35618E-16
        -0.52083E-02
        -0.30402E-16
        -0.52021E-02
        -0.33181E-16
        -0.51574E-02
        -0.51755E-02
        -0.31938E-16
        -0.33466E-16
        -0.51822E-02
        -0.33746E-16
        -0.52016E-02
        -0.26662E-16
        -0.51998E-02
        -0.25879E-16
        -0.51828E-02
        -0.27287E-16
        -0.51634E-02
        -0.51877E-02
        -0.25999E-16
        -0.27105E-16
        -0.52074E-02
        -0.25245E-16
        -0.51802E-02
        -0.33105E-16
        -0.51731E-02
        -0.33882E-16
        -0.51555E-02
        -0.51795E-02
        -0.32538E-16
        -0.32918E-16
        -0.51958E-02
        -0.29899E-16
        -0.51934E-02
        -0.29473E-16
        -0.51804E-02
        -0.31551E-16
        -0.51618E-02
        -0.51836E-02
        -0.30941E-16
        -0.31849E-16
        -0.51078E-02
        -0.51164E-02
        -0.24022E-16
        -0.22594E-16
        -0.51154E-02
        -0.22938E-16
        -0.51092E-02
        -0.21993E-16
        -0.51098E-02
        -0.21687E-16
        -0.51089E-02
        -0.20495E-16
        -0.51139E-02
        -0.18207E-16
        -0.51160E-02
        -0.16395E-16
        -0.51148E-02
        -0.16281E-16
        -0.51137E-02
        -0.17656E-16
        -0.51062E-02
        -0.18555E-16
        -0.51158E-02
        -0.16943E-16
        -0.51193E-02
        -0.15272E-16
        -0.51184E-02
        -0.15255E-16
        -0.51145E-02
        -0.17051E-16
        -0.51107E-02
        -0.19442E-16
        -0.51087E-02
        -0.20887E-16
        -0.51147E-02
        -0.22558E-16
        -0.51089E-02
        -0.24167E-16
        -0.51176E-02
        -0.22139E-16
        -0.51147E-02
        -0.19422E-16
        -0.51118E-02
        -0.19362E-16
        -0.51168E-02
        -0.21184E-16
        -0.51098E-02
        -0.22584E-16
        -0.51168E-02
        -0.21432E-16
        -0.51169E-02
        -0.20720E-16
        -0.73373E-02
        -0.73359E-02
        -0.73357E-02
        -0.73379E-02
        -0.73334E-02
        -0.73361E-02
        -0.73344E-02
        -0.73362E-02
        -0.73377E-02
        -0.73379E-02
        -0.73338E-02
        -0.73327E-02
        -0.73329E-02
        -0.73357E-02
        -0.73352E-02
        -0.73380E-02
        -0.73391E-02
        -0.73380E-02
        -0.73358E-02
        -0.73385E-02
        -0.73350E-02
        -0.73374E-02
        -0.73330E-02
        -0.73342E-02
        -0.73392E-02
        -0.73353E-02
        -0.73382E-02
        -0.73388E-02
        -0.73366E-02
        -0.73385E-02
        -0.73378E-02
        -0.73353E-02
        -0.73377E-02
        -0.73364E-02
        -0.73302E-02
        -0.73325E-02
        -0.73335E-02
        -0.73368E-02
        -0.73364E-02
        -0.73336E-02
        -0.73309E-02
        -0.73344E-02
        -0.73376E-02
        -0.73331E-02
        -0.73321E-02
        -0.73299E-02
        -0.73330E-02
        -0.73357E-02
        -0.73352E-02
        -0.73332E-02
        -0.73308E-02
        -0.73337E-02
        -0.73249E-02
        -0.73263E-02
        -0.73261E-02
        -0.73254E-02
        -0.73255E-02
        -0.73255E-02
        -0.73263E-02
        -0.73264E-02
        -0.73260E-02
        -0.73256E-02
        -0.73244E-02
        -0.73261E-02
        -0.73269E-02
        -0.73268E-02
        -0.73262E-02
        -0.73256E-02
        -0.73253E-02
        -0.73261E-02
        -0.73251E-02
        -0.73266E-02
        -0.73265E-02
        -0.73259E-02
        -0.73263E-02
        -0.73252E-02
        -0.73264E-02
        -0.73268E-02
        -0.75120E-02
        -0.75120E-02
        -0.75120E-02
        -0.75120E-02
        -0.75120E-02
        -0.75120E-02
        -0.75120E-02
        -0.75120E-02
        -0.75120E-02
        -0.75120E-02
        -0.75120E-02
        -0.75120E-02
        -0.75120E-02
        -0.75120E-02
        -0.75120E-02
        -0.75120E-02
        -0.75120E-02
        -0.75120E-02
        -0.75120E-02
        -0.75120E-02
        -0.75120E-02
        -0.75120E-02
        -0.75120E-02
        -0.75120E-02
        -0.75120E-02
        -0.75120E-02
        -0.75120E-02
        -0.75120E-02
        -0.75120E-02
        -0.75120E-02
        -0.75120E-02
        -0.75120E-02
        -0.75120E-02
        -0.75120E-02
        -0.75120E-02
        -0.75120E-02
        -0.75120E-02
        -0.75120E-02
        -0.75120E-02
        -0.75120E-02
        -0.75120E-02
        -0.75120E-02
        -0.75120E-02
        -0.75120E-02
        -0.75120E-02
        -0.75120E-02
        -0.75120E-02
        -0.75120E-02
        -0.75120E-02
        -0.75120E-02
        -0.75120E-02
        -0.75120E-02
        -0.75120E-02
        -0.75120E-02
        -0.75120E-02
        -0.75120E-02
        -0.75120E-02
        -0.75120E-02
        -0.75120E-02
        -0.75120E-02
        -0.75120E-02
        -0.75120E-02
        -0.75120E-02
        -0.75120E-02
        -0.75120E-02
        -0.75120E-02
        -0.75120E-02
        -0.75120E-02
        -0.75120E-02
        -0.75120E-02
        -0.75120E-02
        -0.75120E-02
        -0.75120E-02
        -0.75120E-02
        -0.75120E-02
        -0.75120E-02
        -0.75120E-02
        -0.75120E-02
        -0.75120E-02
        -0.75120E-02
        -0.75120E-02
        -0.75120E-02
        -0.75120E-02
        -0.75120E-02
        -0.75120E-02
        -0.75120E-02
        -0.75120E-02
        -0.75120E-02
        -0.75120E-02
        -0.75120E-02
        -0.75120E-02
        -0.75120E-02
        -0.75120E-02
        -0.75120E-02
        -0.75120E-02
        -0.75120E-02
        -0.75120E-02
        -0.75120E-02
        -0.75120E-02
        -0.75120E-02
        -0.75120E-02
        -0.75120E-02
        -0.75120E-02
        -0.75120E-02
        -0.75120E-02
        -0.75120E-02
        -0.75120E-02
        -0.75120E-02
        -0.75120E-02
        -0.75120E-02
        -0.75120E-02
        -0.75120E-02
        -0.75120E-02
        -0.75120E-02
        -0.75120E-02
        -0.75120E-02
        -0.75120E-02
        -0.75120E-02
        -0.75120E-02
        -0.75120E-02
        -0.75120E-02
        -0.75120E-02
        -0.75120E-02
        -0.75120E-02
        -0.75120E-02
        -0.75120E-02
        -0.75120E-02
        -0.75120E-02
        -0.75120E-02
        -0.75120E-02
        -0.75120E-02
        -0.75120E-02
        -0.75120E-02
        -0.75120E-02
        -0.75120E-02
        -0.75120E-02
        -0.75120E-02
        -0.75120E-02
        -0.75120E-02
        -0.75120E-02
        -0.75120E-02
        -0.75120E-02
        -0.75120E-02
        -0.75120E-02
        -0.75120E-02
        -0.75120E-02
        -0.75120E-02
        -0.75120E-02
        -0.75120E-02
        -0.75120E-02
        -0.75120E-02
        -0.75120E-02
        -0.75120E-02
        -0.75120E-02
        -0.75120E-02
        -0.75120E-02
        -0.75120E-02
        -0.75120E-02
        -0.75120E-02
        -0.75120E-02
        -0.75120E-02
        -0.75120E-02
        -0.75120E-02
        -0.75120E-02
        -0.75120E-02
        -0.75120E-02
        -0.75120E-02
        -0.75120E-02
        -0.75120E-02
        -0.75120E-02
        -0.75120E-02
        -0.75120E-02
        -0.75120E-02
        -0.75120E-02
        -0.75120E-02
        -0.75120E-02
        -0.75120E-02
        -0.75120E-02
        -0.75120E-02
        -0.75120E-02
        -0.75120E-02
        -0.75120E-02
        -0.75120E-02
        -0.75120E-02
        -0.75120E-02
        -0.75120E-02
        -0.75120E-02
        -0.75120E-02
        -0.75120E-02
        -0.75120E-02
        -0.75120E-02
        -0.75120E-02
        -0.75120E-02
        -0.75120E-02
        -0.75120E-02
        -0.75120E-02
        -0.75120E-02
        -0.75120E-02
        -0.75120E-02
        -0.75120E-02
        -0.75120E-02
        -0.75120E-02
        -0.75120E-02
        -0.75120E-02
        -0.75120E-02
        -0.75120E-02
        -0.75120E-02
        -0.75120E-02
        -0.75120E-02
        -0.75120E-02
        -0.75120E-02
        -0.75120E-02
        -0.75120E-02
        -0.75120E-02
        -0.75120E-02
        -0.75120E-02
        -0.75120E-02
        -0.75120E-02
        -0.75120E-02
        -0.75120E-02
        -0.75120E-02
        -0.75120E-02
        -0.75120E-02
        -0.75120E-02
        -0.75120E-02
        -0.75120E-02
        -0.75120E-02
        -0.75120E-02
        -0.75120E-02
        -0.75120E-02
        -0.75120E-02
        -0.75120E-02
        -0.75120E-02
        -0.75120E-02
        -0.75120E-02
        -0.75120E-02
        -0.75120E-02
        -0.75120E-02
        -0.75120E-02
        -0.75120E-02
        -0.75120E-02
        -0.75120E-02
        -0.75120E-02
        -0.75120E-02
        -0.75120E-02
        -0.75120E-02
        -0.75120E-02
        -0.75120E-02
        -0.75120E-02
        -0.75120E-02
        -0.75120E-02
        -0.75120E-02
        -0.75120E-02
        -0.75120E-02
        -0.75120E-02
        -0.75120E-02
        -0.75120E-02
        -0.75120E-02
        -0.75120E-02
        -0.75120E-02
        -0.75120E-02
        -0.75120E-02
        -0.75120E-02
        -0.75120E-02
        -0.75120E-02
        -0.75120E-02
        -0.75120E-02
        -0.75120E-02
        -0.75120E-02
        -0.75120E-02
        -0.75120E-02
        -0.75120E-02
        -0.75120E-02
        -0.75120E-02
        -0.75120E-02
        -0.75120E-02
        -0.75120E-02
        -0.75120E-02
        -0.75120E-02
        -0.75120E-02
        -0.75120E-02
        -0.75120E-02
        -0.75120E-02
        -0.75120E-02
        -0.75120E-02
        -0.75120E-02
        -0.75120E-02
        -0.75120E-02
        -0.75120E-02
        -0.75120E-02
        -0.75120E-02
        -0.75120E-02
        -0.75120E-02
        -0.75120E-02
        -0.75120E-02
        -0.75120E-02
        -0.75120E-02
        -0.75120E-02
        -0.75120E-02
        -0.75120E-02
        -0.75120E-02
        -0.75120E-02
        -0.75120E-02
        -0.75120E-02
        -0.75120E-02
        -0.75120E-02
        -0.75120E-02
        -0.75120E-02
        -0.75120E-02
        -0.75120E-02
        -0.75120E-02
        -0.75120E-02
        -0.75120E-02
        -0.75120E-02
        -0.75120E-02
        -0.75120E-02
        -0.75120E-02
        -0.75120E-02
        -0.75120E-02
        -0.75120E-02
        -0.75120E-02
        -0.75120E-02
        -0.75120E-02
        -0.75120E-02
        -0.75120E-02
        -0.75120E-02
        -0.75120E-02
        -0.75120E-02
        -0.75120E-02
        -0.75120E-02
        -0.75120E-02
        -0.75120E-02
        -0.75120E-02
        -0.75120E-02
        -0.75120E-02
        -0.75120E-02
        -0.75120E-02
        -0.75120E-02
        -0.75120E-02
        -0.75120E-02
        -0.75120E-02
        -0.75120E-02
        -0.75120E-02
        -0.75120E-02
        -0.75120E-02
        -0.75120E-02
        -0.75120E-02
        -0.75120E-02
        -0.75120E-02
        -0.75120E-02
        -0.75120E-02
        -0.75120E-02
        -0.75120E-02
        -0.75120E-02
        -0.75120E-02
        -0.75120E-02
        -0.75120E-02
        -0.75120E-02
        -0.75120E-02
        -0.75120E-02
        -0.75120E-02
        -0.75120E-02
        -0.75120E-02
        -0.75120E-02
        -0.75120E-02
        -0.75120E-02
        -0.75120E-02
        -0.75120E-02
        -0.75120E-02
        -0.75120E-02
        -0.75120E-02
        -0.75120E-02
        -0.75120E-02
        -0.75120E-02
        -0.75120E-02
        -0.75120E-02
        -0.75120E-02
        -0.75120E-02
        -0.75120E-02
        -0.75120E-02
        -0.75120E-02
        -0.75120E-02
        -0.75120E-02
        -0.75120E-02
        -0.75120E-02
        -0.75120E-02
        -0.75120E-02
        -0.75120E-02
        -0.75120E-02
        -0.75120E-02
        -0.75120E-02
        -0.75120E-02
        -0.75120E-02
        -0.75120E-02
        -0.75120E-02
        -0.75120E-02
        -0.75120E-02
        -0.75120E-02
        -0.75120E-02
        -0.75120E-02
        -0.75120E-02
        -0.75120E-02
        -0.75120E-02
        -0.75120E-02
        -0.75120E-02
        -0.75120E-02
        -0.75120E-02
        -0.75120E-02
        -0.75120E-02
        -0.75120E-02
        -0.75120E-02
        -0.75120E-02
        -0.75120E-02
        -0.75120E-02
        -0.75120E-02
        -0.75120E-02
        -0.75120E-02
        -0.75120E-02
        -0.75120E-02
        -0.75120E-02
        -0.75120E-02
        -0.75120E-02
        -0.75120E-02
        -0.75120E-02
        -0.75120E-02
        -0.75120E-02
        -0.75120E-02
        -0.75120E-02
        -0.75120E-02
        -0.75120E-02
        -0.75120E-02
        -0.75120E-02
        -0.75120E-02
        -0.75120E-02
        -0.75120E-02
        -0.75120E-02
        -0.75120E-02
        -0.75120E-02
        -0.75120E-02
        -0.75120E-02
        -0.75120E-02
        -0.75120E-02
        -0.75120E-02
        -0.75120E-02
        -0.75120E-02
        -0.75120E-02
        -0.75120E-02
        -0.75120E-02
        -0.75120E-02
        -0.75120E-02
        -0.75120E-02
        -0.75120E-02
        -0.75120E-02
        -0.75120E-02
        -0.75120E-02
        -0.75120E-02
        -0.75120E-02
        -0.75120E-02
        -0.75120E-02
        -0.75120E-02
        -0.75120E-02
        -0.75120E-02
        -0.75120E-02
        -0.75120E-02
        -0.75120E-02
        -0.75120E-02
        -0.75120E-02
        -0.75120E-02
        -0.75120E-02
        -0.75120E-02
        -0.75120E-02
        -0.75120E-02
        -0.75120E-02
        -0.75120E-02
        -0.75120E-02
        -0.75120E-02
        -0.75120E-02
        -0.75120E-02
        -0.75120E-02
        -0.75120E-02
        -0.75120E-02
        -0.75120E-02
        -0.75120E-02
        -0.75120E-02
        -0.75120E-02
        -0.75120E-02
        -0.75120E-02
        -0.75120E-02
        -0.75120E-02
        -0.75120E-02
        -0.75120E-02
        -0.75120E-02
        -0.75120E-02
        -0.75120E-02
        -0.75120E-02
        -0.75120E-02
        -0.75120E-02
        -0.75120E-02
        -0.75120E-02
        -0.75120E-02
        -0.75120E-02
        -0.75120E-02
        -0.75120E-02
        -0.75120E-02
        -0.75120E-02
        -0.75120E-02
        -0.75120E-02
        -0.75120E-02
        -0.75120E-02
        -0.75120E-02
        -0.75120E-02
        -0.75120E-02
        -0.75120E-02
        -0.75120E-02
        -0.75120E-02
        -0.75120E-02
        -0.75120E-02
        -0.75120E-02
        -0.75120E-02
        -0.75120E-02
        -0.75120E-02
        -0.75120E-02
        -0.75120E-02
        -0.75120E-02
        -0.75120E-02
        -0.75120E-02
        -0.75120E-02
        -0.75120E-02
        -0.75120E-02
        -0.75120E-02
        -0.75120E-02
        -0.75120E-02
        -0.75120E-02
        -0.75120E-02
        -0.75120E-02
        -0.75120E-02
        -0.75120E-02
        -0.75120E-02
        -0.75120E-02
        -0.75120E-02
        -0.75120E-02
        -0.75120E-02
        -0.75120E-02
        -0.75120E-02
        -0.75120E-02
        -0.75120E-02
        -0.75120E-02
        -0.75120E-02
        -0.75120E-02
        -0.75120E-02
        -0.75120E-02
        -0.75120E-02
        -0.75120E-02
        -0.75120E-02
        -0.75120E-02
        -0.75120E-02
        -0.75120E-02
        -0.75120E-02
        -0.75120E-02
        -0.75120E-02
        -0.75120E-02
        -0.75120E-02
        -0.75120E-02
        -0.75120E-02
        -0.75120E-02
        -0.75120E-02
        -0.75120E-02
        -0.75120E-02
        -0.75120E-02
        -0.75120E-02
        -0.75120E-02
        -0.75120E-02
        -0.75120E-02
        -0.75120E-02
        -0.75120E-02
        -0.75120E-02
        -0.75120E-02
        -0.75120E-02
        -0.75120E-02
        -0.75120E-02
        -0.75120E-02
        -0.75120E-02
        -0.75120E-02
        -0.75120E-02
        -0.75120E-02
        -0.75120E-02
        -0.75120E-02
        -0.75120E-02
        -0.75120E-02
        -0.75120E-02
        -0.75120E-02
        -0.75120E-02
        -0.75120E-02
        -0.75120E-02
        -0.75120E-02
        -0.75120E-02
        -0.75120E-02
        -0.75120E-02
        -0.75120E-02
        -0.75120E-02
        -0.75120E-02
        -0.75120E-02
        -0.75120E-02
        -0.75120E-02
        -0.75120E-02
        -0.75120E-02
        -0.75120E-02
        -0.75120E-02
        -0.75120E-02
        -0.75120E-02
        -0.75120E-02
        -0.75120E-02
        -0.75120E-02
        -0.75120E-02
        -0.75120E-02
        -0.75120E-02
        -0.75120E-02
        -0.75120E-02
        -0.75120E-02
        -0.75120E-02
        -0.75120E-02
        -0.75120E-02
        -0.75120E-02
        -0.75120E-02
        -0.75120E-02
        -0.75120E-02
        -0.75120E-02
        -0.75120E-02
        -0.75120E-02
        -0.75120E-02
        -0.75120E-02
        -0.75120E-02
        -0.75120E-02
        -0.75120E-02
        -0.75120E-02
        -0.75120E-02
        -0.75120E-02
        -0.75120E-02
        -0.75120E-02
        -0.75120E-02
        -0.75120E-02
        -0.75120E-02
        -0.75120E-02
        -0.75120E-02
        -0.75120E-02
        -0.75120E-02
        -0.75120E-02
        -0.75120E-02
        -0.75120E-02
        -0.75120E-02
        -0.75120E-02
        -0.75120E-02
        -0.75120E-02
        -0.75120E-02
        -0.75120E-02
        -0.75120E-02
        -0.75120E-02
        -0.75120E-02
        -0.75120E-02
        -0.75120E-02
        -0.75120E-02
        -0.75120E-02
        -0.75120E-02
        -0.75120E-02
        -0.75120E-02
        -0.75120E-02
        -0.75120E-02
        -0.75120E-02
        -0.75120E-02
        -0.75120E-02
        -0.75120E-02
        -0.75120E-02
        -0.75120E-02
        -0.75120E-02
        -0.75120E-02
        -0.75120E-02
        -0.75120E-02
        -0.75120E-02
        -0.75120E-02
        -0.75120E-02
        -0.75120E-02
        -0.75120E-02
        -0.75120E-02
        -0.75120E-02
        -0.75120E-02
        -0.75120E-02
        -0.75120E-02
        -0.75120E-02
        -0.75120E-02
        -0.75120E-02
        -0.75120E-02
        -0.75120E-02
        -0.75120E-02
        -0.75120E-02
        -0.75120E-02
        -0.75120E-02
        -0.75120E-02
        -0.75120E-02
        -0.75120E-02
        -0.75120E-02
        -0.75120E-02
        -0.75120E-02
        -0.75120E-02
        -0.75120E-02
        -0.75120E-02
        -0.75120E-02
        -0.75120E-02
        -0.75120E-02
        -0.75120E-02
        -0.75120E-02
        -0.75120E-02
        -0.75120E-02
        -0.75120E-02
        -0.75120E-02
        -0.75120E-02
        -0.75120E-02
        -0.75120E-02
        -0.75120E-02
        -0.75120E-02
        -0.75120E-02
        -0.75120E-02
        -0.75120E-02
        -0.75120E-02
        -0.75120E-02
        -0.75120E-02
        -0.75120E-02
        -0.75120E-02
        -0.75120E-02
        -0.75120E-02
        -0.75120E-02
        -0.75120E-02
        -0.75120E-02
        -0.75120E-02
        -0.75120E-02
        -0.75120E-02
        -0.75120E-02
        -0.75120E-02
        -0.75120E-02
        -0.75120E-02
        -0.75120E-02
        -0.75120E-02
        -0.75120E-02
        -0.75120E-02
        -0.75120E-02
        -0.75120E-02
        -0.75120E-02
        -0.75120E-02
        -0.75120E-02
        -0.75120E-02
        -0.75120E-02
        -0.75120E-02
        -0.75120E-02
        -0.75120E-02
        -0.75120E-02
        -0.75120E-02
        -0.75120E-02
        -0.75120E-02
        -0.75120E-02
        -0.75120E-02
        -0.75120E-02
        -0.75120E-02
        -0.75120E-02
        -0.75120E-02
        -0.75120E-02
        -0.75120E-02
        -0.75120E-02
        -0.75120E-02
        -0.75120E-02
        -0.75120E-02
        -0.75120E-02
        -0.75120E-02
        -0.75120E-02
        -0.75120E-02
        -0.75120E-02
        -0.75120E-02
        -0.75120E-02
        -0.75120E-02
        -0.75120E-02
        -0.75120E-02
        -0.75120E-02
        -0.75120E-02
        -0.75120E-02
        -0.75120E-02
        -0.75120E-02
        -0.75120E-02
        -0.75120E-02
        -0.75120E-02
        -0.75120E-02
        -0.75120E-02
        -0.75120E-02
        -0.75120E-02
        -0.75120E-02
        -0.75120E-02
        -0.75120E-02
        -0.75120E-02
        -0.75120E-02
        -0.75120E-02
        -0.75120E-02
        -0.75120E-02
        -0.75120E-02
        -0.75120E-02
        -0.75120E-02
        -0.75120E-02
        -0.75120E-02
        -0.75120E-02
        -0.75120E-02
        -0.75120E-02
        -0.75120E-02
        -0.75120E-02
        -0.75120E-02
        -0.75120E-02
        -0.75120E-02
        -0.75120E-02
        -0.75120E-02
        -0.75120E-02
        -0.75120E-02
        -0.75120E-02
        -0.75120E-02
        -0.75120E-02
        -0.75120E-02
        -0.75120E-02
        -0.75120E-02
        -0.75120E-02
        -0.75120E-02
        -0.75120E-02
        -0.75120E-02
        -0.75120E-02
        -0.75120E-02
        -0.75120E-02
        -0.75120E-02
        -0.75120E-02
        -0.75120E-02
        -0.75120E-02
        -0.75120E-02
        -0.75120E-02
        -0.75120E-02
        -0.75120E-02
        -0.75120E-02
        -0.75120E-02
        -0.75120E-02
        -0.75120E-02
        -0.75120E-02
        -0.75120E-02
        -0.75120E-02
        -0.75120E-02
        -0.75120E-02
        -0.75120E-02
        -0.75120E-02
        -0.75120E-02
        -0.75120E-02
        -0.75120E-02
        -0.75120E-02
        -0.75120E-02
        -0.75120E-02
        -0.75120E-02
        -0.75120E-02
        -0.75120E-02
        -0.75120E-02
        -0.75120E-02
        -0.75120E-02
        -0.75120E-02
        -0.75120E-02
        -0.75120E-02
        -0.75120E-02
        -0.75120E-02
        -0.75120E-02
        -0.75120E-02
        -0.75120E-02
        -0.75120E-02
        -0.75120E-02
        -0.75120E-02
        -0.75120E-02
        -0.75120E-02
        -0.75120E-02
        -0.75120E-02
        -0.75120E-02
        -0.75120E-02
        -0.75120E-02
        -0.75120E-02
        -0.75120E-02
        -0.75120E-02
        -0.75120E-02
        -0.75120E-02
        -0.75120E-02
        -0.75120E-02
        -0.75120E-02
        -0.75120E-02
        -0.75120E-02
        -0.75120E-02
        -0.75120E-02
        -0.75120E-02
        -0.75120E-02
        -0.75120E-02
        -0.75120E-02
        -0.75120E-02
        -0.75120E-02
        -0.75120E-02
        -0.75120E-02
        -0.75120E-02
        -0.75120E-02
        -0.75120E-02
        -0.75120E-02
        -0.75120E-02
        -0.75120E-02
        -0.75120E-02
        -0.75120E-02
        -0.75120E-02
        -0.75120E-02
        -0.75120E-02
        -0.75120E-02
        -0.75120E-02
        -0.75120E-02
        -0.75120E-02
        -0.75120E-02
        -0.75120E-02
        -0.75120E-02
        -0.75120E-02
        -0.75120E-02
        -0.75120E-02
        -0.75120E-02
        -0.75120E-02
        -0.75120E-02
        -0.75120E-02
        -0.75120E-02
        -0.75120E-02
        -0.75120E-02
        -0.75120E-02
        -0.75120E-02
        -0.75120E-02
        -0.75120E-02
        -0.75120E-02
        -0.75120E-02
        -0.75120E-02
        -0.75120E-02
        -0.75120E-02
        -0.75120E-02
        -0.75120E-02
        -0.75120E-02
        -0.75120E-02
        -0.75120E-02
        -0.75120E-02
        -0.75120E-02
        -0.75120E-02
        -0.75120E-02
        -0.75120E-02
        -0.75120E-02
        -0.75120E-02
        -0.75120E-02
        -0.75120E-02
        -0.75120E-02
        -0.75120E-02
        -0.75120E-02
        -0.75120E-02
        -0.75120E-02
        -0.75120E-02
        -0.75120E-02
        -0.75120E-02
        -0.75120E-02
        -0.75120E-02
        -0.75120E-02
        -0.75120E-02
        -0.75120E-02
        -0.75120E-02
        -0.75120E-02
        -0.75120E-02
        -0.75120E-02
        -0.75120E-02
        -0.75120E-02
        -0.75120E-02
        -0.75120E-02
        -0.75120E-02
        -0.75120E-02
        -0.75120E-02
        -0.75120E-02
        -0.75120E-02
        -0.75120E-02
        -0.75120E-02
        -0.75120E-02
        -0.75120E-02
        -0.75120E-02
        -0.75120E-02
        -0.75120E-02
        -0.75120E-02
        -0.75120E-02
        -0.75120E-02
        -0.75120E-02
        -0.75120E-02
        -0.75120E-02
        -0.75120E-02
        -0.75120E-02
        -0.75120E-02
        -0.75120E-02
        -0.75120E-02
        -0.75120E-02
        -0.75120E-02
        -0.75120E-02
        -0.75120E-02
        -0.75120E-02
        -0.75120E-02
        -0.75120E-02
        -0.75120E-02
        -0.75120E-02
        -0.75120E-02
        -0.75120E-02
        -0.75120E-02
        -0.75120E-02
        -0.75120E-02
        -0.75120E-02
        -0.75120E-02
        -0.75120E-02
        -0.75120E-02
        -0.75120E-02
        -0.75120E-02
        -0.75120E-02
        -0.75120E-02
        -0.75120E-02
        -0.75120E-02
        -0.75120E-02
        -0.75120E-02
        -0.75120E-02
        -0.75120E-02
        -0.75120E-02
        -0.75120E-02
        -0.75120E-02
        -0.75120E-02
        -0.75120E-02
        -0.75120E-02
        -0.75120E-02
        -0.75120E-02
        -0.75120E-02
        -0.75120E-02
        -0.75120E-02
        -0.75120E-02
        -0.75120E-02
        -0.75120E-02
        -0.75120E-02
        -0.75120E-02
        -0.75120E-02
        -0.75120E-02
        -0.75120E-02
        -0.75120E-02
        -0.75120E-02
        -0.75120E-02
        -0.75120E-02
        -0.75120E-02
        -0.75120E-02
        -0.75120E-02
        -0.75120E-02
        -0.75120E-02
        -0.75120E-02
        -0.75120E-02
        -0.75120E-02
        -0.75120E-02
        -0.75120E-02
        -0.75120E-02
        -0.75120E-02
        -0.75120E-02
        -0.75120E-02
        -0.75120E-02
        -0.75120E-02
        -0.75120E-02
        -0.75120E-02
        -0.75120E-02
        -0.75120E-02
        -0.75120E-02
        -0.75120E-02
        -0.75120E-02
        -0.75120E-02
        -0.75120E-02
        -0.75120E-02
        -0.75120E-02
        -0.75120E-02
        -0.75120E-02
        -0.75120E-02
        -0.75120E-02
        -0.75120E-02
        -0.75120E-02
        -0.75120E-02
        -0.75120E-02
        -0.75120E-02
        -0.75120E-02
        -0.75120E-02
        -0.75120E-02
        -0.75120E-02
        -0.75120E-02
        -0.75120E-02
        -0.75120E-02
        -0.75120E-02
        -0.75120E-02
        -0.75120E-02
        -0.75120E-02
        -0.75120E-02
        -0.75120E-02
        -0.75120E-02
        -0.75120E-02
        -0.75120E-02
        -0.75120E-02
        -0.75120E-02
        -0.75120E-02
        -0.75120E-02
        -0.75120E-02
        -0.75120E-02
        -0.75120E-02
        -0.75120E-02
        -0.75120E-02
        -0.75120E-02
        -0.75120E-02
        -0.75120E-02
        -0.75120E-02
        -0.75120E-02
        -0.75120E-02
        -0.75120E-02
        -0.75120E-02
        -0.75120E-02
        -0.75120E-02
        -0.75120E-02
        -0.75120E-02
        -0.75120E-02
        -0.75120E-02
        -0.75120E-02
        -0.75120E-02
        -0.75120E-02
        -0.75120E-02
        -0.75120E-02
        -0.75120E-02
        -0.75120E-02
        -0.75120E-02
        -0.75120E-02
        -0.75120E-02
        -0.75120E-02
        -0.75120E-02
        -0.75120E-02
        -0.75120E-02
        -0.75120E-02
        -0.75120E-02
        -0.75120E-02
        -0.75120E-02
        -0.75120E-02
        -0.75120E-02
        -0.75120E-02
        -0.75120E-02
        -0.75120E-02
        -0.75120E-02
        -0.75120E-02
        -0.75120E-02
        -0.75120E-02
        -0.75120E-02
        -0.75120E-02
        -0.75120E-02
        -0.75120E-02
        -0.75120E-02
        -0.75120E-02
        -0.75120E-02
        -0.75120E-02
        -0.75120E-02
        -0.75120E-02
        -0.75120E-02
        -0.75120E-02
        -0.75120E-02
        -0.75120E-02
        -0.75120E-02
        -0.75120E-02
        -0.75120E-02
        -0.75120E-02
        -0.75120E-02
        -0.75120E-02
        -0.75120E-02
        -0.75120E-02
        -0.75120E-02
        -0.75120E-02
        -0.75120E-02
        -0.75120E-02
        -0.75120E-02
        -0.75120E-02
        -0.75120E-02
        -0.75120E-02
        -0.75120E-02
        -0.75120E-02
        -0.75120E-02
        -0.75120E-02
        -0.75120E-02
        -0.75120E-02
        -0.75120E-02
        -0.75120E-02
        -0.75120E-02
        -0.75120E-02
        -0.75120E-02
        -0.75120E-02
        -0.75120E-02
        -0.75120E-02
        -0.75120E-02
        -0.75120E-02
        -0.75120E-02
        -0.75120E-02
        -0.75120E-02
        -0.75120E-02
        -0.75120E-02
        -0.75120E-02
        -0.75120E-02
        -0.75120E-02
        -0.75120E-02
        -0.75120E-02
        -0.75120E-02
        -0.75120E-02
        -0.75120E-02
        -0.75120E-02
        -0.75120E-02
        -0.75120E-02
        -0.75120E-02
        -0.75120E-02
        -0.75120E-02
        -0.75120E-02
        -0.75120E-02
        -0.75120E-02
        -0.75120E-02
        -0.75120E-02
        -0.75120E-02
        -0.75120E-02
        -0.75120E-02
        -0.75120E-02
        -0.75120E-02
        -0.75120E-02
        -0.75120E-02
        -0.75120E-02
        -0.75120E-02
        -0.75120E-02
        -0.75120E-02
        -0.75120E-02
        -0.75120E-02
        -0.75120E-02
        -0.75120E-02
        -0.75120E-02
        -0.75120E-02
        -0.75120E-02
        -0.75120E-02
        -0.75120E-02
        -0.75120E-02
        -0.75120E-02
        -0.75120E-02
        -0.75120E-02
        -0.75120E-02
        -0.75120E-02
        -0.75120E-02
        -0.75120E-02
        -0.75120E-02
        -0.75120E-02
        -0.75120E-02
        -0.75120E-02
        -0.75120E-02
        -0.75120E-02
        -0.75120E-02
        -0.75120E-02
        -0.75120E-02
        -0.75120E-02
        -0.75120E-02
        -0.75120E-02
        -0.75120E-02
        -0.75120E-02
        -0.75120E-02
        -0.75120E-02
        -0.75120E-02
        -0.75120E-02
        -0.75120E-02
        -0.75120E-02
        -0.75120E-02
        -0.75120E-02
        -0.75120E-02
        -0.75120E-02
        -0.75120E-02
        -0.75120E-02
        -0.75120E-02
        -0.75120E-02
        -0.75120E-02
        -0.75120E-02
        -0.75120E-02
        -0.75120E-02
        -0.75120E-02
        -0.75120E-02
        -0.75120E-02
        -0.75120E-02
        -0.75120E-02
        -0.75120E-02
        -0.75120E-02
        -0.75120E-02
        -0.75120E-02
        -0.75120E-02
        -0.75120E-02
        -0.75120E-02
        -0.75120E-02
        -0.75120E-02
        -0.75120E-02
        -0.75120E-02
        -0.75120E-02
        -0.75120E-02
        -0.75120E-02
        -0.75120E-02
        -0.75120E-02
        -0.75120E-02
        -0.75120E-02
        -0.75120E-02
        -0.75120E-02
        -0.75120E-02
        -0.75120E-02
        -0.75120E-02
        -0.75120E-02
        -0.75120E-02
        -0.75120E-02
        -0.75120E-02
        -0.75120E-02
        -0.75120E-02
        -0.75120E-02
        -0.75120E-02
        -0.75120E-02
        -0.75120E-02
        -0.75120E-02
        -0.75120E-02
        -0.75120E-02
        -0.75120E-02
        -0.75120E-02
        -0.75120E-02
        -0.75120E-02
        -0.75120E-02
        -0.75120E-02
        -0.75120E-02
        -0.75120E-02
        -0.75120E-02
        -0.75120E-02
        -0.75120E-02
        -0.75120E-02
        -0.75120E-02
        -0.75120E-02
        -0.75120E-02
        -0.75120E-02
        -0.75120E-02
        -0.75120E-02
        -0.75120E-02
        -0.75120E-02
        -0.75120E-02
        -0.75120E-02
        -0.75120E-02
        -0.75120E-02
        -0.75120E-02
        -0.75120E-02
        -0.75120E-02
        -0.75120E-02
        -0.75120E-02
        -0.75120E-02
        -0.75120E-02
        -0.75120E-02
        -0.75120E-02
        -0.75120E-02
        -0.75120E-02
        -0.75120E-02
        -0.75120E-02
        -0.75120E-02
        -0.75120E-02
        -0.75120E-02
        -0.75120E-02
        -0.75120E-02
        -0.75120E-02
        -0.75120E-02
        -0.75120E-02
        -0.75120E-02
        -0.75120E-02
        -0.75120E-02
        -0.75120E-02
        -0.75120E-02
        -0.75120E-02
        -0.75120E-02
        -0.75120E-02
        -0.75120E-02
        -0.75120E-02
        -0.75120E-02
        -0.75120E-02
        -0.75120E-02
        -0.75120E-02
        -0.75120E-02
        -0.75120E-02
        -0.75120E-02
        -0.75120E-02
        -0.75120E-02
        -0.75120E-02
        -0.75120E-02
        -0.75120E-02
        -0.75120E-02
        -0.75120E-02
        -0.75120E-02
        -0.75120E-02
        -0.75120E-02
        -0.75120E-02
        -0.75120E-02
        -0.75120E-02
        -0.75120E-02
        -0.75120E-02
        -0.75120E-02
        -0.75120E-02
        -0.75120E-02
        -0.75120E-02
        -0.75120E-02
        -0.75120E-02
        -0.75120E-02
        -0.75120E-02
        -0.75120E-02
        -0.75120E-02
        -0.75120E-02
        -0.75120E-02
        -0.75120E-02
        -0.75120E-02
        -0.75120E-02
        -0.75120E-02
        -0.75120E-02
        -0.75120E-02
        -0.75120E-02
        -0.75120E-02
        -0.75120E-02
        -0.75120E-02
        -0.75120E-02
        -0.75120E-02
        -0.75120E-02
        -0.75120E-02
        -0.75120E-02
        -0.75120E-02
        -0.75120E-02
        -0.75120E-02
        -0.75120E-02
        -0.75120E-02
        -0.75120E-02
        -0.75120E-02
        -0.75120E-02
        -0.75120E-02
        -0.75120E-02
        -0.75120E-02
        -0.75120E-02
        -0.75120E-02
        -0.75120E-02
        -0.75120E-02
        -0.75120E-02
        -0.75120E-02
        -0.75120E-02
        -0.75120E-02
        -0.75120E-02
        -0.75120E-02
        -0.75120E-02
        -0.75120E-02
        -0.75120E-02
        -0.75120E-02
        -0.75120E-02
        -0.75120E-02
        -0.75120E-02
        -0.75120E-02
        -0.75120E-02
        -0.75120E-02
        -0.75120E-02
        -0.75120E-02
        -0.75120E-02
        -0.75120E-02
        -0.75120E-02
        -0.75120E-02
        -0.75120E-02
        -0.75120E-02
        -0.75120E-02
        -0.75120E-02
        -0.75120E-02
        -0.75120E-02
        -0.75120E-02
        -0.75120E-02
        -0.75120E-02
        -0.75120E-02
        -0.75120E-02
        -0.75120E-02
        -0.75120E-02
        -0.75120E-02
        -0.75120E-02
        -0.75120E-02
        -0.75120E-02
        -0.75120E-02
        -0.75120E-02
        -0.75120E-02
        -0.75120E-02
        -0.75120E-02
        -0.75120E-02
        -0.75120E-02
        -0.75120E-02
        -0.75120E-02
        -0.75120E-02
        -0.75120E-02
        -0.75120E-02
        -0.75120E-02
        -0.75120E-02
        -0.75120E-02
        -0.75120E-02
        -0.75120E-02
        -0.75120E-02
        -0.75120E-02
        -0.75120E-02
        -0.75120E-02
        -0.75120E-02
        -0.75120E-02
        -0.75120E-02
        -0.75120E-02
        -0.75120E-02
        -0.75120E-02
        -0.75120E-02
        -0.75120E-02
        -0.75120E-02
        -0.75120E-02
        -0.75120E-02
        -0.75120E-02
        -0.75120E-02
        -0.75120E-02
        -0.75120E-02
        -0.75120E-02
        -0.75120E-02
        -0.75120E-02
        -0.75120E-02
        -0.75120E-02
        -0.75120E-02
        -0.75120E-02
        -0.75120E-02
        -0.75120E-02
        -0.75120E-02
        -0.75120E-02
        -0.75120E-02
        -0.75120E-02
        -0.75120E-02
        -0.75120E-02
        -0.75120E-02
        -0.75120E-02
        -0.75120E-02
        -0.75120E-02
        -0.75120E-02
        -0.75120E-02
        -0.75120E-02
        -0.75120E-02
        -0.75120E-02
        -0.75120E-02
        -0.75120E-02
        -0.75120E-02
        -0.75120E-02
        -0.75120E-02
        -0.75120E-02
        -0.75120E-02
        -0.75120E-02
        -0.75120E-02
        -0.75120E-02
        -0.75120E-02
        -0.75120E-02
        -0.75120E-02
        -0.75120E-02
        -0.75120E-02
        -0.75120E-02
        -0.75120E-02
        -0.75120E-02
        -0.75120E-02
        -0.75120E-02
        -0.75120E-02
        -0.75120E-02
        -0.75120E-02
        -0.75120E-02
        -0.75120E-02
        -0.75120E-02
        -0.75120E-02
        -0.75120E-02
        -0.75120E-02
        -0.75120E-02
        -0.75120E-02
        -0.75120E-02
        -0.75120E-02
        -0.75120E-02
        -0.75120E-02
        -0.75120E-02
        -0.75120E-02
        -0.75120E-02
        -0.75120E-02
        -0.75120E-02
        -0.75120E-02
        -0.75120E-02
        -0.75120E-02
        -0.75120E-02
        -0.75120E-02
        -0.75120E-02
        -0.75120E-02
        -0.75120E-02
        -0.75120E-02
        -0.75120E-02
        -0.75120E-02
        -0.75120E-02
        -0.75120E-02
        -0.75120E-02
        -0.75120E-02
        -0.75120E-02
        -0.75120E-02
        -0.75120E-02
        -0.75120E-02
        -0.75120E-02
        -0.75120E-02
        -0.75120E-02
        -0.75120E-02
        -0.75120E-02
        -0.75120E-02
        -0.75120E-02
        -0.75120E-02
        -0.75120E-02
        -0.75120E-02
        -0.75120E-02
        -0.75120E-02
        -0.75120E-02
        -0.75120E-02
        -0.75120E-02
        -0.75120E-02
        -0.75120E-02
        -0.75120E-02
        -0.75120E-02
        -0.75120E-02
        -0.75120E-02
        -0.75120E-02
        -0.75120E-02
        -0.75120E-02
        -0.75120E-02
        -0.75120E-02
        -0.75120E-02
        -0.75120E-02
        -0.75120E-02
        -0.75120E-02
        -0.75120E-02
        -0.75120E-02
        -0.75120E-02
        -0.75120E-02
        -0.75120E-02
        -0.75120E-02
        -0.75120E-02
        -0.75120E-02
        -0.75120E-02
        -0.75120E-02
        -0.75120E-02
        -0.75120E-02
        -0.75120E-02
        -0.75120E-02
        -0.75120E-02
        -0.75120E-02
        -0.75120E-02
        -0.75120E-02
        -0.75120E-02
        -0.75120E-02
        -0.75120E-02
        -0.75120E-02
        -0.75120E-02
        -0.75120E-02
        -0.75120E-02
        -0.75120E-02
        -0.75120E-02
        -0.75120E-02
        -0.75120E-02
        -0.75120E-02
        -0.75120E-02
        -0.75120E-02
        -0.75120E-02
        -0.75120E-02
        -0.75120E-02
        -0.75120E-02
        -0.75120E-02
        -0.75120E-02
        -0.75120E-02
        -0.75120E-02
        -0.75120E-02
        -0.75120E-02
        -0.75120E-02
        -0.75120E-02
        -0.75120E-02
        -0.75120E-02
        -0.75120E-02
        -0.75120E-02
        -0.75120E-02
        -0.75120E-02
        -0.75120E-02
        -0.75120E-02
        -0.75120E-02
        -0.75120E-02
        -0.75120E-02
        -0.75120E-02
        -0.75120E-02
        -0.75120E-02
        -0.75120E-02
        -0.75120E-02
        -0.75120E-02
        -0.75120E-02
        -0.75120E-02
        -0.75120E-02
        -0.75120E-02
        -0.75120E-02
        -0.75120E-02
        -0.75120E-02
        -0.75120E-02
        -0.75120E-02
        -0.75120E-02
        -0.75120E-02
        -0.75120E-02
        -0.75120E-02
        -0.75120E-02
        -0.75120E-02
        -0.75120E-02
        -0.75120E-02
        -0.75120E-02
        -0.75120E-02
        -0.75120E-02
        -0.75120E-02
        -0.75120E-02
        -0.75120E-02
        -0.75120E-02
        -0.75120E-02
        -0.75120E-02
        -0.75120E-02
        -0.75120E-02
        -0.75120E-02
        -0.75120E-02
        -0.75120E-02
  
SCALARS                     velocity_x  double 1
LOOKUP_TABLE default
         0.00000E+00
         0.00000E+00
         0.00000E+00
         0.00000E+00
         0.00000E+00
         0.00000E+00
         0.00000E+00
         0.00000E+00
         0.00000E+00
         0.00000E+00
         0.00000E+00
         0.00000E+00
         0.00000E+00
         0.00000E+00
         0.00000E+00
         0.00000E+00
         0.00000E+00
         0.00000E+00
         0.00000E+00
         0.00000E+00
         0.00000E+00
         0.00000E+00
         0.00000E+00
         0.00000E+00
         0.00000E+00
         0.00000E+00
         0.00000E+00
         0.00000E+00
         0.00000E+00
         0.00000E+00
         0.00000E+00
         0.00000E+00
         0.00000E+00
         0.00000E+00
         0.00000E+00
         0.00000E+00
         0.00000E+00
         0.00000E+00
         0.00000E+00
         0.00000E+00
         0.00000E+00
         0.00000E+00
         0.00000E+00
         0.00000E+00
         0.00000E+00
         0.00000E+00
         0.00000E+00
         0.00000E+00
         0.00000E+00
         0.00000E+00
         0.00000E+00
         0.00000E+00
         0.00000E+00
         0.00000E+00
         0.00000E+00
         0.00000E+00
         0.00000E+00
         0.00000E+00
         0.00000E+00
         0.00000E+00
         0.00000E+00
         0.00000E+00
         0.00000E+00
         0.00000E+00
         0.00000E+00
         0.00000E+00
         0.00000E+00
         0.00000E+00
         0.00000E+00
         0.00000E+00
         0.00000E+00
         0.00000E+00
         0.00000E+00
         0.00000E+00
         0.00000E+00
         0.00000E+00
         0.00000E+00
         0.00000E+00
         0.00000E+00
         0.00000E+00
         0.00000E+00
         0.00000E+00
         0.00000E+00
         0.00000E+00
         0.00000E+00
         0.00000E+00
         0.00000E+00
         0.00000E+00
         0.00000E+00
         0.00000E+00
         0.00000E+00
         0.00000E+00
         0.00000E+00
         0.00000E+00
         0.00000E+00
         0.00000E+00
         0.00000E+00
         0.00000E+00
         0.00000E+00
         0.00000E+00
         0.00000E+00
         0.00000E+00
         0.00000E+00
         0.00000E+00
         0.00000E+00
         0.00000E+00
         0.00000E+00
         0.00000E+00
         0.00000E+00
         0.00000E+00
         0.00000E+00
         0.00000E+00
         0.00000E+00
         0.00000E+00
         0.00000E+00
         0.00000E+00
         0.00000E+00
         0.00000E+00
         0.00000E+00
         0.00000E+00
         0.00000E+00
         0.00000E+00
         0.00000E+00
         0.00000E+00
         0.00000E+00
         0.00000E+00
         0.00000E+00
         0.00000E+00
         0.00000E+00
         0.00000E+00
         0.00000E+00
         0.00000E+00
         0.00000E+00
         0.00000E+00
         0.00000E+00
         0.00000E+00
         0.00000E+00
         0.00000E+00
         0.00000E+00
         0.00000E+00
         0.00000E+00
         0.00000E+00
         0.00000E+00
         0.00000E+00
         0.00000E+00
         0.00000E+00
         0.00000E+00
         0.00000E+00
         0.00000E+00
         0.00000E+00
         0.00000E+00
         0.00000E+00
         0.00000E+00
         0.00000E+00
         0.00000E+00
         0.00000E+00
         0.00000E+00
         0.00000E+00
         0.00000E+00
         0.00000E+00
         0.00000E+00
         0.00000E+00
         0.00000E+00
         0.00000E+00
         0.00000E+00
         0.00000E+00
         0.00000E+00
         0.00000E+00
         0.00000E+00
         0.00000E+00
         0.00000E+00
         0.00000E+00
         0.00000E+00
         0.00000E+00
         0.00000E+00
         0.00000E+00
         0.00000E+00
         0.00000E+00
         0.00000E+00
         0.00000E+00
         0.00000E+00
         0.00000E+00
         0.00000E+00
         0.00000E+00
         0.00000E+00
         0.00000E+00
         0.00000E+00
         0.00000E+00
         0.00000E+00
         0.00000E+00
         0.00000E+00
         0.00000E+00
         0.00000E+00
         0.00000E+00
         0.00000E+00
         0.00000E+00
         0.00000E+00
         0.00000E+00
         0.00000E+00
         0.00000E+00
         0.00000E+00
         0.00000E+00
         0.00000E+00
         0.00000E+00
         0.00000E+00
         0.00000E+00
         0.00000E+00
         0.00000E+00
         0.00000E+00
         0.00000E+00
         0.00000E+00
         0.00000E+00
         0.00000E+00
         0.00000E+00
         0.00000E+00
         0.00000E+00
         0.00000E+00
         0.00000E+00
         0.00000E+00
         0.00000E+00
         0.00000E+00
         0.00000E+00
         0.00000E+00
         0.00000E+00
         0.00000E+00
         0.00000E+00
         0.00000E+00
         0.00000E+00
         0.00000E+00
         0.00000E+00
         0.00000E+00
         0.00000E+00
         0.00000E+00
         0.00000E+00
         0.00000E+00
         0.00000E+00
         0.00000E+00
         0.00000E+00
         0.00000E+00
         0.00000E+00
         0.00000E+00
         0.00000E+00
         0.00000E+00
         0.00000E+00
         0.00000E+00
         0.00000E+00
         0.00000E+00
         0.00000E+00
         0.00000E+00
         0.00000E+00
         0.00000E+00
         0.00000E+00
         0.00000E+00
         0.00000E+00
         0.00000E+00
         0.00000E+00
         0.00000E+00
         0.00000E+00
         0.00000E+00
         0.00000E+00
         0.00000E+00
         0.00000E+00
         0.00000E+00
         0.00000E+00
         0.00000E+00
         0.00000E+00
         0.00000E+00
         0.00000E+00
         0.00000E+00
         0.00000E+00
         0.00000E+00
         0.00000E+00
         0.00000E+00
         0.00000E+00
         0.00000E+00
         0.00000E+00
         0.00000E+00
         0.00000E+00
         0.00000E+00
         0.00000E+00
         0.00000E+00
         0.00000E+00
         0.00000E+00
         0.00000E+00
         0.00000E+00
         0.00000E+00
         0.00000E+00
         0.00000E+00
         0.00000E+00
         0.00000E+00
         0.00000E+00
         0.00000E+00
         0.00000E+00
         0.00000E+00
         0.00000E+00
         0.00000E+00
         0.00000E+00
         0.00000E+00
         0.00000E+00
         0.00000E+00
         0.00000E+00
         0.00000E+00
         0.00000E+00
         0.00000E+00
         0.00000E+00
         0.00000E+00
         0.00000E+00
         0.00000E+00
         0.00000E+00
         0.00000E+00
         0.00000E+00
         0.00000E+00
         0.00000E+00
         0.00000E+00
         0.00000E+00
         0.00000E+00
         0.00000E+00
         0.00000E+00
         0.00000E+00
         0.00000E+00
         0.00000E+00
         0.00000E+00
         0.00000E+00
         0.00000E+00
         0.00000E+00
         0.00000E+00
         0.00000E+00
         0.00000E+00
         0.00000E+00
         0.00000E+00
         0.00000E+00
         0.00000E+00
         0.00000E+00
         0.00000E+00
         0.00000E+00
         0.00000E+00
         0.00000E+00
         0.00000E+00
         0.00000E+00
         0.00000E+00
         0.00000E+00
         0.00000E+00
         0.00000E+00
         0.00000E+00
         0.00000E+00
         0.00000E+00
         0.00000E+00
         0.00000E+00
         0.00000E+00
         0.00000E+00
         0.00000E+00
         0.00000E+00
         0.00000E+00
         0.00000E+00
         0.00000E+00
         0.00000E+00
         0.00000E+00
         0.00000E+00
         0.00000E+00
         0.00000E+00
         0.00000E+00
         0.00000E+00
         0.00000E+00
         0.00000E+00
         0.00000E+00
         0.00000E+00
         0.00000E+00
         0.00000E+00
         0.00000E+00
         0.00000E+00
         0.00000E+00
         0.00000E+00
         0.00000E+00
         0.00000E+00
         0.00000E+00
         0.00000E+00
         0.00000E+00
         0.00000E+00
         0.00000E+00
         0.00000E+00
         0.00000E+00
         0.00000E+00
         0.00000E+00
         0.00000E+00
         0.00000E+00
         0.00000E+00
         0.00000E+00
         0.00000E+00
         0.00000E+00
         0.00000E+00
         0.00000E+00
         0.00000E+00
         0.00000E+00
         0.00000E+00
         0.00000E+00
         0.00000E+00
         0.00000E+00
         0.00000E+00
         0.00000E+00
         0.00000E+00
         0.00000E+00
         0.00000E+00
         0.00000E+00
         0.00000E+00
         0.00000E+00
         0.00000E+00
         0.00000E+00
         0.00000E+00
         0.00000E+00
         0.00000E+00
         0.00000E+00
         0.00000E+00
         0.00000E+00
         0.00000E+00
         0.00000E+00
         0.00000E+00
         0.00000E+00
         0.00000E+00
         0.00000E+00
         0.00000E+00
         0.00000E+00
         0.00000E+00
         0.00000E+00
         0.00000E+00
         0.00000E+00
         0.00000E+00
         0.00000E+00
         0.00000E+00
         0.00000E+00
         0.00000E+00
         0.00000E+00
         0.00000E+00
         0.00000E+00
         0.00000E+00
         0.00000E+00
         0.00000E+00
         0.00000E+00
         0.00000E+00
         0.00000E+00
         0.00000E+00
         0.00000E+00
         0.00000E+00
         0.00000E+00
         0.00000E+00
         0.00000E+00
         0.00000E+00
         0.00000E+00
         0.00000E+00
         0.00000E+00
         0.00000E+00
         0.00000E+00
         0.00000E+00
         0.00000E+00
         0.00000E+00
         0.00000E+00
         0.00000E+00
         0.00000E+00
         0.00000E+00
         0.00000E+00
         0.00000E+00
         0.00000E+00
         0.00000E+00
         0.00000E+00
         0.00000E+00
         0.00000E+00
         0.00000E+00
         0.00000E+00
         0.00000E+00
         0.00000E+00
         0.00000E+00
         0.00000E+00
         0.00000E+00
         0.00000E+00
         0.00000E+00
         0.00000E+00
         0.00000E+00
         0.00000E+00
         0.00000E+00
         0.00000E+00
         0.00000E+00
         0.00000E+00
         0.00000E+00
         0.00000E+00
         0.00000E+00
         0.00000E+00
         0.00000E+00
         0.00000E+00
         0.00000E+00
         0.00000E+00
         0.00000E+00
         0.00000E+00
         0.00000E+00
         0.00000E+00
         0.00000E+00
         0.00000E+00
         0.00000E+00
         0.00000E+00
         0.00000E+00
         0.00000E+00
         0.00000E+00
         0.00000E+00
         0.00000E+00
         0.00000E+00
         0.00000E+00
         0.00000E+00
         0.00000E+00
         0.00000E+00
         0.00000E+00
         0.00000E+00
         0.00000E+00
         0.00000E+00
         0.00000E+00
         0.00000E+00
         0.00000E+00
         0.00000E+00
         0.00000E+00
         0.00000E+00
         0.00000E+00
         0.00000E+00
         0.00000E+00
         0.00000E+00
         0.00000E+00
         0.00000E+00
         0.00000E+00
         0.00000E+00
         0.00000E+00
         0.00000E+00
         0.00000E+00
         0.00000E+00
         0.00000E+00
         0.00000E+00
         0.00000E+00
         0.00000E+00
         0.00000E+00
         0.00000E+00
         0.00000E+00
         0.00000E+00
         0.00000E+00
         0.00000E+00
         0.00000E+00
         0.00000E+00
         0.00000E+00
         0.00000E+00
         0.00000E+00
         0.00000E+00
         0.00000E+00
         0.00000E+00
         0.00000E+00
         0.00000E+00
         0.00000E+00
         0.00000E+00
         0.00000E+00
         0.00000E+00
         0.00000E+00
         0.00000E+00
         0.00000E+00
         0.00000E+00
         0.00000E+00
         0.00000E+00
         0.00000E+00
         0.00000E+00
         0.00000E+00
         0.00000E+00
         0.00000E+00
         0.00000E+00
         0.00000E+00
         0.00000E+00
         0.00000E+00
         0.00000E+00
         0.00000E+00
         0.00000E+00
         0.00000E+00
         0.00000E+00
         0.00000E+00
         0.00000E+00
         0.00000E+00
         0.00000E+00
         0.00000E+00
         0.00000E+00
         0.00000E+00
         0.00000E+00
         0.00000E+00
         0.00000E+00
         0.00000E+00
         0.00000E+00
         0.00000E+00
         0.00000E+00
         0.00000E+00
         0.00000E+00
         0.00000E+00
         0.00000E+00
         0.00000E+00
         0.00000E+00
         0.00000E+00
         0.00000E+00
         0.00000E+00
         0.00000E+00
         0.00000E+00
         0.00000E+00
         0.00000E+00
         0.00000E+00
         0.00000E+00
         0.00000E+00
         0.00000E+00
         0.00000E+00
         0.00000E+00
         0.00000E+00
         0.00000E+00
         0.00000E+00
         0.00000E+00
         0.00000E+00
         0.00000E+00
         0.00000E+00
         0.00000E+00
         0.00000E+00
         0.00000E+00
         0.00000E+00
         0.00000E+00
         0.00000E+00
         0.00000E+00
         0.00000E+00
         0.00000E+00
         0.00000E+00
         0.00000E+00
         0.00000E+00
         0.00000E+00
         0.00000E+00
         0.00000E+00
         0.00000E+00
         0.00000E+00
         0.00000E+00
         0.00000E+00
         0.00000E+00
         0.00000E+00
         0.00000E+00
         0.00000E+00
         0.00000E+00
         0.00000E+00
         0.00000E+00
         0.00000E+00
         0.00000E+00
         0.00000E+00
         0.00000E+00
         0.00000E+00
         0.00000E+00
         0.00000E+00
         0.00000E+00
         0.00000E+00
         0.00000E+00
         0.00000E+00
         0.00000E+00
         0.00000E+00
         0.00000E+00
         0.00000E+00
         0.00000E+00
         0.00000E+00
         0.00000E+00
         0.00000E+00
         0.00000E+00
         0.00000E+00
         0.00000E+00
         0.00000E+00
         0.00000E+00
         0.00000E+00
         0.00000E+00
         0.00000E+00
         0.00000E+00
         0.00000E+00
         0.00000E+00
         0.00000E+00
         0.00000E+00
         0.00000E+00
         0.00000E+00
         0.00000E+00
         0.00000E+00
         0.00000E+00
         0.00000E+00
         0.00000E+00
         0.00000E+00
         0.00000E+00
         0.00000E+00
         0.00000E+00
         0.00000E+00
         0.00000E+00
         0.00000E+00
         0.00000E+00
         0.00000E+00
         0.00000E+00
         0.00000E+00
         0.00000E+00
         0.00000E+00
         0.00000E+00
         0.00000E+00
         0.00000E+00
         0.00000E+00
         0.00000E+00
         0.00000E+00
         0.00000E+00
         0.00000E+00
         0.00000E+00
         0.00000E+00
         0.00000E+00
         0.00000E+00
         0.00000E+00
         0.00000E+00
         0.00000E+00
         0.00000E+00
         0.00000E+00
         0.00000E+00
         0.00000E+00
         0.00000E+00
         0.00000E+00
         0.00000E+00
         0.00000E+00
         0.00000E+00
         0.00000E+00
         0.00000E+00
         0.00000E+00
         0.00000E+00
         0.00000E+00
         0.00000E+00
         0.00000E+00
         0.00000E+00
         0.00000E+00
         0.00000E+00
         0.00000E+00
         0.00000E+00
         0.00000E+00
         0.00000E+00
         0.00000E+00
         0.00000E+00
         0.00000E+00
         0.00000E+00
         0.00000E+00
         0.00000E+00
         0.00000E+00
         0.00000E+00
         0.00000E+00
         0.00000E+00
         0.00000E+00
         0.00000E+00
         0.00000E+00
         0.00000E+00
         0.00000E+00
         0.00000E+00
         0.00000E+00
         0.00000E+00
         0.00000E+00
         0.00000E+00
         0.00000E+00
         0.00000E+00
         0.00000E+00
         0.00000E+00
         0.00000E+00
         0.00000E+00
         0.00000E+00
         0.00000E+00
         0.00000E+00
         0.00000E+00
         0.00000E+00
         0.00000E+00
         0.00000E+00
         0.00000E+00
         0.00000E+00
         0.00000E+00
         0.00000E+00
         0.00000E+00
         0.00000E+00
         0.00000E+00
         0.00000E+00
         0.00000E+00
         0.00000E+00
         0.00000E+00
         0.00000E+00
         0.00000E+00
         0.00000E+00
         0.00000E+00
         0.00000E+00
         0.00000E+00
         0.00000E+00
         0.00000E+00
         0.00000E+00
         0.00000E+00
         0.00000E+00
         0.00000E+00
         0.00000E+00
         0.00000E+00
         0.00000E+00
         0.00000E+00
         0.00000E+00
         0.00000E+00
         0.00000E+00
         0.00000E+00
         0.00000E+00
         0.00000E+00
         0.00000E+00
         0.00000E+00
         0.00000E+00
         0.00000E+00
         0.00000E+00
         0.00000E+00
         0.00000E+00
         0.00000E+00
         0.00000E+00
         0.00000E+00
         0.00000E+00
         0.00000E+00
         0.00000E+00
         0.00000E+00
         0.00000E+00
         0.00000E+00
         0.00000E+00
         0.00000E+00
         0.00000E+00
         0.00000E+00
         0.00000E+00
         0.00000E+00
         0.00000E+00
         0.00000E+00
         0.00000E+00
         0.00000E+00
         0.00000E+00
         0.00000E+00
         0.00000E+00
         0.00000E+00
         0.00000E+00
         0.00000E+00
         0.00000E+00
         0.00000E+00
         0.00000E+00
         0.00000E+00
         0.00000E+00
         0.00000E+00
         0.00000E+00
         0.00000E+00
         0.00000E+00
         0.00000E+00
         0.00000E+00
         0.00000E+00
         0.00000E+00
         0.00000E+00
         0.00000E+00
         0.00000E+00
         0.00000E+00
         0.00000E+00
         0.00000E+00
         0.00000E+00
         0.00000E+00
         0.00000E+00
         0.00000E+00
         0.00000E+00
         0.00000E+00
         0.00000E+00
         0.00000E+00
         0.00000E+00
         0.00000E+00
         0.00000E+00
         0.00000E+00
         0.00000E+00
         0.00000E+00
         0.00000E+00
         0.00000E+00
         0.00000E+00
         0.00000E+00
         0.00000E+00
         0.00000E+00
         0.00000E+00
         0.00000E+00
         0.00000E+00
         0.00000E+00
         0.00000E+00
         0.00000E+00
         0.00000E+00
         0.00000E+00
         0.00000E+00
         0.00000E+00
         0.00000E+00
         0.00000E+00
         0.00000E+00
         0.00000E+00
         0.00000E+00
         0.00000E+00
         0.00000E+00
         0.00000E+00
         0.00000E+00
         0.00000E+00
         0.00000E+00
         0.00000E+00
         0.00000E+00
         0.00000E+00
         0.00000E+00
         0.00000E+00
         0.00000E+00
         0.00000E+00
         0.00000E+00
         0.00000E+00
         0.00000E+00
         0.00000E+00
         0.00000E+00
         0.00000E+00
         0.00000E+00
         0.00000E+00
         0.00000E+00
         0.00000E+00
         0.00000E+00
         0.00000E+00
         0.00000E+00
         0.00000E+00
         0.00000E+00
         0.00000E+00
         0.00000E+00
         0.00000E+00
         0.00000E+00
         0.00000E+00
         0.00000E+00
         0.00000E+00
         0.00000E+00
         0.00000E+00
         0.00000E+00
         0.00000E+00
         0.00000E+00
         0.00000E+00
         0.00000E+00
         0.00000E+00
         0.00000E+00
         0.00000E+00
         0.00000E+00
         0.00000E+00
         0.00000E+00
         0.00000E+00
         0.00000E+00
         0.00000E+00
         0.00000E+00
         0.00000E+00
         0.00000E+00
         0.00000E+00
         0.00000E+00
         0.00000E+00
         0.00000E+00
         0.00000E+00
         0.00000E+00
         0.00000E+00
         0.00000E+00
         0.00000E+00
         0.00000E+00
         0.00000E+00
         0.00000E+00
         0.00000E+00
         0.00000E+00
         0.00000E+00
         0.00000E+00
         0.00000E+00
         0.00000E+00
         0.00000E+00
         0.00000E+00
         0.00000E+00
         0.00000E+00
         0.00000E+00
         0.00000E+00
         0.00000E+00
         0.00000E+00
         0.00000E+00
         0.00000E+00
         0.00000E+00
         0.00000E+00
         0.00000E+00
         0.00000E+00
         0.00000E+00
         0.00000E+00
         0.00000E+00
         0.00000E+00
         0.00000E+00
         0.00000E+00
         0.00000E+00
         0.00000E+00
         0.00000E+00
         0.00000E+00
         0.00000E+00
         0.00000E+00
         0.00000E+00
         0.00000E+00
         0.00000E+00
         0.00000E+00
         0.00000E+00
         0.00000E+00
         0.00000E+00
         0.00000E+00
         0.00000E+00
         0.00000E+00
         0.00000E+00
         0.00000E+00
         0.00000E+00
         0.00000E+00
         0.00000E+00
         0.00000E+00
         0.00000E+00
         0.00000E+00
         0.00000E+00
         0.00000E+00
         0.00000E+00
         0.00000E+00
         0.00000E+00
         0.00000E+00
         0.00000E+00
         0.00000E+00
         0.00000E+00
         0.00000E+00
         0.00000E+00
         0.00000E+00
         0.00000E+00
         0.00000E+00
         0.00000E+00
         0.00000E+00
         0.00000E+00
         0.00000E+00
         0.00000E+00
         0.00000E+00
         0.00000E+00
         0.00000E+00
         0.00000E+00
         0.00000E+00
         0.00000E+00
         0.00000E+00
         0.00000E+00
         0.00000E+00
         0.00000E+00
         0.00000E+00
         0.00000E+00
         0.00000E+00
         0.00000E+00
         0.00000E+00
         0.00000E+00
         0.00000E+00
         0.00000E+00
         0.00000E+00
         0.00000E+00
         0.00000E+00
         0.00000E+00
         0.00000E+00
         0.00000E+00
         0.00000E+00
         0.00000E+00
         0.00000E+00
         0.00000E+00
         0.00000E+00
         0.00000E+00
         0.00000E+00
         0.00000E+00
         0.00000E+00
         0.00000E+00
         0.00000E+00
         0.00000E+00
         0.00000E+00
         0.00000E+00
         0.00000E+00
         0.00000E+00
         0.00000E+00
         0.00000E+00
         0.00000E+00
         0.00000E+00
         0.00000E+00
         0.00000E+00
         0.00000E+00
         0.00000E+00
         0.00000E+00
         0.00000E+00
         0.00000E+00
         0.00000E+00
         0.00000E+00
         0.00000E+00
         0.00000E+00
         0.00000E+00
         0.00000E+00
         0.00000E+00
         0.00000E+00
         0.00000E+00
         0.00000E+00
         0.00000E+00
         0.00000E+00
         0.00000E+00
         0.00000E+00
         0.00000E+00
         0.00000E+00
         0.00000E+00
         0.00000E+00
         0.00000E+00
         0.00000E+00
         0.00000E+00
         0.00000E+00
         0.00000E+00
         0.00000E+00
         0.00000E+00
         0.00000E+00
         0.00000E+00
         0.00000E+00
         0.00000E+00
         0.00000E+00
         0.00000E+00
         0.00000E+00
         0.00000E+00
         0.00000E+00
         0.00000E+00
         0.00000E+00
         0.00000E+00
         0.00000E+00
         0.00000E+00
         0.00000E+00
         0.00000E+00
         0.00000E+00
         0.00000E+00
         0.00000E+00
         0.00000E+00
         0.00000E+00
         0.00000E+00
         0.00000E+00
         0.00000E+00
         0.00000E+00
         0.00000E+00
         0.00000E+00
         0.00000E+00
         0.00000E+00
         0.00000E+00
         0.00000E+00
         0.00000E+00
         0.00000E+00
         0.00000E+00
         0.00000E+00
         0.00000E+00
         0.00000E+00
         0.00000E+00
         0.00000E+00
         0.00000E+00
         0.00000E+00
         0.00000E+00
         0.00000E+00
         0.00000E+00
         0.00000E+00
         0.00000E+00
         0.00000E+00
         0.00000E+00
         0.00000E+00
         0.00000E+00
         0.00000E+00
         0.00000E+00
         0.00000E+00
         0.00000E+00
         0.00000E+00
         0.00000E+00
         0.00000E+00
         0.00000E+00
         0.00000E+00
         0.00000E+00
         0.00000E+00
         0.00000E+00
         0.00000E+00
         0.00000E+00
         0.00000E+00
         0.00000E+00
         0.00000E+00
         0.00000E+00
         0.00000E+00
         0.00000E+00
         0.00000E+00
         0.00000E+00
         0.00000E+00
         0.00000E+00
         0.00000E+00
         0.00000E+00
         0.00000E+00
         0.00000E+00
         0.00000E+00
         0.00000E+00
         0.00000E+00
         0.00000E+00
         0.00000E+00
         0.00000E+00
         0.00000E+00
         0.00000E+00
         0.00000E+00
         0.00000E+00
         0.00000E+00
         0.00000E+00
         0.00000E+00
         0.00000E+00
         0.00000E+00
         0.00000E+00
         0.00000E+00
         0.00000E+00
         0.00000E+00
         0.00000E+00
         0.00000E+00
         0.00000E+00
         0.00000E+00
         0.00000E+00
         0.00000E+00
         0.00000E+00
         0.00000E+00
         0.00000E+00
         0.00000E+00
         0.00000E+00
         0.00000E+00
         0.00000E+00
         0.00000E+00
         0.00000E+00
         0.00000E+00
         0.00000E+00
         0.00000E+00
         0.00000E+00
         0.00000E+00
         0.00000E+00
         0.00000E+00
         0.00000E+00
         0.00000E+00
         0.00000E+00
         0.00000E+00
         0.00000E+00
         0.00000E+00
         0.00000E+00
         0.00000E+00
         0.00000E+00
         0.00000E+00
         0.00000E+00
         0.00000E+00
         0.00000E+00
         0.00000E+00
         0.00000E+00
         0.00000E+00
         0.00000E+00
         0.00000E+00
         0.00000E+00
         0.00000E+00
         0.00000E+00
         0.00000E+00
         0.00000E+00
         0.00000E+00
         0.00000E+00
         0.00000E+00
         0.00000E+00
         0.00000E+00
         0.00000E+00
         0.00000E+00
         0.00000E+00
         0.00000E+00
         0.00000E+00
         0.00000E+00
         0.00000E+00
         0.00000E+00
         0.00000E+00
         0.00000E+00
         0.00000E+00
         0.00000E+00
         0.00000E+00
         0.00000E+00
         0.00000E+00
         0.00000E+00
         0.00000E+00
         0.00000E+00
         0.00000E+00
         0.00000E+00
         0.00000E+00
         0.00000E+00
         0.00000E+00
         0.00000E+00
         0.00000E+00
         0.00000E+00
         0.00000E+00
         0.00000E+00
         0.00000E+00
         0.00000E+00
         0.00000E+00
         0.00000E+00
         0.00000E+00
         0.00000E+00
         0.00000E+00
         0.00000E+00
         0.00000E+00
         0.00000E+00
         0.00000E+00
         0.00000E+00
         0.00000E+00
         0.00000E+00
         0.00000E+00
         0.00000E+00
         0.00000E+00
         0.00000E+00
         0.00000E+00
         0.00000E+00
         0.00000E+00
         0.00000E+00
         0.00000E+00
         0.00000E+00
         0.00000E+00
         0.00000E+00
         0.00000E+00
         0.00000E+00
         0.00000E+00
         0.00000E+00
         0.00000E+00
         0.00000E+00
         0.00000E+00
         0.00000E+00
         0.00000E+00
         0.00000E+00
         0.00000E+00
         0.00000E+00
         0.00000E+00
         0.00000E+00
         0.00000E+00
         0.00000E+00
         0.00000E+00
         0.00000E+00
         0.00000E+00
         0.00000E+00
         0.00000E+00
         0.00000E+00
         0.00000E+00
         0.00000E+00
         0.00000E+00
         0.00000E+00
         0.00000E+00
         0.00000E+00
         0.00000E+00
         0.00000E+00
         0.00000E+00
         0.00000E+00
         0.00000E+00
         0.00000E+00
         0.00000E+00
         0.00000E+00
         0.00000E+00
         0.00000E+00
         0.00000E+00
         0.00000E+00
         0.00000E+00
         0.00000E+00
         0.00000E+00
         0.00000E+00
         0.00000E+00
         0.00000E+00
         0.00000E+00
         0.00000E+00
         0.00000E+00
         0.00000E+00
         0.00000E+00
         0.00000E+00
         0.00000E+00
         0.00000E+00
         0.00000E+00
         0.00000E+00
         0.00000E+00
         0.00000E+00
         0.00000E+00
         0.00000E+00
         0.00000E+00
         0.00000E+00
         0.00000E+00
         0.00000E+00
         0.00000E+00
         0.00000E+00
         0.00000E+00
         0.00000E+00
         0.00000E+00
         0.00000E+00
         0.00000E+00
         0.00000E+00
         0.00000E+00
         0.00000E+00
         0.00000E+00
         0.00000E+00
         0.00000E+00
         0.00000E+00
         0.00000E+00
         0.00000E+00
         0.00000E+00
         0.00000E+00
         0.00000E+00
         0.00000E+00
         0.00000E+00
         0.00000E+00
         0.00000E+00
         0.00000E+00
         0.00000E+00
         0.00000E+00
         0.00000E+00
         0.00000E+00
         0.00000E+00
         0.00000E+00
         0.00000E+00
         0.00000E+00
         0.00000E+00
         0.00000E+00
         0.00000E+00
         0.00000E+00
         0.00000E+00
         0.00000E+00
         0.00000E+00
         0.00000E+00
         0.00000E+00
         0.00000E+00
         0.00000E+00
         0.00000E+00
         0.00000E+00
         0.00000E+00
         0.00000E+00
         0.00000E+00
         0.00000E+00
         0.00000E+00
         0.00000E+00
         0.00000E+00
         0.00000E+00
         0.00000E+00
         0.00000E+00
         0.00000E+00
         0.00000E+00
         0.00000E+00
         0.00000E+00
         0.00000E+00
         0.00000E+00
         0.00000E+00
         0.00000E+00
         0.00000E+00
         0.00000E+00
         0.00000E+00
         0.00000E+00
         0.00000E+00
         0.00000E+00
         0.00000E+00
         0.00000E+00
         0.00000E+00
         0.00000E+00
         0.00000E+00
         0.00000E+00
         0.00000E+00
         0.00000E+00
         0.00000E+00
         0.00000E+00
         0.00000E+00
         0.00000E+00
         0.00000E+00
         0.00000E+00
         0.00000E+00
         0.00000E+00
         0.00000E+00
         0.00000E+00
         0.00000E+00
         0.00000E+00
         0.00000E+00
         0.00000E+00
         0.00000E+00
         0.00000E+00
         0.00000E+00
         0.00000E+00
         0.00000E+00
         0.00000E+00
         0.00000E+00
         0.00000E+00
         0.00000E+00
         0.00000E+00
         0.00000E+00
         0.00000E+00
         0.00000E+00
         0.00000E+00
         0.00000E+00
         0.00000E+00
         0.00000E+00
         0.00000E+00
         0.00000E+00
         0.00000E+00
         0.00000E+00
         0.00000E+00
         0.00000E+00
         0.00000E+00
         0.00000E+00
         0.00000E+00
         0.00000E+00
         0.00000E+00
         0.00000E+00
         0.00000E+00
         0.00000E+00
         0.00000E+00
         0.00000E+00
         0.00000E+00
         0.00000E+00
         0.00000E+00
         0.00000E+00
         0.00000E+00
         0.00000E+00
         0.00000E+00
         0.00000E+00
         0.00000E+00
         0.00000E+00
         0.00000E+00
         0.00000E+00
         0.00000E+00
         0.00000E+00
         0.00000E+00
         0.00000E+00
         0.00000E+00
         0.00000E+00
         0.00000E+00
         0.00000E+00
         0.00000E+00
         0.00000E+00
         0.00000E+00
         0.00000E+00
         0.00000E+00
         0.00000E+00
         0.00000E+00
         0.00000E+00
         0.00000E+00
         0.00000E+00
         0.00000E+00
         0.00000E+00
         0.00000E+00
         0.00000E+00
         0.00000E+00
         0.00000E+00
         0.00000E+00
         0.00000E+00
         0.00000E+00
         0.00000E+00
         0.00000E+00
         0.00000E+00
         0.00000E+00
         0.00000E+00
         0.00000E+00
         0.00000E+00
         0.00000E+00
         0.00000E+00
         0.00000E+00
         0.00000E+00
         0.00000E+00
         0.00000E+00
         0.00000E+00
         0.00000E+00
         0.00000E+00
         0.00000E+00
         0.00000E+00
         0.00000E+00
         0.00000E+00
         0.00000E+00
         0.00000E+00
         0.00000E+00
         0.00000E+00
         0.00000E+00
         0.00000E+00
         0.00000E+00
         0.00000E+00
         0.00000E+00
         0.00000E+00
         0.00000E+00
         0.00000E+00
         0.00000E+00
         0.00000E+00
         0.00000E+00
         0.00000E+00
         0.00000E+00
         0.00000E+00
         0.00000E+00
         0.00000E+00
         0.00000E+00
         0.00000E+00
         0.00000E+00
         0.00000E+00
         0.00000E+00
         0.00000E+00
         0.00000E+00
         0.00000E+00
         0.00000E+00
         0.00000E+00
         0.00000E+00
         0.00000E+00
         0.00000E+00
         0.00000E+00
         0.00000E+00
         0.00000E+00
         0.00000E+00
         0.00000E+00
         0.00000E+00
         0.00000E+00
         0.00000E+00
         0.00000E+00
         0.00000E+00
         0.00000E+00
         0.00000E+00
         0.00000E+00
         0.00000E+00
         0.00000E+00
         0.00000E+00
         0.00000E+00
         0.00000E+00
         0.00000E+00
         0.00000E+00
         0.00000E+00
         0.00000E+00
         0.00000E+00
         0.00000E+00
         0.00000E+00
         0.00000E+00
         0.00000E+00
         0.00000E+00
         0.00000E+00
         0.00000E+00
         0.00000E+00
         0.00000E+00
         0.00000E+00
         0.00000E+00
         0.00000E+00
         0.00000E+00
         0.00000E+00
         0.00000E+00
         0.00000E+00
         0.00000E+00
         0.00000E+00
         0.00000E+00
         0.00000E+00
         0.00000E+00
         0.00000E+00
         0.00000E+00
         0.00000E+00
         0.00000E+00
         0.00000E+00
         0.00000E+00
         0.00000E+00
         0.00000E+00
         0.00000E+00
         0.00000E+00
         0.00000E+00
         0.00000E+00
         0.00000E+00
         0.00000E+00
         0.00000E+00
         0.00000E+00
         0.00000E+00
         0.00000E+00
         0.00000E+00
         0.00000E+00
         0.00000E+00
         0.00000E+00
         0.00000E+00
         0.00000E+00
         0.00000E+00
         0.00000E+00
         0.00000E+00
         0.00000E+00
         0.00000E+00
         0.00000E+00
         0.00000E+00
         0.00000E+00
         0.00000E+00
         0.00000E+00
         0.00000E+00
         0.00000E+00
         0.00000E+00
         0.00000E+00
         0.00000E+00
         0.00000E+00
         0.00000E+00
         0.00000E+00
         0.00000E+00
         0.00000E+00
         0.00000E+00
         0.00000E+00
         0.00000E+00
         0.00000E+00
         0.00000E+00
         0.00000E+00
         0.00000E+00
         0.00000E+00
         0.00000E+00
         0.00000E+00
         0.00000E+00
         0.00000E+00
         0.00000E+00
         0.00000E+00
         0.00000E+00
         0.00000E+00
         0.00000E+00
         0.00000E+00
         0.00000E+00
         0.00000E+00
         0.00000E+00
         0.00000E+00
         0.00000E+00
         0.00000E+00
         0.00000E+00
         0.00000E+00
         0.00000E+00
         0.00000E+00
         0.00000E+00
         0.00000E+00
         0.00000E+00
         0.00000E+00
         0.00000E+00
         0.00000E+00
         0.00000E+00
         0.00000E+00
         0.00000E+00
         0.00000E+00
         0.00000E+00
         0.00000E+00
         0.00000E+00
         0.00000E+00
         0.00000E+00
         0.00000E+00
         0.00000E+00
         0.00000E+00
         0.00000E+00
         0.00000E+00
         0.00000E+00
         0.00000E+00
         0.00000E+00
         0.00000E+00
         0.00000E+00
         0.00000E+00
         0.00000E+00
         0.00000E+00
         0.00000E+00
         0.00000E+00
         0.00000E+00
         0.00000E+00
         0.00000E+00
         0.00000E+00
         0.00000E+00
         0.00000E+00
         0.00000E+00
         0.00000E+00
         0.00000E+00
         0.00000E+00
         0.00000E+00
         0.00000E+00
         0.00000E+00
         0.00000E+00
         0.00000E+00
         0.00000E+00
         0.00000E+00
         0.00000E+00
         0.00000E+00
         0.00000E+00
         0.00000E+00
         0.00000E+00
         0.00000E+00
         0.00000E+00
         0.00000E+00
         0.00000E+00
         0.00000E+00
         0.00000E+00
         0.00000E+00
         0.00000E+00
         0.00000E+00
         0.00000E+00
         0.00000E+00
         0.00000E+00
         0.00000E+00
         0.00000E+00
         0.00000E+00
         0.00000E+00
         0.00000E+00
         0.00000E+00
         0.00000E+00
         0.00000E+00
         0.00000E+00
         0.00000E+00
         0.00000E+00
         0.00000E+00
         0.00000E+00
         0.00000E+00
         0.00000E+00
         0.00000E+00
         0.00000E+00
         0.00000E+00
         0.00000E+00
         0.00000E+00
         0.00000E+00
         0.00000E+00
         0.00000E+00
         0.00000E+00
         0.00000E+00
         0.00000E+00
         0.00000E+00
         0.00000E+00
         0.00000E+00
         0.00000E+00
         0.00000E+00
         0.00000E+00
         0.00000E+00
         0.00000E+00
         0.00000E+00
         0.00000E+00
         0.00000E+00
         0.00000E+00
         0.00000E+00
         0.00000E+00
         0.00000E+00
         0.00000E+00
         0.00000E+00
         0.00000E+00
         0.00000E+00
         0.00000E+00
         0.00000E+00
         0.00000E+00
         0.00000E+00
         0.00000E+00
         0.00000E+00
         0.00000E+00
         0.00000E+00
         0.00000E+00
         0.00000E+00
         0.00000E+00
         0.00000E+00
         0.00000E+00
         0.00000E+00
         0.00000E+00
         0.00000E+00
         0.00000E+00
         0.00000E+00
         0.00000E+00
         0.00000E+00
         0.00000E+00
         0.00000E+00
         0.00000E+00
         0.00000E+00
         0.00000E+00
         0.00000E+00
         0.00000E+00
         0.00000E+00
         0.00000E+00
         0.00000E+00
         0.00000E+00
         0.00000E+00
         0.00000E+00
         0.00000E+00
         0.00000E+00
         0.00000E+00
         0.00000E+00
         0.00000E+00
         0.00000E+00
         0.00000E+00
         0.00000E+00
         0.00000E+00
         0.00000E+00
         0.00000E+00
         0.00000E+00
         0.00000E+00
         0.00000E+00
         0.00000E+00
         0.00000E+00
         0.00000E+00
         0.00000E+00
         0.00000E+00
         0.00000E+00
         0.00000E+00
         0.00000E+00
         0.00000E+00
         0.00000E+00
         0.00000E+00
         0.00000E+00
         0.00000E+00
         0.00000E+00
         0.00000E+00
         0.00000E+00
         0.00000E+00
         0.00000E+00
         0.00000E+00
         0.00000E+00
         0.00000E+00
         0.00000E+00
         0.00000E+00
         0.00000E+00
         0.00000E+00
         0.00000E+00
         0.00000E+00
         0.00000E+00
         0.00000E+00
         0.00000E+00
         0.00000E+00
         0.00000E+00
         0.00000E+00
         0.00000E+00
         0.00000E+00
         0.00000E+00
         0.00000E+00
         0.00000E+00
         0.00000E+00
         0.00000E+00
         0.00000E+00
         0.00000E+00
         0.00000E+00
         0.00000E+00
         0.00000E+00
         0.00000E+00
         0.00000E+00
         0.00000E+00
         0.00000E+00
         0.00000E+00
         0.00000E+00
         0.00000E+00
         0.00000E+00
         0.00000E+00
         0.00000E+00
         0.00000E+00
         0.00000E+00
         0.00000E+00
         0.00000E+00
         0.00000E+00
         0.00000E+00
         0.00000E+00
         0.00000E+00
         0.00000E+00
         0.00000E+00
         0.00000E+00
         0.00000E+00
         0.00000E+00
         0.00000E+00
         0.00000E+00
         0.00000E+00
         0.00000E+00
         0.00000E+00
         0.00000E+00
         0.00000E+00
         0.00000E+00
         0.00000E+00
         0.00000E+00
         0.00000E+00
         0.00000E+00
         0.00000E+00
         0.00000E+00
         0.00000E+00
         0.00000E+00
         0.00000E+00
         0.00000E+00
         0.00000E+00
         0.00000E+00
         0.00000E+00
         0.00000E+00
         0.00000E+00
         0.00000E+00
         0.00000E+00
         0.00000E+00
         0.00000E+00
         0.00000E+00
         0.00000E+00
         0.00000E+00
         0.00000E+00
         0.00000E+00
         0.00000E+00
         0.00000E+00
         0.00000E+00
         0.00000E+00
         0.00000E+00
  
SCALARS                     velocity_y  double 1
LOOKUP_TABLE default
         0.00000E+00
         0.00000E+00
         0.00000E+00
         0.00000E+00
         0.00000E+00
         0.00000E+00
         0.00000E+00
         0.00000E+00
         0.00000E+00
         0.00000E+00
         0.00000E+00
         0.00000E+00
         0.00000E+00
         0.00000E+00
         0.00000E+00
         0.00000E+00
         0.00000E+00
         0.00000E+00
         0.00000E+00
         0.00000E+00
         0.00000E+00
         0.00000E+00
         0.00000E+00
         0.00000E+00
         0.00000E+00
         0.00000E+00
         0.00000E+00
         0.00000E+00
         0.00000E+00
         0.00000E+00
         0.00000E+00
         0.00000E+00
         0.00000E+00
         0.00000E+00
         0.00000E+00
         0.00000E+00
         0.00000E+00
         0.00000E+00
         0.00000E+00
         0.00000E+00
         0.00000E+00
         0.00000E+00
         0.00000E+00
         0.00000E+00
         0.00000E+00
         0.00000E+00
         0.00000E+00
         0.00000E+00
         0.00000E+00
         0.00000E+00
         0.00000E+00
         0.00000E+00
         0.00000E+00
         0.00000E+00
         0.00000E+00
         0.00000E+00
         0.00000E+00
         0.00000E+00
         0.00000E+00
         0.00000E+00
         0.00000E+00
         0.00000E+00
         0.00000E+00
         0.00000E+00
         0.00000E+00
         0.00000E+00
         0.00000E+00
         0.00000E+00
         0.00000E+00
         0.00000E+00
         0.00000E+00
         0.00000E+00
         0.00000E+00
         0.00000E+00
         0.00000E+00
         0.00000E+00
         0.00000E+00
         0.00000E+00
         0.00000E+00
         0.00000E+00
         0.00000E+00
         0.00000E+00
         0.00000E+00
         0.00000E+00
         0.00000E+00
         0.00000E+00
         0.00000E+00
         0.00000E+00
         0.00000E+00
         0.00000E+00
         0.00000E+00
         0.00000E+00
         0.00000E+00
         0.00000E+00
         0.00000E+00
         0.00000E+00
         0.00000E+00
         0.00000E+00
         0.00000E+00
         0.00000E+00
         0.00000E+00
         0.00000E+00
         0.00000E+00
         0.00000E+00
         0.00000E+00
         0.00000E+00
         0.00000E+00
         0.00000E+00
         0.00000E+00
         0.00000E+00
         0.00000E+00
         0.00000E+00
         0.00000E+00
         0.00000E+00
         0.00000E+00
         0.00000E+00
         0.00000E+00
         0.00000E+00
         0.00000E+00
         0.00000E+00
         0.00000E+00
         0.00000E+00
         0.00000E+00
         0.00000E+00
         0.00000E+00
         0.00000E+00
         0.00000E+00
         0.00000E+00
         0.00000E+00
         0.00000E+00
         0.00000E+00
         0.00000E+00
         0.00000E+00
         0.00000E+00
         0.00000E+00
         0.00000E+00
         0.00000E+00
         0.00000E+00
         0.00000E+00
         0.00000E+00
         0.00000E+00
         0.00000E+00
         0.00000E+00
         0.00000E+00
         0.00000E+00
         0.00000E+00
         0.00000E+00
         0.00000E+00
         0.00000E+00
         0.00000E+00
         0.00000E+00
         0.00000E+00
         0.00000E+00
         0.00000E+00
         0.00000E+00
         0.00000E+00
         0.00000E+00
         0.00000E+00
         0.00000E+00
         0.00000E+00
         0.00000E+00
         0.00000E+00
         0.00000E+00
         0.00000E+00
         0.00000E+00
         0.00000E+00
         0.00000E+00
         0.00000E+00
         0.00000E+00
         0.00000E+00
         0.00000E+00
         0.00000E+00
         0.00000E+00
         0.00000E+00
         0.00000E+00
         0.00000E+00
         0.00000E+00
         0.00000E+00
         0.00000E+00
         0.00000E+00
         0.00000E+00
         0.00000E+00
         0.00000E+00
         0.00000E+00
         0.00000E+00
         0.00000E+00
         0.00000E+00
         0.00000E+00
         0.00000E+00
         0.00000E+00
         0.00000E+00
         0.00000E+00
         0.00000E+00
         0.00000E+00
         0.00000E+00
         0.00000E+00
         0.00000E+00
         0.00000E+00
         0.00000E+00
         0.00000E+00
         0.00000E+00
         0.00000E+00
         0.00000E+00
         0.00000E+00
         0.00000E+00
         0.00000E+00
         0.00000E+00
         0.00000E+00
         0.00000E+00
         0.00000E+00
         0.00000E+00
         0.00000E+00
         0.00000E+00
         0.00000E+00
         0.00000E+00
         0.00000E+00
         0.00000E+00
         0.00000E+00
         0.00000E+00
         0.00000E+00
         0.00000E+00
         0.00000E+00
         0.00000E+00
         0.00000E+00
         0.00000E+00
         0.00000E+00
         0.00000E+00
         0.00000E+00
         0.00000E+00
         0.00000E+00
         0.00000E+00
         0.00000E+00
         0.00000E+00
         0.00000E+00
         0.00000E+00
         0.00000E+00
         0.00000E+00
         0.00000E+00
         0.00000E+00
         0.00000E+00
         0.00000E+00
         0.00000E+00
         0.00000E+00
         0.00000E+00
         0.00000E+00
         0.00000E+00
         0.00000E+00
         0.00000E+00
         0.00000E+00
         0.00000E+00
         0.00000E+00
         0.00000E+00
         0.00000E+00
         0.00000E+00
         0.00000E+00
         0.00000E+00
         0.00000E+00
         0.00000E+00
         0.00000E+00
         0.00000E+00
         0.00000E+00
         0.00000E+00
         0.00000E+00
         0.00000E+00
         0.00000E+00
         0.00000E+00
         0.00000E+00
         0.00000E+00
         0.00000E+00
         0.00000E+00
         0.00000E+00
         0.00000E+00
         0.00000E+00
         0.00000E+00
         0.00000E+00
         0.00000E+00
         0.00000E+00
         0.00000E+00
         0.00000E+00
         0.00000E+00
         0.00000E+00
         0.00000E+00
         0.00000E+00
         0.00000E+00
         0.00000E+00
         0.00000E+00
         0.00000E+00
         0.00000E+00
         0.00000E+00
         0.00000E+00
         0.00000E+00
         0.00000E+00
         0.00000E+00
         0.00000E+00
         0.00000E+00
         0.00000E+00
         0.00000E+00
         0.00000E+00
         0.00000E+00
         0.00000E+00
         0.00000E+00
         0.00000E+00
         0.00000E+00
         0.00000E+00
         0.00000E+00
         0.00000E+00
         0.00000E+00
         0.00000E+00
         0.00000E+00
         0.00000E+00
         0.00000E+00
         0.00000E+00
         0.00000E+00
         0.00000E+00
         0.00000E+00
         0.00000E+00
         0.00000E+00
         0.00000E+00
         0.00000E+00
         0.00000E+00
         0.00000E+00
         0.00000E+00
         0.00000E+00
         0.00000E+00
         0.00000E+00
         0.00000E+00
         0.00000E+00
         0.00000E+00
         0.00000E+00
         0.00000E+00
         0.00000E+00
         0.00000E+00
         0.00000E+00
         0.00000E+00
         0.00000E+00
         0.00000E+00
         0.00000E+00
         0.00000E+00
         0.00000E+00
         0.00000E+00
         0.00000E+00
         0.00000E+00
         0.00000E+00
         0.00000E+00
         0.00000E+00
         0.00000E+00
         0.00000E+00
         0.00000E+00
         0.00000E+00
         0.00000E+00
         0.00000E+00
         0.00000E+00
         0.00000E+00
         0.00000E+00
         0.00000E+00
         0.00000E+00
         0.00000E+00
         0.00000E+00
         0.00000E+00
         0.00000E+00
         0.00000E+00
         0.00000E+00
         0.00000E+00
         0.00000E+00
         0.00000E+00
         0.00000E+00
         0.00000E+00
         0.00000E+00
         0.00000E+00
         0.00000E+00
         0.00000E+00
         0.00000E+00
         0.00000E+00
         0.00000E+00
         0.00000E+00
         0.00000E+00
         0.00000E+00
         0.00000E+00
         0.00000E+00
         0.00000E+00
         0.00000E+00
         0.00000E+00
         0.00000E+00
         0.00000E+00
         0.00000E+00
         0.00000E+00
         0.00000E+00
         0.00000E+00
         0.00000E+00
         0.00000E+00
         0.00000E+00
         0.00000E+00
         0.00000E+00
         0.00000E+00
         0.00000E+00
         0.00000E+00
         0.00000E+00
         0.00000E+00
         0.00000E+00
         0.00000E+00
         0.00000E+00
         0.00000E+00
         0.00000E+00
         0.00000E+00
         0.00000E+00
         0.00000E+00
         0.00000E+00
         0.00000E+00
         0.00000E+00
         0.00000E+00
         0.00000E+00
         0.00000E+00
         0.00000E+00
         0.00000E+00
         0.00000E+00
         0.00000E+00
         0.00000E+00
         0.00000E+00
         0.00000E+00
         0.00000E+00
         0.00000E+00
         0.00000E+00
         0.00000E+00
         0.00000E+00
         0.00000E+00
         0.00000E+00
         0.00000E+00
         0.00000E+00
         0.00000E+00
         0.00000E+00
         0.00000E+00
         0.00000E+00
         0.00000E+00
         0.00000E+00
         0.00000E+00
         0.00000E+00
         0.00000E+00
         0.00000E+00
         0.00000E+00
         0.00000E+00
         0.00000E+00
         0.00000E+00
         0.00000E+00
         0.00000E+00
         0.00000E+00
         0.00000E+00
         0.00000E+00
         0.00000E+00
         0.00000E+00
         0.00000E+00
         0.00000E+00
         0.00000E+00
         0.00000E+00
         0.00000E+00
         0.00000E+00
         0.00000E+00
         0.00000E+00
         0.00000E+00
         0.00000E+00
         0.00000E+00
         0.00000E+00
         0.00000E+00
         0.00000E+00
         0.00000E+00
         0.00000E+00
         0.00000E+00
         0.00000E+00
         0.00000E+00
         0.00000E+00
         0.00000E+00
         0.00000E+00
         0.00000E+00
         0.00000E+00
         0.00000E+00
         0.00000E+00
         0.00000E+00
         0.00000E+00
         0.00000E+00
         0.00000E+00
         0.00000E+00
         0.00000E+00
         0.00000E+00
         0.00000E+00
         0.00000E+00
         0.00000E+00
         0.00000E+00
         0.00000E+00
         0.00000E+00
         0.00000E+00
         0.00000E+00
         0.00000E+00
         0.00000E+00
         0.00000E+00
         0.00000E+00
         0.00000E+00
         0.00000E+00
         0.00000E+00
         0.00000E+00
         0.00000E+00
         0.00000E+00
         0.00000E+00
         0.00000E+00
         0.00000E+00
         0.00000E+00
         0.00000E+00
         0.00000E+00
         0.00000E+00
         0.00000E+00
         0.00000E+00
         0.00000E+00
         0.00000E+00
         0.00000E+00
         0.00000E+00
         0.00000E+00
         0.00000E+00
         0.00000E+00
         0.00000E+00
         0.00000E+00
         0.00000E+00
         0.00000E+00
         0.00000E+00
         0.00000E+00
         0.00000E+00
         0.00000E+00
         0.00000E+00
         0.00000E+00
         0.00000E+00
         0.00000E+00
         0.00000E+00
         0.00000E+00
         0.00000E+00
         0.00000E+00
         0.00000E+00
         0.00000E+00
         0.00000E+00
         0.00000E+00
         0.00000E+00
         0.00000E+00
         0.00000E+00
         0.00000E+00
         0.00000E+00
         0.00000E+00
         0.00000E+00
         0.00000E+00
         0.00000E+00
         0.00000E+00
         0.00000E+00
         0.00000E+00
         0.00000E+00
         0.00000E+00
         0.00000E+00
         0.00000E+00
         0.00000E+00
         0.00000E+00
         0.00000E+00
         0.00000E+00
         0.00000E+00
         0.00000E+00
         0.00000E+00
         0.00000E+00
         0.00000E+00
         0.00000E+00
         0.00000E+00
         0.00000E+00
         0.00000E+00
         0.00000E+00
         0.00000E+00
         0.00000E+00
         0.00000E+00
         0.00000E+00
         0.00000E+00
         0.00000E+00
         0.00000E+00
         0.00000E+00
         0.00000E+00
         0.00000E+00
         0.00000E+00
         0.00000E+00
         0.00000E+00
         0.00000E+00
         0.00000E+00
         0.00000E+00
         0.00000E+00
         0.00000E+00
         0.00000E+00
         0.00000E+00
         0.00000E+00
         0.00000E+00
         0.00000E+00
         0.00000E+00
         0.00000E+00
         0.00000E+00
         0.00000E+00
         0.00000E+00
         0.00000E+00
         0.00000E+00
         0.00000E+00
         0.00000E+00
         0.00000E+00
         0.00000E+00
         0.00000E+00
         0.00000E+00
         0.00000E+00
         0.00000E+00
         0.00000E+00
         0.00000E+00
         0.00000E+00
         0.00000E+00
         0.00000E+00
         0.00000E+00
         0.00000E+00
         0.00000E+00
         0.00000E+00
         0.00000E+00
         0.00000E+00
         0.00000E+00
         0.00000E+00
         0.00000E+00
         0.00000E+00
         0.00000E+00
         0.00000E+00
         0.00000E+00
         0.00000E+00
         0.00000E+00
         0.00000E+00
         0.00000E+00
         0.00000E+00
         0.00000E+00
         0.00000E+00
         0.00000E+00
         0.00000E+00
         0.00000E+00
         0.00000E+00
         0.00000E+00
         0.00000E+00
         0.00000E+00
         0.00000E+00
         0.00000E+00
         0.00000E+00
         0.00000E+00
         0.00000E+00
         0.00000E+00
         0.00000E+00
         0.00000E+00
         0.00000E+00
         0.00000E+00
         0.00000E+00
         0.00000E+00
         0.00000E+00
         0.00000E+00
         0.00000E+00
         0.00000E+00
         0.00000E+00
         0.00000E+00
         0.00000E+00
         0.00000E+00
         0.00000E+00
         0.00000E+00
         0.00000E+00
         0.00000E+00
         0.00000E+00
         0.00000E+00
         0.00000E+00
         0.00000E+00
         0.00000E+00
         0.00000E+00
         0.00000E+00
         0.00000E+00
         0.00000E+00
         0.00000E+00
         0.00000E+00
         0.00000E+00
         0.00000E+00
         0.00000E+00
         0.00000E+00
         0.00000E+00
         0.00000E+00
         0.00000E+00
         0.00000E+00
         0.00000E+00
         0.00000E+00
         0.00000E+00
         0.00000E+00
         0.00000E+00
         0.00000E+00
         0.00000E+00
         0.00000E+00
         0.00000E+00
         0.00000E+00
         0.00000E+00
         0.00000E+00
         0.00000E+00
         0.00000E+00
         0.00000E+00
         0.00000E+00
         0.00000E+00
         0.00000E+00
         0.00000E+00
         0.00000E+00
         0.00000E+00
         0.00000E+00
         0.00000E+00
         0.00000E+00
         0.00000E+00
         0.00000E+00
         0.00000E+00
         0.00000E+00
         0.00000E+00
         0.00000E+00
         0.00000E+00
         0.00000E+00
         0.00000E+00
         0.00000E+00
         0.00000E+00
         0.00000E+00
         0.00000E+00
         0.00000E+00
         0.00000E+00
         0.00000E+00
         0.00000E+00
         0.00000E+00
         0.00000E+00
         0.00000E+00
         0.00000E+00
         0.00000E+00
         0.00000E+00
         0.00000E+00
         0.00000E+00
         0.00000E+00
         0.00000E+00
         0.00000E+00
         0.00000E+00
         0.00000E+00
         0.00000E+00
         0.00000E+00
         0.00000E+00
         0.00000E+00
         0.00000E+00
         0.00000E+00
         0.00000E+00
         0.00000E+00
         0.00000E+00
         0.00000E+00
         0.00000E+00
         0.00000E+00
         0.00000E+00
         0.00000E+00
         0.00000E+00
         0.00000E+00
         0.00000E+00
         0.00000E+00
         0.00000E+00
         0.00000E+00
         0.00000E+00
         0.00000E+00
         0.00000E+00
         0.00000E+00
         0.00000E+00
         0.00000E+00
         0.00000E+00
         0.00000E+00
         0.00000E+00
         0.00000E+00
         0.00000E+00
         0.00000E+00
         0.00000E+00
         0.00000E+00
         0.00000E+00
         0.00000E+00
         0.00000E+00
         0.00000E+00
         0.00000E+00
         0.00000E+00
         0.00000E+00
         0.00000E+00
         0.00000E+00
         0.00000E+00
         0.00000E+00
         0.00000E+00
         0.00000E+00
         0.00000E+00
         0.00000E+00
         0.00000E+00
         0.00000E+00
         0.00000E+00
         0.00000E+00
         0.00000E+00
         0.00000E+00
         0.00000E+00
         0.00000E+00
         0.00000E+00
         0.00000E+00
         0.00000E+00
         0.00000E+00
         0.00000E+00
         0.00000E+00
         0.00000E+00
         0.00000E+00
         0.00000E+00
         0.00000E+00
         0.00000E+00
         0.00000E+00
         0.00000E+00
         0.00000E+00
         0.00000E+00
         0.00000E+00
         0.00000E+00
         0.00000E+00
         0.00000E+00
         0.00000E+00
         0.00000E+00
         0.00000E+00
         0.00000E+00
         0.00000E+00
         0.00000E+00
         0.00000E+00
         0.00000E+00
         0.00000E+00
         0.00000E+00
         0.00000E+00
         0.00000E+00
         0.00000E+00
         0.00000E+00
         0.00000E+00
         0.00000E+00
         0.00000E+00
         0.00000E+00
         0.00000E+00
         0.00000E+00
         0.00000E+00
         0.00000E+00
         0.00000E+00
         0.00000E+00
         0.00000E+00
         0.00000E+00
         0.00000E+00
         0.00000E+00
         0.00000E+00
         0.00000E+00
         0.00000E+00
         0.00000E+00
         0.00000E+00
         0.00000E+00
         0.00000E+00
         0.00000E+00
         0.00000E+00
         0.00000E+00
         0.00000E+00
         0.00000E+00
         0.00000E+00
         0.00000E+00
         0.00000E+00
         0.00000E+00
         0.00000E+00
         0.00000E+00
         0.00000E+00
         0.00000E+00
         0.00000E+00
         0.00000E+00
         0.00000E+00
         0.00000E+00
         0.00000E+00
         0.00000E+00
         0.00000E+00
         0.00000E+00
         0.00000E+00
         0.00000E+00
         0.00000E+00
         0.00000E+00
         0.00000E+00
         0.00000E+00
         0.00000E+00
         0.00000E+00
         0.00000E+00
         0.00000E+00
         0.00000E+00
         0.00000E+00
         0.00000E+00
         0.00000E+00
         0.00000E+00
         0.00000E+00
         0.00000E+00
         0.00000E+00
         0.00000E+00
         0.00000E+00
         0.00000E+00
         0.00000E+00
         0.00000E+00
         0.00000E+00
         0.00000E+00
         0.00000E+00
         0.00000E+00
         0.00000E+00
         0.00000E+00
         0.00000E+00
         0.00000E+00
         0.00000E+00
         0.00000E+00
         0.00000E+00
         0.00000E+00
         0.00000E+00
         0.00000E+00
         0.00000E+00
         0.00000E+00
         0.00000E+00
         0.00000E+00
         0.00000E+00
         0.00000E+00
         0.00000E+00
         0.00000E+00
         0.00000E+00
         0.00000E+00
         0.00000E+00
         0.00000E+00
         0.00000E+00
         0.00000E+00
         0.00000E+00
         0.00000E+00
         0.00000E+00
         0.00000E+00
         0.00000E+00
         0.00000E+00
         0.00000E+00
         0.00000E+00
         0.00000E+00
         0.00000E+00
         0.00000E+00
         0.00000E+00
         0.00000E+00
         0.00000E+00
         0.00000E+00
         0.00000E+00
         0.00000E+00
         0.00000E+00
         0.00000E+00
         0.00000E+00
         0.00000E+00
         0.00000E+00
         0.00000E+00
         0.00000E+00
         0.00000E+00
         0.00000E+00
         0.00000E+00
         0.00000E+00
         0.00000E+00
         0.00000E+00
         0.00000E+00
         0.00000E+00
         0.00000E+00
         0.00000E+00
         0.00000E+00
         0.00000E+00
         0.00000E+00
         0.00000E+00
         0.00000E+00
         0.00000E+00
         0.00000E+00
         0.00000E+00
         0.00000E+00
         0.00000E+00
         0.00000E+00
         0.00000E+00
         0.00000E+00
         0.00000E+00
         0.00000E+00
         0.00000E+00
         0.00000E+00
         0.00000E+00
         0.00000E+00
         0.00000E+00
         0.00000E+00
         0.00000E+00
         0.00000E+00
         0.00000E+00
         0.00000E+00
         0.00000E+00
         0.00000E+00
         0.00000E+00
         0.00000E+00
         0.00000E+00
         0.00000E+00
         0.00000E+00
         0.00000E+00
         0.00000E+00
         0.00000E+00
         0.00000E+00
         0.00000E+00
         0.00000E+00
         0.00000E+00
         0.00000E+00
         0.00000E+00
         0.00000E+00
         0.00000E+00
         0.00000E+00
         0.00000E+00
         0.00000E+00
         0.00000E+00
         0.00000E+00
         0.00000E+00
         0.00000E+00
         0.00000E+00
         0.00000E+00
         0.00000E+00
         0.00000E+00
         0.00000E+00
         0.00000E+00
         0.00000E+00
         0.00000E+00
         0.00000E+00
         0.00000E+00
         0.00000E+00
         0.00000E+00
         0.00000E+00
         0.00000E+00
         0.00000E+00
         0.00000E+00
         0.00000E+00
         0.00000E+00
         0.00000E+00
         0.00000E+00
         0.00000E+00
         0.00000E+00
         0.00000E+00
         0.00000E+00
         0.00000E+00
         0.00000E+00
         0.00000E+00
         0.00000E+00
         0.00000E+00
         0.00000E+00
         0.00000E+00
         0.00000E+00
         0.00000E+00
         0.00000E+00
         0.00000E+00
         0.00000E+00
         0.00000E+00
         0.00000E+00
         0.00000E+00
         0.00000E+00
         0.00000E+00
         0.00000E+00
         0.00000E+00
         0.00000E+00
         0.00000E+00
         0.00000E+00
         0.00000E+00
         0.00000E+00
         0.00000E+00
         0.00000E+00
         0.00000E+00
         0.00000E+00
         0.00000E+00
         0.00000E+00
         0.00000E+00
         0.00000E+00
         0.00000E+00
         0.00000E+00
         0.00000E+00
         0.00000E+00
         0.00000E+00
         0.00000E+00
         0.00000E+00
         0.00000E+00
         0.00000E+00
         0.00000E+00
         0.00000E+00
         0.00000E+00
         0.00000E+00
         0.00000E+00
         0.00000E+00
         0.00000E+00
         0.00000E+00
         0.00000E+00
         0.00000E+00
         0.00000E+00
         0.00000E+00
         0.00000E+00
         0.00000E+00
         0.00000E+00
         0.00000E+00
         0.00000E+00
         0.00000E+00
         0.00000E+00
         0.00000E+00
         0.00000E+00
         0.00000E+00
         0.00000E+00
         0.00000E+00
         0.00000E+00
         0.00000E+00
         0.00000E+00
         0.00000E+00
         0.00000E+00
         0.00000E+00
         0.00000E+00
         0.00000E+00
         0.00000E+00
         0.00000E+00
         0.00000E+00
         0.00000E+00
         0.00000E+00
         0.00000E+00
         0.00000E+00
         0.00000E+00
         0.00000E+00
         0.00000E+00
         0.00000E+00
         0.00000E+00
         0.00000E+00
         0.00000E+00
         0.00000E+00
         0.00000E+00
         0.00000E+00
         0.00000E+00
         0.00000E+00
         0.00000E+00
         0.00000E+00
         0.00000E+00
         0.00000E+00
         0.00000E+00
         0.00000E+00
         0.00000E+00
         0.00000E+00
         0.00000E+00
         0.00000E+00
         0.00000E+00
         0.00000E+00
         0.00000E+00
         0.00000E+00
         0.00000E+00
         0.00000E+00
         0.00000E+00
         0.00000E+00
         0.00000E+00
         0.00000E+00
         0.00000E+00
         0.00000E+00
         0.00000E+00
         0.00000E+00
         0.00000E+00
         0.00000E+00
         0.00000E+00
         0.00000E+00
         0.00000E+00
         0.00000E+00
         0.00000E+00
         0.00000E+00
         0.00000E+00
         0.00000E+00
         0.00000E+00
         0.00000E+00
         0.00000E+00
         0.00000E+00
         0.00000E+00
         0.00000E+00
         0.00000E+00
         0.00000E+00
         0.00000E+00
         0.00000E+00
         0.00000E+00
         0.00000E+00
         0.00000E+00
         0.00000E+00
         0.00000E+00
         0.00000E+00
         0.00000E+00
         0.00000E+00
         0.00000E+00
         0.00000E+00
         0.00000E+00
         0.00000E+00
         0.00000E+00
         0.00000E+00
         0.00000E+00
         0.00000E+00
         0.00000E+00
         0.00000E+00
         0.00000E+00
         0.00000E+00
         0.00000E+00
         0.00000E+00
         0.00000E+00
         0.00000E+00
         0.00000E+00
         0.00000E+00
         0.00000E+00
         0.00000E+00
         0.00000E+00
         0.00000E+00
         0.00000E+00
         0.00000E+00
         0.00000E+00
         0.00000E+00
         0.00000E+00
         0.00000E+00
         0.00000E+00
         0.00000E+00
         0.00000E+00
         0.00000E+00
         0.00000E+00
         0.00000E+00
         0.00000E+00
         0.00000E+00
         0.00000E+00
         0.00000E+00
         0.00000E+00
         0.00000E+00
         0.00000E+00
         0.00000E+00
         0.00000E+00
         0.00000E+00
         0.00000E+00
         0.00000E+00
         0.00000E+00
         0.00000E+00
         0.00000E+00
         0.00000E+00
         0.00000E+00
         0.00000E+00
         0.00000E+00
         0.00000E+00
         0.00000E+00
         0.00000E+00
         0.00000E+00
         0.00000E+00
         0.00000E+00
         0.00000E+00
         0.00000E+00
         0.00000E+00
         0.00000E+00
         0.00000E+00
         0.00000E+00
         0.00000E+00
         0.00000E+00
         0.00000E+00
         0.00000E+00
         0.00000E+00
         0.00000E+00
         0.00000E+00
         0.00000E+00
         0.00000E+00
         0.00000E+00
         0.00000E+00
         0.00000E+00
         0.00000E+00
         0.00000E+00
         0.00000E+00
         0.00000E+00
         0.00000E+00
         0.00000E+00
         0.00000E+00
         0.00000E+00
         0.00000E+00
         0.00000E+00
         0.00000E+00
         0.00000E+00
         0.00000E+00
         0.00000E+00
         0.00000E+00
         0.00000E+00
         0.00000E+00
         0.00000E+00
         0.00000E+00
         0.00000E+00
         0.00000E+00
         0.00000E+00
         0.00000E+00
         0.00000E+00
         0.00000E+00
         0.00000E+00
         0.00000E+00
         0.00000E+00
         0.00000E+00
         0.00000E+00
         0.00000E+00
         0.00000E+00
         0.00000E+00
         0.00000E+00
         0.00000E+00
         0.00000E+00
         0.00000E+00
         0.00000E+00
         0.00000E+00
         0.00000E+00
         0.00000E+00
         0.00000E+00
         0.00000E+00
         0.00000E+00
         0.00000E+00
         0.00000E+00
         0.00000E+00
         0.00000E+00
         0.00000E+00
         0.00000E+00
         0.00000E+00
         0.00000E+00
         0.00000E+00
         0.00000E+00
         0.00000E+00
         0.00000E+00
         0.00000E+00
         0.00000E+00
         0.00000E+00
         0.00000E+00
         0.00000E+00
         0.00000E+00
         0.00000E+00
         0.00000E+00
         0.00000E+00
         0.00000E+00
         0.00000E+00
         0.00000E+00
         0.00000E+00
         0.00000E+00
         0.00000E+00
         0.00000E+00
         0.00000E+00
         0.00000E+00
         0.00000E+00
         0.00000E+00
         0.00000E+00
         0.00000E+00
         0.00000E+00
         0.00000E+00
         0.00000E+00
         0.00000E+00
         0.00000E+00
         0.00000E+00
         0.00000E+00
         0.00000E+00
         0.00000E+00
         0.00000E+00
         0.00000E+00
         0.00000E+00
         0.00000E+00
         0.00000E+00
         0.00000E+00
         0.00000E+00
         0.00000E+00
         0.00000E+00
         0.00000E+00
         0.00000E+00
         0.00000E+00
         0.00000E+00
         0.00000E+00
         0.00000E+00
         0.00000E+00
         0.00000E+00
         0.00000E+00
         0.00000E+00
         0.00000E+00
         0.00000E+00
         0.00000E+00
         0.00000E+00
         0.00000E+00
         0.00000E+00
         0.00000E+00
         0.00000E+00
         0.00000E+00
         0.00000E+00
         0.00000E+00
         0.00000E+00
         0.00000E+00
         0.00000E+00
         0.00000E+00
         0.00000E+00
         0.00000E+00
         0.00000E+00
         0.00000E+00
         0.00000E+00
         0.00000E+00
         0.00000E+00
         0.00000E+00
         0.00000E+00
         0.00000E+00
         0.00000E+00
         0.00000E+00
         0.00000E+00
         0.00000E+00
         0.00000E+00
         0.00000E+00
         0.00000E+00
         0.00000E+00
         0.00000E+00
         0.00000E+00
         0.00000E+00
         0.00000E+00
         0.00000E+00
         0.00000E+00
         0.00000E+00
         0.00000E+00
         0.00000E+00
         0.00000E+00
         0.00000E+00
         0.00000E+00
         0.00000E+00
         0.00000E+00
         0.00000E+00
         0.00000E+00
         0.00000E+00
         0.00000E+00
         0.00000E+00
         0.00000E+00
         0.00000E+00
         0.00000E+00
         0.00000E+00
         0.00000E+00
         0.00000E+00
         0.00000E+00
         0.00000E+00
         0.00000E+00
         0.00000E+00
         0.00000E+00
         0.00000E+00
         0.00000E+00
         0.00000E+00
         0.00000E+00
         0.00000E+00
         0.00000E+00
         0.00000E+00
         0.00000E+00
         0.00000E+00
         0.00000E+00
         0.00000E+00
         0.00000E+00
         0.00000E+00
         0.00000E+00
         0.00000E+00
         0.00000E+00
         0.00000E+00
         0.00000E+00
         0.00000E+00
         0.00000E+00
         0.00000E+00
         0.00000E+00
         0.00000E+00
         0.00000E+00
         0.00000E+00
         0.00000E+00
         0.00000E+00
         0.00000E+00
         0.00000E+00
         0.00000E+00
         0.00000E+00
         0.00000E+00
         0.00000E+00
         0.00000E+00
         0.00000E+00
         0.00000E+00
         0.00000E+00
         0.00000E+00
         0.00000E+00
         0.00000E+00
         0.00000E+00
         0.00000E+00
         0.00000E+00
         0.00000E+00
         0.00000E+00
         0.00000E+00
         0.00000E+00
         0.00000E+00
         0.00000E+00
         0.00000E+00
         0.00000E+00
         0.00000E+00
         0.00000E+00
         0.00000E+00
         0.00000E+00
         0.00000E+00
         0.00000E+00
         0.00000E+00
         0.00000E+00
         0.00000E+00
         0.00000E+00
         0.00000E+00
         0.00000E+00
         0.00000E+00
         0.00000E+00
         0.00000E+00
         0.00000E+00
         0.00000E+00
         0.00000E+00
         0.00000E+00
         0.00000E+00
         0.00000E+00
         0.00000E+00
         0.00000E+00
         0.00000E+00
         0.00000E+00
         0.00000E+00
         0.00000E+00
         0.00000E+00
         0.00000E+00
         0.00000E+00
         0.00000E+00
         0.00000E+00
         0.00000E+00
         0.00000E+00
         0.00000E+00
         0.00000E+00
         0.00000E+00
         0.00000E+00
         0.00000E+00
         0.00000E+00
         0.00000E+00
         0.00000E+00
         0.00000E+00
         0.00000E+00
         0.00000E+00
         0.00000E+00
         0.00000E+00
         0.00000E+00
         0.00000E+00
         0.00000E+00
         0.00000E+00
         0.00000E+00
         0.00000E+00
         0.00000E+00
         0.00000E+00
         0.00000E+00
         0.00000E+00
         0.00000E+00
         0.00000E+00
         0.00000E+00
         0.00000E+00
         0.00000E+00
         0.00000E+00
         0.00000E+00
         0.00000E+00
         0.00000E+00
         0.00000E+00
         0.00000E+00
         0.00000E+00
         0.00000E+00
         0.00000E+00
         0.00000E+00
         0.00000E+00
         0.00000E+00
         0.00000E+00
         0.00000E+00
         0.00000E+00
         0.00000E+00
         0.00000E+00
         0.00000E+00
         0.00000E+00
         0.00000E+00
         0.00000E+00
         0.00000E+00
         0.00000E+00
         0.00000E+00
         0.00000E+00
         0.00000E+00
         0.00000E+00
         0.00000E+00
         0.00000E+00
         0.00000E+00
         0.00000E+00
         0.00000E+00
         0.00000E+00
         0.00000E+00
         0.00000E+00
         0.00000E+00
         0.00000E+00
         0.00000E+00
         0.00000E+00
         0.00000E+00
         0.00000E+00
         0.00000E+00
         0.00000E+00
         0.00000E+00
         0.00000E+00
         0.00000E+00
         0.00000E+00
         0.00000E+00
         0.00000E+00
         0.00000E+00
         0.00000E+00
         0.00000E+00
         0.00000E+00
         0.00000E+00
         0.00000E+00
         0.00000E+00
         0.00000E+00
         0.00000E+00
         0.00000E+00
         0.00000E+00
         0.00000E+00
         0.00000E+00
         0.00000E+00
         0.00000E+00
         0.00000E+00
         0.00000E+00
         0.00000E+00
         0.00000E+00
         0.00000E+00
         0.00000E+00
         0.00000E+00
         0.00000E+00
         0.00000E+00
         0.00000E+00
         0.00000E+00
         0.00000E+00
         0.00000E+00
         0.00000E+00
         0.00000E+00
         0.00000E+00
         0.00000E+00
         0.00000E+00
         0.00000E+00
         0.00000E+00
         0.00000E+00
         0.00000E+00
         0.00000E+00
         0.00000E+00
         0.00000E+00
         0.00000E+00
         0.00000E+00
         0.00000E+00
         0.00000E+00
         0.00000E+00
         0.00000E+00
         0.00000E+00
         0.00000E+00
         0.00000E+00
         0.00000E+00
         0.00000E+00
         0.00000E+00
         0.00000E+00
         0.00000E+00
         0.00000E+00
         0.00000E+00
         0.00000E+00
         0.00000E+00
         0.00000E+00
         0.00000E+00
         0.00000E+00
         0.00000E+00
         0.00000E+00
         0.00000E+00
         0.00000E+00
         0.00000E+00
         0.00000E+00
         0.00000E+00
         0.00000E+00
         0.00000E+00
         0.00000E+00
         0.00000E+00
         0.00000E+00
         0.00000E+00
         0.00000E+00
         0.00000E+00
         0.00000E+00
         0.00000E+00
         0.00000E+00
         0.00000E+00
         0.00000E+00
         0.00000E+00
         0.00000E+00
         0.00000E+00
         0.00000E+00
         0.00000E+00
         0.00000E+00
         0.00000E+00
         0.00000E+00
         0.00000E+00
         0.00000E+00
         0.00000E+00
         0.00000E+00
         0.00000E+00
         0.00000E+00
         0.00000E+00
         0.00000E+00
         0.00000E+00
         0.00000E+00
         0.00000E+00
         0.00000E+00
         0.00000E+00
         0.00000E+00
         0.00000E+00
         0.00000E+00
         0.00000E+00
         0.00000E+00
         0.00000E+00
         0.00000E+00
         0.00000E+00
         0.00000E+00
         0.00000E+00
         0.00000E+00
         0.00000E+00
         0.00000E+00
         0.00000E+00
         0.00000E+00
         0.00000E+00
         0.00000E+00
         0.00000E+00
         0.00000E+00
         0.00000E+00
         0.00000E+00
         0.00000E+00
         0.00000E+00
         0.00000E+00
         0.00000E+00
         0.00000E+00
         0.00000E+00
         0.00000E+00
         0.00000E+00
         0.00000E+00
         0.00000E+00
         0.00000E+00
         0.00000E+00
         0.00000E+00
         0.00000E+00
         0.00000E+00
         0.00000E+00
         0.00000E+00
         0.00000E+00
         0.00000E+00
         0.00000E+00
         0.00000E+00
         0.00000E+00
         0.00000E+00
         0.00000E+00
         0.00000E+00
         0.00000E+00
         0.00000E+00
         0.00000E+00
         0.00000E+00
         0.00000E+00
         0.00000E+00
         0.00000E+00
         0.00000E+00
         0.00000E+00
         0.00000E+00
         0.00000E+00
         0.00000E+00
         0.00000E+00
         0.00000E+00
         0.00000E+00
         0.00000E+00
         0.00000E+00
         0.00000E+00
         0.00000E+00
         0.00000E+00
         0.00000E+00
         0.00000E+00
         0.00000E+00
         0.00000E+00
         0.00000E+00
         0.00000E+00
         0.00000E+00
         0.00000E+00
         0.00000E+00
         0.00000E+00
         0.00000E+00
         0.00000E+00
         0.00000E+00
         0.00000E+00
         0.00000E+00
         0.00000E+00
         0.00000E+00
         0.00000E+00
         0.00000E+00
         0.00000E+00
         0.00000E+00
         0.00000E+00
         0.00000E+00
         0.00000E+00
         0.00000E+00
         0.00000E+00
         0.00000E+00
         0.00000E+00
         0.00000E+00
         0.00000E+00
         0.00000E+00
         0.00000E+00
         0.00000E+00
         0.00000E+00
         0.00000E+00
         0.00000E+00
         0.00000E+00
         0.00000E+00
         0.00000E+00
         0.00000E+00
         0.00000E+00
         0.00000E+00
         0.00000E+00
         0.00000E+00
         0.00000E+00
         0.00000E+00
         0.00000E+00
         0.00000E+00
         0.00000E+00
         0.00000E+00
         0.00000E+00
         0.00000E+00
         0.00000E+00
         0.00000E+00
         0.00000E+00
         0.00000E+00
         0.00000E+00
         0.00000E+00
         0.00000E+00
         0.00000E+00
         0.00000E+00
         0.00000E+00
         0.00000E+00
         0.00000E+00
         0.00000E+00
         0.00000E+00
         0.00000E+00
         0.00000E+00
         0.00000E+00
         0.00000E+00
         0.00000E+00
         0.00000E+00
         0.00000E+00
         0.00000E+00
         0.00000E+00
         0.00000E+00
         0.00000E+00
         0.00000E+00
         0.00000E+00
         0.00000E+00
         0.00000E+00
         0.00000E+00
         0.00000E+00
         0.00000E+00
         0.00000E+00
         0.00000E+00
         0.00000E+00
         0.00000E+00
         0.00000E+00
         0.00000E+00
         0.00000E+00
         0.00000E+00
         0.00000E+00
         0.00000E+00
         0.00000E+00
         0.00000E+00
         0.00000E+00
         0.00000E+00
         0.00000E+00
         0.00000E+00
         0.00000E+00
         0.00000E+00
         0.00000E+00
         0.00000E+00
         0.00000E+00
         0.00000E+00
         0.00000E+00
         0.00000E+00
         0.00000E+00
         0.00000E+00
         0.00000E+00
         0.00000E+00
         0.00000E+00
         0.00000E+00
         0.00000E+00
         0.00000E+00
         0.00000E+00
         0.00000E+00
         0.00000E+00
         0.00000E+00
         0.00000E+00
         0.00000E+00
         0.00000E+00
         0.00000E+00
         0.00000E+00
         0.00000E+00
         0.00000E+00
         0.00000E+00
         0.00000E+00
         0.00000E+00
         0.00000E+00
         0.00000E+00
         0.00000E+00
         0.00000E+00
         0.00000E+00
         0.00000E+00
         0.00000E+00
         0.00000E+00
         0.00000E+00
         0.00000E+00
         0.00000E+00
         0.00000E+00
         0.00000E+00
         0.00000E+00
         0.00000E+00
         0.00000E+00
         0.00000E+00
         0.00000E+00
         0.00000E+00
         0.00000E+00
         0.00000E+00
         0.00000E+00
         0.00000E+00
         0.00000E+00
         0.00000E+00
         0.00000E+00
         0.00000E+00
         0.00000E+00
         0.00000E+00
         0.00000E+00
         0.00000E+00
         0.00000E+00
         0.00000E+00
         0.00000E+00
         0.00000E+00
         0.00000E+00
         0.00000E+00
         0.00000E+00
         0.00000E+00
         0.00000E+00
         0.00000E+00
         0.00000E+00
         0.00000E+00
         0.00000E+00
         0.00000E+00
         0.00000E+00
         0.00000E+00
         0.00000E+00
         0.00000E+00
         0.00000E+00
         0.00000E+00
         0.00000E+00
         0.00000E+00
         0.00000E+00
         0.00000E+00
         0.00000E+00
         0.00000E+00
         0.00000E+00
         0.00000E+00
         0.00000E+00
         0.00000E+00
         0.00000E+00
         0.00000E+00
         0.00000E+00
         0.00000E+00
         0.00000E+00
         0.00000E+00
         0.00000E+00
         0.00000E+00
         0.00000E+00
         0.00000E+00
         0.00000E+00
         0.00000E+00
         0.00000E+00
         0.00000E+00
         0.00000E+00
  
SCALARS                     velocity_z  double 1
LOOKUP_TABLE default
        -0.37300E+03
        -0.37300E+03
        -0.37300E+03
        -0.37300E+03
         0.00000E+00
         0.00000E+00
         0.00000E+00
         0.00000E+00
        -0.37300E+03
        -0.37300E+03
         0.00000E+00
         0.00000E+00
        -0.37300E+03
        -0.37300E+03
         0.00000E+00
         0.00000E+00
        -0.37300E+03
        -0.37300E+03
         0.00000E+00
         0.00000E+00
        -0.37300E+03
        -0.37300E+03
        -0.37300E+03
         0.00000E+00
         0.00000E+00
         0.00000E+00
        -0.37300E+03
        -0.37300E+03
         0.00000E+00
         0.00000E+00
        -0.37300E+03
        -0.37300E+03
        -0.37300E+03
         0.00000E+00
         0.00000E+00
         0.00000E+00
        -0.37300E+03
        -0.37300E+03
         0.00000E+00
         0.00000E+00
        -0.37300E+03
        -0.37300E+03
         0.00000E+00
         0.00000E+00
        -0.37300E+03
        -0.37300E+03
         0.00000E+00
         0.00000E+00
        -0.37300E+03
         0.00000E+00
        -0.37300E+03
         0.00000E+00
        -0.37300E+03
         0.00000E+00
        -0.37300E+03
         0.00000E+00
        -0.37300E+03
        -0.37300E+03
         0.00000E+00
         0.00000E+00
        -0.37300E+03
        -0.37300E+03
         0.00000E+00
         0.00000E+00
        -0.37300E+03
         0.00000E+00
        -0.37300E+03
         0.00000E+00
        -0.37300E+03
        -0.37300E+03
         0.00000E+00
         0.00000E+00
        -0.37300E+03
         0.00000E+00
        -0.37300E+03
         0.00000E+00
        -0.37300E+03
         0.00000E+00
        -0.37300E+03
         0.00000E+00
        -0.37300E+03
        -0.37300E+03
         0.00000E+00
         0.00000E+00
        -0.37300E+03
         0.00000E+00
        -0.37300E+03
         0.00000E+00
        -0.37300E+03
         0.00000E+00
        -0.37300E+03
        -0.37300E+03
         0.00000E+00
         0.00000E+00
        -0.37300E+03
         0.00000E+00
        -0.37300E+03
         0.00000E+00
        -0.37300E+03
         0.00000E+00
        -0.37300E+03
        -0.37300E+03
         0.00000E+00
         0.00000E+00
        -0.37300E+03
        -0.37300E+03
         0.00000E+00
         0.00000E+00
        -0.37300E+03
         0.00000E+00
        -0.37300E+03
         0.00000E+00
        -0.37300E+03
         0.00000E+00
        -0.37300E+03
         0.00000E+00
        -0.37300E+03
         0.00000E+00
        -0.37300E+03
         0.00000E+00
        -0.37300E+03
         0.00000E+00
        -0.37300E+03
         0.00000E+00
        -0.37300E+03
         0.00000E+00
        -0.37300E+03
         0.00000E+00
        -0.37300E+03
         0.00000E+00
        -0.37300E+03
         0.00000E+00
        -0.37300E+03
         0.00000E+00
        -0.37300E+03
         0.00000E+00
        -0.37300E+03
         0.00000E+00
        -0.37300E+03
         0.00000E+00
        -0.37300E+03
         0.00000E+00
        -0.37300E+03
         0.00000E+00
        -0.37300E+03
         0.00000E+00
        -0.37300E+03
         0.00000E+00
        -0.37300E+03
         0.00000E+00
        -0.37300E+03
         0.00000E+00
        -0.37300E+03
         0.00000E+00
        -0.37300E+03
         0.00000E+00
        -0.37300E+03
        -0.37300E+03
        -0.37300E+03
        -0.37300E+03
        -0.37300E+03
        -0.37300E+03
        -0.37300E+03
        -0.37300E+03
        -0.37300E+03
        -0.37300E+03
        -0.37300E+03
        -0.37300E+03
        -0.37300E+03
        -0.37300E+03
        -0.37300E+03
        -0.37300E+03
        -0.37300E+03
        -0.37300E+03
        -0.37300E+03
        -0.37300E+03
        -0.37300E+03
        -0.37300E+03
        -0.37300E+03
        -0.37300E+03
        -0.37300E+03
        -0.37300E+03
        -0.37300E+03
        -0.37300E+03
        -0.37300E+03
        -0.37300E+03
        -0.37300E+03
        -0.37300E+03
        -0.37300E+03
        -0.37300E+03
        -0.37300E+03
        -0.37300E+03
        -0.37300E+03
        -0.37300E+03
        -0.37300E+03
        -0.37300E+03
        -0.37300E+03
        -0.37300E+03
        -0.37300E+03
        -0.37300E+03
        -0.37300E+03
        -0.37300E+03
        -0.37300E+03
        -0.37300E+03
        -0.37300E+03
        -0.37300E+03
        -0.37300E+03
        -0.37300E+03
        -0.37300E+03
        -0.37300E+03
        -0.37300E+03
        -0.37300E+03
        -0.37300E+03
        -0.37300E+03
        -0.37300E+03
        -0.37300E+03
        -0.37300E+03
        -0.37300E+03
        -0.37300E+03
        -0.37300E+03
        -0.37300E+03
        -0.37300E+03
        -0.37300E+03
        -0.37300E+03
        -0.37300E+03
        -0.37300E+03
        -0.37300E+03
        -0.37300E+03
        -0.37300E+03
        -0.37300E+03
        -0.37300E+03
        -0.37300E+03
        -0.37300E+03
        -0.37300E+03
        -0.37300E+03
        -0.37300E+03
        -0.37300E+03
        -0.37300E+03
        -0.37300E+03
        -0.37300E+03
        -0.37300E+03
        -0.37300E+03
        -0.37300E+03
        -0.37300E+03
        -0.37300E+03
        -0.37300E+03
        -0.37300E+03
        -0.37300E+03
        -0.37300E+03
        -0.37300E+03
        -0.37300E+03
        -0.37300E+03
        -0.37300E+03
        -0.37300E+03
        -0.37300E+03
        -0.37300E+03
        -0.37300E+03
        -0.37300E+03
        -0.37300E+03
        -0.37300E+03
        -0.37300E+03
        -0.37300E+03
        -0.37300E+03
        -0.37300E+03
        -0.37300E+03
        -0.37300E+03
        -0.37300E+03
        -0.37300E+03
        -0.37300E+03
        -0.37300E+03
        -0.37300E+03
        -0.37300E+03
        -0.37300E+03
        -0.37300E+03
        -0.37300E+03
        -0.37300E+03
        -0.37300E+03
        -0.37300E+03
        -0.37300E+03
        -0.37300E+03
        -0.37300E+03
        -0.37300E+03
        -0.37300E+03
        -0.37300E+03
        -0.37300E+03
        -0.37300E+03
        -0.37300E+03
        -0.37300E+03
        -0.37300E+03
        -0.37300E+03
        -0.37300E+03
        -0.37300E+03
        -0.37300E+03
        -0.37300E+03
        -0.37300E+03
        -0.37300E+03
        -0.37300E+03
        -0.37300E+03
        -0.37300E+03
        -0.37300E+03
        -0.37300E+03
        -0.37300E+03
        -0.37300E+03
        -0.37300E+03
        -0.37300E+03
        -0.37300E+03
        -0.37300E+03
        -0.37300E+03
        -0.37300E+03
        -0.37300E+03
        -0.37300E+03
        -0.37300E+03
        -0.37300E+03
        -0.37300E+03
        -0.37300E+03
        -0.37300E+03
        -0.37300E+03
        -0.37300E+03
        -0.37300E+03
        -0.37300E+03
        -0.37300E+03
        -0.37300E+03
        -0.37300E+03
        -0.37300E+03
        -0.37300E+03
        -0.37300E+03
        -0.37300E+03
        -0.37300E+03
        -0.37300E+03
        -0.37300E+03
        -0.37300E+03
        -0.37300E+03
        -0.37300E+03
        -0.37300E+03
        -0.37300E+03
        -0.37300E+03
        -0.37300E+03
        -0.37300E+03
        -0.37300E+03
        -0.37300E+03
        -0.37300E+03
        -0.37300E+03
        -0.37300E+03
        -0.37300E+03
        -0.37300E+03
        -0.37300E+03
        -0.37300E+03
        -0.37300E+03
        -0.37300E+03
        -0.37300E+03
        -0.37300E+03
        -0.37300E+03
        -0.37300E+03
        -0.37300E+03
        -0.37300E+03
        -0.37300E+03
        -0.37300E+03
        -0.37300E+03
        -0.37300E+03
        -0.37300E+03
        -0.37300E+03
        -0.37300E+03
        -0.37300E+03
        -0.37300E+03
        -0.37300E+03
        -0.37300E+03
        -0.37300E+03
        -0.37300E+03
        -0.37300E+03
        -0.37300E+03
        -0.37300E+03
        -0.37300E+03
        -0.37300E+03
        -0.37300E+03
        -0.37300E+03
        -0.37300E+03
        -0.37300E+03
        -0.37300E+03
        -0.37300E+03
        -0.37300E+03
        -0.37300E+03
        -0.37300E+03
        -0.37300E+03
        -0.37300E+03
        -0.37300E+03
        -0.37300E+03
        -0.37300E+03
        -0.37300E+03
        -0.37300E+03
        -0.37300E+03
        -0.37300E+03
        -0.37300E+03
        -0.37300E+03
        -0.37300E+03
        -0.37300E+03
        -0.37300E+03
        -0.37300E+03
        -0.37300E+03
        -0.37300E+03
        -0.37300E+03
        -0.37300E+03
        -0.37300E+03
        -0.37300E+03
        -0.37300E+03
        -0.37300E+03
        -0.37300E+03
        -0.37300E+03
        -0.37300E+03
        -0.37300E+03
        -0.37300E+03
        -0.37300E+03
        -0.37300E+03
        -0.37300E+03
        -0.37300E+03
        -0.37300E+03
        -0.37300E+03
        -0.37300E+03
        -0.37300E+03
        -0.37300E+03
        -0.37300E+03
        -0.37300E+03
        -0.37300E+03
        -0.37300E+03
        -0.37300E+03
        -0.37300E+03
        -0.37300E+03
        -0.37300E+03
        -0.37300E+03
        -0.37300E+03
        -0.37300E+03
        -0.37300E+03
        -0.37300E+03
        -0.37300E+03
        -0.37300E+03
        -0.37300E+03
        -0.37300E+03
        -0.37300E+03
        -0.37300E+03
        -0.37300E+03
        -0.37300E+03
        -0.37300E+03
        -0.37300E+03
        -0.37300E+03
        -0.37300E+03
        -0.37300E+03
        -0.37300E+03
        -0.37300E+03
        -0.37300E+03
        -0.37300E+03
        -0.37300E+03
        -0.37300E+03
        -0.37300E+03
        -0.37300E+03
        -0.37300E+03
        -0.37300E+03
        -0.37300E+03
        -0.37300E+03
        -0.37300E+03
        -0.37300E+03
        -0.37300E+03
        -0.37300E+03
        -0.37300E+03
        -0.37300E+03
        -0.37300E+03
        -0.37300E+03
        -0.37300E+03
        -0.37300E+03
        -0.37300E+03
        -0.37300E+03
        -0.37300E+03
        -0.37300E+03
        -0.37300E+03
        -0.37300E+03
        -0.37300E+03
        -0.37300E+03
        -0.37300E+03
        -0.37300E+03
        -0.37300E+03
        -0.37300E+03
        -0.37300E+03
        -0.37300E+03
        -0.37300E+03
        -0.37300E+03
        -0.37300E+03
        -0.37300E+03
        -0.37300E+03
        -0.37300E+03
        -0.37300E+03
        -0.37300E+03
        -0.37300E+03
        -0.37300E+03
        -0.37300E+03
        -0.37300E+03
        -0.37300E+03
        -0.37300E+03
        -0.37300E+03
        -0.37300E+03
        -0.37300E+03
        -0.37300E+03
        -0.37300E+03
        -0.37300E+03
        -0.37300E+03
        -0.37300E+03
        -0.37300E+03
        -0.37300E+03
        -0.37300E+03
        -0.37300E+03
        -0.37300E+03
        -0.37300E+03
        -0.37300E+03
        -0.37300E+03
        -0.37300E+03
        -0.37300E+03
        -0.37300E+03
        -0.37300E+03
        -0.37300E+03
        -0.37300E+03
        -0.37300E+03
        -0.37300E+03
        -0.37300E+03
        -0.37300E+03
        -0.37300E+03
        -0.37300E+03
        -0.37300E+03
        -0.37300E+03
        -0.37300E+03
        -0.37300E+03
        -0.37300E+03
        -0.37300E+03
        -0.37300E+03
        -0.37300E+03
        -0.37300E+03
        -0.37300E+03
        -0.37300E+03
        -0.37300E+03
        -0.37300E+03
        -0.37300E+03
        -0.37300E+03
        -0.37300E+03
        -0.37300E+03
        -0.37300E+03
        -0.37300E+03
        -0.37300E+03
        -0.37300E+03
        -0.37300E+03
        -0.37300E+03
        -0.37300E+03
        -0.37300E+03
        -0.37300E+03
        -0.37300E+03
        -0.37300E+03
        -0.37300E+03
        -0.37300E+03
        -0.37300E+03
        -0.37300E+03
        -0.37300E+03
        -0.37300E+03
        -0.37300E+03
        -0.37300E+03
        -0.37300E+03
        -0.37300E+03
        -0.37300E+03
        -0.37300E+03
        -0.37300E+03
        -0.37300E+03
        -0.37300E+03
        -0.37300E+03
        -0.37300E+03
        -0.37300E+03
        -0.37300E+03
        -0.37300E+03
        -0.37300E+03
        -0.37300E+03
        -0.37300E+03
        -0.37300E+03
        -0.37300E+03
        -0.37300E+03
        -0.37300E+03
        -0.37300E+03
        -0.37300E+03
        -0.37300E+03
        -0.37300E+03
        -0.37300E+03
        -0.37300E+03
        -0.37300E+03
        -0.37300E+03
        -0.37300E+03
        -0.37300E+03
        -0.37300E+03
        -0.37300E+03
        -0.37300E+03
        -0.37300E+03
        -0.37300E+03
        -0.37300E+03
        -0.37300E+03
        -0.37300E+03
        -0.37300E+03
        -0.37300E+03
        -0.37300E+03
        -0.37300E+03
        -0.37300E+03
        -0.37300E+03
        -0.37300E+03
        -0.37300E+03
        -0.37300E+03
        -0.37300E+03
        -0.37300E+03
        -0.37300E+03
        -0.37300E+03
        -0.37300E+03
        -0.37300E+03
        -0.37300E+03
        -0.37300E+03
        -0.37300E+03
        -0.37300E+03
        -0.37300E+03
        -0.37300E+03
        -0.37300E+03
        -0.37300E+03
        -0.37300E+03
        -0.37300E+03
        -0.37300E+03
        -0.37300E+03
        -0.37300E+03
        -0.37300E+03
        -0.37300E+03
        -0.37300E+03
        -0.37300E+03
        -0.37300E+03
        -0.37300E+03
        -0.37300E+03
        -0.37300E+03
        -0.37300E+03
        -0.37300E+03
        -0.37300E+03
        -0.37300E+03
        -0.37300E+03
        -0.37300E+03
        -0.37300E+03
        -0.37300E+03
        -0.37300E+03
        -0.37300E+03
        -0.37300E+03
        -0.37300E+03
        -0.37300E+03
        -0.37300E+03
        -0.37300E+03
        -0.37300E+03
        -0.37300E+03
        -0.37300E+03
        -0.37300E+03
        -0.37300E+03
        -0.37300E+03
        -0.37300E+03
        -0.37300E+03
        -0.37300E+03
        -0.37300E+03
        -0.37300E+03
        -0.37300E+03
        -0.37300E+03
        -0.37300E+03
        -0.37300E+03
        -0.37300E+03
        -0.37300E+03
        -0.37300E+03
        -0.37300E+03
        -0.37300E+03
        -0.37300E+03
        -0.37300E+03
        -0.37300E+03
        -0.37300E+03
        -0.37300E+03
        -0.37300E+03
        -0.37300E+03
        -0.37300E+03
        -0.37300E+03
        -0.37300E+03
        -0.37300E+03
        -0.37300E+03
        -0.37300E+03
        -0.37300E+03
        -0.37300E+03
        -0.37300E+03
        -0.37300E+03
        -0.37300E+03
        -0.37300E+03
        -0.37300E+03
        -0.37300E+03
        -0.37300E+03
        -0.37300E+03
        -0.37300E+03
        -0.37300E+03
        -0.37300E+03
        -0.37300E+03
        -0.37300E+03
        -0.37300E+03
        -0.37300E+03
        -0.37300E+03
        -0.37300E+03
        -0.37300E+03
        -0.37300E+03
        -0.37300E+03
        -0.37300E+03
        -0.37300E+03
        -0.37300E+03
        -0.37300E+03
        -0.37300E+03
        -0.37300E+03
        -0.37300E+03
        -0.37300E+03
        -0.37300E+03
        -0.37300E+03
        -0.37300E+03
        -0.37300E+03
        -0.37300E+03
        -0.37300E+03
        -0.37300E+03
        -0.37300E+03
        -0.37300E+03
        -0.37300E+03
        -0.37300E+03
        -0.37300E+03
        -0.37300E+03
        -0.37300E+03
        -0.37300E+03
        -0.37300E+03
        -0.37300E+03
        -0.37300E+03
        -0.37300E+03
        -0.37300E+03
        -0.37300E+03
        -0.37300E+03
        -0.37300E+03
        -0.37300E+03
        -0.37300E+03
        -0.37300E+03
        -0.37300E+03
        -0.37300E+03
        -0.37300E+03
        -0.37300E+03
        -0.37300E+03
        -0.37300E+03
        -0.37300E+03
        -0.37300E+03
        -0.37300E+03
        -0.37300E+03
        -0.37300E+03
        -0.37300E+03
        -0.37300E+03
        -0.37300E+03
        -0.37300E+03
        -0.37300E+03
        -0.37300E+03
        -0.37300E+03
        -0.37300E+03
        -0.37300E+03
        -0.37300E+03
        -0.37300E+03
        -0.37300E+03
        -0.37300E+03
        -0.37300E+03
        -0.37300E+03
        -0.37300E+03
        -0.37300E+03
        -0.37300E+03
        -0.37300E+03
        -0.37300E+03
        -0.37300E+03
        -0.37300E+03
        -0.37300E+03
        -0.37300E+03
        -0.37300E+03
        -0.37300E+03
        -0.37300E+03
        -0.37300E+03
        -0.37300E+03
        -0.37300E+03
        -0.37300E+03
        -0.37300E+03
        -0.37300E+03
        -0.37300E+03
        -0.37300E+03
        -0.37300E+03
        -0.37300E+03
        -0.37300E+03
        -0.37300E+03
        -0.37300E+03
        -0.37300E+03
        -0.37300E+03
        -0.37300E+03
        -0.37300E+03
        -0.37300E+03
        -0.37300E+03
        -0.37300E+03
        -0.37300E+03
        -0.37300E+03
        -0.37300E+03
        -0.37300E+03
        -0.37300E+03
        -0.37300E+03
        -0.37300E+03
        -0.37300E+03
        -0.37300E+03
        -0.37300E+03
        -0.37300E+03
        -0.37300E+03
        -0.37300E+03
        -0.37300E+03
        -0.37300E+03
        -0.37300E+03
        -0.37300E+03
        -0.37300E+03
        -0.37300E+03
        -0.37300E+03
        -0.37300E+03
        -0.37300E+03
        -0.37300E+03
        -0.37300E+03
        -0.37300E+03
        -0.37300E+03
        -0.37300E+03
        -0.37300E+03
        -0.37300E+03
        -0.37300E+03
        -0.37300E+03
        -0.37300E+03
        -0.37300E+03
        -0.37300E+03
        -0.37300E+03
        -0.37300E+03
        -0.37300E+03
        -0.37300E+03
        -0.37300E+03
        -0.37300E+03
        -0.37300E+03
        -0.37300E+03
        -0.37300E+03
        -0.37300E+03
        -0.37300E+03
        -0.37300E+03
        -0.37300E+03
        -0.37300E+03
        -0.37300E+03
        -0.37300E+03
        -0.37300E+03
        -0.37300E+03
        -0.37300E+03
        -0.37300E+03
        -0.37300E+03
        -0.37300E+03
        -0.37300E+03
        -0.37300E+03
        -0.37300E+03
        -0.37300E+03
        -0.37300E+03
        -0.37300E+03
        -0.37300E+03
        -0.37300E+03
        -0.37300E+03
        -0.37300E+03
        -0.37300E+03
        -0.37300E+03
        -0.37300E+03
        -0.37300E+03
        -0.37300E+03
        -0.37300E+03
        -0.37300E+03
        -0.37300E+03
        -0.37300E+03
        -0.37300E+03
        -0.37300E+03
        -0.37300E+03
        -0.37300E+03
        -0.37300E+03
        -0.37300E+03
        -0.37300E+03
        -0.37300E+03
        -0.37300E+03
        -0.37300E+03
        -0.37300E+03
        -0.37300E+03
        -0.37300E+03
        -0.37300E+03
        -0.37300E+03
        -0.37300E+03
        -0.37300E+03
        -0.37300E+03
        -0.37300E+03
        -0.37300E+03
        -0.37300E+03
        -0.37300E+03
        -0.37300E+03
        -0.37300E+03
        -0.37300E+03
        -0.37300E+03
        -0.37300E+03
        -0.37300E+03
        -0.37300E+03
        -0.37300E+03
        -0.37300E+03
        -0.37300E+03
        -0.37300E+03
        -0.37300E+03
        -0.37300E+03
        -0.37300E+03
        -0.37300E+03
        -0.37300E+03
        -0.37300E+03
        -0.37300E+03
        -0.37300E+03
        -0.37300E+03
        -0.37300E+03
        -0.37300E+03
        -0.37300E+03
        -0.37300E+03
        -0.37300E+03
        -0.37300E+03
        -0.37300E+03
        -0.37300E+03
        -0.37300E+03
        -0.37300E+03
        -0.37300E+03
        -0.37300E+03
        -0.37300E+03
        -0.37300E+03
        -0.37300E+03
        -0.37300E+03
        -0.37300E+03
        -0.37300E+03
        -0.37300E+03
        -0.37300E+03
        -0.37300E+03
        -0.37300E+03
        -0.37300E+03
        -0.37300E+03
        -0.37300E+03
        -0.37300E+03
        -0.37300E+03
        -0.37300E+03
        -0.37300E+03
        -0.37300E+03
        -0.37300E+03
        -0.37300E+03
        -0.37300E+03
        -0.37300E+03
        -0.37300E+03
        -0.37300E+03
        -0.37300E+03
        -0.37300E+03
        -0.37300E+03
        -0.37300E+03
        -0.37300E+03
        -0.37300E+03
        -0.37300E+03
        -0.37300E+03
        -0.37300E+03
        -0.37300E+03
        -0.37300E+03
        -0.37300E+03
        -0.37300E+03
        -0.37300E+03
        -0.37300E+03
        -0.37300E+03
        -0.37300E+03
        -0.37300E+03
        -0.37300E+03
        -0.37300E+03
        -0.37300E+03
        -0.37300E+03
        -0.37300E+03
        -0.37300E+03
        -0.37300E+03
        -0.37300E+03
        -0.37300E+03
        -0.37300E+03
        -0.37300E+03
        -0.37300E+03
        -0.37300E+03
        -0.37300E+03
        -0.37300E+03
        -0.37300E+03
        -0.37300E+03
        -0.37300E+03
        -0.37300E+03
        -0.37300E+03
        -0.37300E+03
        -0.37300E+03
        -0.37300E+03
        -0.37300E+03
        -0.37300E+03
        -0.37300E+03
        -0.37300E+03
        -0.37300E+03
        -0.37300E+03
        -0.37300E+03
        -0.37300E+03
        -0.37300E+03
        -0.37300E+03
        -0.37300E+03
        -0.37300E+03
        -0.37300E+03
        -0.37300E+03
        -0.37300E+03
        -0.37300E+03
        -0.37300E+03
        -0.37300E+03
        -0.37300E+03
        -0.37300E+03
        -0.37300E+03
        -0.37300E+03
        -0.37300E+03
        -0.37300E+03
        -0.37300E+03
        -0.37300E+03
        -0.37300E+03
        -0.37300E+03
        -0.37300E+03
        -0.37300E+03
        -0.37300E+03
        -0.37300E+03
        -0.37300E+03
        -0.37300E+03
        -0.37300E+03
        -0.37300E+03
        -0.37300E+03
        -0.37300E+03
        -0.37300E+03
        -0.37300E+03
        -0.37300E+03
        -0.37300E+03
        -0.37300E+03
        -0.37300E+03
        -0.37300E+03
        -0.37300E+03
        -0.37300E+03
        -0.37300E+03
        -0.37300E+03
        -0.37300E+03
        -0.37300E+03
        -0.37300E+03
        -0.37300E+03
        -0.37300E+03
        -0.37300E+03
        -0.37300E+03
        -0.37300E+03
        -0.37300E+03
        -0.37300E+03
        -0.37300E+03
        -0.37300E+03
        -0.37300E+03
        -0.37300E+03
        -0.37300E+03
        -0.37300E+03
        -0.37300E+03
        -0.37300E+03
        -0.37300E+03
        -0.37300E+03
        -0.37300E+03
        -0.37300E+03
        -0.37300E+03
        -0.37300E+03
        -0.37300E+03
        -0.37300E+03
        -0.37300E+03
        -0.37300E+03
        -0.37300E+03
        -0.37300E+03
        -0.37300E+03
        -0.37300E+03
        -0.37300E+03
        -0.37300E+03
        -0.37300E+03
        -0.37300E+03
        -0.37300E+03
        -0.37300E+03
        -0.37300E+03
        -0.37300E+03
        -0.37300E+03
        -0.37300E+03
        -0.37300E+03
        -0.37300E+03
        -0.37300E+03
        -0.37300E+03
        -0.37300E+03
        -0.37300E+03
        -0.37300E+03
        -0.37300E+03
        -0.37300E+03
        -0.37300E+03
        -0.37300E+03
        -0.37300E+03
        -0.37300E+03
        -0.37300E+03
        -0.37300E+03
        -0.37300E+03
        -0.37300E+03
        -0.37300E+03
        -0.37300E+03
        -0.37300E+03
        -0.37300E+03
        -0.37300E+03
        -0.37300E+03
        -0.37300E+03
        -0.37300E+03
        -0.37300E+03
        -0.37300E+03
        -0.37300E+03
        -0.37300E+03
        -0.37300E+03
        -0.37300E+03
        -0.37300E+03
        -0.37300E+03
        -0.37300E+03
        -0.37300E+03
        -0.37300E+03
        -0.37300E+03
        -0.37300E+03
        -0.37300E+03
        -0.37300E+03
        -0.37300E+03
        -0.37300E+03
        -0.37300E+03
        -0.37300E+03
        -0.37300E+03
        -0.37300E+03
        -0.37300E+03
        -0.37300E+03
        -0.37300E+03
        -0.37300E+03
        -0.37300E+03
        -0.37300E+03
        -0.37300E+03
        -0.37300E+03
        -0.37300E+03
        -0.37300E+03
        -0.37300E+03
        -0.37300E+03
        -0.37300E+03
        -0.37300E+03
        -0.37300E+03
        -0.37300E+03
        -0.37300E+03
        -0.37300E+03
        -0.37300E+03
        -0.37300E+03
        -0.37300E+03
        -0.37300E+03
        -0.37300E+03
        -0.37300E+03
        -0.37300E+03
        -0.37300E+03
        -0.37300E+03
        -0.37300E+03
        -0.37300E+03
        -0.37300E+03
        -0.37300E+03
        -0.37300E+03
        -0.37300E+03
        -0.37300E+03
        -0.37300E+03
        -0.37300E+03
        -0.37300E+03
        -0.37300E+03
        -0.37300E+03
        -0.37300E+03
        -0.37300E+03
        -0.37300E+03
        -0.37300E+03
        -0.37300E+03
        -0.37300E+03
        -0.37300E+03
        -0.37300E+03
        -0.37300E+03
        -0.37300E+03
        -0.37300E+03
        -0.37300E+03
        -0.37300E+03
        -0.37300E+03
        -0.37300E+03
        -0.37300E+03
        -0.37300E+03
        -0.37300E+03
        -0.37300E+03
        -0.37300E+03
        -0.37300E+03
        -0.37300E+03
        -0.37300E+03
        -0.37300E+03
        -0.37300E+03
        -0.37300E+03
        -0.37300E+03
        -0.37300E+03
        -0.37300E+03
        -0.37300E+03
        -0.37300E+03
        -0.37300E+03
        -0.37300E+03
        -0.37300E+03
        -0.37300E+03
        -0.37300E+03
        -0.37300E+03
        -0.37300E+03
        -0.37300E+03
        -0.37300E+03
        -0.37300E+03
        -0.37300E+03
        -0.37300E+03
        -0.37300E+03
        -0.37300E+03
        -0.37300E+03
        -0.37300E+03
        -0.37300E+03
        -0.37300E+03
        -0.37300E+03
        -0.37300E+03
        -0.37300E+03
        -0.37300E+03
        -0.37300E+03
        -0.37300E+03
        -0.37300E+03
        -0.37300E+03
        -0.37300E+03
        -0.37300E+03
        -0.37300E+03
        -0.37300E+03
        -0.37300E+03
        -0.37300E+03
        -0.37300E+03
        -0.37300E+03
        -0.37300E+03
        -0.37300E+03
        -0.37300E+03
        -0.37300E+03
        -0.37300E+03
        -0.37300E+03
        -0.37300E+03
        -0.37300E+03
        -0.37300E+03
        -0.37300E+03
        -0.37300E+03
        -0.37300E+03
        -0.37300E+03
        -0.37300E+03
        -0.37300E+03
        -0.37300E+03
        -0.37300E+03
        -0.37300E+03
        -0.37300E+03
        -0.37300E+03
        -0.37300E+03
        -0.37300E+03
        -0.37300E+03
        -0.37300E+03
        -0.37300E+03
        -0.37300E+03
        -0.37300E+03
        -0.37300E+03
        -0.37300E+03
        -0.37300E+03
        -0.37300E+03
        -0.37300E+03
        -0.37300E+03
        -0.37300E+03
        -0.37300E+03
        -0.37300E+03
        -0.37300E+03
        -0.37300E+03
        -0.37300E+03
        -0.37300E+03
        -0.37300E+03
        -0.37300E+03
        -0.37300E+03
        -0.37300E+03
        -0.37300E+03
        -0.37300E+03
        -0.37300E+03
        -0.37300E+03
        -0.37300E+03
        -0.37300E+03
        -0.37300E+03
        -0.37300E+03
        -0.37300E+03
        -0.37300E+03
        -0.37300E+03
        -0.37300E+03
        -0.37300E+03
        -0.37300E+03
        -0.37300E+03
        -0.37300E+03
        -0.37300E+03
        -0.37300E+03
        -0.37300E+03
        -0.37300E+03
        -0.37300E+03
        -0.37300E+03
        -0.37300E+03
        -0.37300E+03
        -0.37300E+03
        -0.37300E+03
        -0.37300E+03
        -0.37300E+03
        -0.37300E+03
        -0.37300E+03
        -0.37300E+03
        -0.37300E+03
        -0.37300E+03
        -0.37300E+03
        -0.37300E+03
        -0.37300E+03
        -0.37300E+03
        -0.37300E+03
        -0.37300E+03
        -0.37300E+03
        -0.37300E+03
        -0.37300E+03
        -0.37300E+03
        -0.37300E+03
        -0.37300E+03
        -0.37300E+03
        -0.37300E+03
        -0.37300E+03
        -0.37300E+03
        -0.37300E+03
        -0.37300E+03
        -0.37300E+03
        -0.37300E+03
        -0.37300E+03
        -0.37300E+03
        -0.37300E+03
        -0.37300E+03
        -0.37300E+03
        -0.37300E+03
        -0.37300E+03
        -0.37300E+03
        -0.37300E+03
        -0.37300E+03
        -0.37300E+03
        -0.37300E+03
        -0.37300E+03
        -0.37300E+03
        -0.37300E+03
        -0.37300E+03
        -0.37300E+03
        -0.37300E+03
        -0.37300E+03
        -0.37300E+03
        -0.37300E+03
        -0.37300E+03
        -0.37300E+03
        -0.37300E+03
        -0.37300E+03
        -0.37300E+03
        -0.37300E+03
        -0.37300E+03
        -0.37300E+03
        -0.37300E+03
        -0.37300E+03
        -0.37300E+03
        -0.37300E+03
        -0.37300E+03
        -0.37300E+03
        -0.37300E+03
        -0.37300E+03
        -0.37300E+03
        -0.37300E+03
        -0.37300E+03
        -0.37300E+03
        -0.37300E+03
        -0.37300E+03
        -0.37300E+03
        -0.37300E+03
        -0.37300E+03
        -0.37300E+03
        -0.37300E+03
        -0.37300E+03
        -0.37300E+03
        -0.37300E+03
        -0.37300E+03
        -0.37300E+03
        -0.37300E+03
        -0.37300E+03
        -0.37300E+03
        -0.37300E+03
        -0.37300E+03
        -0.37300E+03
        -0.37300E+03
        -0.37300E+03
        -0.37300E+03
        -0.37300E+03
        -0.37300E+03
        -0.37300E+03
        -0.37300E+03
        -0.37300E+03
        -0.37300E+03
        -0.37300E+03
        -0.37300E+03
        -0.37300E+03
        -0.37300E+03
        -0.37300E+03
        -0.37300E+03
        -0.37300E+03
        -0.37300E+03
        -0.37300E+03
        -0.37300E+03
        -0.37300E+03
        -0.37300E+03
        -0.37300E+03
        -0.37300E+03
        -0.37300E+03
        -0.37300E+03
        -0.37300E+03
        -0.37300E+03
        -0.37300E+03
        -0.37300E+03
        -0.37300E+03
        -0.37300E+03
        -0.37300E+03
        -0.37300E+03
        -0.37300E+03
        -0.37300E+03
        -0.37300E+03
        -0.37300E+03
        -0.37300E+03
        -0.37300E+03
        -0.37300E+03
        -0.37300E+03
        -0.37300E+03
        -0.37300E+03
        -0.37300E+03
        -0.37300E+03
        -0.37300E+03
        -0.37300E+03
        -0.37300E+03
        -0.37300E+03
        -0.37300E+03
        -0.37300E+03
        -0.37300E+03
        -0.37300E+03
        -0.37300E+03
        -0.37300E+03
        -0.37300E+03
        -0.37300E+03
        -0.37300E+03
        -0.37300E+03
        -0.37300E+03
        -0.37300E+03
        -0.37300E+03
        -0.37300E+03
        -0.37300E+03
        -0.37300E+03
        -0.37300E+03
        -0.37300E+03
        -0.37300E+03
        -0.37300E+03
        -0.37300E+03
        -0.37300E+03
        -0.37300E+03
        -0.37300E+03
        -0.37300E+03
        -0.37300E+03
        -0.37300E+03
        -0.37300E+03
        -0.37300E+03
        -0.37300E+03
        -0.37300E+03
        -0.37300E+03
        -0.37300E+03
        -0.37300E+03
        -0.37300E+03
        -0.37300E+03
        -0.37300E+03
        -0.37300E+03
        -0.37300E+03
        -0.37300E+03
        -0.37300E+03
        -0.37300E+03
        -0.37300E+03
        -0.37300E+03
        -0.37300E+03
        -0.37300E+03
        -0.37300E+03
        -0.37300E+03
        -0.37300E+03
        -0.37300E+03
        -0.37300E+03
        -0.37300E+03
        -0.37300E+03
        -0.37300E+03
        -0.37300E+03
        -0.37300E+03
        -0.37300E+03
        -0.37300E+03
        -0.37300E+03
        -0.37300E+03
        -0.37300E+03
        -0.37300E+03
        -0.37300E+03
        -0.37300E+03
        -0.37300E+03
        -0.37300E+03
        -0.37300E+03
        -0.37300E+03
        -0.37300E+03
        -0.37300E+03
        -0.37300E+03
        -0.37300E+03
        -0.37300E+03
        -0.37300E+03
        -0.37300E+03
        -0.37300E+03
        -0.37300E+03
        -0.37300E+03
        -0.37300E+03
        -0.37300E+03
        -0.37300E+03
        -0.37300E+03
        -0.37300E+03
        -0.37300E+03
        -0.37300E+03
        -0.37300E+03
        -0.37300E+03
        -0.37300E+03
        -0.37300E+03
        -0.37300E+03
        -0.37300E+03
        -0.37300E+03
        -0.37300E+03
        -0.37300E+03
        -0.37300E+03
        -0.37300E+03
        -0.37300E+03
        -0.37300E+03
        -0.37300E+03
        -0.37300E+03
        -0.37300E+03
        -0.37300E+03
        -0.37300E+03
        -0.37300E+03
        -0.37300E+03
        -0.37300E+03
        -0.37300E+03
        -0.37300E+03
        -0.37300E+03
        -0.37300E+03
        -0.37300E+03
        -0.37300E+03
        -0.37300E+03
        -0.37300E+03
        -0.37300E+03
        -0.37300E+03
        -0.37300E+03
        -0.37300E+03
        -0.37300E+03
        -0.37300E+03
        -0.37300E+03
        -0.37300E+03
        -0.37300E+03
        -0.37300E+03
        -0.37300E+03
        -0.37300E+03
        -0.37300E+03
        -0.37300E+03
        -0.37300E+03
        -0.37300E+03
        -0.37300E+03
        -0.37300E+03
        -0.37300E+03
        -0.37300E+03
        -0.37300E+03
        -0.37300E+03
        -0.37300E+03
        -0.37300E+03
        -0.37300E+03
        -0.37300E+03
        -0.37300E+03
        -0.37300E+03
        -0.37300E+03
        -0.37300E+03
        -0.37300E+03
        -0.37300E+03
        -0.37300E+03
        -0.37300E+03
        -0.37300E+03
        -0.37300E+03
        -0.37300E+03
        -0.37300E+03
        -0.37300E+03
        -0.37300E+03
        -0.37300E+03
        -0.37300E+03
        -0.37300E+03
        -0.37300E+03
        -0.37300E+03
        -0.37300E+03
        -0.37300E+03
        -0.37300E+03
        -0.37300E+03
        -0.37300E+03
        -0.37300E+03
        -0.37300E+03
        -0.37300E+03
        -0.37300E+03
        -0.37300E+03
        -0.37300E+03
        -0.37300E+03
        -0.37300E+03
        -0.37300E+03
        -0.37300E+03
        -0.37300E+03
        -0.37300E+03
        -0.37300E+03
        -0.37300E+03
        -0.37300E+03
        -0.37300E+03
        -0.37300E+03
        -0.37300E+03
        -0.37300E+03
        -0.37300E+03
        -0.37300E+03
        -0.37300E+03
        -0.37300E+03
        -0.37300E+03
        -0.37300E+03
        -0.37300E+03
        -0.37300E+03
        -0.37300E+03
        -0.37300E+03
        -0.37300E+03
        -0.37300E+03
        -0.37300E+03
        -0.37300E+03
        -0.37300E+03
        -0.37300E+03
        -0.37300E+03
        -0.37300E+03
        -0.37300E+03
        -0.37300E+03
        -0.37300E+03
        -0.37300E+03
        -0.37300E+03
        -0.37300E+03
        -0.37300E+03
        -0.37300E+03
        -0.37300E+03
        -0.37300E+03
        -0.37300E+03
        -0.37300E+03
        -0.37300E+03
        -0.37300E+03
        -0.37300E+03
        -0.37300E+03
        -0.37300E+03
        -0.37300E+03
        -0.37300E+03
        -0.37300E+03
        -0.37300E+03
        -0.37300E+03
        -0.37300E+03
        -0.37300E+03
        -0.37300E+03
        -0.37300E+03
        -0.37300E+03
        -0.37300E+03
        -0.37300E+03
        -0.37300E+03
        -0.37300E+03
        -0.37300E+03
        -0.37300E+03
        -0.37300E+03
        -0.37300E+03
        -0.37300E+03
        -0.37300E+03
        -0.37300E+03
        -0.37300E+03
        -0.37300E+03
        -0.37300E+03
        -0.37300E+03
        -0.37300E+03
        -0.37300E+03
        -0.37300E+03
        -0.37300E+03
        -0.37300E+03
        -0.37300E+03
        -0.37300E+03
        -0.37300E+03
        -0.37300E+03
        -0.37300E+03
        -0.37300E+03
        -0.37300E+03
        -0.37300E+03
        -0.37300E+03
        -0.37300E+03
        -0.37300E+03
        -0.37300E+03
        -0.37300E+03
        -0.37300E+03
        -0.37300E+03
        -0.37300E+03
        -0.37300E+03
        -0.37300E+03
        -0.37300E+03
        -0.37300E+03
        -0.37300E+03
        -0.37300E+03
        -0.37300E+03
        -0.37300E+03
        -0.37300E+03
        -0.37300E+03
        -0.37300E+03
        -0.37300E+03
        -0.37300E+03
        -0.37300E+03
        -0.37300E+03
        -0.37300E+03
        -0.37300E+03
        -0.37300E+03
        -0.37300E+03
        -0.37300E+03
        -0.37300E+03
        -0.37300E+03
        -0.37300E+03
        -0.37300E+03
        -0.37300E+03
        -0.37300E+03
        -0.37300E+03
        -0.37300E+03
        -0.37300E+03
        -0.37300E+03
        -0.37300E+03
        -0.37300E+03
        -0.37300E+03
        -0.37300E+03
        -0.37300E+03
        -0.37300E+03
        -0.37300E+03
        -0.37300E+03
        -0.37300E+03
        -0.37300E+03
        -0.37300E+03
        -0.37300E+03
        -0.37300E+03
        -0.37300E+03
        -0.37300E+03
        -0.37300E+03
        -0.37300E+03
        -0.37300E+03
        -0.37300E+03
        -0.37300E+03
        -0.37300E+03
        -0.37300E+03
        -0.37300E+03
        -0.37300E+03
        -0.37300E+03
        -0.37300E+03
        -0.37300E+03
        -0.37300E+03
        -0.37300E+03
        -0.37300E+03
        -0.37300E+03
        -0.37300E+03
        -0.37300E+03
        -0.37300E+03
        -0.37300E+03
        -0.37300E+03
        -0.37300E+03
        -0.37300E+03
        -0.37300E+03
        -0.37300E+03
        -0.37300E+03
        -0.37300E+03
        -0.37300E+03
        -0.37300E+03
        -0.37300E+03
        -0.37300E+03
        -0.37300E+03
        -0.37300E+03
        -0.37300E+03
        -0.37300E+03
        -0.37300E+03
        -0.37300E+03
        -0.37300E+03
        -0.37300E+03
        -0.37300E+03
        -0.37300E+03
        -0.37300E+03
        -0.37300E+03
        -0.37300E+03
        -0.37300E+03
        -0.37300E+03
        -0.37300E+03
        -0.37300E+03
        -0.37300E+03
        -0.37300E+03
        -0.37300E+03
        -0.37300E+03
        -0.37300E+03
        -0.37300E+03
        -0.37300E+03
        -0.37300E+03
        -0.37300E+03
        -0.37300E+03
        -0.37300E+03
        -0.37300E+03
        -0.37300E+03
        -0.37300E+03
        -0.37300E+03
        -0.37300E+03
        -0.37300E+03
        -0.37300E+03
        -0.37300E+03
        -0.37300E+03
        -0.37300E+03
        -0.37300E+03
        -0.37300E+03
        -0.37300E+03
        -0.37300E+03
        -0.37300E+03
        -0.37300E+03
        -0.37300E+03
        -0.37300E+03
        -0.37300E+03
        -0.37300E+03
        -0.37300E+03
        -0.37300E+03
        -0.37300E+03
        -0.37300E+03
        -0.37300E+03
        -0.37300E+03
        -0.37300E+03
        -0.37300E+03
        -0.37300E+03
        -0.37300E+03
        -0.37300E+03
        -0.37300E+03
        -0.37300E+03
        -0.37300E+03
        -0.37300E+03
        -0.37300E+03
        -0.37300E+03
        -0.37300E+03
        -0.37300E+03
        -0.37300E+03
        -0.37300E+03
        -0.37300E+03
        -0.37300E+03
        -0.37300E+03
        -0.37300E+03
        -0.37300E+03
        -0.37300E+03
        -0.37300E+03
        -0.37300E+03
        -0.37300E+03
        -0.37300E+03
        -0.37300E+03
        -0.37300E+03
        -0.37300E+03
        -0.37300E+03
        -0.37300E+03
        -0.37300E+03
        -0.37300E+03
        -0.37300E+03
        -0.37300E+03
        -0.37300E+03
        -0.37300E+03
        -0.37300E+03
        -0.37300E+03
        -0.37300E+03
        -0.37300E+03
        -0.37300E+03
        -0.37300E+03
        -0.37300E+03
        -0.37300E+03
        -0.37300E+03
        -0.37300E+03
        -0.37300E+03
        -0.37300E+03
        -0.37300E+03
        -0.37300E+03
        -0.37300E+03
        -0.37300E+03
        -0.37300E+03
        -0.37300E+03
        -0.37300E+03
        -0.37300E+03
        -0.37300E+03
        -0.37300E+03
        -0.37300E+03
        -0.37300E+03
        -0.37300E+03
        -0.37300E+03
        -0.37300E+03
        -0.37300E+03
        -0.37300E+03
        -0.37300E+03
        -0.37300E+03
        -0.37300E+03
        -0.37300E+03
        -0.37300E+03
        -0.37300E+03
        -0.37300E+03
        -0.37300E+03
        -0.37300E+03
        -0.37300E+03
        -0.37300E+03
        -0.37300E+03
        -0.37300E+03
        -0.37300E+03
        -0.37300E+03
        -0.37300E+03
        -0.37300E+03
        -0.37300E+03
        -0.37300E+03
        -0.37300E+03
        -0.37300E+03
        -0.37300E+03
        -0.37300E+03
        -0.37300E+03
        -0.37300E+03
        -0.37300E+03
        -0.37300E+03
        -0.37300E+03
        -0.37300E+03
        -0.37300E+03
        -0.37300E+03
        -0.37300E+03
        -0.37300E+03
        -0.37300E+03
        -0.37300E+03
        -0.37300E+03
        -0.37300E+03
        -0.37300E+03
        -0.37300E+03
        -0.37300E+03
        -0.37300E+03
        -0.37300E+03
        -0.37300E+03
        -0.37300E+03
        -0.37300E+03
        -0.37300E+03
        -0.37300E+03
        -0.37300E+03
        -0.37300E+03
        -0.37300E+03
        -0.37300E+03
        -0.37300E+03
        -0.37300E+03
        -0.37300E+03
        -0.37300E+03
        -0.37300E+03
        -0.37300E+03
  
SCALARS                 acceleration_x  double 1
LOOKUP_TABLE default
         0.00000E+00
         0.00000E+00
         0.00000E+00
         0.00000E+00
         0.00000E+00
         0.00000E+00
         0.00000E+00
         0.00000E+00
         0.00000E+00
         0.00000E+00
         0.00000E+00
         0.00000E+00
         0.00000E+00
         0.00000E+00
         0.00000E+00
         0.00000E+00
         0.00000E+00
         0.00000E+00
         0.00000E+00
         0.00000E+00
         0.00000E+00
         0.00000E+00
         0.00000E+00
         0.00000E+00
         0.00000E+00
         0.00000E+00
         0.00000E+00
         0.00000E+00
         0.00000E+00
         0.00000E+00
         0.00000E+00
         0.00000E+00
         0.00000E+00
         0.00000E+00
         0.00000E+00
         0.00000E+00
         0.00000E+00
         0.00000E+00
         0.00000E+00
         0.00000E+00
         0.00000E+00
         0.00000E+00
         0.00000E+00
         0.00000E+00
         0.00000E+00
         0.00000E+00
         0.00000E+00
         0.00000E+00
         0.00000E+00
         0.00000E+00
         0.00000E+00
         0.00000E+00
         0.00000E+00
         0.00000E+00
         0.00000E+00
         0.00000E+00
         0.00000E+00
         0.00000E+00
         0.00000E+00
         0.00000E+00
         0.00000E+00
         0.00000E+00
         0.00000E+00
         0.00000E+00
         0.00000E+00
         0.00000E+00
         0.00000E+00
         0.00000E+00
         0.00000E+00
         0.00000E+00
         0.00000E+00
         0.00000E+00
         0.00000E+00
         0.00000E+00
         0.00000E+00
         0.00000E+00
         0.00000E+00
         0.00000E+00
         0.00000E+00
         0.00000E+00
         0.00000E+00
         0.00000E+00
         0.00000E+00
         0.00000E+00
         0.00000E+00
         0.00000E+00
         0.00000E+00
         0.00000E+00
         0.00000E+00
         0.00000E+00
         0.00000E+00
         0.00000E+00
         0.00000E+00
         0.00000E+00
         0.00000E+00
         0.00000E+00
         0.00000E+00
         0.00000E+00
         0.00000E+00
         0.00000E+00
         0.00000E+00
         0.00000E+00
         0.00000E+00
         0.00000E+00
         0.00000E+00
         0.00000E+00
         0.00000E+00
         0.00000E+00
         0.00000E+00
         0.00000E+00
         0.00000E+00
         0.00000E+00
         0.00000E+00
         0.00000E+00
         0.00000E+00
         0.00000E+00
         0.00000E+00
         0.00000E+00
         0.00000E+00
         0.00000E+00
         0.00000E+00
         0.00000E+00
         0.00000E+00
         0.00000E+00
         0.00000E+00
         0.00000E+00
         0.00000E+00
         0.00000E+00
         0.00000E+00
         0.00000E+00
         0.00000E+00
         0.00000E+00
         0.00000E+00
         0.00000E+00
         0.00000E+00
         0.00000E+00
         0.00000E+00
         0.00000E+00
         0.00000E+00
         0.00000E+00
         0.00000E+00
         0.00000E+00
         0.00000E+00
         0.00000E+00
         0.00000E+00
         0.00000E+00
         0.00000E+00
         0.00000E+00
         0.00000E+00
         0.00000E+00
         0.00000E+00
         0.00000E+00
         0.00000E+00
         0.00000E+00
         0.00000E+00
         0.00000E+00
         0.00000E+00
         0.00000E+00
         0.00000E+00
         0.00000E+00
         0.00000E+00
         0.00000E+00
         0.00000E+00
         0.00000E+00
         0.00000E+00
         0.00000E+00
         0.00000E+00
         0.00000E+00
         0.00000E+00
         0.00000E+00
         0.00000E+00
         0.00000E+00
         0.00000E+00
         0.00000E+00
         0.00000E+00
         0.00000E+00
         0.00000E+00
         0.00000E+00
         0.00000E+00
         0.00000E+00
         0.00000E+00
         0.00000E+00
         0.00000E+00
         0.00000E+00
         0.00000E+00
         0.00000E+00
         0.00000E+00
         0.00000E+00
         0.00000E+00
         0.00000E+00
         0.00000E+00
         0.00000E+00
         0.00000E+00
         0.00000E+00
         0.00000E+00
         0.00000E+00
         0.00000E+00
         0.00000E+00
         0.00000E+00
         0.00000E+00
         0.00000E+00
         0.00000E+00
         0.00000E+00
         0.00000E+00
         0.00000E+00
         0.00000E+00
         0.00000E+00
         0.00000E+00
         0.00000E+00
         0.00000E+00
         0.00000E+00
         0.00000E+00
         0.00000E+00
         0.00000E+00
         0.00000E+00
         0.00000E+00
         0.00000E+00
         0.00000E+00
         0.00000E+00
         0.00000E+00
         0.00000E+00
         0.00000E+00
         0.00000E+00
         0.00000E+00
         0.00000E+00
         0.00000E+00
         0.00000E+00
         0.00000E+00
         0.00000E+00
         0.00000E+00
         0.00000E+00
         0.00000E+00
         0.00000E+00
         0.00000E+00
         0.00000E+00
         0.00000E+00
         0.00000E+00
         0.00000E+00
         0.00000E+00
         0.00000E+00
         0.00000E+00
         0.00000E+00
         0.00000E+00
         0.00000E+00
         0.00000E+00
         0.00000E+00
         0.00000E+00
         0.00000E+00
         0.00000E+00
         0.00000E+00
         0.00000E+00
         0.00000E+00
         0.00000E+00
         0.00000E+00
         0.00000E+00
         0.00000E+00
         0.00000E+00
         0.00000E+00
         0.00000E+00
         0.00000E+00
         0.00000E+00
         0.00000E+00
         0.00000E+00
         0.00000E+00
         0.00000E+00
         0.00000E+00
         0.00000E+00
         0.00000E+00
         0.00000E+00
         0.00000E+00
         0.00000E+00
         0.00000E+00
         0.00000E+00
         0.00000E+00
         0.00000E+00
         0.00000E+00
         0.00000E+00
         0.00000E+00
         0.00000E+00
         0.00000E+00
         0.00000E+00
         0.00000E+00
         0.00000E+00
         0.00000E+00
         0.00000E+00
         0.00000E+00
         0.00000E+00
         0.00000E+00
         0.00000E+00
         0.00000E+00
         0.00000E+00
         0.00000E+00
         0.00000E+00
         0.00000E+00
         0.00000E+00
         0.00000E+00
         0.00000E+00
         0.00000E+00
         0.00000E+00
         0.00000E+00
         0.00000E+00
         0.00000E+00
         0.00000E+00
         0.00000E+00
         0.00000E+00
         0.00000E+00
         0.00000E+00
         0.00000E+00
         0.00000E+00
         0.00000E+00
         0.00000E+00
         0.00000E+00
         0.00000E+00
         0.00000E+00
         0.00000E+00
         0.00000E+00
         0.00000E+00
         0.00000E+00
         0.00000E+00
         0.00000E+00
         0.00000E+00
         0.00000E+00
         0.00000E+00
         0.00000E+00
         0.00000E+00
         0.00000E+00
         0.00000E+00
         0.00000E+00
         0.00000E+00
         0.00000E+00
         0.00000E+00
         0.00000E+00
         0.00000E+00
         0.00000E+00
         0.00000E+00
         0.00000E+00
         0.00000E+00
         0.00000E+00
         0.00000E+00
         0.00000E+00
         0.00000E+00
         0.00000E+00
         0.00000E+00
         0.00000E+00
         0.00000E+00
         0.00000E+00
         0.00000E+00
         0.00000E+00
         0.00000E+00
         0.00000E+00
         0.00000E+00
         0.00000E+00
         0.00000E+00
         0.00000E+00
         0.00000E+00
         0.00000E+00
         0.00000E+00
         0.00000E+00
         0.00000E+00
         0.00000E+00
         0.00000E+00
         0.00000E+00
         0.00000E+00
         0.00000E+00
         0.00000E+00
         0.00000E+00
         0.00000E+00
         0.00000E+00
         0.00000E+00
         0.00000E+00
         0.00000E+00
         0.00000E+00
         0.00000E+00
         0.00000E+00
         0.00000E+00
         0.00000E+00
         0.00000E+00
         0.00000E+00
         0.00000E+00
         0.00000E+00
         0.00000E+00
         0.00000E+00
         0.00000E+00
         0.00000E+00
         0.00000E+00
         0.00000E+00
         0.00000E+00
         0.00000E+00
         0.00000E+00
         0.00000E+00
         0.00000E+00
         0.00000E+00
         0.00000E+00
         0.00000E+00
         0.00000E+00
         0.00000E+00
         0.00000E+00
         0.00000E+00
         0.00000E+00
         0.00000E+00
         0.00000E+00
         0.00000E+00
         0.00000E+00
         0.00000E+00
         0.00000E+00
         0.00000E+00
         0.00000E+00
         0.00000E+00
         0.00000E+00
         0.00000E+00
         0.00000E+00
         0.00000E+00
         0.00000E+00
         0.00000E+00
         0.00000E+00
         0.00000E+00
         0.00000E+00
         0.00000E+00
         0.00000E+00
         0.00000E+00
         0.00000E+00
         0.00000E+00
         0.00000E+00
         0.00000E+00
         0.00000E+00
         0.00000E+00
         0.00000E+00
         0.00000E+00
         0.00000E+00
         0.00000E+00
         0.00000E+00
         0.00000E+00
         0.00000E+00
         0.00000E+00
         0.00000E+00
         0.00000E+00
         0.00000E+00
         0.00000E+00
         0.00000E+00
         0.00000E+00
         0.00000E+00
         0.00000E+00
         0.00000E+00
         0.00000E+00
         0.00000E+00
         0.00000E+00
         0.00000E+00
         0.00000E+00
         0.00000E+00
         0.00000E+00
         0.00000E+00
         0.00000E+00
         0.00000E+00
         0.00000E+00
         0.00000E+00
         0.00000E+00
         0.00000E+00
         0.00000E+00
         0.00000E+00
         0.00000E+00
         0.00000E+00
         0.00000E+00
         0.00000E+00
         0.00000E+00
         0.00000E+00
         0.00000E+00
         0.00000E+00
         0.00000E+00
         0.00000E+00
         0.00000E+00
         0.00000E+00
         0.00000E+00
         0.00000E+00
         0.00000E+00
         0.00000E+00
         0.00000E+00
         0.00000E+00
         0.00000E+00
         0.00000E+00
         0.00000E+00
         0.00000E+00
         0.00000E+00
         0.00000E+00
         0.00000E+00
         0.00000E+00
         0.00000E+00
         0.00000E+00
         0.00000E+00
         0.00000E+00
         0.00000E+00
         0.00000E+00
         0.00000E+00
         0.00000E+00
         0.00000E+00
         0.00000E+00
         0.00000E+00
         0.00000E+00
         0.00000E+00
         0.00000E+00
         0.00000E+00
         0.00000E+00
         0.00000E+00
         0.00000E+00
         0.00000E+00
         0.00000E+00
         0.00000E+00
         0.00000E+00
         0.00000E+00
         0.00000E+00
         0.00000E+00
         0.00000E+00
         0.00000E+00
         0.00000E+00
         0.00000E+00
         0.00000E+00
         0.00000E+00
         0.00000E+00
         0.00000E+00
         0.00000E+00
         0.00000E+00
         0.00000E+00
         0.00000E+00
         0.00000E+00
         0.00000E+00
         0.00000E+00
         0.00000E+00
         0.00000E+00
         0.00000E+00
         0.00000E+00
         0.00000E+00
         0.00000E+00
         0.00000E+00
         0.00000E+00
         0.00000E+00
         0.00000E+00
         0.00000E+00
         0.00000E+00
         0.00000E+00
         0.00000E+00
         0.00000E+00
         0.00000E+00
         0.00000E+00
         0.00000E+00
         0.00000E+00
         0.00000E+00
         0.00000E+00
         0.00000E+00
         0.00000E+00
         0.00000E+00
         0.00000E+00
         0.00000E+00
         0.00000E+00
         0.00000E+00
         0.00000E+00
         0.00000E+00
         0.00000E+00
         0.00000E+00
         0.00000E+00
         0.00000E+00
         0.00000E+00
         0.00000E+00
         0.00000E+00
         0.00000E+00
         0.00000E+00
         0.00000E+00
         0.00000E+00
         0.00000E+00
         0.00000E+00
         0.00000E+00
         0.00000E+00
         0.00000E+00
         0.00000E+00
         0.00000E+00
         0.00000E+00
         0.00000E+00
         0.00000E+00
         0.00000E+00
         0.00000E+00
         0.00000E+00
         0.00000E+00
         0.00000E+00
         0.00000E+00
         0.00000E+00
         0.00000E+00
         0.00000E+00
         0.00000E+00
         0.00000E+00
         0.00000E+00
         0.00000E+00
         0.00000E+00
         0.00000E+00
         0.00000E+00
         0.00000E+00
         0.00000E+00
         0.00000E+00
         0.00000E+00
         0.00000E+00
         0.00000E+00
         0.00000E+00
         0.00000E+00
         0.00000E+00
         0.00000E+00
         0.00000E+00
         0.00000E+00
         0.00000E+00
         0.00000E+00
         0.00000E+00
         0.00000E+00
         0.00000E+00
         0.00000E+00
         0.00000E+00
         0.00000E+00
         0.00000E+00
         0.00000E+00
         0.00000E+00
         0.00000E+00
         0.00000E+00
         0.00000E+00
         0.00000E+00
         0.00000E+00
         0.00000E+00
         0.00000E+00
         0.00000E+00
         0.00000E+00
         0.00000E+00
         0.00000E+00
         0.00000E+00
         0.00000E+00
         0.00000E+00
         0.00000E+00
         0.00000E+00
         0.00000E+00
         0.00000E+00
         0.00000E+00
         0.00000E+00
         0.00000E+00
         0.00000E+00
         0.00000E+00
         0.00000E+00
         0.00000E+00
         0.00000E+00
         0.00000E+00
         0.00000E+00
         0.00000E+00
         0.00000E+00
         0.00000E+00
         0.00000E+00
         0.00000E+00
         0.00000E+00
         0.00000E+00
         0.00000E+00
         0.00000E+00
         0.00000E+00
         0.00000E+00
         0.00000E+00
         0.00000E+00
         0.00000E+00
         0.00000E+00
         0.00000E+00
         0.00000E+00
         0.00000E+00
         0.00000E+00
         0.00000E+00
         0.00000E+00
         0.00000E+00
         0.00000E+00
         0.00000E+00
         0.00000E+00
         0.00000E+00
         0.00000E+00
         0.00000E+00
         0.00000E+00
         0.00000E+00
         0.00000E+00
         0.00000E+00
         0.00000E+00
         0.00000E+00
         0.00000E+00
         0.00000E+00
         0.00000E+00
         0.00000E+00
         0.00000E+00
         0.00000E+00
         0.00000E+00
         0.00000E+00
         0.00000E+00
         0.00000E+00
         0.00000E+00
         0.00000E+00
         0.00000E+00
         0.00000E+00
         0.00000E+00
         0.00000E+00
         0.00000E+00
         0.00000E+00
         0.00000E+00
         0.00000E+00
         0.00000E+00
         0.00000E+00
         0.00000E+00
         0.00000E+00
         0.00000E+00
         0.00000E+00
         0.00000E+00
         0.00000E+00
         0.00000E+00
         0.00000E+00
         0.00000E+00
         0.00000E+00
         0.00000E+00
         0.00000E+00
         0.00000E+00
         0.00000E+00
         0.00000E+00
         0.00000E+00
         0.00000E+00
         0.00000E+00
         0.00000E+00
         0.00000E+00
         0.00000E+00
         0.00000E+00
         0.00000E+00
         0.00000E+00
         0.00000E+00
         0.00000E+00
         0.00000E+00
         0.00000E+00
         0.00000E+00
         0.00000E+00
         0.00000E+00
         0.00000E+00
         0.00000E+00
         0.00000E+00
         0.00000E+00
         0.00000E+00
         0.00000E+00
         0.00000E+00
         0.00000E+00
         0.00000E+00
         0.00000E+00
         0.00000E+00
         0.00000E+00
         0.00000E+00
         0.00000E+00
         0.00000E+00
         0.00000E+00
         0.00000E+00
         0.00000E+00
         0.00000E+00
         0.00000E+00
         0.00000E+00
         0.00000E+00
         0.00000E+00
         0.00000E+00
         0.00000E+00
         0.00000E+00
         0.00000E+00
         0.00000E+00
         0.00000E+00
         0.00000E+00
         0.00000E+00
         0.00000E+00
         0.00000E+00
         0.00000E+00
         0.00000E+00
         0.00000E+00
         0.00000E+00
         0.00000E+00
         0.00000E+00
         0.00000E+00
         0.00000E+00
         0.00000E+00
         0.00000E+00
         0.00000E+00
         0.00000E+00
         0.00000E+00
         0.00000E+00
         0.00000E+00
         0.00000E+00
         0.00000E+00
         0.00000E+00
         0.00000E+00
         0.00000E+00
         0.00000E+00
         0.00000E+00
         0.00000E+00
         0.00000E+00
         0.00000E+00
         0.00000E+00
         0.00000E+00
         0.00000E+00
         0.00000E+00
         0.00000E+00
         0.00000E+00
         0.00000E+00
         0.00000E+00
         0.00000E+00
         0.00000E+00
         0.00000E+00
         0.00000E+00
         0.00000E+00
         0.00000E+00
         0.00000E+00
         0.00000E+00
         0.00000E+00
         0.00000E+00
         0.00000E+00
         0.00000E+00
         0.00000E+00
         0.00000E+00
         0.00000E+00
         0.00000E+00
         0.00000E+00
         0.00000E+00
         0.00000E+00
         0.00000E+00
         0.00000E+00
         0.00000E+00
         0.00000E+00
         0.00000E+00
         0.00000E+00
         0.00000E+00
         0.00000E+00
         0.00000E+00
         0.00000E+00
         0.00000E+00
         0.00000E+00
         0.00000E+00
         0.00000E+00
         0.00000E+00
         0.00000E+00
         0.00000E+00
         0.00000E+00
         0.00000E+00
         0.00000E+00
         0.00000E+00
         0.00000E+00
         0.00000E+00
         0.00000E+00
         0.00000E+00
         0.00000E+00
         0.00000E+00
         0.00000E+00
         0.00000E+00
         0.00000E+00
         0.00000E+00
         0.00000E+00
         0.00000E+00
         0.00000E+00
         0.00000E+00
         0.00000E+00
         0.00000E+00
         0.00000E+00
         0.00000E+00
         0.00000E+00
         0.00000E+00
         0.00000E+00
         0.00000E+00
         0.00000E+00
         0.00000E+00
         0.00000E+00
         0.00000E+00
         0.00000E+00
         0.00000E+00
         0.00000E+00
         0.00000E+00
         0.00000E+00
         0.00000E+00
         0.00000E+00
         0.00000E+00
         0.00000E+00
         0.00000E+00
         0.00000E+00
         0.00000E+00
         0.00000E+00
         0.00000E+00
         0.00000E+00
         0.00000E+00
         0.00000E+00
         0.00000E+00
         0.00000E+00
         0.00000E+00
         0.00000E+00
         0.00000E+00
         0.00000E+00
         0.00000E+00
         0.00000E+00
         0.00000E+00
         0.00000E+00
         0.00000E+00
         0.00000E+00
         0.00000E+00
         0.00000E+00
         0.00000E+00
         0.00000E+00
         0.00000E+00
         0.00000E+00
         0.00000E+00
         0.00000E+00
         0.00000E+00
         0.00000E+00
         0.00000E+00
         0.00000E+00
         0.00000E+00
         0.00000E+00
         0.00000E+00
         0.00000E+00
         0.00000E+00
         0.00000E+00
         0.00000E+00
         0.00000E+00
         0.00000E+00
         0.00000E+00
         0.00000E+00
         0.00000E+00
         0.00000E+00
         0.00000E+00
         0.00000E+00
         0.00000E+00
         0.00000E+00
         0.00000E+00
         0.00000E+00
         0.00000E+00
         0.00000E+00
         0.00000E+00
         0.00000E+00
         0.00000E+00
         0.00000E+00
         0.00000E+00
         0.00000E+00
         0.00000E+00
         0.00000E+00
         0.00000E+00
         0.00000E+00
         0.00000E+00
         0.00000E+00
         0.00000E+00
         0.00000E+00
         0.00000E+00
         0.00000E+00
         0.00000E+00
         0.00000E+00
         0.00000E+00
         0.00000E+00
         0.00000E+00
         0.00000E+00
         0.00000E+00
         0.00000E+00
         0.00000E+00
         0.00000E+00
         0.00000E+00
         0.00000E+00
         0.00000E+00
         0.00000E+00
         0.00000E+00
         0.00000E+00
         0.00000E+00
         0.00000E+00
         0.00000E+00
         0.00000E+00
         0.00000E+00
         0.00000E+00
         0.00000E+00
         0.00000E+00
         0.00000E+00
         0.00000E+00
         0.00000E+00
         0.00000E+00
         0.00000E+00
         0.00000E+00
         0.00000E+00
         0.00000E+00
         0.00000E+00
         0.00000E+00
         0.00000E+00
         0.00000E+00
         0.00000E+00
         0.00000E+00
         0.00000E+00
         0.00000E+00
         0.00000E+00
         0.00000E+00
         0.00000E+00
         0.00000E+00
         0.00000E+00
         0.00000E+00
         0.00000E+00
         0.00000E+00
         0.00000E+00
         0.00000E+00
         0.00000E+00
         0.00000E+00
         0.00000E+00
         0.00000E+00
         0.00000E+00
         0.00000E+00
         0.00000E+00
         0.00000E+00
         0.00000E+00
         0.00000E+00
         0.00000E+00
         0.00000E+00
         0.00000E+00
         0.00000E+00
         0.00000E+00
         0.00000E+00
         0.00000E+00
         0.00000E+00
         0.00000E+00
         0.00000E+00
         0.00000E+00
         0.00000E+00
         0.00000E+00
         0.00000E+00
         0.00000E+00
         0.00000E+00
         0.00000E+00
         0.00000E+00
         0.00000E+00
         0.00000E+00
         0.00000E+00
         0.00000E+00
         0.00000E+00
         0.00000E+00
         0.00000E+00
         0.00000E+00
         0.00000E+00
         0.00000E+00
         0.00000E+00
         0.00000E+00
         0.00000E+00
         0.00000E+00
         0.00000E+00
         0.00000E+00
         0.00000E+00
         0.00000E+00
         0.00000E+00
         0.00000E+00
         0.00000E+00
         0.00000E+00
         0.00000E+00
         0.00000E+00
         0.00000E+00
         0.00000E+00
         0.00000E+00
         0.00000E+00
         0.00000E+00
         0.00000E+00
         0.00000E+00
         0.00000E+00
         0.00000E+00
         0.00000E+00
         0.00000E+00
         0.00000E+00
         0.00000E+00
         0.00000E+00
         0.00000E+00
         0.00000E+00
         0.00000E+00
         0.00000E+00
         0.00000E+00
         0.00000E+00
         0.00000E+00
         0.00000E+00
         0.00000E+00
         0.00000E+00
         0.00000E+00
         0.00000E+00
         0.00000E+00
         0.00000E+00
         0.00000E+00
         0.00000E+00
         0.00000E+00
         0.00000E+00
         0.00000E+00
         0.00000E+00
         0.00000E+00
         0.00000E+00
         0.00000E+00
         0.00000E+00
         0.00000E+00
         0.00000E+00
         0.00000E+00
         0.00000E+00
         0.00000E+00
         0.00000E+00
         0.00000E+00
         0.00000E+00
         0.00000E+00
         0.00000E+00
         0.00000E+00
         0.00000E+00
         0.00000E+00
         0.00000E+00
         0.00000E+00
         0.00000E+00
         0.00000E+00
         0.00000E+00
         0.00000E+00
         0.00000E+00
         0.00000E+00
         0.00000E+00
         0.00000E+00
         0.00000E+00
         0.00000E+00
         0.00000E+00
         0.00000E+00
         0.00000E+00
         0.00000E+00
         0.00000E+00
         0.00000E+00
         0.00000E+00
         0.00000E+00
         0.00000E+00
         0.00000E+00
         0.00000E+00
         0.00000E+00
         0.00000E+00
         0.00000E+00
         0.00000E+00
         0.00000E+00
         0.00000E+00
         0.00000E+00
         0.00000E+00
         0.00000E+00
         0.00000E+00
         0.00000E+00
         0.00000E+00
         0.00000E+00
         0.00000E+00
         0.00000E+00
         0.00000E+00
         0.00000E+00
         0.00000E+00
         0.00000E+00
         0.00000E+00
         0.00000E+00
         0.00000E+00
         0.00000E+00
         0.00000E+00
         0.00000E+00
         0.00000E+00
         0.00000E+00
         0.00000E+00
         0.00000E+00
         0.00000E+00
         0.00000E+00
         0.00000E+00
         0.00000E+00
         0.00000E+00
         0.00000E+00
         0.00000E+00
         0.00000E+00
         0.00000E+00
         0.00000E+00
         0.00000E+00
         0.00000E+00
         0.00000E+00
         0.00000E+00
         0.00000E+00
         0.00000E+00
         0.00000E+00
         0.00000E+00
         0.00000E+00
         0.00000E+00
         0.00000E+00
         0.00000E+00
         0.00000E+00
         0.00000E+00
         0.00000E+00
         0.00000E+00
         0.00000E+00
         0.00000E+00
         0.00000E+00
         0.00000E+00
         0.00000E+00
         0.00000E+00
         0.00000E+00
         0.00000E+00
         0.00000E+00
         0.00000E+00
         0.00000E+00
         0.00000E+00
         0.00000E+00
         0.00000E+00
         0.00000E+00
         0.00000E+00
         0.00000E+00
         0.00000E+00
         0.00000E+00
         0.00000E+00
         0.00000E+00
         0.00000E+00
         0.00000E+00
         0.00000E+00
         0.00000E+00
         0.00000E+00
         0.00000E+00
         0.00000E+00
         0.00000E+00
         0.00000E+00
         0.00000E+00
         0.00000E+00
         0.00000E+00
         0.00000E+00
         0.00000E+00
         0.00000E+00
         0.00000E+00
         0.00000E+00
         0.00000E+00
         0.00000E+00
         0.00000E+00
         0.00000E+00
         0.00000E+00
         0.00000E+00
         0.00000E+00
         0.00000E+00
         0.00000E+00
         0.00000E+00
         0.00000E+00
         0.00000E+00
         0.00000E+00
         0.00000E+00
         0.00000E+00
         0.00000E+00
         0.00000E+00
         0.00000E+00
         0.00000E+00
         0.00000E+00
         0.00000E+00
         0.00000E+00
         0.00000E+00
         0.00000E+00
         0.00000E+00
         0.00000E+00
         0.00000E+00
         0.00000E+00
         0.00000E+00
         0.00000E+00
         0.00000E+00
         0.00000E+00
         0.00000E+00
         0.00000E+00
         0.00000E+00
         0.00000E+00
         0.00000E+00
         0.00000E+00
         0.00000E+00
         0.00000E+00
         0.00000E+00
         0.00000E+00
         0.00000E+00
         0.00000E+00
         0.00000E+00
         0.00000E+00
         0.00000E+00
         0.00000E+00
         0.00000E+00
         0.00000E+00
         0.00000E+00
         0.00000E+00
         0.00000E+00
         0.00000E+00
         0.00000E+00
         0.00000E+00
         0.00000E+00
         0.00000E+00
         0.00000E+00
         0.00000E+00
         0.00000E+00
         0.00000E+00
         0.00000E+00
         0.00000E+00
         0.00000E+00
         0.00000E+00
         0.00000E+00
         0.00000E+00
         0.00000E+00
         0.00000E+00
         0.00000E+00
         0.00000E+00
         0.00000E+00
         0.00000E+00
         0.00000E+00
         0.00000E+00
         0.00000E+00
         0.00000E+00
         0.00000E+00
         0.00000E+00
         0.00000E+00
         0.00000E+00
         0.00000E+00
         0.00000E+00
         0.00000E+00
         0.00000E+00
         0.00000E+00
         0.00000E+00
         0.00000E+00
         0.00000E+00
         0.00000E+00
         0.00000E+00
         0.00000E+00
         0.00000E+00
         0.00000E+00
         0.00000E+00
         0.00000E+00
         0.00000E+00
         0.00000E+00
         0.00000E+00
         0.00000E+00
         0.00000E+00
         0.00000E+00
         0.00000E+00
         0.00000E+00
         0.00000E+00
         0.00000E+00
         0.00000E+00
         0.00000E+00
         0.00000E+00
         0.00000E+00
         0.00000E+00
         0.00000E+00
         0.00000E+00
         0.00000E+00
         0.00000E+00
         0.00000E+00
         0.00000E+00
         0.00000E+00
         0.00000E+00
         0.00000E+00
         0.00000E+00
         0.00000E+00
         0.00000E+00
         0.00000E+00
         0.00000E+00
         0.00000E+00
         0.00000E+00
         0.00000E+00
         0.00000E+00
         0.00000E+00
         0.00000E+00
         0.00000E+00
         0.00000E+00
         0.00000E+00
         0.00000E+00
         0.00000E+00
         0.00000E+00
         0.00000E+00
         0.00000E+00
         0.00000E+00
         0.00000E+00
         0.00000E+00
         0.00000E+00
         0.00000E+00
         0.00000E+00
         0.00000E+00
         0.00000E+00
         0.00000E+00
         0.00000E+00
         0.00000E+00
         0.00000E+00
         0.00000E+00
         0.00000E+00
         0.00000E+00
         0.00000E+00
         0.00000E+00
         0.00000E+00
         0.00000E+00
         0.00000E+00
         0.00000E+00
         0.00000E+00
         0.00000E+00
         0.00000E+00
         0.00000E+00
         0.00000E+00
         0.00000E+00
         0.00000E+00
         0.00000E+00
         0.00000E+00
         0.00000E+00
         0.00000E+00
         0.00000E+00
         0.00000E+00
         0.00000E+00
         0.00000E+00
         0.00000E+00
         0.00000E+00
         0.00000E+00
         0.00000E+00
         0.00000E+00
         0.00000E+00
         0.00000E+00
         0.00000E+00
         0.00000E+00
         0.00000E+00
         0.00000E+00
         0.00000E+00
         0.00000E+00
         0.00000E+00
         0.00000E+00
         0.00000E+00
         0.00000E+00
         0.00000E+00
         0.00000E+00
         0.00000E+00
         0.00000E+00
         0.00000E+00
         0.00000E+00
         0.00000E+00
         0.00000E+00
         0.00000E+00
         0.00000E+00
         0.00000E+00
         0.00000E+00
         0.00000E+00
         0.00000E+00
         0.00000E+00
         0.00000E+00
         0.00000E+00
         0.00000E+00
         0.00000E+00
         0.00000E+00
         0.00000E+00
         0.00000E+00
         0.00000E+00
         0.00000E+00
         0.00000E+00
         0.00000E+00
         0.00000E+00
         0.00000E+00
         0.00000E+00
         0.00000E+00
         0.00000E+00
         0.00000E+00
         0.00000E+00
         0.00000E+00
         0.00000E+00
         0.00000E+00
         0.00000E+00
         0.00000E+00
         0.00000E+00
         0.00000E+00
         0.00000E+00
         0.00000E+00
         0.00000E+00
         0.00000E+00
         0.00000E+00
         0.00000E+00
         0.00000E+00
         0.00000E+00
         0.00000E+00
         0.00000E+00
         0.00000E+00
         0.00000E+00
         0.00000E+00
         0.00000E+00
         0.00000E+00
         0.00000E+00
         0.00000E+00
         0.00000E+00
         0.00000E+00
         0.00000E+00
         0.00000E+00
         0.00000E+00
         0.00000E+00
         0.00000E+00
         0.00000E+00
         0.00000E+00
         0.00000E+00
         0.00000E+00
         0.00000E+00
         0.00000E+00
         0.00000E+00
         0.00000E+00
         0.00000E+00
         0.00000E+00
         0.00000E+00
         0.00000E+00
         0.00000E+00
         0.00000E+00
         0.00000E+00
         0.00000E+00
         0.00000E+00
         0.00000E+00
         0.00000E+00
         0.00000E+00
         0.00000E+00
         0.00000E+00
         0.00000E+00
         0.00000E+00
         0.00000E+00
         0.00000E+00
         0.00000E+00
         0.00000E+00
         0.00000E+00
         0.00000E+00
         0.00000E+00
         0.00000E+00
         0.00000E+00
         0.00000E+00
         0.00000E+00
         0.00000E+00
         0.00000E+00
         0.00000E+00
         0.00000E+00
         0.00000E+00
         0.00000E+00
         0.00000E+00
         0.00000E+00
         0.00000E+00
         0.00000E+00
         0.00000E+00
         0.00000E+00
         0.00000E+00
         0.00000E+00
         0.00000E+00
         0.00000E+00
         0.00000E+00
         0.00000E+00
         0.00000E+00
         0.00000E+00
         0.00000E+00
         0.00000E+00
         0.00000E+00
         0.00000E+00
         0.00000E+00
         0.00000E+00
         0.00000E+00
         0.00000E+00
         0.00000E+00
         0.00000E+00
         0.00000E+00
         0.00000E+00
         0.00000E+00
         0.00000E+00
         0.00000E+00
         0.00000E+00
         0.00000E+00
         0.00000E+00
         0.00000E+00
         0.00000E+00
         0.00000E+00
         0.00000E+00
         0.00000E+00
         0.00000E+00
         0.00000E+00
         0.00000E+00
         0.00000E+00
         0.00000E+00
         0.00000E+00
         0.00000E+00
         0.00000E+00
         0.00000E+00
         0.00000E+00
         0.00000E+00
         0.00000E+00
         0.00000E+00
         0.00000E+00
         0.00000E+00
         0.00000E+00
         0.00000E+00
         0.00000E+00
         0.00000E+00
         0.00000E+00
         0.00000E+00
         0.00000E+00
         0.00000E+00
         0.00000E+00
         0.00000E+00
         0.00000E+00
         0.00000E+00
         0.00000E+00
         0.00000E+00
         0.00000E+00
         0.00000E+00
         0.00000E+00
         0.00000E+00
         0.00000E+00
         0.00000E+00
         0.00000E+00
         0.00000E+00
         0.00000E+00
         0.00000E+00
         0.00000E+00
         0.00000E+00
         0.00000E+00
         0.00000E+00
         0.00000E+00
         0.00000E+00
         0.00000E+00
         0.00000E+00
         0.00000E+00
         0.00000E+00
         0.00000E+00
         0.00000E+00
         0.00000E+00
         0.00000E+00
         0.00000E+00
         0.00000E+00
         0.00000E+00
         0.00000E+00
         0.00000E+00
         0.00000E+00
         0.00000E+00
         0.00000E+00
         0.00000E+00
         0.00000E+00
         0.00000E+00
         0.00000E+00
         0.00000E+00
         0.00000E+00
         0.00000E+00
         0.00000E+00
         0.00000E+00
         0.00000E+00
         0.00000E+00
         0.00000E+00
         0.00000E+00
         0.00000E+00
         0.00000E+00
         0.00000E+00
         0.00000E+00
         0.00000E+00
         0.00000E+00
         0.00000E+00
         0.00000E+00
         0.00000E+00
         0.00000E+00
         0.00000E+00
         0.00000E+00
         0.00000E+00
         0.00000E+00
         0.00000E+00
         0.00000E+00
         0.00000E+00
         0.00000E+00
         0.00000E+00
         0.00000E+00
         0.00000E+00
         0.00000E+00
         0.00000E+00
         0.00000E+00
         0.00000E+00
         0.00000E+00
         0.00000E+00
         0.00000E+00
         0.00000E+00
         0.00000E+00
         0.00000E+00
         0.00000E+00
         0.00000E+00
         0.00000E+00
         0.00000E+00
         0.00000E+00
         0.00000E+00
         0.00000E+00
         0.00000E+00
         0.00000E+00
         0.00000E+00
         0.00000E+00
         0.00000E+00
         0.00000E+00
         0.00000E+00
         0.00000E+00
         0.00000E+00
         0.00000E+00
         0.00000E+00
         0.00000E+00
         0.00000E+00
         0.00000E+00
         0.00000E+00
         0.00000E+00
         0.00000E+00
         0.00000E+00
         0.00000E+00
         0.00000E+00
         0.00000E+00
         0.00000E+00
         0.00000E+00
         0.00000E+00
         0.00000E+00
         0.00000E+00
         0.00000E+00
         0.00000E+00
         0.00000E+00
         0.00000E+00
         0.00000E+00
         0.00000E+00
         0.00000E+00
         0.00000E+00
         0.00000E+00
         0.00000E+00
         0.00000E+00
         0.00000E+00
         0.00000E+00
         0.00000E+00
         0.00000E+00
         0.00000E+00
         0.00000E+00
         0.00000E+00
         0.00000E+00
         0.00000E+00
         0.00000E+00
         0.00000E+00
         0.00000E+00
         0.00000E+00
         0.00000E+00
         0.00000E+00
         0.00000E+00
         0.00000E+00
         0.00000E+00
         0.00000E+00
         0.00000E+00
         0.00000E+00
         0.00000E+00
         0.00000E+00
         0.00000E+00
         0.00000E+00
         0.00000E+00
         0.00000E+00
         0.00000E+00
         0.00000E+00
         0.00000E+00
         0.00000E+00
         0.00000E+00
         0.00000E+00
         0.00000E+00
         0.00000E+00
         0.00000E+00
         0.00000E+00
         0.00000E+00
         0.00000E+00
         0.00000E+00
         0.00000E+00
         0.00000E+00
         0.00000E+00
         0.00000E+00
         0.00000E+00
         0.00000E+00
         0.00000E+00
         0.00000E+00
         0.00000E+00
         0.00000E+00
         0.00000E+00
         0.00000E+00
         0.00000E+00
         0.00000E+00
         0.00000E+00
         0.00000E+00
         0.00000E+00
         0.00000E+00
         0.00000E+00
         0.00000E+00
         0.00000E+00
         0.00000E+00
         0.00000E+00
         0.00000E+00
         0.00000E+00
         0.00000E+00
         0.00000E+00
         0.00000E+00
         0.00000E+00
         0.00000E+00
         0.00000E+00
         0.00000E+00
         0.00000E+00
         0.00000E+00
         0.00000E+00
         0.00000E+00
         0.00000E+00
         0.00000E+00
         0.00000E+00
         0.00000E+00
         0.00000E+00
         0.00000E+00
         0.00000E+00
         0.00000E+00
         0.00000E+00
         0.00000E+00
         0.00000E+00
         0.00000E+00
         0.00000E+00
         0.00000E+00
         0.00000E+00
         0.00000E+00
         0.00000E+00
         0.00000E+00
         0.00000E+00
         0.00000E+00
         0.00000E+00
         0.00000E+00
         0.00000E+00
         0.00000E+00
         0.00000E+00
         0.00000E+00
         0.00000E+00
         0.00000E+00
         0.00000E+00
         0.00000E+00
         0.00000E+00
         0.00000E+00
         0.00000E+00
         0.00000E+00
         0.00000E+00
         0.00000E+00
         0.00000E+00
         0.00000E+00
         0.00000E+00
         0.00000E+00
         0.00000E+00
         0.00000E+00
         0.00000E+00
         0.00000E+00
         0.00000E+00
         0.00000E+00
         0.00000E+00
         0.00000E+00
         0.00000E+00
         0.00000E+00
         0.00000E+00
         0.00000E+00
         0.00000E+00
         0.00000E+00
         0.00000E+00
         0.00000E+00
         0.00000E+00
         0.00000E+00
         0.00000E+00
         0.00000E+00
         0.00000E+00
         0.00000E+00
         0.00000E+00
         0.00000E+00
         0.00000E+00
         0.00000E+00
         0.00000E+00
         0.00000E+00
         0.00000E+00
         0.00000E+00
         0.00000E+00
         0.00000E+00
         0.00000E+00
         0.00000E+00
         0.00000E+00
         0.00000E+00
         0.00000E+00
         0.00000E+00
         0.00000E+00
         0.00000E+00
         0.00000E+00
         0.00000E+00
         0.00000E+00
         0.00000E+00
         0.00000E+00
         0.00000E+00
         0.00000E+00
         0.00000E+00
         0.00000E+00
         0.00000E+00
         0.00000E+00
         0.00000E+00
         0.00000E+00
         0.00000E+00
         0.00000E+00
         0.00000E+00
         0.00000E+00
         0.00000E+00
         0.00000E+00
         0.00000E+00
         0.00000E+00
         0.00000E+00
         0.00000E+00
         0.00000E+00
         0.00000E+00
         0.00000E+00
         0.00000E+00
         0.00000E+00
         0.00000E+00
         0.00000E+00
         0.00000E+00
         0.00000E+00
         0.00000E+00
         0.00000E+00
         0.00000E+00
         0.00000E+00
         0.00000E+00
         0.00000E+00
         0.00000E+00
         0.00000E+00
         0.00000E+00
         0.00000E+00
         0.00000E+00
         0.00000E+00
         0.00000E+00
         0.00000E+00
         0.00000E+00
         0.00000E+00
         0.00000E+00
         0.00000E+00
         0.00000E+00
         0.00000E+00
         0.00000E+00
         0.00000E+00
         0.00000E+00
         0.00000E+00
         0.00000E+00
         0.00000E+00
         0.00000E+00
         0.00000E+00
         0.00000E+00
         0.00000E+00
         0.00000E+00
         0.00000E+00
         0.00000E+00
         0.00000E+00
         0.00000E+00
         0.00000E+00
         0.00000E+00
         0.00000E+00
         0.00000E+00
         0.00000E+00
         0.00000E+00
         0.00000E+00
         0.00000E+00
         0.00000E+00
         0.00000E+00
         0.00000E+00
         0.00000E+00
         0.00000E+00
         0.00000E+00
         0.00000E+00
         0.00000E+00
         0.00000E+00
         0.00000E+00
         0.00000E+00
         0.00000E+00
         0.00000E+00
         0.00000E+00
         0.00000E+00
         0.00000E+00
         0.00000E+00
         0.00000E+00
         0.00000E+00
         0.00000E+00
         0.00000E+00
         0.00000E+00
         0.00000E+00
         0.00000E+00
         0.00000E+00
         0.00000E+00
  
SCALARS                 acceleration_y  double 1
LOOKUP_TABLE default
         0.00000E+00
         0.00000E+00
         0.00000E+00
         0.00000E+00
         0.00000E+00
         0.00000E+00
         0.00000E+00
         0.00000E+00
         0.00000E+00
         0.00000E+00
         0.00000E+00
         0.00000E+00
         0.00000E+00
         0.00000E+00
         0.00000E+00
         0.00000E+00
         0.00000E+00
         0.00000E+00
         0.00000E+00
         0.00000E+00
         0.00000E+00
         0.00000E+00
         0.00000E+00
         0.00000E+00
         0.00000E+00
         0.00000E+00
         0.00000E+00
         0.00000E+00
         0.00000E+00
         0.00000E+00
         0.00000E+00
         0.00000E+00
         0.00000E+00
         0.00000E+00
         0.00000E+00
         0.00000E+00
         0.00000E+00
         0.00000E+00
         0.00000E+00
         0.00000E+00
         0.00000E+00
         0.00000E+00
         0.00000E+00
         0.00000E+00
         0.00000E+00
         0.00000E+00
         0.00000E+00
         0.00000E+00
         0.00000E+00
         0.00000E+00
         0.00000E+00
         0.00000E+00
         0.00000E+00
         0.00000E+00
         0.00000E+00
         0.00000E+00
         0.00000E+00
         0.00000E+00
         0.00000E+00
         0.00000E+00
         0.00000E+00
         0.00000E+00
         0.00000E+00
         0.00000E+00
         0.00000E+00
         0.00000E+00
         0.00000E+00
         0.00000E+00
         0.00000E+00
         0.00000E+00
         0.00000E+00
         0.00000E+00
         0.00000E+00
         0.00000E+00
         0.00000E+00
         0.00000E+00
         0.00000E+00
         0.00000E+00
         0.00000E+00
         0.00000E+00
         0.00000E+00
         0.00000E+00
         0.00000E+00
         0.00000E+00
         0.00000E+00
         0.00000E+00
         0.00000E+00
         0.00000E+00
         0.00000E+00
         0.00000E+00
         0.00000E+00
         0.00000E+00
         0.00000E+00
         0.00000E+00
         0.00000E+00
         0.00000E+00
         0.00000E+00
         0.00000E+00
         0.00000E+00
         0.00000E+00
         0.00000E+00
         0.00000E+00
         0.00000E+00
         0.00000E+00
         0.00000E+00
         0.00000E+00
         0.00000E+00
         0.00000E+00
         0.00000E+00
         0.00000E+00
         0.00000E+00
         0.00000E+00
         0.00000E+00
         0.00000E+00
         0.00000E+00
         0.00000E+00
         0.00000E+00
         0.00000E+00
         0.00000E+00
         0.00000E+00
         0.00000E+00
         0.00000E+00
         0.00000E+00
         0.00000E+00
         0.00000E+00
         0.00000E+00
         0.00000E+00
         0.00000E+00
         0.00000E+00
         0.00000E+00
         0.00000E+00
         0.00000E+00
         0.00000E+00
         0.00000E+00
         0.00000E+00
         0.00000E+00
         0.00000E+00
         0.00000E+00
         0.00000E+00
         0.00000E+00
         0.00000E+00
         0.00000E+00
         0.00000E+00
         0.00000E+00
         0.00000E+00
         0.00000E+00
         0.00000E+00
         0.00000E+00
         0.00000E+00
         0.00000E+00
         0.00000E+00
         0.00000E+00
         0.00000E+00
         0.00000E+00
         0.00000E+00
         0.00000E+00
         0.00000E+00
         0.00000E+00
         0.00000E+00
         0.00000E+00
         0.00000E+00
         0.00000E+00
         0.00000E+00
         0.00000E+00
         0.00000E+00
         0.00000E+00
         0.00000E+00
         0.00000E+00
         0.00000E+00
         0.00000E+00
         0.00000E+00
         0.00000E+00
         0.00000E+00
         0.00000E+00
         0.00000E+00
         0.00000E+00
         0.00000E+00
         0.00000E+00
         0.00000E+00
         0.00000E+00
         0.00000E+00
         0.00000E+00
         0.00000E+00
         0.00000E+00
         0.00000E+00
         0.00000E+00
         0.00000E+00
         0.00000E+00
         0.00000E+00
         0.00000E+00
         0.00000E+00
         0.00000E+00
         0.00000E+00
         0.00000E+00
         0.00000E+00
         0.00000E+00
         0.00000E+00
         0.00000E+00
         0.00000E+00
         0.00000E+00
         0.00000E+00
         0.00000E+00
         0.00000E+00
         0.00000E+00
         0.00000E+00
         0.00000E+00
         0.00000E+00
         0.00000E+00
         0.00000E+00
         0.00000E+00
         0.00000E+00
         0.00000E+00
         0.00000E+00
         0.00000E+00
         0.00000E+00
         0.00000E+00
         0.00000E+00
         0.00000E+00
         0.00000E+00
         0.00000E+00
         0.00000E+00
         0.00000E+00
         0.00000E+00
         0.00000E+00
         0.00000E+00
         0.00000E+00
         0.00000E+00
         0.00000E+00
         0.00000E+00
         0.00000E+00
         0.00000E+00
         0.00000E+00
         0.00000E+00
         0.00000E+00
         0.00000E+00
         0.00000E+00
         0.00000E+00
         0.00000E+00
         0.00000E+00
         0.00000E+00
         0.00000E+00
         0.00000E+00
         0.00000E+00
         0.00000E+00
         0.00000E+00
         0.00000E+00
         0.00000E+00
         0.00000E+00
         0.00000E+00
         0.00000E+00
         0.00000E+00
         0.00000E+00
         0.00000E+00
         0.00000E+00
         0.00000E+00
         0.00000E+00
         0.00000E+00
         0.00000E+00
         0.00000E+00
         0.00000E+00
         0.00000E+00
         0.00000E+00
         0.00000E+00
         0.00000E+00
         0.00000E+00
         0.00000E+00
         0.00000E+00
         0.00000E+00
         0.00000E+00
         0.00000E+00
         0.00000E+00
         0.00000E+00
         0.00000E+00
         0.00000E+00
         0.00000E+00
         0.00000E+00
         0.00000E+00
         0.00000E+00
         0.00000E+00
         0.00000E+00
         0.00000E+00
         0.00000E+00
         0.00000E+00
         0.00000E+00
         0.00000E+00
         0.00000E+00
         0.00000E+00
         0.00000E+00
         0.00000E+00
         0.00000E+00
         0.00000E+00
         0.00000E+00
         0.00000E+00
         0.00000E+00
         0.00000E+00
         0.00000E+00
         0.00000E+00
         0.00000E+00
         0.00000E+00
         0.00000E+00
         0.00000E+00
         0.00000E+00
         0.00000E+00
         0.00000E+00
         0.00000E+00
         0.00000E+00
         0.00000E+00
         0.00000E+00
         0.00000E+00
         0.00000E+00
         0.00000E+00
         0.00000E+00
         0.00000E+00
         0.00000E+00
         0.00000E+00
         0.00000E+00
         0.00000E+00
         0.00000E+00
         0.00000E+00
         0.00000E+00
         0.00000E+00
         0.00000E+00
         0.00000E+00
         0.00000E+00
         0.00000E+00
         0.00000E+00
         0.00000E+00
         0.00000E+00
         0.00000E+00
         0.00000E+00
         0.00000E+00
         0.00000E+00
         0.00000E+00
         0.00000E+00
         0.00000E+00
         0.00000E+00
         0.00000E+00
         0.00000E+00
         0.00000E+00
         0.00000E+00
         0.00000E+00
         0.00000E+00
         0.00000E+00
         0.00000E+00
         0.00000E+00
         0.00000E+00
         0.00000E+00
         0.00000E+00
         0.00000E+00
         0.00000E+00
         0.00000E+00
         0.00000E+00
         0.00000E+00
         0.00000E+00
         0.00000E+00
         0.00000E+00
         0.00000E+00
         0.00000E+00
         0.00000E+00
         0.00000E+00
         0.00000E+00
         0.00000E+00
         0.00000E+00
         0.00000E+00
         0.00000E+00
         0.00000E+00
         0.00000E+00
         0.00000E+00
         0.00000E+00
         0.00000E+00
         0.00000E+00
         0.00000E+00
         0.00000E+00
         0.00000E+00
         0.00000E+00
         0.00000E+00
         0.00000E+00
         0.00000E+00
         0.00000E+00
         0.00000E+00
         0.00000E+00
         0.00000E+00
         0.00000E+00
         0.00000E+00
         0.00000E+00
         0.00000E+00
         0.00000E+00
         0.00000E+00
         0.00000E+00
         0.00000E+00
         0.00000E+00
         0.00000E+00
         0.00000E+00
         0.00000E+00
         0.00000E+00
         0.00000E+00
         0.00000E+00
         0.00000E+00
         0.00000E+00
         0.00000E+00
         0.00000E+00
         0.00000E+00
         0.00000E+00
         0.00000E+00
         0.00000E+00
         0.00000E+00
         0.00000E+00
         0.00000E+00
         0.00000E+00
         0.00000E+00
         0.00000E+00
         0.00000E+00
         0.00000E+00
         0.00000E+00
         0.00000E+00
         0.00000E+00
         0.00000E+00
         0.00000E+00
         0.00000E+00
         0.00000E+00
         0.00000E+00
         0.00000E+00
         0.00000E+00
         0.00000E+00
         0.00000E+00
         0.00000E+00
         0.00000E+00
         0.00000E+00
         0.00000E+00
         0.00000E+00
         0.00000E+00
         0.00000E+00
         0.00000E+00
         0.00000E+00
         0.00000E+00
         0.00000E+00
         0.00000E+00
         0.00000E+00
         0.00000E+00
         0.00000E+00
         0.00000E+00
         0.00000E+00
         0.00000E+00
         0.00000E+00
         0.00000E+00
         0.00000E+00
         0.00000E+00
         0.00000E+00
         0.00000E+00
         0.00000E+00
         0.00000E+00
         0.00000E+00
         0.00000E+00
         0.00000E+00
         0.00000E+00
         0.00000E+00
         0.00000E+00
         0.00000E+00
         0.00000E+00
         0.00000E+00
         0.00000E+00
         0.00000E+00
         0.00000E+00
         0.00000E+00
         0.00000E+00
         0.00000E+00
         0.00000E+00
         0.00000E+00
         0.00000E+00
         0.00000E+00
         0.00000E+00
         0.00000E+00
         0.00000E+00
         0.00000E+00
         0.00000E+00
         0.00000E+00
         0.00000E+00
         0.00000E+00
         0.00000E+00
         0.00000E+00
         0.00000E+00
         0.00000E+00
         0.00000E+00
         0.00000E+00
         0.00000E+00
         0.00000E+00
         0.00000E+00
         0.00000E+00
         0.00000E+00
         0.00000E+00
         0.00000E+00
         0.00000E+00
         0.00000E+00
         0.00000E+00
         0.00000E+00
         0.00000E+00
         0.00000E+00
         0.00000E+00
         0.00000E+00
         0.00000E+00
         0.00000E+00
         0.00000E+00
         0.00000E+00
         0.00000E+00
         0.00000E+00
         0.00000E+00
         0.00000E+00
         0.00000E+00
         0.00000E+00
         0.00000E+00
         0.00000E+00
         0.00000E+00
         0.00000E+00
         0.00000E+00
         0.00000E+00
         0.00000E+00
         0.00000E+00
         0.00000E+00
         0.00000E+00
         0.00000E+00
         0.00000E+00
         0.00000E+00
         0.00000E+00
         0.00000E+00
         0.00000E+00
         0.00000E+00
         0.00000E+00
         0.00000E+00
         0.00000E+00
         0.00000E+00
         0.00000E+00
         0.00000E+00
         0.00000E+00
         0.00000E+00
         0.00000E+00
         0.00000E+00
         0.00000E+00
         0.00000E+00
         0.00000E+00
         0.00000E+00
         0.00000E+00
         0.00000E+00
         0.00000E+00
         0.00000E+00
         0.00000E+00
         0.00000E+00
         0.00000E+00
         0.00000E+00
         0.00000E+00
         0.00000E+00
         0.00000E+00
         0.00000E+00
         0.00000E+00
         0.00000E+00
         0.00000E+00
         0.00000E+00
         0.00000E+00
         0.00000E+00
         0.00000E+00
         0.00000E+00
         0.00000E+00
         0.00000E+00
         0.00000E+00
         0.00000E+00
         0.00000E+00
         0.00000E+00
         0.00000E+00
         0.00000E+00
         0.00000E+00
         0.00000E+00
         0.00000E+00
         0.00000E+00
         0.00000E+00
         0.00000E+00
         0.00000E+00
         0.00000E+00
         0.00000E+00
         0.00000E+00
         0.00000E+00
         0.00000E+00
         0.00000E+00
         0.00000E+00
         0.00000E+00
         0.00000E+00
         0.00000E+00
         0.00000E+00
         0.00000E+00
         0.00000E+00
         0.00000E+00
         0.00000E+00
         0.00000E+00
         0.00000E+00
         0.00000E+00
         0.00000E+00
         0.00000E+00
         0.00000E+00
         0.00000E+00
         0.00000E+00
         0.00000E+00
         0.00000E+00
         0.00000E+00
         0.00000E+00
         0.00000E+00
         0.00000E+00
         0.00000E+00
         0.00000E+00
         0.00000E+00
         0.00000E+00
         0.00000E+00
         0.00000E+00
         0.00000E+00
         0.00000E+00
         0.00000E+00
         0.00000E+00
         0.00000E+00
         0.00000E+00
         0.00000E+00
         0.00000E+00
         0.00000E+00
         0.00000E+00
         0.00000E+00
         0.00000E+00
         0.00000E+00
         0.00000E+00
         0.00000E+00
         0.00000E+00
         0.00000E+00
         0.00000E+00
         0.00000E+00
         0.00000E+00
         0.00000E+00
         0.00000E+00
         0.00000E+00
         0.00000E+00
         0.00000E+00
         0.00000E+00
         0.00000E+00
         0.00000E+00
         0.00000E+00
         0.00000E+00
         0.00000E+00
         0.00000E+00
         0.00000E+00
         0.00000E+00
         0.00000E+00
         0.00000E+00
         0.00000E+00
         0.00000E+00
         0.00000E+00
         0.00000E+00
         0.00000E+00
         0.00000E+00
         0.00000E+00
         0.00000E+00
         0.00000E+00
         0.00000E+00
         0.00000E+00
         0.00000E+00
         0.00000E+00
         0.00000E+00
         0.00000E+00
         0.00000E+00
         0.00000E+00
         0.00000E+00
         0.00000E+00
         0.00000E+00
         0.00000E+00
         0.00000E+00
         0.00000E+00
         0.00000E+00
         0.00000E+00
         0.00000E+00
         0.00000E+00
         0.00000E+00
         0.00000E+00
         0.00000E+00
         0.00000E+00
         0.00000E+00
         0.00000E+00
         0.00000E+00
         0.00000E+00
         0.00000E+00
         0.00000E+00
         0.00000E+00
         0.00000E+00
         0.00000E+00
         0.00000E+00
         0.00000E+00
         0.00000E+00
         0.00000E+00
         0.00000E+00
         0.00000E+00
         0.00000E+00
         0.00000E+00
         0.00000E+00
         0.00000E+00
         0.00000E+00
         0.00000E+00
         0.00000E+00
         0.00000E+00
         0.00000E+00
         0.00000E+00
         0.00000E+00
         0.00000E+00
         0.00000E+00
         0.00000E+00
         0.00000E+00
         0.00000E+00
         0.00000E+00
         0.00000E+00
         0.00000E+00
         0.00000E+00
         0.00000E+00
         0.00000E+00
         0.00000E+00
         0.00000E+00
         0.00000E+00
         0.00000E+00
         0.00000E+00
         0.00000E+00
         0.00000E+00
         0.00000E+00
         0.00000E+00
         0.00000E+00
         0.00000E+00
         0.00000E+00
         0.00000E+00
         0.00000E+00
         0.00000E+00
         0.00000E+00
         0.00000E+00
         0.00000E+00
         0.00000E+00
         0.00000E+00
         0.00000E+00
         0.00000E+00
         0.00000E+00
         0.00000E+00
         0.00000E+00
         0.00000E+00
         0.00000E+00
         0.00000E+00
         0.00000E+00
         0.00000E+00
         0.00000E+00
         0.00000E+00
         0.00000E+00
         0.00000E+00
         0.00000E+00
         0.00000E+00
         0.00000E+00
         0.00000E+00
         0.00000E+00
         0.00000E+00
         0.00000E+00
         0.00000E+00
         0.00000E+00
         0.00000E+00
         0.00000E+00
         0.00000E+00
         0.00000E+00
         0.00000E+00
         0.00000E+00
         0.00000E+00
         0.00000E+00
         0.00000E+00
         0.00000E+00
         0.00000E+00
         0.00000E+00
         0.00000E+00
         0.00000E+00
         0.00000E+00
         0.00000E+00
         0.00000E+00
         0.00000E+00
         0.00000E+00
         0.00000E+00
         0.00000E+00
         0.00000E+00
         0.00000E+00
         0.00000E+00
         0.00000E+00
         0.00000E+00
         0.00000E+00
         0.00000E+00
         0.00000E+00
         0.00000E+00
         0.00000E+00
         0.00000E+00
         0.00000E+00
         0.00000E+00
         0.00000E+00
         0.00000E+00
         0.00000E+00
         0.00000E+00
         0.00000E+00
         0.00000E+00
         0.00000E+00
         0.00000E+00
         0.00000E+00
         0.00000E+00
         0.00000E+00
         0.00000E+00
         0.00000E+00
         0.00000E+00
         0.00000E+00
         0.00000E+00
         0.00000E+00
         0.00000E+00
         0.00000E+00
         0.00000E+00
         0.00000E+00
         0.00000E+00
         0.00000E+00
         0.00000E+00
         0.00000E+00
         0.00000E+00
         0.00000E+00
         0.00000E+00
         0.00000E+00
         0.00000E+00
         0.00000E+00
         0.00000E+00
         0.00000E+00
         0.00000E+00
         0.00000E+00
         0.00000E+00
         0.00000E+00
         0.00000E+00
         0.00000E+00
         0.00000E+00
         0.00000E+00
         0.00000E+00
         0.00000E+00
         0.00000E+00
         0.00000E+00
         0.00000E+00
         0.00000E+00
         0.00000E+00
         0.00000E+00
         0.00000E+00
         0.00000E+00
         0.00000E+00
         0.00000E+00
         0.00000E+00
         0.00000E+00
         0.00000E+00
         0.00000E+00
         0.00000E+00
         0.00000E+00
         0.00000E+00
         0.00000E+00
         0.00000E+00
         0.00000E+00
         0.00000E+00
         0.00000E+00
         0.00000E+00
         0.00000E+00
         0.00000E+00
         0.00000E+00
         0.00000E+00
         0.00000E+00
         0.00000E+00
         0.00000E+00
         0.00000E+00
         0.00000E+00
         0.00000E+00
         0.00000E+00
         0.00000E+00
         0.00000E+00
         0.00000E+00
         0.00000E+00
         0.00000E+00
         0.00000E+00
         0.00000E+00
         0.00000E+00
         0.00000E+00
         0.00000E+00
         0.00000E+00
         0.00000E+00
         0.00000E+00
         0.00000E+00
         0.00000E+00
         0.00000E+00
         0.00000E+00
         0.00000E+00
         0.00000E+00
         0.00000E+00
         0.00000E+00
         0.00000E+00
         0.00000E+00
         0.00000E+00
         0.00000E+00
         0.00000E+00
         0.00000E+00
         0.00000E+00
         0.00000E+00
         0.00000E+00
         0.00000E+00
         0.00000E+00
         0.00000E+00
         0.00000E+00
         0.00000E+00
         0.00000E+00
         0.00000E+00
         0.00000E+00
         0.00000E+00
         0.00000E+00
         0.00000E+00
         0.00000E+00
         0.00000E+00
         0.00000E+00
         0.00000E+00
         0.00000E+00
         0.00000E+00
         0.00000E+00
         0.00000E+00
         0.00000E+00
         0.00000E+00
         0.00000E+00
         0.00000E+00
         0.00000E+00
         0.00000E+00
         0.00000E+00
         0.00000E+00
         0.00000E+00
         0.00000E+00
         0.00000E+00
         0.00000E+00
         0.00000E+00
         0.00000E+00
         0.00000E+00
         0.00000E+00
         0.00000E+00
         0.00000E+00
         0.00000E+00
         0.00000E+00
         0.00000E+00
         0.00000E+00
         0.00000E+00
         0.00000E+00
         0.00000E+00
         0.00000E+00
         0.00000E+00
         0.00000E+00
         0.00000E+00
         0.00000E+00
         0.00000E+00
         0.00000E+00
         0.00000E+00
         0.00000E+00
         0.00000E+00
         0.00000E+00
         0.00000E+00
         0.00000E+00
         0.00000E+00
         0.00000E+00
         0.00000E+00
         0.00000E+00
         0.00000E+00
         0.00000E+00
         0.00000E+00
         0.00000E+00
         0.00000E+00
         0.00000E+00
         0.00000E+00
         0.00000E+00
         0.00000E+00
         0.00000E+00
         0.00000E+00
         0.00000E+00
         0.00000E+00
         0.00000E+00
         0.00000E+00
         0.00000E+00
         0.00000E+00
         0.00000E+00
         0.00000E+00
         0.00000E+00
         0.00000E+00
         0.00000E+00
         0.00000E+00
         0.00000E+00
         0.00000E+00
         0.00000E+00
         0.00000E+00
         0.00000E+00
         0.00000E+00
         0.00000E+00
         0.00000E+00
         0.00000E+00
         0.00000E+00
         0.00000E+00
         0.00000E+00
         0.00000E+00
         0.00000E+00
         0.00000E+00
         0.00000E+00
         0.00000E+00
         0.00000E+00
         0.00000E+00
         0.00000E+00
         0.00000E+00
         0.00000E+00
         0.00000E+00
         0.00000E+00
         0.00000E+00
         0.00000E+00
         0.00000E+00
         0.00000E+00
         0.00000E+00
         0.00000E+00
         0.00000E+00
         0.00000E+00
         0.00000E+00
         0.00000E+00
         0.00000E+00
         0.00000E+00
         0.00000E+00
         0.00000E+00
         0.00000E+00
         0.00000E+00
         0.00000E+00
         0.00000E+00
         0.00000E+00
         0.00000E+00
         0.00000E+00
         0.00000E+00
         0.00000E+00
         0.00000E+00
         0.00000E+00
         0.00000E+00
         0.00000E+00
         0.00000E+00
         0.00000E+00
         0.00000E+00
         0.00000E+00
         0.00000E+00
         0.00000E+00
         0.00000E+00
         0.00000E+00
         0.00000E+00
         0.00000E+00
         0.00000E+00
         0.00000E+00
         0.00000E+00
         0.00000E+00
         0.00000E+00
         0.00000E+00
         0.00000E+00
         0.00000E+00
         0.00000E+00
         0.00000E+00
         0.00000E+00
         0.00000E+00
         0.00000E+00
         0.00000E+00
         0.00000E+00
         0.00000E+00
         0.00000E+00
         0.00000E+00
         0.00000E+00
         0.00000E+00
         0.00000E+00
         0.00000E+00
         0.00000E+00
         0.00000E+00
         0.00000E+00
         0.00000E+00
         0.00000E+00
         0.00000E+00
         0.00000E+00
         0.00000E+00
         0.00000E+00
         0.00000E+00
         0.00000E+00
         0.00000E+00
         0.00000E+00
         0.00000E+00
         0.00000E+00
         0.00000E+00
         0.00000E+00
         0.00000E+00
         0.00000E+00
         0.00000E+00
         0.00000E+00
         0.00000E+00
         0.00000E+00
         0.00000E+00
         0.00000E+00
         0.00000E+00
         0.00000E+00
         0.00000E+00
         0.00000E+00
         0.00000E+00
         0.00000E+00
         0.00000E+00
         0.00000E+00
         0.00000E+00
         0.00000E+00
         0.00000E+00
         0.00000E+00
         0.00000E+00
         0.00000E+00
         0.00000E+00
         0.00000E+00
         0.00000E+00
         0.00000E+00
         0.00000E+00
         0.00000E+00
         0.00000E+00
         0.00000E+00
         0.00000E+00
         0.00000E+00
         0.00000E+00
         0.00000E+00
         0.00000E+00
         0.00000E+00
         0.00000E+00
         0.00000E+00
         0.00000E+00
         0.00000E+00
         0.00000E+00
         0.00000E+00
         0.00000E+00
         0.00000E+00
         0.00000E+00
         0.00000E+00
         0.00000E+00
         0.00000E+00
         0.00000E+00
         0.00000E+00
         0.00000E+00
         0.00000E+00
         0.00000E+00
         0.00000E+00
         0.00000E+00
         0.00000E+00
         0.00000E+00
         0.00000E+00
         0.00000E+00
         0.00000E+00
         0.00000E+00
         0.00000E+00
         0.00000E+00
         0.00000E+00
         0.00000E+00
         0.00000E+00
         0.00000E+00
         0.00000E+00
         0.00000E+00
         0.00000E+00
         0.00000E+00
         0.00000E+00
         0.00000E+00
         0.00000E+00
         0.00000E+00
         0.00000E+00
         0.00000E+00
         0.00000E+00
         0.00000E+00
         0.00000E+00
         0.00000E+00
         0.00000E+00
         0.00000E+00
         0.00000E+00
         0.00000E+00
         0.00000E+00
         0.00000E+00
         0.00000E+00
         0.00000E+00
         0.00000E+00
         0.00000E+00
         0.00000E+00
         0.00000E+00
         0.00000E+00
         0.00000E+00
         0.00000E+00
         0.00000E+00
         0.00000E+00
         0.00000E+00
         0.00000E+00
         0.00000E+00
         0.00000E+00
         0.00000E+00
         0.00000E+00
         0.00000E+00
         0.00000E+00
         0.00000E+00
         0.00000E+00
         0.00000E+00
         0.00000E+00
         0.00000E+00
         0.00000E+00
         0.00000E+00
         0.00000E+00
         0.00000E+00
         0.00000E+00
         0.00000E+00
         0.00000E+00
         0.00000E+00
         0.00000E+00
         0.00000E+00
         0.00000E+00
         0.00000E+00
         0.00000E+00
         0.00000E+00
         0.00000E+00
         0.00000E+00
         0.00000E+00
         0.00000E+00
         0.00000E+00
         0.00000E+00
         0.00000E+00
         0.00000E+00
         0.00000E+00
         0.00000E+00
         0.00000E+00
         0.00000E+00
         0.00000E+00
         0.00000E+00
         0.00000E+00
         0.00000E+00
         0.00000E+00
         0.00000E+00
         0.00000E+00
         0.00000E+00
         0.00000E+00
         0.00000E+00
         0.00000E+00
         0.00000E+00
         0.00000E+00
         0.00000E+00
         0.00000E+00
         0.00000E+00
         0.00000E+00
         0.00000E+00
         0.00000E+00
         0.00000E+00
         0.00000E+00
         0.00000E+00
         0.00000E+00
         0.00000E+00
         0.00000E+00
         0.00000E+00
         0.00000E+00
         0.00000E+00
         0.00000E+00
         0.00000E+00
         0.00000E+00
         0.00000E+00
         0.00000E+00
         0.00000E+00
         0.00000E+00
         0.00000E+00
         0.00000E+00
         0.00000E+00
         0.00000E+00
         0.00000E+00
         0.00000E+00
         0.00000E+00
         0.00000E+00
         0.00000E+00
         0.00000E+00
         0.00000E+00
         0.00000E+00
         0.00000E+00
         0.00000E+00
         0.00000E+00
         0.00000E+00
         0.00000E+00
         0.00000E+00
         0.00000E+00
         0.00000E+00
         0.00000E+00
         0.00000E+00
         0.00000E+00
         0.00000E+00
         0.00000E+00
         0.00000E+00
         0.00000E+00
         0.00000E+00
         0.00000E+00
         0.00000E+00
         0.00000E+00
         0.00000E+00
         0.00000E+00
         0.00000E+00
         0.00000E+00
         0.00000E+00
         0.00000E+00
         0.00000E+00
         0.00000E+00
         0.00000E+00
         0.00000E+00
         0.00000E+00
         0.00000E+00
         0.00000E+00
         0.00000E+00
         0.00000E+00
         0.00000E+00
         0.00000E+00
         0.00000E+00
         0.00000E+00
         0.00000E+00
         0.00000E+00
         0.00000E+00
         0.00000E+00
         0.00000E+00
         0.00000E+00
         0.00000E+00
         0.00000E+00
         0.00000E+00
         0.00000E+00
         0.00000E+00
         0.00000E+00
         0.00000E+00
         0.00000E+00
         0.00000E+00
         0.00000E+00
         0.00000E+00
         0.00000E+00
         0.00000E+00
         0.00000E+00
         0.00000E+00
         0.00000E+00
         0.00000E+00
         0.00000E+00
         0.00000E+00
         0.00000E+00
         0.00000E+00
         0.00000E+00
         0.00000E+00
         0.00000E+00
         0.00000E+00
         0.00000E+00
         0.00000E+00
         0.00000E+00
         0.00000E+00
         0.00000E+00
         0.00000E+00
         0.00000E+00
         0.00000E+00
         0.00000E+00
         0.00000E+00
         0.00000E+00
         0.00000E+00
         0.00000E+00
         0.00000E+00
         0.00000E+00
         0.00000E+00
         0.00000E+00
         0.00000E+00
         0.00000E+00
         0.00000E+00
         0.00000E+00
         0.00000E+00
         0.00000E+00
         0.00000E+00
         0.00000E+00
         0.00000E+00
         0.00000E+00
         0.00000E+00
         0.00000E+00
         0.00000E+00
         0.00000E+00
         0.00000E+00
         0.00000E+00
         0.00000E+00
         0.00000E+00
         0.00000E+00
         0.00000E+00
         0.00000E+00
         0.00000E+00
         0.00000E+00
         0.00000E+00
         0.00000E+00
         0.00000E+00
         0.00000E+00
         0.00000E+00
         0.00000E+00
         0.00000E+00
         0.00000E+00
         0.00000E+00
         0.00000E+00
         0.00000E+00
         0.00000E+00
         0.00000E+00
         0.00000E+00
         0.00000E+00
         0.00000E+00
         0.00000E+00
         0.00000E+00
         0.00000E+00
         0.00000E+00
         0.00000E+00
         0.00000E+00
         0.00000E+00
         0.00000E+00
         0.00000E+00
         0.00000E+00
         0.00000E+00
         0.00000E+00
         0.00000E+00
         0.00000E+00
         0.00000E+00
         0.00000E+00
         0.00000E+00
         0.00000E+00
         0.00000E+00
         0.00000E+00
         0.00000E+00
         0.00000E+00
         0.00000E+00
         0.00000E+00
         0.00000E+00
         0.00000E+00
         0.00000E+00
         0.00000E+00
         0.00000E+00
         0.00000E+00
         0.00000E+00
         0.00000E+00
         0.00000E+00
         0.00000E+00
         0.00000E+00
         0.00000E+00
         0.00000E+00
         0.00000E+00
         0.00000E+00
         0.00000E+00
         0.00000E+00
         0.00000E+00
         0.00000E+00
         0.00000E+00
         0.00000E+00
         0.00000E+00
         0.00000E+00
         0.00000E+00
         0.00000E+00
         0.00000E+00
         0.00000E+00
         0.00000E+00
         0.00000E+00
         0.00000E+00
         0.00000E+00
         0.00000E+00
         0.00000E+00
         0.00000E+00
         0.00000E+00
         0.00000E+00
         0.00000E+00
         0.00000E+00
         0.00000E+00
         0.00000E+00
         0.00000E+00
         0.00000E+00
         0.00000E+00
         0.00000E+00
         0.00000E+00
         0.00000E+00
         0.00000E+00
         0.00000E+00
         0.00000E+00
         0.00000E+00
         0.00000E+00
         0.00000E+00
         0.00000E+00
         0.00000E+00
         0.00000E+00
         0.00000E+00
         0.00000E+00
         0.00000E+00
         0.00000E+00
         0.00000E+00
         0.00000E+00
         0.00000E+00
         0.00000E+00
         0.00000E+00
         0.00000E+00
         0.00000E+00
         0.00000E+00
         0.00000E+00
         0.00000E+00
         0.00000E+00
         0.00000E+00
         0.00000E+00
         0.00000E+00
         0.00000E+00
         0.00000E+00
         0.00000E+00
         0.00000E+00
         0.00000E+00
         0.00000E+00
         0.00000E+00
         0.00000E+00
         0.00000E+00
         0.00000E+00
         0.00000E+00
         0.00000E+00
         0.00000E+00
         0.00000E+00
         0.00000E+00
         0.00000E+00
         0.00000E+00
         0.00000E+00
         0.00000E+00
         0.00000E+00
         0.00000E+00
         0.00000E+00
         0.00000E+00
         0.00000E+00
         0.00000E+00
         0.00000E+00
         0.00000E+00
         0.00000E+00
         0.00000E+00
         0.00000E+00
         0.00000E+00
         0.00000E+00
         0.00000E+00
         0.00000E+00
         0.00000E+00
         0.00000E+00
         0.00000E+00
         0.00000E+00
         0.00000E+00
         0.00000E+00
         0.00000E+00
         0.00000E+00
         0.00000E+00
         0.00000E+00
         0.00000E+00
         0.00000E+00
         0.00000E+00
         0.00000E+00
         0.00000E+00
         0.00000E+00
         0.00000E+00
         0.00000E+00
         0.00000E+00
         0.00000E+00
         0.00000E+00
         0.00000E+00
         0.00000E+00
         0.00000E+00
         0.00000E+00
         0.00000E+00
         0.00000E+00
         0.00000E+00
         0.00000E+00
         0.00000E+00
         0.00000E+00
         0.00000E+00
         0.00000E+00
         0.00000E+00
         0.00000E+00
         0.00000E+00
         0.00000E+00
         0.00000E+00
         0.00000E+00
         0.00000E+00
         0.00000E+00
         0.00000E+00
         0.00000E+00
         0.00000E+00
         0.00000E+00
         0.00000E+00
         0.00000E+00
         0.00000E+00
         0.00000E+00
         0.00000E+00
         0.00000E+00
         0.00000E+00
         0.00000E+00
         0.00000E+00
         0.00000E+00
         0.00000E+00
         0.00000E+00
         0.00000E+00
         0.00000E+00
         0.00000E+00
         0.00000E+00
         0.00000E+00
         0.00000E+00
         0.00000E+00
         0.00000E+00
         0.00000E+00
         0.00000E+00
         0.00000E+00
         0.00000E+00
         0.00000E+00
         0.00000E+00
         0.00000E+00
         0.00000E+00
         0.00000E+00
         0.00000E+00
         0.00000E+00
         0.00000E+00
         0.00000E+00
         0.00000E+00
         0.00000E+00
         0.00000E+00
         0.00000E+00
         0.00000E+00
         0.00000E+00
         0.00000E+00
         0.00000E+00
         0.00000E+00
         0.00000E+00
         0.00000E+00
         0.00000E+00
         0.00000E+00
         0.00000E+00
         0.00000E+00
         0.00000E+00
         0.00000E+00
         0.00000E+00
         0.00000E+00
         0.00000E+00
         0.00000E+00
         0.00000E+00
         0.00000E+00
         0.00000E+00
         0.00000E+00
         0.00000E+00
         0.00000E+00
         0.00000E+00
         0.00000E+00
         0.00000E+00
         0.00000E+00
         0.00000E+00
         0.00000E+00
         0.00000E+00
         0.00000E+00
         0.00000E+00
         0.00000E+00
         0.00000E+00
         0.00000E+00
         0.00000E+00
         0.00000E+00
         0.00000E+00
         0.00000E+00
         0.00000E+00
         0.00000E+00
         0.00000E+00
         0.00000E+00
         0.00000E+00
         0.00000E+00
         0.00000E+00
         0.00000E+00
         0.00000E+00
         0.00000E+00
         0.00000E+00
         0.00000E+00
         0.00000E+00
         0.00000E+00
         0.00000E+00
         0.00000E+00
         0.00000E+00
         0.00000E+00
         0.00000E+00
         0.00000E+00
         0.00000E+00
         0.00000E+00
         0.00000E+00
         0.00000E+00
         0.00000E+00
         0.00000E+00
         0.00000E+00
         0.00000E+00
         0.00000E+00
         0.00000E+00
         0.00000E+00
         0.00000E+00
         0.00000E+00
         0.00000E+00
         0.00000E+00
         0.00000E+00
         0.00000E+00
         0.00000E+00
         0.00000E+00
         0.00000E+00
         0.00000E+00
         0.00000E+00
         0.00000E+00
         0.00000E+00
         0.00000E+00
         0.00000E+00
         0.00000E+00
         0.00000E+00
         0.00000E+00
         0.00000E+00
         0.00000E+00
         0.00000E+00
         0.00000E+00
         0.00000E+00
         0.00000E+00
         0.00000E+00
         0.00000E+00
         0.00000E+00
         0.00000E+00
         0.00000E+00
         0.00000E+00
         0.00000E+00
         0.00000E+00
         0.00000E+00
         0.00000E+00
         0.00000E+00
         0.00000E+00
         0.00000E+00
         0.00000E+00
         0.00000E+00
         0.00000E+00
         0.00000E+00
         0.00000E+00
         0.00000E+00
         0.00000E+00
         0.00000E+00
         0.00000E+00
         0.00000E+00
         0.00000E+00
         0.00000E+00
         0.00000E+00
         0.00000E+00
         0.00000E+00
         0.00000E+00
         0.00000E+00
         0.00000E+00
         0.00000E+00
         0.00000E+00
         0.00000E+00
         0.00000E+00
         0.00000E+00
         0.00000E+00
         0.00000E+00
         0.00000E+00
         0.00000E+00
         0.00000E+00
         0.00000E+00
         0.00000E+00
         0.00000E+00
         0.00000E+00
         0.00000E+00
         0.00000E+00
         0.00000E+00
         0.00000E+00
         0.00000E+00
         0.00000E+00
         0.00000E+00
         0.00000E+00
         0.00000E+00
         0.00000E+00
         0.00000E+00
         0.00000E+00
         0.00000E+00
         0.00000E+00
         0.00000E+00
         0.00000E+00
         0.00000E+00
         0.00000E+00
         0.00000E+00
         0.00000E+00
         0.00000E+00
         0.00000E+00
         0.00000E+00
         0.00000E+00
         0.00000E+00
         0.00000E+00
         0.00000E+00
         0.00000E+00
         0.00000E+00
         0.00000E+00
         0.00000E+00
         0.00000E+00
         0.00000E+00
         0.00000E+00
         0.00000E+00
         0.00000E+00
         0.00000E+00
         0.00000E+00
         0.00000E+00
         0.00000E+00
         0.00000E+00
         0.00000E+00
         0.00000E+00
         0.00000E+00
         0.00000E+00
         0.00000E+00
         0.00000E+00
         0.00000E+00
         0.00000E+00
         0.00000E+00
         0.00000E+00
         0.00000E+00
         0.00000E+00
         0.00000E+00
         0.00000E+00
         0.00000E+00
         0.00000E+00
         0.00000E+00
         0.00000E+00
         0.00000E+00
         0.00000E+00
         0.00000E+00
         0.00000E+00
         0.00000E+00
         0.00000E+00
         0.00000E+00
         0.00000E+00
         0.00000E+00
         0.00000E+00
         0.00000E+00
         0.00000E+00
         0.00000E+00
         0.00000E+00
         0.00000E+00
         0.00000E+00
         0.00000E+00
         0.00000E+00
         0.00000E+00
         0.00000E+00
         0.00000E+00
         0.00000E+00
         0.00000E+00
         0.00000E+00
         0.00000E+00
         0.00000E+00
         0.00000E+00
         0.00000E+00
         0.00000E+00
         0.00000E+00
         0.00000E+00
         0.00000E+00
         0.00000E+00
         0.00000E+00
         0.00000E+00
         0.00000E+00
         0.00000E+00
         0.00000E+00
         0.00000E+00
         0.00000E+00
         0.00000E+00
         0.00000E+00
         0.00000E+00
         0.00000E+00
         0.00000E+00
         0.00000E+00
         0.00000E+00
         0.00000E+00
         0.00000E+00
         0.00000E+00
         0.00000E+00
         0.00000E+00
         0.00000E+00
         0.00000E+00
         0.00000E+00
         0.00000E+00
         0.00000E+00
         0.00000E+00
         0.00000E+00
         0.00000E+00
         0.00000E+00
         0.00000E+00
         0.00000E+00
         0.00000E+00
         0.00000E+00
         0.00000E+00
         0.00000E+00
         0.00000E+00
         0.00000E+00
         0.00000E+00
         0.00000E+00
         0.00000E+00
         0.00000E+00
         0.00000E+00
         0.00000E+00
         0.00000E+00
         0.00000E+00
         0.00000E+00
         0.00000E+00
         0.00000E+00
         0.00000E+00
         0.00000E+00
         0.00000E+00
         0.00000E+00
         0.00000E+00
         0.00000E+00
         0.00000E+00
         0.00000E+00
         0.00000E+00
         0.00000E+00
         0.00000E+00
         0.00000E+00
         0.00000E+00
         0.00000E+00
         0.00000E+00
         0.00000E+00
         0.00000E+00
         0.00000E+00
         0.00000E+00
         0.00000E+00
         0.00000E+00
         0.00000E+00
         0.00000E+00
         0.00000E+00
         0.00000E+00
         0.00000E+00
         0.00000E+00
         0.00000E+00
         0.00000E+00
         0.00000E+00
         0.00000E+00
         0.00000E+00
         0.00000E+00
         0.00000E+00
         0.00000E+00
         0.00000E+00
         0.00000E+00
         0.00000E+00
         0.00000E+00
         0.00000E+00
         0.00000E+00
         0.00000E+00
         0.00000E+00
         0.00000E+00
         0.00000E+00
         0.00000E+00
         0.00000E+00
         0.00000E+00
         0.00000E+00
         0.00000E+00
         0.00000E+00
         0.00000E+00
         0.00000E+00
         0.00000E+00
         0.00000E+00
         0.00000E+00
         0.00000E+00
         0.00000E+00
         0.00000E+00
         0.00000E+00
         0.00000E+00
         0.00000E+00
         0.00000E+00
         0.00000E+00
         0.00000E+00
         0.00000E+00
         0.00000E+00
         0.00000E+00
  
SCALARS                 acceleration_z  double 1
LOOKUP_TABLE default
         0.00000E+00
         0.00000E+00
         0.00000E+00
         0.00000E+00
         0.00000E+00
         0.00000E+00
         0.00000E+00
         0.00000E+00
         0.00000E+00
         0.00000E+00
         0.00000E+00
         0.00000E+00
         0.00000E+00
         0.00000E+00
         0.00000E+00
         0.00000E+00
         0.00000E+00
         0.00000E+00
         0.00000E+00
         0.00000E+00
         0.00000E+00
         0.00000E+00
         0.00000E+00
         0.00000E+00
         0.00000E+00
         0.00000E+00
         0.00000E+00
         0.00000E+00
         0.00000E+00
         0.00000E+00
         0.00000E+00
         0.00000E+00
         0.00000E+00
         0.00000E+00
         0.00000E+00
         0.00000E+00
         0.00000E+00
         0.00000E+00
         0.00000E+00
         0.00000E+00
         0.00000E+00
         0.00000E+00
         0.00000E+00
         0.00000E+00
         0.00000E+00
         0.00000E+00
         0.00000E+00
         0.00000E+00
         0.00000E+00
         0.00000E+00
         0.00000E+00
         0.00000E+00
         0.00000E+00
         0.00000E+00
         0.00000E+00
         0.00000E+00
         0.00000E+00
         0.00000E+00
         0.00000E+00
         0.00000E+00
         0.00000E+00
         0.00000E+00
         0.00000E+00
         0.00000E+00
         0.00000E+00
         0.00000E+00
         0.00000E+00
         0.00000E+00
         0.00000E+00
         0.00000E+00
         0.00000E+00
         0.00000E+00
         0.00000E+00
         0.00000E+00
         0.00000E+00
         0.00000E+00
         0.00000E+00
         0.00000E+00
         0.00000E+00
         0.00000E+00
         0.00000E+00
         0.00000E+00
         0.00000E+00
         0.00000E+00
         0.00000E+00
         0.00000E+00
         0.00000E+00
         0.00000E+00
         0.00000E+00
         0.00000E+00
         0.00000E+00
         0.00000E+00
         0.00000E+00
         0.00000E+00
         0.00000E+00
         0.00000E+00
         0.00000E+00
         0.00000E+00
         0.00000E+00
         0.00000E+00
         0.00000E+00
         0.00000E+00
         0.00000E+00
         0.00000E+00
         0.00000E+00
         0.00000E+00
         0.00000E+00
         0.00000E+00
         0.00000E+00
         0.00000E+00
         0.00000E+00
         0.00000E+00
         0.00000E+00
         0.00000E+00
         0.00000E+00
         0.00000E+00
         0.00000E+00
         0.00000E+00
         0.00000E+00
         0.00000E+00
         0.00000E+00
         0.00000E+00
         0.00000E+00
         0.00000E+00
         0.00000E+00
         0.00000E+00
         0.00000E+00
         0.00000E+00
         0.00000E+00
         0.00000E+00
         0.00000E+00
         0.00000E+00
         0.00000E+00
         0.00000E+00
         0.00000E+00
         0.00000E+00
         0.00000E+00
         0.00000E+00
         0.00000E+00
         0.00000E+00
         0.00000E+00
         0.00000E+00
         0.00000E+00
         0.00000E+00
         0.00000E+00
         0.00000E+00
         0.00000E+00
         0.00000E+00
         0.00000E+00
         0.00000E+00
         0.00000E+00
         0.00000E+00
         0.00000E+00
         0.00000E+00
         0.00000E+00
         0.00000E+00
         0.00000E+00
         0.00000E+00
         0.00000E+00
         0.00000E+00
         0.00000E+00
         0.00000E+00
         0.00000E+00
         0.00000E+00
         0.00000E+00
         0.00000E+00
         0.00000E+00
         0.00000E+00
         0.00000E+00
         0.00000E+00
         0.00000E+00
         0.00000E+00
         0.00000E+00
         0.00000E+00
         0.00000E+00
         0.00000E+00
         0.00000E+00
         0.00000E+00
         0.00000E+00
         0.00000E+00
         0.00000E+00
         0.00000E+00
         0.00000E+00
         0.00000E+00
         0.00000E+00
         0.00000E+00
         0.00000E+00
         0.00000E+00
         0.00000E+00
         0.00000E+00
         0.00000E+00
         0.00000E+00
         0.00000E+00
         0.00000E+00
         0.00000E+00
         0.00000E+00
         0.00000E+00
         0.00000E+00
         0.00000E+00
         0.00000E+00
         0.00000E+00
         0.00000E+00
         0.00000E+00
         0.00000E+00
         0.00000E+00
         0.00000E+00
         0.00000E+00
         0.00000E+00
         0.00000E+00
         0.00000E+00
         0.00000E+00
         0.00000E+00
         0.00000E+00
         0.00000E+00
         0.00000E+00
         0.00000E+00
         0.00000E+00
         0.00000E+00
         0.00000E+00
         0.00000E+00
         0.00000E+00
         0.00000E+00
         0.00000E+00
         0.00000E+00
         0.00000E+00
         0.00000E+00
         0.00000E+00
         0.00000E+00
         0.00000E+00
         0.00000E+00
         0.00000E+00
         0.00000E+00
         0.00000E+00
         0.00000E+00
         0.00000E+00
         0.00000E+00
         0.00000E+00
         0.00000E+00
         0.00000E+00
         0.00000E+00
         0.00000E+00
         0.00000E+00
         0.00000E+00
         0.00000E+00
         0.00000E+00
         0.00000E+00
         0.00000E+00
         0.00000E+00
         0.00000E+00
         0.00000E+00
         0.00000E+00
         0.00000E+00
         0.00000E+00
         0.00000E+00
         0.00000E+00
         0.00000E+00
         0.00000E+00
         0.00000E+00
         0.00000E+00
         0.00000E+00
         0.00000E+00
         0.00000E+00
         0.00000E+00
         0.00000E+00
         0.00000E+00
         0.00000E+00
         0.00000E+00
         0.00000E+00
         0.00000E+00
         0.00000E+00
         0.00000E+00
         0.00000E+00
         0.00000E+00
         0.00000E+00
         0.00000E+00
         0.00000E+00
         0.00000E+00
         0.00000E+00
         0.00000E+00
         0.00000E+00
         0.00000E+00
         0.00000E+00
         0.00000E+00
         0.00000E+00
         0.00000E+00
         0.00000E+00
         0.00000E+00
         0.00000E+00
         0.00000E+00
         0.00000E+00
         0.00000E+00
         0.00000E+00
         0.00000E+00
         0.00000E+00
         0.00000E+00
         0.00000E+00
         0.00000E+00
         0.00000E+00
         0.00000E+00
         0.00000E+00
         0.00000E+00
         0.00000E+00
         0.00000E+00
         0.00000E+00
         0.00000E+00
         0.00000E+00
         0.00000E+00
         0.00000E+00
         0.00000E+00
         0.00000E+00
         0.00000E+00
         0.00000E+00
         0.00000E+00
         0.00000E+00
         0.00000E+00
         0.00000E+00
         0.00000E+00
         0.00000E+00
         0.00000E+00
         0.00000E+00
         0.00000E+00
         0.00000E+00
         0.00000E+00
         0.00000E+00
         0.00000E+00
         0.00000E+00
         0.00000E+00
         0.00000E+00
         0.00000E+00
         0.00000E+00
         0.00000E+00
         0.00000E+00
         0.00000E+00
         0.00000E+00
         0.00000E+00
         0.00000E+00
         0.00000E+00
         0.00000E+00
         0.00000E+00
         0.00000E+00
         0.00000E+00
         0.00000E+00
         0.00000E+00
         0.00000E+00
         0.00000E+00
         0.00000E+00
         0.00000E+00
         0.00000E+00
         0.00000E+00
         0.00000E+00
         0.00000E+00
         0.00000E+00
         0.00000E+00
         0.00000E+00
         0.00000E+00
         0.00000E+00
         0.00000E+00
         0.00000E+00
         0.00000E+00
         0.00000E+00
         0.00000E+00
         0.00000E+00
         0.00000E+00
         0.00000E+00
         0.00000E+00
         0.00000E+00
         0.00000E+00
         0.00000E+00
         0.00000E+00
         0.00000E+00
         0.00000E+00
         0.00000E+00
         0.00000E+00
         0.00000E+00
         0.00000E+00
         0.00000E+00
         0.00000E+00
         0.00000E+00
         0.00000E+00
         0.00000E+00
         0.00000E+00
         0.00000E+00
         0.00000E+00
         0.00000E+00
         0.00000E+00
         0.00000E+00
         0.00000E+00
         0.00000E+00
         0.00000E+00
         0.00000E+00
         0.00000E+00
         0.00000E+00
         0.00000E+00
         0.00000E+00
         0.00000E+00
         0.00000E+00
         0.00000E+00
         0.00000E+00
         0.00000E+00
         0.00000E+00
         0.00000E+00
         0.00000E+00
         0.00000E+00
         0.00000E+00
         0.00000E+00
         0.00000E+00
         0.00000E+00
         0.00000E+00
         0.00000E+00
         0.00000E+00
         0.00000E+00
         0.00000E+00
         0.00000E+00
         0.00000E+00
         0.00000E+00
         0.00000E+00
         0.00000E+00
         0.00000E+00
         0.00000E+00
         0.00000E+00
         0.00000E+00
         0.00000E+00
         0.00000E+00
         0.00000E+00
         0.00000E+00
         0.00000E+00
         0.00000E+00
         0.00000E+00
         0.00000E+00
         0.00000E+00
         0.00000E+00
         0.00000E+00
         0.00000E+00
         0.00000E+00
         0.00000E+00
         0.00000E+00
         0.00000E+00
         0.00000E+00
         0.00000E+00
         0.00000E+00
         0.00000E+00
         0.00000E+00
         0.00000E+00
         0.00000E+00
         0.00000E+00
         0.00000E+00
         0.00000E+00
         0.00000E+00
         0.00000E+00
         0.00000E+00
         0.00000E+00
         0.00000E+00
         0.00000E+00
         0.00000E+00
         0.00000E+00
         0.00000E+00
         0.00000E+00
         0.00000E+00
         0.00000E+00
         0.00000E+00
         0.00000E+00
         0.00000E+00
         0.00000E+00
         0.00000E+00
         0.00000E+00
         0.00000E+00
         0.00000E+00
         0.00000E+00
         0.00000E+00
         0.00000E+00
         0.00000E+00
         0.00000E+00
         0.00000E+00
         0.00000E+00
         0.00000E+00
         0.00000E+00
         0.00000E+00
         0.00000E+00
         0.00000E+00
         0.00000E+00
         0.00000E+00
         0.00000E+00
         0.00000E+00
         0.00000E+00
         0.00000E+00
         0.00000E+00
         0.00000E+00
         0.00000E+00
         0.00000E+00
         0.00000E+00
         0.00000E+00
         0.00000E+00
         0.00000E+00
         0.00000E+00
         0.00000E+00
         0.00000E+00
         0.00000E+00
         0.00000E+00
         0.00000E+00
         0.00000E+00
         0.00000E+00
         0.00000E+00
         0.00000E+00
         0.00000E+00
         0.00000E+00
         0.00000E+00
         0.00000E+00
         0.00000E+00
         0.00000E+00
         0.00000E+00
         0.00000E+00
         0.00000E+00
         0.00000E+00
         0.00000E+00
         0.00000E+00
         0.00000E+00
         0.00000E+00
         0.00000E+00
         0.00000E+00
         0.00000E+00
         0.00000E+00
         0.00000E+00
         0.00000E+00
         0.00000E+00
         0.00000E+00
         0.00000E+00
         0.00000E+00
         0.00000E+00
         0.00000E+00
         0.00000E+00
         0.00000E+00
         0.00000E+00
         0.00000E+00
         0.00000E+00
         0.00000E+00
         0.00000E+00
         0.00000E+00
         0.00000E+00
         0.00000E+00
         0.00000E+00
         0.00000E+00
         0.00000E+00
         0.00000E+00
         0.00000E+00
         0.00000E+00
         0.00000E+00
         0.00000E+00
         0.00000E+00
         0.00000E+00
         0.00000E+00
         0.00000E+00
         0.00000E+00
         0.00000E+00
         0.00000E+00
         0.00000E+00
         0.00000E+00
         0.00000E+00
         0.00000E+00
         0.00000E+00
         0.00000E+00
         0.00000E+00
         0.00000E+00
         0.00000E+00
         0.00000E+00
         0.00000E+00
         0.00000E+00
         0.00000E+00
         0.00000E+00
         0.00000E+00
         0.00000E+00
         0.00000E+00
         0.00000E+00
         0.00000E+00
         0.00000E+00
         0.00000E+00
         0.00000E+00
         0.00000E+00
         0.00000E+00
         0.00000E+00
         0.00000E+00
         0.00000E+00
         0.00000E+00
         0.00000E+00
         0.00000E+00
         0.00000E+00
         0.00000E+00
         0.00000E+00
         0.00000E+00
         0.00000E+00
         0.00000E+00
         0.00000E+00
         0.00000E+00
         0.00000E+00
         0.00000E+00
         0.00000E+00
         0.00000E+00
         0.00000E+00
         0.00000E+00
         0.00000E+00
         0.00000E+00
         0.00000E+00
         0.00000E+00
         0.00000E+00
         0.00000E+00
         0.00000E+00
         0.00000E+00
         0.00000E+00
         0.00000E+00
         0.00000E+00
         0.00000E+00
         0.00000E+00
         0.00000E+00
         0.00000E+00
         0.00000E+00
         0.00000E+00
         0.00000E+00
         0.00000E+00
         0.00000E+00
         0.00000E+00
         0.00000E+00
         0.00000E+00
         0.00000E+00
         0.00000E+00
         0.00000E+00
         0.00000E+00
         0.00000E+00
         0.00000E+00
         0.00000E+00
         0.00000E+00
         0.00000E+00
         0.00000E+00
         0.00000E+00
         0.00000E+00
         0.00000E+00
         0.00000E+00
         0.00000E+00
         0.00000E+00
         0.00000E+00
         0.00000E+00
         0.00000E+00
         0.00000E+00
         0.00000E+00
         0.00000E+00
         0.00000E+00
         0.00000E+00
         0.00000E+00
         0.00000E+00
         0.00000E+00
         0.00000E+00
         0.00000E+00
         0.00000E+00
         0.00000E+00
         0.00000E+00
         0.00000E+00
         0.00000E+00
         0.00000E+00
         0.00000E+00
         0.00000E+00
         0.00000E+00
         0.00000E+00
         0.00000E+00
         0.00000E+00
         0.00000E+00
         0.00000E+00
         0.00000E+00
         0.00000E+00
         0.00000E+00
         0.00000E+00
         0.00000E+00
         0.00000E+00
         0.00000E+00
         0.00000E+00
         0.00000E+00
         0.00000E+00
         0.00000E+00
         0.00000E+00
         0.00000E+00
         0.00000E+00
         0.00000E+00
         0.00000E+00
         0.00000E+00
         0.00000E+00
         0.00000E+00
         0.00000E+00
         0.00000E+00
         0.00000E+00
         0.00000E+00
         0.00000E+00
         0.00000E+00
         0.00000E+00
         0.00000E+00
         0.00000E+00
         0.00000E+00
         0.00000E+00
         0.00000E+00
         0.00000E+00
         0.00000E+00
         0.00000E+00
         0.00000E+00
         0.00000E+00
         0.00000E+00
         0.00000E+00
         0.00000E+00
         0.00000E+00
         0.00000E+00
         0.00000E+00
         0.00000E+00
         0.00000E+00
         0.00000E+00
         0.00000E+00
         0.00000E+00
         0.00000E+00
         0.00000E+00
         0.00000E+00
         0.00000E+00
         0.00000E+00
         0.00000E+00
         0.00000E+00
         0.00000E+00
         0.00000E+00
         0.00000E+00
         0.00000E+00
         0.00000E+00
         0.00000E+00
         0.00000E+00
         0.00000E+00
         0.00000E+00
         0.00000E+00
         0.00000E+00
         0.00000E+00
         0.00000E+00
         0.00000E+00
         0.00000E+00
         0.00000E+00
         0.00000E+00
         0.00000E+00
         0.00000E+00
         0.00000E+00
         0.00000E+00
         0.00000E+00
         0.00000E+00
         0.00000E+00
         0.00000E+00
         0.00000E+00
         0.00000E+00
         0.00000E+00
         0.00000E+00
         0.00000E+00
         0.00000E+00
         0.00000E+00
         0.00000E+00
         0.00000E+00
         0.00000E+00
         0.00000E+00
         0.00000E+00
         0.00000E+00
         0.00000E+00
         0.00000E+00
         0.00000E+00
         0.00000E+00
         0.00000E+00
         0.00000E+00
         0.00000E+00
         0.00000E+00
         0.00000E+00
         0.00000E+00
         0.00000E+00
         0.00000E+00
         0.00000E+00
         0.00000E+00
         0.00000E+00
         0.00000E+00
         0.00000E+00
         0.00000E+00
         0.00000E+00
         0.00000E+00
         0.00000E+00
         0.00000E+00
         0.00000E+00
         0.00000E+00
         0.00000E+00
         0.00000E+00
         0.00000E+00
         0.00000E+00
         0.00000E+00
         0.00000E+00
         0.00000E+00
         0.00000E+00
         0.00000E+00
         0.00000E+00
         0.00000E+00
         0.00000E+00
         0.00000E+00
         0.00000E+00
         0.00000E+00
         0.00000E+00
         0.00000E+00
         0.00000E+00
         0.00000E+00
         0.00000E+00
         0.00000E+00
         0.00000E+00
         0.00000E+00
         0.00000E+00
         0.00000E+00
         0.00000E+00
         0.00000E+00
         0.00000E+00
         0.00000E+00
         0.00000E+00
         0.00000E+00
         0.00000E+00
         0.00000E+00
         0.00000E+00
         0.00000E+00
         0.00000E+00
         0.00000E+00
         0.00000E+00
         0.00000E+00
         0.00000E+00
         0.00000E+00
         0.00000E+00
         0.00000E+00
         0.00000E+00
         0.00000E+00
         0.00000E+00
         0.00000E+00
         0.00000E+00
         0.00000E+00
         0.00000E+00
         0.00000E+00
         0.00000E+00
         0.00000E+00
         0.00000E+00
         0.00000E+00
         0.00000E+00
         0.00000E+00
         0.00000E+00
         0.00000E+00
         0.00000E+00
         0.00000E+00
         0.00000E+00
         0.00000E+00
         0.00000E+00
         0.00000E+00
         0.00000E+00
         0.00000E+00
         0.00000E+00
         0.00000E+00
         0.00000E+00
         0.00000E+00
         0.00000E+00
         0.00000E+00
         0.00000E+00
         0.00000E+00
         0.00000E+00
         0.00000E+00
         0.00000E+00
         0.00000E+00
         0.00000E+00
         0.00000E+00
         0.00000E+00
         0.00000E+00
         0.00000E+00
         0.00000E+00
         0.00000E+00
         0.00000E+00
         0.00000E+00
         0.00000E+00
         0.00000E+00
         0.00000E+00
         0.00000E+00
         0.00000E+00
         0.00000E+00
         0.00000E+00
         0.00000E+00
         0.00000E+00
         0.00000E+00
         0.00000E+00
         0.00000E+00
         0.00000E+00
         0.00000E+00
         0.00000E+00
         0.00000E+00
         0.00000E+00
         0.00000E+00
         0.00000E+00
         0.00000E+00
         0.00000E+00
         0.00000E+00
         0.00000E+00
         0.00000E+00
         0.00000E+00
         0.00000E+00
         0.00000E+00
         0.00000E+00
         0.00000E+00
         0.00000E+00
         0.00000E+00
         0.00000E+00
         0.00000E+00
         0.00000E+00
         0.00000E+00
         0.00000E+00
         0.00000E+00
         0.00000E+00
         0.00000E+00
         0.00000E+00
         0.00000E+00
         0.00000E+00
         0.00000E+00
         0.00000E+00
         0.00000E+00
         0.00000E+00
         0.00000E+00
         0.00000E+00
         0.00000E+00
         0.00000E+00
         0.00000E+00
         0.00000E+00
         0.00000E+00
         0.00000E+00
         0.00000E+00
         0.00000E+00
         0.00000E+00
         0.00000E+00
         0.00000E+00
         0.00000E+00
         0.00000E+00
         0.00000E+00
         0.00000E+00
         0.00000E+00
         0.00000E+00
         0.00000E+00
         0.00000E+00
         0.00000E+00
         0.00000E+00
         0.00000E+00
         0.00000E+00
         0.00000E+00
         0.00000E+00
         0.00000E+00
         0.00000E+00
         0.00000E+00
         0.00000E+00
         0.00000E+00
         0.00000E+00
         0.00000E+00
         0.00000E+00
         0.00000E+00
         0.00000E+00
         0.00000E+00
         0.00000E+00
         0.00000E+00
         0.00000E+00
         0.00000E+00
         0.00000E+00
         0.00000E+00
         0.00000E+00
         0.00000E+00
         0.00000E+00
         0.00000E+00
         0.00000E+00
         0.00000E+00
         0.00000E+00
         0.00000E+00
         0.00000E+00
         0.00000E+00
         0.00000E+00
         0.00000E+00
         0.00000E+00
         0.00000E+00
         0.00000E+00
         0.00000E+00
         0.00000E+00
         0.00000E+00
         0.00000E+00
         0.00000E+00
         0.00000E+00
         0.00000E+00
         0.00000E+00
         0.00000E+00
         0.00000E+00
         0.00000E+00
         0.00000E+00
         0.00000E+00
         0.00000E+00
         0.00000E+00
         0.00000E+00
         0.00000E+00
         0.00000E+00
         0.00000E+00
         0.00000E+00
         0.00000E+00
         0.00000E+00
         0.00000E+00
         0.00000E+00
         0.00000E+00
         0.00000E+00
         0.00000E+00
         0.00000E+00
         0.00000E+00
         0.00000E+00
         0.00000E+00
         0.00000E+00
         0.00000E+00
         0.00000E+00
         0.00000E+00
         0.00000E+00
         0.00000E+00
         0.00000E+00
         0.00000E+00
         0.00000E+00
         0.00000E+00
         0.00000E+00
         0.00000E+00
         0.00000E+00
         0.00000E+00
         0.00000E+00
         0.00000E+00
         0.00000E+00
         0.00000E+00
         0.00000E+00
         0.00000E+00
         0.00000E+00
         0.00000E+00
         0.00000E+00
         0.00000E+00
         0.00000E+00
         0.00000E+00
         0.00000E+00
         0.00000E+00
         0.00000E+00
         0.00000E+00
         0.00000E+00
         0.00000E+00
         0.00000E+00
         0.00000E+00
         0.00000E+00
         0.00000E+00
         0.00000E+00
         0.00000E+00
         0.00000E+00
         0.00000E+00
         0.00000E+00
         0.00000E+00
         0.00000E+00
         0.00000E+00
         0.00000E+00
         0.00000E+00
         0.00000E+00
         0.00000E+00
         0.00000E+00
         0.00000E+00
         0.00000E+00
         0.00000E+00
         0.00000E+00
         0.00000E+00
         0.00000E+00
         0.00000E+00
         0.00000E+00
         0.00000E+00
         0.00000E+00
         0.00000E+00
         0.00000E+00
         0.00000E+00
         0.00000E+00
         0.00000E+00
         0.00000E+00
         0.00000E+00
         0.00000E+00
         0.00000E+00
         0.00000E+00
         0.00000E+00
         0.00000E+00
         0.00000E+00
         0.00000E+00
         0.00000E+00
         0.00000E+00
         0.00000E+00
         0.00000E+00
         0.00000E+00
         0.00000E+00
         0.00000E+00
         0.00000E+00
         0.00000E+00
         0.00000E+00
         0.00000E+00
         0.00000E+00
         0.00000E+00
         0.00000E+00
         0.00000E+00
         0.00000E+00
         0.00000E+00
         0.00000E+00
         0.00000E+00
         0.00000E+00
         0.00000E+00
         0.00000E+00
         0.00000E+00
         0.00000E+00
         0.00000E+00
         0.00000E+00
         0.00000E+00
         0.00000E+00
         0.00000E+00
         0.00000E+00
         0.00000E+00
         0.00000E+00
         0.00000E+00
         0.00000E+00
         0.00000E+00
         0.00000E+00
         0.00000E+00
         0.00000E+00
         0.00000E+00
         0.00000E+00
         0.00000E+00
         0.00000E+00
         0.00000E+00
         0.00000E+00
         0.00000E+00
         0.00000E+00
         0.00000E+00
         0.00000E+00
         0.00000E+00
         0.00000E+00
         0.00000E+00
         0.00000E+00
         0.00000E+00
         0.00000E+00
         0.00000E+00
         0.00000E+00
         0.00000E+00
         0.00000E+00
         0.00000E+00
         0.00000E+00
         0.00000E+00
         0.00000E+00
         0.00000E+00
         0.00000E+00
         0.00000E+00
         0.00000E+00
         0.00000E+00
         0.00000E+00
         0.00000E+00
         0.00000E+00
         0.00000E+00
         0.00000E+00
         0.00000E+00
         0.00000E+00
         0.00000E+00
         0.00000E+00
         0.00000E+00
         0.00000E+00
         0.00000E+00
         0.00000E+00
         0.00000E+00
         0.00000E+00
         0.00000E+00
         0.00000E+00
         0.00000E+00
         0.00000E+00
         0.00000E+00
         0.00000E+00
         0.00000E+00
         0.00000E+00
         0.00000E+00
         0.00000E+00
         0.00000E+00
         0.00000E+00
         0.00000E+00
         0.00000E+00
         0.00000E+00
         0.00000E+00
         0.00000E+00
         0.00000E+00
         0.00000E+00
         0.00000E+00
         0.00000E+00
         0.00000E+00
         0.00000E+00
         0.00000E+00
         0.00000E+00
         0.00000E+00
         0.00000E+00
         0.00000E+00
         0.00000E+00
         0.00000E+00
         0.00000E+00
         0.00000E+00
         0.00000E+00
         0.00000E+00
         0.00000E+00
         0.00000E+00
         0.00000E+00
         0.00000E+00
         0.00000E+00
         0.00000E+00
         0.00000E+00
         0.00000E+00
         0.00000E+00
         0.00000E+00
         0.00000E+00
         0.00000E+00
         0.00000E+00
         0.00000E+00
         0.00000E+00
         0.00000E+00
         0.00000E+00
         0.00000E+00
         0.00000E+00
         0.00000E+00
         0.00000E+00
         0.00000E+00
         0.00000E+00
         0.00000E+00
         0.00000E+00
         0.00000E+00
         0.00000E+00
         0.00000E+00
         0.00000E+00
         0.00000E+00
         0.00000E+00
         0.00000E+00
         0.00000E+00
         0.00000E+00
         0.00000E+00
         0.00000E+00
         0.00000E+00
         0.00000E+00
         0.00000E+00
         0.00000E+00
         0.00000E+00
         0.00000E+00
         0.00000E+00
         0.00000E+00
         0.00000E+00
         0.00000E+00
         0.00000E+00
         0.00000E+00
         0.00000E+00
         0.00000E+00
         0.00000E+00
         0.00000E+00
         0.00000E+00
         0.00000E+00
         0.00000E+00
         0.00000E+00
         0.00000E+00
         0.00000E+00
         0.00000E+00
         0.00000E+00
         0.00000E+00
         0.00000E+00
         0.00000E+00
         0.00000E+00
         0.00000E+00
         0.00000E+00
         0.00000E+00
         0.00000E+00
         0.00000E+00
         0.00000E+00
         0.00000E+00
         0.00000E+00
         0.00000E+00
         0.00000E+00
         0.00000E+00
         0.00000E+00
         0.00000E+00
         0.00000E+00
         0.00000E+00
         0.00000E+00
         0.00000E+00
         0.00000E+00
         0.00000E+00
         0.00000E+00
         0.00000E+00
         0.00000E+00
         0.00000E+00
         0.00000E+00
         0.00000E+00
         0.00000E+00
         0.00000E+00
         0.00000E+00
         0.00000E+00
         0.00000E+00
         0.00000E+00
         0.00000E+00
         0.00000E+00
         0.00000E+00
         0.00000E+00
         0.00000E+00
         0.00000E+00
         0.00000E+00
         0.00000E+00
         0.00000E+00
         0.00000E+00
         0.00000E+00
         0.00000E+00
         0.00000E+00
         0.00000E+00
         0.00000E+00
         0.00000E+00
         0.00000E+00
         0.00000E+00
         0.00000E+00
         0.00000E+00
         0.00000E+00
         0.00000E+00
         0.00000E+00
         0.00000E+00
         0.00000E+00
         0.00000E+00
         0.00000E+00
         0.00000E+00
         0.00000E+00
         0.00000E+00
         0.00000E+00
         0.00000E+00
         0.00000E+00
         0.00000E+00
         0.00000E+00
         0.00000E+00
         0.00000E+00
         0.00000E+00
         0.00000E+00
         0.00000E+00
         0.00000E+00
         0.00000E+00
         0.00000E+00
         0.00000E+00
         0.00000E+00
         0.00000E+00
         0.00000E+00
         0.00000E+00
         0.00000E+00
         0.00000E+00
         0.00000E+00
         0.00000E+00
         0.00000E+00
         0.00000E+00
         0.00000E+00
         0.00000E+00
         0.00000E+00
         0.00000E+00
         0.00000E+00
         0.00000E+00
         0.00000E+00
         0.00000E+00
         0.00000E+00
         0.00000E+00
         0.00000E+00
         0.00000E+00
         0.00000E+00
         0.00000E+00
         0.00000E+00
         0.00000E+00
         0.00000E+00
         0.00000E+00
         0.00000E+00
         0.00000E+00
         0.00000E+00
         0.00000E+00
         0.00000E+00
         0.00000E+00
         0.00000E+00
         0.00000E+00
         0.00000E+00
         0.00000E+00
         0.00000E+00
         0.00000E+00
         0.00000E+00
         0.00000E+00
         0.00000E+00
         0.00000E+00
         0.00000E+00
         0.00000E+00
         0.00000E+00
         0.00000E+00
         0.00000E+00
         0.00000E+00
         0.00000E+00
         0.00000E+00
         0.00000E+00
         0.00000E+00
         0.00000E+00
         0.00000E+00
         0.00000E+00
         0.00000E+00
         0.00000E+00
         0.00000E+00
         0.00000E+00
         0.00000E+00
         0.00000E+00
         0.00000E+00
         0.00000E+00
         0.00000E+00
         0.00000E+00
         0.00000E+00
         0.00000E+00
         0.00000E+00
         0.00000E+00
         0.00000E+00
         0.00000E+00
         0.00000E+00
         0.00000E+00
         0.00000E+00
         0.00000E+00
         0.00000E+00
         0.00000E+00
         0.00000E+00
         0.00000E+00
         0.00000E+00
         0.00000E+00
         0.00000E+00
         0.00000E+00
         0.00000E+00
         0.00000E+00
         0.00000E+00
         0.00000E+00
         0.00000E+00
         0.00000E+00
         0.00000E+00
         0.00000E+00
         0.00000E+00
         0.00000E+00
         0.00000E+00
         0.00000E+00
         0.00000E+00
         0.00000E+00
         0.00000E+00
         0.00000E+00
         0.00000E+00
         0.00000E+00
         0.00000E+00
         0.00000E+00
         0.00000E+00
         0.00000E+00
         0.00000E+00
         0.00000E+00
         0.00000E+00
         0.00000E+00
         0.00000E+00
         0.00000E+00
         0.00000E+00
         0.00000E+00
         0.00000E+00
         0.00000E+00
         0.00000E+00
         0.00000E+00
         0.00000E+00
         0.00000E+00
         0.00000E+00
         0.00000E+00
         0.00000E+00
         0.00000E+00
         0.00000E+00
         0.00000E+00
         0.00000E+00
         0.00000E+00
         0.00000E+00
         0.00000E+00
         0.00000E+00
         0.00000E+00
         0.00000E+00
         0.00000E+00
         0.00000E+00
         0.00000E+00
         0.00000E+00
         0.00000E+00
         0.00000E+00
         0.00000E+00
         0.00000E+00
         0.00000E+00
         0.00000E+00
         0.00000E+00
         0.00000E+00
         0.00000E+00
         0.00000E+00
         0.00000E+00
         0.00000E+00
         0.00000E+00
         0.00000E+00
         0.00000E+00
         0.00000E+00
         0.00000E+00
         0.00000E+00
         0.00000E+00
         0.00000E+00
         0.00000E+00
         0.00000E+00
         0.00000E+00
         0.00000E+00
         0.00000E+00
         0.00000E+00
         0.00000E+00
         0.00000E+00
         0.00000E+00
         0.00000E+00
         0.00000E+00
         0.00000E+00
         0.00000E+00
         0.00000E+00
         0.00000E+00
         0.00000E+00
         0.00000E+00
         0.00000E+00
         0.00000E+00
         0.00000E+00
         0.00000E+00
         0.00000E+00
         0.00000E+00
         0.00000E+00
         0.00000E+00
         0.00000E+00
         0.00000E+00
         0.00000E+00
         0.00000E+00
         0.00000E+00
         0.00000E+00
         0.00000E+00
         0.00000E+00
         0.00000E+00
         0.00000E+00
         0.00000E+00
         0.00000E+00
         0.00000E+00
         0.00000E+00
         0.00000E+00
         0.00000E+00
         0.00000E+00
         0.00000E+00
         0.00000E+00
         0.00000E+00
         0.00000E+00
         0.00000E+00
         0.00000E+00
         0.00000E+00
         0.00000E+00
         0.00000E+00
         0.00000E+00
         0.00000E+00
         0.00000E+00
         0.00000E+00
         0.00000E+00
         0.00000E+00
         0.00000E+00
         0.00000E+00
         0.00000E+00
         0.00000E+00
         0.00000E+00
         0.00000E+00
         0.00000E+00
         0.00000E+00
         0.00000E+00
         0.00000E+00
         0.00000E+00
         0.00000E+00
         0.00000E+00
         0.00000E+00
         0.00000E+00
         0.00000E+00
         0.00000E+00
         0.00000E+00
         0.00000E+00
         0.00000E+00
         0.00000E+00
         0.00000E+00
         0.00000E+00
         0.00000E+00
         0.00000E+00
         0.00000E+00
         0.00000E+00
         0.00000E+00
         0.00000E+00
         0.00000E+00
         0.00000E+00
         0.00000E+00
         0.00000E+00
         0.00000E+00
         0.00000E+00
         0.00000E+00
         0.00000E+00
         0.00000E+00
         0.00000E+00
         0.00000E+00
         0.00000E+00
         0.00000E+00
         0.00000E+00
         0.00000E+00
         0.00000E+00
         0.00000E+00
         0.00000E+00
         0.00000E+00
         0.00000E+00
         0.00000E+00
         0.00000E+00
         0.00000E+00
         0.00000E+00
         0.00000E+00
         0.00000E+00
         0.00000E+00
         0.00000E+00
         0.00000E+00
         0.00000E+00
         0.00000E+00
         0.00000E+00
         0.00000E+00
         0.00000E+00
         0.00000E+00
         0.00000E+00
         0.00000E+00
         0.00000E+00
         0.00000E+00
         0.00000E+00
         0.00000E+00
         0.00000E+00
         0.00000E+00
         0.00000E+00
         0.00000E+00
         0.00000E+00
         0.00000E+00
         0.00000E+00
         0.00000E+00
         0.00000E+00
         0.00000E+00
         0.00000E+00
         0.00000E+00
         0.00000E+00
         0.00000E+00
         0.00000E+00
         0.00000E+00
         0.00000E+00
         0.00000E+00
         0.00000E+00
         0.00000E+00
         0.00000E+00
         0.00000E+00
         0.00000E+00
         0.00000E+00
         0.00000E+00
         0.00000E+00
         0.00000E+00
         0.00000E+00
         0.00000E+00
         0.00000E+00
         0.00000E+00
         0.00000E+00
         0.00000E+00
         0.00000E+00
         0.00000E+00
         0.00000E+00
         0.00000E+00
         0.00000E+00
         0.00000E+00
         0.00000E+00
         0.00000E+00
         0.00000E+00
         0.00000E+00
         0.00000E+00
         0.00000E+00
         0.00000E+00
         0.00000E+00
         0.00000E+00
         0.00000E+00
         0.00000E+00
         0.00000E+00
         0.00000E+00
         0.00000E+00
         0.00000E+00
         0.00000E+00
         0.00000E+00
         0.00000E+00
         0.00000E+00
         0.00000E+00
         0.00000E+00
         0.00000E+00
         0.00000E+00
         0.00000E+00
         0.00000E+00
         0.00000E+00
         0.00000E+00
         0.00000E+00
         0.00000E+00
         0.00000E+00
         0.00000E+00
         0.00000E+00
         0.00000E+00
         0.00000E+00
         0.00000E+00
         0.00000E+00
         0.00000E+00
         0.00000E+00
         0.00000E+00
         0.00000E+00
         0.00000E+00
         0.00000E+00
         0.00000E+00
         0.00000E+00
         0.00000E+00
         0.00000E+00
         0.00000E+00
         0.00000E+00
         0.00000E+00
         0.00000E+00
         0.00000E+00
         0.00000E+00
         0.00000E+00
         0.00000E+00
         0.00000E+00
         0.00000E+00
         0.00000E+00
         0.00000E+00
         0.00000E+00
         0.00000E+00
         0.00000E+00
         0.00000E+00
         0.00000E+00
         0.00000E+00
         0.00000E+00
         0.00000E+00
         0.00000E+00
         0.00000E+00
         0.00000E+00
         0.00000E+00
         0.00000E+00
         0.00000E+00
         0.00000E+00
         0.00000E+00
         0.00000E+00
         0.00000E+00
         0.00000E+00
         0.00000E+00
         0.00000E+00
         0.00000E+00
         0.00000E+00
         0.00000E+00
         0.00000E+00
         0.00000E+00
         0.00000E+00
         0.00000E+00
         0.00000E+00
         0.00000E+00
         0.00000E+00
         0.00000E+00
         0.00000E+00
         0.00000E+00
         0.00000E+00
         0.00000E+00
         0.00000E+00
         0.00000E+00
         0.00000E+00
         0.00000E+00
         0.00000E+00
         0.00000E+00
         0.00000E+00
         0.00000E+00
         0.00000E+00
         0.00000E+00
         0.00000E+00
         0.00000E+00
         0.00000E+00
         0.00000E+00
         0.00000E+00
         0.00000E+00
         0.00000E+00
         0.00000E+00
         0.00000E+00
         0.00000E+00
         0.00000E+00
         0.00000E+00
         0.00000E+00
         0.00000E+00
         0.00000E+00
         0.00000E+00
         0.00000E+00
         0.00000E+00
         0.00000E+00
         0.00000E+00
         0.00000E+00
         0.00000E+00
         0.00000E+00
         0.00000E+00
         0.00000E+00
         0.00000E+00
         0.00000E+00
         0.00000E+00
         0.00000E+00
         0.00000E+00
         0.00000E+00
         0.00000E+00
         0.00000E+00
         0.00000E+00
         0.00000E+00
         0.00000E+00
         0.00000E+00
         0.00000E+00
         0.00000E+00
         0.00000E+00
         0.00000E+00
         0.00000E+00
         0.00000E+00
         0.00000E+00
         0.00000E+00
         0.00000E+00
         0.00000E+00
         0.00000E+00
         0.00000E+00
         0.00000E+00
         0.00000E+00
         0.00000E+00
         0.00000E+00
         0.00000E+00
         0.00000E+00
         0.00000E+00
         0.00000E+00
         0.00000E+00
         0.00000E+00
         0.00000E+00
         0.00000E+00
         0.00000E+00
         0.00000E+00
         0.00000E+00
         0.00000E+00
         0.00000E+00
         0.00000E+00
         0.00000E+00
         0.00000E+00
         0.00000E+00
         0.00000E+00
         0.00000E+00
         0.00000E+00
         0.00000E+00
         0.00000E+00
         0.00000E+00
         0.00000E+00
         0.00000E+00
         0.00000E+00
         0.00000E+00
         0.00000E+00
         0.00000E+00
         0.00000E+00
         0.00000E+00
         0.00000E+00
         0.00000E+00
         0.00000E+00
         0.00000E+00
         0.00000E+00
         0.00000E+00
         0.00000E+00
         0.00000E+00
         0.00000E+00
         0.00000E+00
         0.00000E+00
         0.00000E+00
         0.00000E+00
         0.00000E+00
         0.00000E+00
         0.00000E+00
         0.00000E+00
         0.00000E+00
         0.00000E+00
         0.00000E+00
         0.00000E+00
         0.00000E+00
         0.00000E+00
         0.00000E+00
         0.00000E+00
         0.00000E+00
         0.00000E+00
         0.00000E+00
         0.00000E+00
         0.00000E+00
         0.00000E+00
         0.00000E+00
         0.00000E+00
         0.00000E+00
         0.00000E+00
         0.00000E+00
         0.00000E+00
         0.00000E+00
         0.00000E+00
         0.00000E+00
         0.00000E+00
         0.00000E+00
         0.00000E+00
         0.00000E+00
         0.00000E+00
         0.00000E+00
         0.00000E+00
         0.00000E+00
         0.00000E+00
         0.00000E+00
         0.00000E+00
         0.00000E+00
         0.00000E+00
         0.00000E+00
         0.00000E+00
         0.00000E+00
         0.00000E+00
         0.00000E+00
         0.00000E+00
         0.00000E+00
         0.00000E+00
         0.00000E+00
         0.00000E+00
         0.00000E+00
         0.00000E+00
         0.00000E+00
         0.00000E+00
         0.00000E+00
         0.00000E+00
         0.00000E+00
         0.00000E+00
         0.00000E+00
         0.00000E+00
         0.00000E+00
         0.00000E+00
         0.00000E+00
         0.00000E+00
         0.00000E+00
         0.00000E+00
         0.00000E+00
         0.00000E+00
         0.00000E+00
         0.00000E+00
         0.00000E+00
         0.00000E+00
         0.00000E+00
         0.00000E+00
         0.00000E+00
         0.00000E+00
         0.00000E+00
         0.00000E+00
         0.00000E+00
         0.00000E+00
         0.00000E+00
         0.00000E+00
         0.00000E+00
         0.00000E+00
         0.00000E+00
         0.00000E+00
         0.00000E+00
         0.00000E+00
         0.00000E+00
         0.00000E+00
         0.00000E+00
         0.00000E+00
         0.00000E+00
  
SCALARS                         fint_x  double 1
LOOKUP_TABLE default
         0.00000E+00
         0.00000E+00
         0.00000E+00
         0.00000E+00
         0.00000E+00
         0.00000E+00
         0.00000E+00
         0.00000E+00
         0.00000E+00
         0.00000E+00
         0.00000E+00
         0.00000E+00
         0.00000E+00
         0.00000E+00
         0.00000E+00
         0.00000E+00
         0.00000E+00
         0.00000E+00
         0.00000E+00
         0.00000E+00
         0.00000E+00
         0.00000E+00
         0.00000E+00
         0.00000E+00
         0.00000E+00
         0.00000E+00
         0.00000E+00
         0.00000E+00
         0.00000E+00
         0.00000E+00
         0.00000E+00
         0.00000E+00
         0.00000E+00
         0.00000E+00
         0.00000E+00
         0.00000E+00
         0.00000E+00
         0.00000E+00
         0.00000E+00
         0.00000E+00
         0.00000E+00
         0.00000E+00
         0.00000E+00
         0.00000E+00
         0.00000E+00
         0.00000E+00
         0.00000E+00
         0.00000E+00
         0.00000E+00
         0.00000E+00
         0.00000E+00
         0.00000E+00
         0.00000E+00
         0.00000E+00
         0.00000E+00
         0.00000E+00
         0.00000E+00
         0.00000E+00
         0.00000E+00
         0.00000E+00
         0.00000E+00
         0.00000E+00
         0.00000E+00
         0.00000E+00
         0.00000E+00
         0.00000E+00
         0.00000E+00
         0.00000E+00
         0.00000E+00
         0.00000E+00
         0.00000E+00
         0.00000E+00
         0.00000E+00
         0.00000E+00
         0.00000E+00
         0.00000E+00
         0.00000E+00
         0.00000E+00
         0.00000E+00
         0.00000E+00
         0.00000E+00
         0.00000E+00
         0.00000E+00
         0.00000E+00
         0.00000E+00
         0.00000E+00
         0.00000E+00
         0.00000E+00
         0.00000E+00
         0.00000E+00
         0.00000E+00
         0.00000E+00
         0.00000E+00
         0.00000E+00
         0.00000E+00
         0.00000E+00
         0.00000E+00
         0.00000E+00
         0.00000E+00
         0.00000E+00
         0.00000E+00
         0.00000E+00
         0.00000E+00
         0.00000E+00
         0.00000E+00
         0.00000E+00
         0.00000E+00
         0.00000E+00
         0.00000E+00
         0.00000E+00
         0.00000E+00
         0.00000E+00
         0.00000E+00
         0.00000E+00
         0.00000E+00
         0.00000E+00
         0.00000E+00
         0.00000E+00
         0.00000E+00
         0.00000E+00
         0.00000E+00
         0.00000E+00
         0.00000E+00
         0.00000E+00
         0.00000E+00
         0.00000E+00
         0.00000E+00
         0.00000E+00
         0.00000E+00
         0.00000E+00
         0.00000E+00
         0.00000E+00
         0.00000E+00
         0.00000E+00
         0.00000E+00
         0.00000E+00
         0.00000E+00
         0.00000E+00
         0.00000E+00
         0.00000E+00
         0.00000E+00
         0.00000E+00
         0.00000E+00
         0.00000E+00
         0.00000E+00
         0.00000E+00
         0.00000E+00
         0.00000E+00
         0.00000E+00
         0.00000E+00
         0.00000E+00
         0.00000E+00
         0.00000E+00
         0.00000E+00
         0.00000E+00
         0.00000E+00
         0.00000E+00
         0.00000E+00
         0.00000E+00
         0.00000E+00
         0.00000E+00
         0.00000E+00
         0.00000E+00
         0.00000E+00
         0.00000E+00
         0.00000E+00
         0.00000E+00
         0.00000E+00
         0.00000E+00
         0.00000E+00
         0.00000E+00
         0.00000E+00
         0.00000E+00
         0.00000E+00
         0.00000E+00
         0.00000E+00
         0.00000E+00
         0.00000E+00
         0.00000E+00
         0.00000E+00
         0.00000E+00
         0.00000E+00
         0.00000E+00
         0.00000E+00
         0.00000E+00
         0.00000E+00
         0.00000E+00
         0.00000E+00
         0.00000E+00
         0.00000E+00
         0.00000E+00
         0.00000E+00
         0.00000E+00
         0.00000E+00
         0.00000E+00
         0.00000E+00
         0.00000E+00
         0.00000E+00
         0.00000E+00
         0.00000E+00
         0.00000E+00
         0.00000E+00
         0.00000E+00
         0.00000E+00
         0.00000E+00
         0.00000E+00
         0.00000E+00
         0.00000E+00
         0.00000E+00
         0.00000E+00
         0.00000E+00
         0.00000E+00
         0.00000E+00
         0.00000E+00
         0.00000E+00
         0.00000E+00
         0.00000E+00
         0.00000E+00
         0.00000E+00
         0.00000E+00
         0.00000E+00
         0.00000E+00
         0.00000E+00
         0.00000E+00
         0.00000E+00
         0.00000E+00
         0.00000E+00
         0.00000E+00
         0.00000E+00
         0.00000E+00
         0.00000E+00
         0.00000E+00
         0.00000E+00
         0.00000E+00
         0.00000E+00
         0.00000E+00
         0.00000E+00
         0.00000E+00
         0.00000E+00
         0.00000E+00
         0.00000E+00
         0.00000E+00
         0.00000E+00
         0.00000E+00
         0.00000E+00
         0.00000E+00
         0.00000E+00
         0.00000E+00
         0.00000E+00
         0.00000E+00
         0.00000E+00
         0.00000E+00
         0.00000E+00
         0.00000E+00
         0.00000E+00
         0.00000E+00
         0.00000E+00
         0.00000E+00
         0.00000E+00
         0.00000E+00
         0.00000E+00
         0.00000E+00
         0.00000E+00
         0.00000E+00
         0.00000E+00
         0.00000E+00
         0.00000E+00
         0.00000E+00
         0.00000E+00
         0.00000E+00
         0.00000E+00
         0.00000E+00
         0.00000E+00
         0.00000E+00
         0.00000E+00
         0.00000E+00
         0.00000E+00
         0.00000E+00
         0.00000E+00
         0.00000E+00
         0.00000E+00
         0.00000E+00
         0.00000E+00
         0.00000E+00
         0.00000E+00
         0.00000E+00
         0.00000E+00
         0.00000E+00
         0.00000E+00
         0.00000E+00
         0.00000E+00
         0.00000E+00
         0.00000E+00
         0.00000E+00
         0.00000E+00
         0.00000E+00
         0.00000E+00
         0.00000E+00
         0.00000E+00
         0.00000E+00
         0.00000E+00
         0.00000E+00
         0.00000E+00
         0.00000E+00
         0.00000E+00
         0.00000E+00
         0.00000E+00
         0.00000E+00
         0.00000E+00
         0.00000E+00
         0.00000E+00
         0.00000E+00
         0.00000E+00
         0.00000E+00
         0.00000E+00
         0.00000E+00
         0.00000E+00
         0.00000E+00
         0.00000E+00
         0.00000E+00
         0.00000E+00
         0.00000E+00
         0.00000E+00
         0.00000E+00
         0.00000E+00
         0.00000E+00
         0.00000E+00
         0.00000E+00
         0.00000E+00
         0.00000E+00
         0.00000E+00
         0.00000E+00
         0.00000E+00
         0.00000E+00
         0.00000E+00
         0.00000E+00
         0.00000E+00
         0.00000E+00
         0.00000E+00
         0.00000E+00
         0.00000E+00
         0.00000E+00
         0.00000E+00
         0.00000E+00
         0.00000E+00
         0.00000E+00
         0.00000E+00
         0.00000E+00
         0.00000E+00
         0.00000E+00
         0.00000E+00
         0.00000E+00
         0.00000E+00
         0.00000E+00
         0.00000E+00
         0.00000E+00
         0.00000E+00
         0.00000E+00
         0.00000E+00
         0.00000E+00
         0.00000E+00
         0.00000E+00
         0.00000E+00
         0.00000E+00
         0.00000E+00
         0.00000E+00
         0.00000E+00
         0.00000E+00
         0.00000E+00
         0.00000E+00
         0.00000E+00
         0.00000E+00
         0.00000E+00
         0.00000E+00
         0.00000E+00
         0.00000E+00
         0.00000E+00
         0.00000E+00
         0.00000E+00
         0.00000E+00
         0.00000E+00
         0.00000E+00
         0.00000E+00
         0.00000E+00
         0.00000E+00
         0.00000E+00
         0.00000E+00
         0.00000E+00
         0.00000E+00
         0.00000E+00
         0.00000E+00
         0.00000E+00
         0.00000E+00
         0.00000E+00
         0.00000E+00
         0.00000E+00
         0.00000E+00
         0.00000E+00
         0.00000E+00
         0.00000E+00
         0.00000E+00
         0.00000E+00
         0.00000E+00
         0.00000E+00
         0.00000E+00
         0.00000E+00
         0.00000E+00
         0.00000E+00
         0.00000E+00
         0.00000E+00
         0.00000E+00
         0.00000E+00
         0.00000E+00
         0.00000E+00
         0.00000E+00
         0.00000E+00
         0.00000E+00
         0.00000E+00
         0.00000E+00
         0.00000E+00
         0.00000E+00
         0.00000E+00
         0.00000E+00
         0.00000E+00
         0.00000E+00
         0.00000E+00
         0.00000E+00
         0.00000E+00
         0.00000E+00
         0.00000E+00
         0.00000E+00
         0.00000E+00
         0.00000E+00
         0.00000E+00
         0.00000E+00
         0.00000E+00
         0.00000E+00
         0.00000E+00
         0.00000E+00
         0.00000E+00
         0.00000E+00
         0.00000E+00
         0.00000E+00
         0.00000E+00
         0.00000E+00
         0.00000E+00
         0.00000E+00
         0.00000E+00
         0.00000E+00
         0.00000E+00
         0.00000E+00
         0.00000E+00
         0.00000E+00
         0.00000E+00
         0.00000E+00
         0.00000E+00
         0.00000E+00
         0.00000E+00
         0.00000E+00
         0.00000E+00
         0.00000E+00
         0.00000E+00
         0.00000E+00
         0.00000E+00
         0.00000E+00
         0.00000E+00
         0.00000E+00
         0.00000E+00
         0.00000E+00
         0.00000E+00
         0.00000E+00
         0.00000E+00
         0.00000E+00
         0.00000E+00
         0.00000E+00
         0.00000E+00
         0.00000E+00
         0.00000E+00
         0.00000E+00
         0.00000E+00
         0.00000E+00
         0.00000E+00
         0.00000E+00
         0.00000E+00
         0.00000E+00
         0.00000E+00
         0.00000E+00
         0.00000E+00
         0.00000E+00
         0.00000E+00
         0.00000E+00
         0.00000E+00
         0.00000E+00
         0.00000E+00
         0.00000E+00
         0.00000E+00
         0.00000E+00
         0.00000E+00
         0.00000E+00
         0.00000E+00
         0.00000E+00
         0.00000E+00
         0.00000E+00
         0.00000E+00
         0.00000E+00
         0.00000E+00
         0.00000E+00
         0.00000E+00
         0.00000E+00
         0.00000E+00
         0.00000E+00
         0.00000E+00
         0.00000E+00
         0.00000E+00
         0.00000E+00
         0.00000E+00
         0.00000E+00
         0.00000E+00
         0.00000E+00
         0.00000E+00
         0.00000E+00
         0.00000E+00
         0.00000E+00
         0.00000E+00
         0.00000E+00
         0.00000E+00
         0.00000E+00
         0.00000E+00
         0.00000E+00
         0.00000E+00
         0.00000E+00
         0.00000E+00
         0.00000E+00
         0.00000E+00
         0.00000E+00
         0.00000E+00
         0.00000E+00
         0.00000E+00
         0.00000E+00
         0.00000E+00
         0.00000E+00
         0.00000E+00
         0.00000E+00
         0.00000E+00
         0.00000E+00
         0.00000E+00
         0.00000E+00
         0.00000E+00
         0.00000E+00
         0.00000E+00
         0.00000E+00
         0.00000E+00
         0.00000E+00
         0.00000E+00
         0.00000E+00
         0.00000E+00
         0.00000E+00
         0.00000E+00
         0.00000E+00
         0.00000E+00
         0.00000E+00
         0.00000E+00
         0.00000E+00
         0.00000E+00
         0.00000E+00
         0.00000E+00
         0.00000E+00
         0.00000E+00
         0.00000E+00
         0.00000E+00
         0.00000E+00
         0.00000E+00
         0.00000E+00
         0.00000E+00
         0.00000E+00
         0.00000E+00
         0.00000E+00
         0.00000E+00
         0.00000E+00
         0.00000E+00
         0.00000E+00
         0.00000E+00
         0.00000E+00
         0.00000E+00
         0.00000E+00
         0.00000E+00
         0.00000E+00
         0.00000E+00
         0.00000E+00
         0.00000E+00
         0.00000E+00
         0.00000E+00
         0.00000E+00
         0.00000E+00
         0.00000E+00
         0.00000E+00
         0.00000E+00
         0.00000E+00
         0.00000E+00
         0.00000E+00
         0.00000E+00
         0.00000E+00
         0.00000E+00
         0.00000E+00
         0.00000E+00
         0.00000E+00
         0.00000E+00
         0.00000E+00
         0.00000E+00
         0.00000E+00
         0.00000E+00
         0.00000E+00
         0.00000E+00
         0.00000E+00
         0.00000E+00
         0.00000E+00
         0.00000E+00
         0.00000E+00
         0.00000E+00
         0.00000E+00
         0.00000E+00
         0.00000E+00
         0.00000E+00
         0.00000E+00
         0.00000E+00
         0.00000E+00
         0.00000E+00
         0.00000E+00
         0.00000E+00
         0.00000E+00
         0.00000E+00
         0.00000E+00
         0.00000E+00
         0.00000E+00
         0.00000E+00
         0.00000E+00
         0.00000E+00
         0.00000E+00
         0.00000E+00
         0.00000E+00
         0.00000E+00
         0.00000E+00
         0.00000E+00
         0.00000E+00
         0.00000E+00
         0.00000E+00
         0.00000E+00
         0.00000E+00
         0.00000E+00
         0.00000E+00
         0.00000E+00
         0.00000E+00
         0.00000E+00
         0.00000E+00
         0.00000E+00
         0.00000E+00
         0.00000E+00
         0.00000E+00
         0.00000E+00
         0.00000E+00
         0.00000E+00
         0.00000E+00
         0.00000E+00
         0.00000E+00
         0.00000E+00
         0.00000E+00
         0.00000E+00
         0.00000E+00
         0.00000E+00
         0.00000E+00
         0.00000E+00
         0.00000E+00
         0.00000E+00
         0.00000E+00
         0.00000E+00
         0.00000E+00
         0.00000E+00
         0.00000E+00
         0.00000E+00
         0.00000E+00
         0.00000E+00
         0.00000E+00
         0.00000E+00
         0.00000E+00
         0.00000E+00
         0.00000E+00
         0.00000E+00
         0.00000E+00
         0.00000E+00
         0.00000E+00
         0.00000E+00
         0.00000E+00
         0.00000E+00
         0.00000E+00
         0.00000E+00
         0.00000E+00
         0.00000E+00
         0.00000E+00
         0.00000E+00
         0.00000E+00
         0.00000E+00
         0.00000E+00
         0.00000E+00
         0.00000E+00
         0.00000E+00
         0.00000E+00
         0.00000E+00
         0.00000E+00
         0.00000E+00
         0.00000E+00
         0.00000E+00
         0.00000E+00
         0.00000E+00
         0.00000E+00
         0.00000E+00
         0.00000E+00
         0.00000E+00
         0.00000E+00
         0.00000E+00
         0.00000E+00
         0.00000E+00
         0.00000E+00
         0.00000E+00
         0.00000E+00
         0.00000E+00
         0.00000E+00
         0.00000E+00
         0.00000E+00
         0.00000E+00
         0.00000E+00
         0.00000E+00
         0.00000E+00
         0.00000E+00
         0.00000E+00
         0.00000E+00
         0.00000E+00
         0.00000E+00
         0.00000E+00
         0.00000E+00
         0.00000E+00
         0.00000E+00
         0.00000E+00
         0.00000E+00
         0.00000E+00
         0.00000E+00
         0.00000E+00
         0.00000E+00
         0.00000E+00
         0.00000E+00
         0.00000E+00
         0.00000E+00
         0.00000E+00
         0.00000E+00
         0.00000E+00
         0.00000E+00
         0.00000E+00
         0.00000E+00
         0.00000E+00
         0.00000E+00
         0.00000E+00
         0.00000E+00
         0.00000E+00
         0.00000E+00
         0.00000E+00
         0.00000E+00
         0.00000E+00
         0.00000E+00
         0.00000E+00
         0.00000E+00
         0.00000E+00
         0.00000E+00
         0.00000E+00
         0.00000E+00
         0.00000E+00
         0.00000E+00
         0.00000E+00
         0.00000E+00
         0.00000E+00
         0.00000E+00
         0.00000E+00
         0.00000E+00
         0.00000E+00
         0.00000E+00
         0.00000E+00
         0.00000E+00
         0.00000E+00
         0.00000E+00
         0.00000E+00
         0.00000E+00
         0.00000E+00
         0.00000E+00
         0.00000E+00
         0.00000E+00
         0.00000E+00
         0.00000E+00
         0.00000E+00
         0.00000E+00
         0.00000E+00
         0.00000E+00
         0.00000E+00
         0.00000E+00
         0.00000E+00
         0.00000E+00
         0.00000E+00
         0.00000E+00
         0.00000E+00
         0.00000E+00
         0.00000E+00
         0.00000E+00
         0.00000E+00
         0.00000E+00
         0.00000E+00
         0.00000E+00
         0.00000E+00
         0.00000E+00
         0.00000E+00
         0.00000E+00
         0.00000E+00
         0.00000E+00
         0.00000E+00
         0.00000E+00
         0.00000E+00
         0.00000E+00
         0.00000E+00
         0.00000E+00
         0.00000E+00
         0.00000E+00
         0.00000E+00
         0.00000E+00
         0.00000E+00
         0.00000E+00
         0.00000E+00
         0.00000E+00
         0.00000E+00
         0.00000E+00
         0.00000E+00
         0.00000E+00
         0.00000E+00
         0.00000E+00
         0.00000E+00
         0.00000E+00
         0.00000E+00
         0.00000E+00
         0.00000E+00
         0.00000E+00
         0.00000E+00
         0.00000E+00
         0.00000E+00
         0.00000E+00
         0.00000E+00
         0.00000E+00
         0.00000E+00
         0.00000E+00
         0.00000E+00
         0.00000E+00
         0.00000E+00
         0.00000E+00
         0.00000E+00
         0.00000E+00
         0.00000E+00
         0.00000E+00
         0.00000E+00
         0.00000E+00
         0.00000E+00
         0.00000E+00
         0.00000E+00
         0.00000E+00
         0.00000E+00
         0.00000E+00
         0.00000E+00
         0.00000E+00
         0.00000E+00
         0.00000E+00
         0.00000E+00
         0.00000E+00
         0.00000E+00
         0.00000E+00
         0.00000E+00
         0.00000E+00
         0.00000E+00
         0.00000E+00
         0.00000E+00
         0.00000E+00
         0.00000E+00
         0.00000E+00
         0.00000E+00
         0.00000E+00
         0.00000E+00
         0.00000E+00
         0.00000E+00
         0.00000E+00
         0.00000E+00
         0.00000E+00
         0.00000E+00
         0.00000E+00
         0.00000E+00
         0.00000E+00
         0.00000E+00
         0.00000E+00
         0.00000E+00
         0.00000E+00
         0.00000E+00
         0.00000E+00
         0.00000E+00
         0.00000E+00
         0.00000E+00
         0.00000E+00
         0.00000E+00
         0.00000E+00
         0.00000E+00
         0.00000E+00
         0.00000E+00
         0.00000E+00
         0.00000E+00
         0.00000E+00
         0.00000E+00
         0.00000E+00
         0.00000E+00
         0.00000E+00
         0.00000E+00
         0.00000E+00
         0.00000E+00
         0.00000E+00
         0.00000E+00
         0.00000E+00
         0.00000E+00
         0.00000E+00
         0.00000E+00
         0.00000E+00
         0.00000E+00
         0.00000E+00
         0.00000E+00
         0.00000E+00
         0.00000E+00
         0.00000E+00
         0.00000E+00
         0.00000E+00
         0.00000E+00
         0.00000E+00
         0.00000E+00
         0.00000E+00
         0.00000E+00
         0.00000E+00
         0.00000E+00
         0.00000E+00
         0.00000E+00
         0.00000E+00
         0.00000E+00
         0.00000E+00
         0.00000E+00
         0.00000E+00
         0.00000E+00
         0.00000E+00
         0.00000E+00
         0.00000E+00
         0.00000E+00
         0.00000E+00
         0.00000E+00
         0.00000E+00
         0.00000E+00
         0.00000E+00
         0.00000E+00
         0.00000E+00
         0.00000E+00
         0.00000E+00
         0.00000E+00
         0.00000E+00
         0.00000E+00
         0.00000E+00
         0.00000E+00
         0.00000E+00
         0.00000E+00
         0.00000E+00
         0.00000E+00
         0.00000E+00
         0.00000E+00
         0.00000E+00
         0.00000E+00
         0.00000E+00
         0.00000E+00
         0.00000E+00
         0.00000E+00
         0.00000E+00
         0.00000E+00
         0.00000E+00
         0.00000E+00
         0.00000E+00
         0.00000E+00
         0.00000E+00
         0.00000E+00
         0.00000E+00
         0.00000E+00
         0.00000E+00
         0.00000E+00
         0.00000E+00
         0.00000E+00
         0.00000E+00
         0.00000E+00
         0.00000E+00
         0.00000E+00
         0.00000E+00
         0.00000E+00
         0.00000E+00
         0.00000E+00
         0.00000E+00
         0.00000E+00
         0.00000E+00
         0.00000E+00
         0.00000E+00
         0.00000E+00
         0.00000E+00
         0.00000E+00
         0.00000E+00
         0.00000E+00
         0.00000E+00
         0.00000E+00
         0.00000E+00
         0.00000E+00
         0.00000E+00
         0.00000E+00
         0.00000E+00
         0.00000E+00
         0.00000E+00
         0.00000E+00
         0.00000E+00
         0.00000E+00
         0.00000E+00
         0.00000E+00
         0.00000E+00
         0.00000E+00
         0.00000E+00
         0.00000E+00
         0.00000E+00
         0.00000E+00
         0.00000E+00
         0.00000E+00
         0.00000E+00
         0.00000E+00
         0.00000E+00
         0.00000E+00
         0.00000E+00
         0.00000E+00
         0.00000E+00
         0.00000E+00
         0.00000E+00
         0.00000E+00
         0.00000E+00
         0.00000E+00
         0.00000E+00
         0.00000E+00
         0.00000E+00
         0.00000E+00
         0.00000E+00
         0.00000E+00
         0.00000E+00
         0.00000E+00
         0.00000E+00
         0.00000E+00
         0.00000E+00
         0.00000E+00
         0.00000E+00
         0.00000E+00
         0.00000E+00
         0.00000E+00
         0.00000E+00
         0.00000E+00
         0.00000E+00
         0.00000E+00
         0.00000E+00
         0.00000E+00
         0.00000E+00
         0.00000E+00
         0.00000E+00
         0.00000E+00
         0.00000E+00
         0.00000E+00
         0.00000E+00
         0.00000E+00
         0.00000E+00
         0.00000E+00
         0.00000E+00
         0.00000E+00
         0.00000E+00
         0.00000E+00
         0.00000E+00
         0.00000E+00
         0.00000E+00
         0.00000E+00
         0.00000E+00
         0.00000E+00
         0.00000E+00
         0.00000E+00
         0.00000E+00
         0.00000E+00
         0.00000E+00
         0.00000E+00
         0.00000E+00
         0.00000E+00
         0.00000E+00
         0.00000E+00
         0.00000E+00
         0.00000E+00
         0.00000E+00
         0.00000E+00
         0.00000E+00
         0.00000E+00
         0.00000E+00
         0.00000E+00
         0.00000E+00
         0.00000E+00
         0.00000E+00
         0.00000E+00
         0.00000E+00
         0.00000E+00
         0.00000E+00
         0.00000E+00
         0.00000E+00
         0.00000E+00
         0.00000E+00
         0.00000E+00
         0.00000E+00
         0.00000E+00
         0.00000E+00
         0.00000E+00
         0.00000E+00
         0.00000E+00
         0.00000E+00
         0.00000E+00
         0.00000E+00
         0.00000E+00
         0.00000E+00
         0.00000E+00
         0.00000E+00
         0.00000E+00
         0.00000E+00
         0.00000E+00
         0.00000E+00
         0.00000E+00
         0.00000E+00
         0.00000E+00
         0.00000E+00
         0.00000E+00
         0.00000E+00
         0.00000E+00
         0.00000E+00
         0.00000E+00
         0.00000E+00
         0.00000E+00
         0.00000E+00
         0.00000E+00
         0.00000E+00
         0.00000E+00
         0.00000E+00
         0.00000E+00
         0.00000E+00
         0.00000E+00
         0.00000E+00
         0.00000E+00
         0.00000E+00
         0.00000E+00
         0.00000E+00
         0.00000E+00
         0.00000E+00
         0.00000E+00
         0.00000E+00
         0.00000E+00
         0.00000E+00
         0.00000E+00
         0.00000E+00
         0.00000E+00
         0.00000E+00
         0.00000E+00
         0.00000E+00
         0.00000E+00
         0.00000E+00
         0.00000E+00
         0.00000E+00
         0.00000E+00
         0.00000E+00
         0.00000E+00
         0.00000E+00
         0.00000E+00
         0.00000E+00
         0.00000E+00
         0.00000E+00
         0.00000E+00
         0.00000E+00
         0.00000E+00
         0.00000E+00
         0.00000E+00
         0.00000E+00
         0.00000E+00
         0.00000E+00
         0.00000E+00
         0.00000E+00
         0.00000E+00
         0.00000E+00
         0.00000E+00
         0.00000E+00
         0.00000E+00
         0.00000E+00
         0.00000E+00
         0.00000E+00
         0.00000E+00
         0.00000E+00
         0.00000E+00
         0.00000E+00
         0.00000E+00
         0.00000E+00
         0.00000E+00
         0.00000E+00
         0.00000E+00
         0.00000E+00
         0.00000E+00
         0.00000E+00
         0.00000E+00
         0.00000E+00
         0.00000E+00
         0.00000E+00
         0.00000E+00
         0.00000E+00
         0.00000E+00
         0.00000E+00
         0.00000E+00
         0.00000E+00
         0.00000E+00
         0.00000E+00
         0.00000E+00
         0.00000E+00
         0.00000E+00
         0.00000E+00
         0.00000E+00
         0.00000E+00
         0.00000E+00
         0.00000E+00
         0.00000E+00
         0.00000E+00
         0.00000E+00
         0.00000E+00
         0.00000E+00
         0.00000E+00
         0.00000E+00
         0.00000E+00
         0.00000E+00
         0.00000E+00
         0.00000E+00
         0.00000E+00
         0.00000E+00
         0.00000E+00
         0.00000E+00
         0.00000E+00
         0.00000E+00
         0.00000E+00
         0.00000E+00
         0.00000E+00
         0.00000E+00
         0.00000E+00
         0.00000E+00
         0.00000E+00
         0.00000E+00
         0.00000E+00
         0.00000E+00
         0.00000E+00
         0.00000E+00
         0.00000E+00
         0.00000E+00
         0.00000E+00
         0.00000E+00
         0.00000E+00
         0.00000E+00
         0.00000E+00
         0.00000E+00
         0.00000E+00
         0.00000E+00
         0.00000E+00
         0.00000E+00
         0.00000E+00
         0.00000E+00
         0.00000E+00
         0.00000E+00
         0.00000E+00
         0.00000E+00
         0.00000E+00
         0.00000E+00
         0.00000E+00
         0.00000E+00
         0.00000E+00
         0.00000E+00
         0.00000E+00
         0.00000E+00
         0.00000E+00
         0.00000E+00
         0.00000E+00
         0.00000E+00
         0.00000E+00
         0.00000E+00
         0.00000E+00
         0.00000E+00
         0.00000E+00
         0.00000E+00
         0.00000E+00
         0.00000E+00
         0.00000E+00
         0.00000E+00
         0.00000E+00
         0.00000E+00
         0.00000E+00
         0.00000E+00
         0.00000E+00
         0.00000E+00
         0.00000E+00
         0.00000E+00
         0.00000E+00
         0.00000E+00
         0.00000E+00
         0.00000E+00
         0.00000E+00
         0.00000E+00
         0.00000E+00
         0.00000E+00
         0.00000E+00
         0.00000E+00
         0.00000E+00
         0.00000E+00
         0.00000E+00
         0.00000E+00
         0.00000E+00
         0.00000E+00
         0.00000E+00
         0.00000E+00
         0.00000E+00
         0.00000E+00
         0.00000E+00
         0.00000E+00
         0.00000E+00
         0.00000E+00
         0.00000E+00
         0.00000E+00
         0.00000E+00
         0.00000E+00
         0.00000E+00
         0.00000E+00
         0.00000E+00
         0.00000E+00
         0.00000E+00
         0.00000E+00
         0.00000E+00
         0.00000E+00
         0.00000E+00
         0.00000E+00
         0.00000E+00
         0.00000E+00
         0.00000E+00
         0.00000E+00
         0.00000E+00
         0.00000E+00
         0.00000E+00
         0.00000E+00
         0.00000E+00
         0.00000E+00
         0.00000E+00
         0.00000E+00
         0.00000E+00
         0.00000E+00
         0.00000E+00
         0.00000E+00
         0.00000E+00
         0.00000E+00
         0.00000E+00
         0.00000E+00
         0.00000E+00
         0.00000E+00
         0.00000E+00
         0.00000E+00
         0.00000E+00
         0.00000E+00
         0.00000E+00
         0.00000E+00
         0.00000E+00
         0.00000E+00
         0.00000E+00
         0.00000E+00
         0.00000E+00
         0.00000E+00
         0.00000E+00
         0.00000E+00
         0.00000E+00
         0.00000E+00
         0.00000E+00
         0.00000E+00
         0.00000E+00
         0.00000E+00
         0.00000E+00
         0.00000E+00
         0.00000E+00
         0.00000E+00
         0.00000E+00
         0.00000E+00
         0.00000E+00
         0.00000E+00
         0.00000E+00
         0.00000E+00
         0.00000E+00
         0.00000E+00
         0.00000E+00
         0.00000E+00
         0.00000E+00
         0.00000E+00
         0.00000E+00
         0.00000E+00
         0.00000E+00
         0.00000E+00
         0.00000E+00
         0.00000E+00
         0.00000E+00
         0.00000E+00
         0.00000E+00
         0.00000E+00
         0.00000E+00
         0.00000E+00
         0.00000E+00
         0.00000E+00
         0.00000E+00
         0.00000E+00
         0.00000E+00
         0.00000E+00
         0.00000E+00
         0.00000E+00
         0.00000E+00
         0.00000E+00
         0.00000E+00
         0.00000E+00
         0.00000E+00
         0.00000E+00
         0.00000E+00
         0.00000E+00
         0.00000E+00
         0.00000E+00
         0.00000E+00
         0.00000E+00
         0.00000E+00
         0.00000E+00
         0.00000E+00
         0.00000E+00
         0.00000E+00
         0.00000E+00
         0.00000E+00
         0.00000E+00
         0.00000E+00
         0.00000E+00
         0.00000E+00
         0.00000E+00
         0.00000E+00
         0.00000E+00
         0.00000E+00
         0.00000E+00
         0.00000E+00
         0.00000E+00
         0.00000E+00
         0.00000E+00
         0.00000E+00
         0.00000E+00
         0.00000E+00
         0.00000E+00
         0.00000E+00
         0.00000E+00
         0.00000E+00
         0.00000E+00
         0.00000E+00
         0.00000E+00
         0.00000E+00
         0.00000E+00
         0.00000E+00
         0.00000E+00
         0.00000E+00
         0.00000E+00
         0.00000E+00
         0.00000E+00
         0.00000E+00
         0.00000E+00
         0.00000E+00
         0.00000E+00
         0.00000E+00
         0.00000E+00
         0.00000E+00
         0.00000E+00
         0.00000E+00
         0.00000E+00
         0.00000E+00
         0.00000E+00
         0.00000E+00
         0.00000E+00
         0.00000E+00
         0.00000E+00
         0.00000E+00
         0.00000E+00
         0.00000E+00
         0.00000E+00
         0.00000E+00
         0.00000E+00
         0.00000E+00
         0.00000E+00
         0.00000E+00
         0.00000E+00
         0.00000E+00
         0.00000E+00
         0.00000E+00
         0.00000E+00
         0.00000E+00
         0.00000E+00
         0.00000E+00
         0.00000E+00
         0.00000E+00
         0.00000E+00
         0.00000E+00
         0.00000E+00
         0.00000E+00
         0.00000E+00
         0.00000E+00
         0.00000E+00
         0.00000E+00
         0.00000E+00
         0.00000E+00
         0.00000E+00
         0.00000E+00
         0.00000E+00
         0.00000E+00
         0.00000E+00
         0.00000E+00
         0.00000E+00
         0.00000E+00
         0.00000E+00
         0.00000E+00
         0.00000E+00
         0.00000E+00
         0.00000E+00
         0.00000E+00
         0.00000E+00
         0.00000E+00
         0.00000E+00
         0.00000E+00
         0.00000E+00
         0.00000E+00
         0.00000E+00
         0.00000E+00
         0.00000E+00
         0.00000E+00
         0.00000E+00
         0.00000E+00
         0.00000E+00
         0.00000E+00
         0.00000E+00
         0.00000E+00
         0.00000E+00
         0.00000E+00
         0.00000E+00
         0.00000E+00
         0.00000E+00
         0.00000E+00
         0.00000E+00
         0.00000E+00
         0.00000E+00
         0.00000E+00
         0.00000E+00
         0.00000E+00
         0.00000E+00
         0.00000E+00
         0.00000E+00
         0.00000E+00
         0.00000E+00
         0.00000E+00
         0.00000E+00
         0.00000E+00
         0.00000E+00
         0.00000E+00
         0.00000E+00
         0.00000E+00
         0.00000E+00
         0.00000E+00
         0.00000E+00
         0.00000E+00
         0.00000E+00
         0.00000E+00
         0.00000E+00
         0.00000E+00
         0.00000E+00
         0.00000E+00
         0.00000E+00
         0.00000E+00
         0.00000E+00
         0.00000E+00
         0.00000E+00
         0.00000E+00
         0.00000E+00
         0.00000E+00
         0.00000E+00
         0.00000E+00
         0.00000E+00
         0.00000E+00
         0.00000E+00
         0.00000E+00
         0.00000E+00
         0.00000E+00
         0.00000E+00
         0.00000E+00
         0.00000E+00
         0.00000E+00
         0.00000E+00
         0.00000E+00
         0.00000E+00
         0.00000E+00
         0.00000E+00
         0.00000E+00
         0.00000E+00
         0.00000E+00
         0.00000E+00
         0.00000E+00
         0.00000E+00
         0.00000E+00
         0.00000E+00
         0.00000E+00
         0.00000E+00
         0.00000E+00
         0.00000E+00
         0.00000E+00
         0.00000E+00
         0.00000E+00
         0.00000E+00
         0.00000E+00
         0.00000E+00
         0.00000E+00
         0.00000E+00
         0.00000E+00
         0.00000E+00
         0.00000E+00
         0.00000E+00
         0.00000E+00
         0.00000E+00
         0.00000E+00
         0.00000E+00
         0.00000E+00
         0.00000E+00
         0.00000E+00
         0.00000E+00
         0.00000E+00
         0.00000E+00
         0.00000E+00
         0.00000E+00
         0.00000E+00
         0.00000E+00
         0.00000E+00
         0.00000E+00
         0.00000E+00
         0.00000E+00
         0.00000E+00
         0.00000E+00
         0.00000E+00
         0.00000E+00
         0.00000E+00
         0.00000E+00
         0.00000E+00
         0.00000E+00
         0.00000E+00
         0.00000E+00
         0.00000E+00
         0.00000E+00
         0.00000E+00
         0.00000E+00
         0.00000E+00
         0.00000E+00
         0.00000E+00
         0.00000E+00
         0.00000E+00
         0.00000E+00
         0.00000E+00
         0.00000E+00
         0.00000E+00
         0.00000E+00
         0.00000E+00
         0.00000E+00
         0.00000E+00
         0.00000E+00
         0.00000E+00
         0.00000E+00
         0.00000E+00
         0.00000E+00
         0.00000E+00
         0.00000E+00
         0.00000E+00
         0.00000E+00
         0.00000E+00
         0.00000E+00
         0.00000E+00
         0.00000E+00
         0.00000E+00
         0.00000E+00
         0.00000E+00
         0.00000E+00
         0.00000E+00
         0.00000E+00
         0.00000E+00
         0.00000E+00
         0.00000E+00
         0.00000E+00
         0.00000E+00
         0.00000E+00
         0.00000E+00
         0.00000E+00
         0.00000E+00
         0.00000E+00
         0.00000E+00
         0.00000E+00
         0.00000E+00
         0.00000E+00
         0.00000E+00
         0.00000E+00
         0.00000E+00
         0.00000E+00
         0.00000E+00
         0.00000E+00
         0.00000E+00
         0.00000E+00
         0.00000E+00
         0.00000E+00
         0.00000E+00
         0.00000E+00
         0.00000E+00
         0.00000E+00
         0.00000E+00
         0.00000E+00
         0.00000E+00
         0.00000E+00
         0.00000E+00
         0.00000E+00
         0.00000E+00
         0.00000E+00
         0.00000E+00
         0.00000E+00
         0.00000E+00
         0.00000E+00
         0.00000E+00
         0.00000E+00
         0.00000E+00
         0.00000E+00
         0.00000E+00
         0.00000E+00
         0.00000E+00
         0.00000E+00
         0.00000E+00
         0.00000E+00
         0.00000E+00
         0.00000E+00
         0.00000E+00
         0.00000E+00
         0.00000E+00
         0.00000E+00
         0.00000E+00
         0.00000E+00
         0.00000E+00
         0.00000E+00
         0.00000E+00
         0.00000E+00
         0.00000E+00
         0.00000E+00
         0.00000E+00
         0.00000E+00
         0.00000E+00
         0.00000E+00
         0.00000E+00
         0.00000E+00
         0.00000E+00
         0.00000E+00
         0.00000E+00
         0.00000E+00
         0.00000E+00
         0.00000E+00
         0.00000E+00
         0.00000E+00
         0.00000E+00
         0.00000E+00
         0.00000E+00
         0.00000E+00
         0.00000E+00
         0.00000E+00
         0.00000E+00
         0.00000E+00
         0.00000E+00
         0.00000E+00
         0.00000E+00
         0.00000E+00
         0.00000E+00
         0.00000E+00
         0.00000E+00
         0.00000E+00
         0.00000E+00
         0.00000E+00
         0.00000E+00
         0.00000E+00
         0.00000E+00
         0.00000E+00
         0.00000E+00
         0.00000E+00
         0.00000E+00
         0.00000E+00
         0.00000E+00
         0.00000E+00
         0.00000E+00
         0.00000E+00
         0.00000E+00
         0.00000E+00
         0.00000E+00
         0.00000E+00
         0.00000E+00
         0.00000E+00
         0.00000E+00
         0.00000E+00
         0.00000E+00
         0.00000E+00
         0.00000E+00
         0.00000E+00
         0.00000E+00
         0.00000E+00
         0.00000E+00
         0.00000E+00
         0.00000E+00
         0.00000E+00
         0.00000E+00
         0.00000E+00
         0.00000E+00
         0.00000E+00
         0.00000E+00
         0.00000E+00
         0.00000E+00
         0.00000E+00
         0.00000E+00
         0.00000E+00
         0.00000E+00
         0.00000E+00
         0.00000E+00
         0.00000E+00
         0.00000E+00
         0.00000E+00
         0.00000E+00
         0.00000E+00
         0.00000E+00
         0.00000E+00
         0.00000E+00
         0.00000E+00
         0.00000E+00
         0.00000E+00
         0.00000E+00
         0.00000E+00
         0.00000E+00
         0.00000E+00
         0.00000E+00
         0.00000E+00
         0.00000E+00
         0.00000E+00
         0.00000E+00
         0.00000E+00
         0.00000E+00
         0.00000E+00
         0.00000E+00
         0.00000E+00
         0.00000E+00
         0.00000E+00
         0.00000E+00
         0.00000E+00
         0.00000E+00
         0.00000E+00
         0.00000E+00
         0.00000E+00
         0.00000E+00
         0.00000E+00
         0.00000E+00
         0.00000E+00
         0.00000E+00
         0.00000E+00
         0.00000E+00
         0.00000E+00
         0.00000E+00
         0.00000E+00
         0.00000E+00
         0.00000E+00
         0.00000E+00
         0.00000E+00
         0.00000E+00
         0.00000E+00
         0.00000E+00
         0.00000E+00
         0.00000E+00
         0.00000E+00
         0.00000E+00
         0.00000E+00
         0.00000E+00
         0.00000E+00
         0.00000E+00
         0.00000E+00
         0.00000E+00
         0.00000E+00
         0.00000E+00
         0.00000E+00
         0.00000E+00
         0.00000E+00
         0.00000E+00
         0.00000E+00
         0.00000E+00
         0.00000E+00
         0.00000E+00
         0.00000E+00
         0.00000E+00
         0.00000E+00
         0.00000E+00
         0.00000E+00
         0.00000E+00
         0.00000E+00
         0.00000E+00
         0.00000E+00
         0.00000E+00
         0.00000E+00
         0.00000E+00
         0.00000E+00
         0.00000E+00
         0.00000E+00
         0.00000E+00
         0.00000E+00
         0.00000E+00
         0.00000E+00
         0.00000E+00
         0.00000E+00
         0.00000E+00
         0.00000E+00
         0.00000E+00
         0.00000E+00
         0.00000E+00
         0.00000E+00
         0.00000E+00
         0.00000E+00
         0.00000E+00
         0.00000E+00
         0.00000E+00
         0.00000E+00
         0.00000E+00
         0.00000E+00
         0.00000E+00
         0.00000E+00
         0.00000E+00
         0.00000E+00
         0.00000E+00
         0.00000E+00
  
SCALARS                         fint_y  double 1
LOOKUP_TABLE default
         0.00000E+00
         0.00000E+00
         0.00000E+00
         0.00000E+00
         0.00000E+00
         0.00000E+00
         0.00000E+00
         0.00000E+00
         0.00000E+00
         0.00000E+00
         0.00000E+00
         0.00000E+00
         0.00000E+00
         0.00000E+00
         0.00000E+00
         0.00000E+00
         0.00000E+00
         0.00000E+00
         0.00000E+00
         0.00000E+00
         0.00000E+00
         0.00000E+00
         0.00000E+00
         0.00000E+00
         0.00000E+00
         0.00000E+00
         0.00000E+00
         0.00000E+00
         0.00000E+00
         0.00000E+00
         0.00000E+00
         0.00000E+00
         0.00000E+00
         0.00000E+00
         0.00000E+00
         0.00000E+00
         0.00000E+00
         0.00000E+00
         0.00000E+00
         0.00000E+00
         0.00000E+00
         0.00000E+00
         0.00000E+00
         0.00000E+00
         0.00000E+00
         0.00000E+00
         0.00000E+00
         0.00000E+00
         0.00000E+00
         0.00000E+00
         0.00000E+00
         0.00000E+00
         0.00000E+00
         0.00000E+00
         0.00000E+00
         0.00000E+00
         0.00000E+00
         0.00000E+00
         0.00000E+00
         0.00000E+00
         0.00000E+00
         0.00000E+00
         0.00000E+00
         0.00000E+00
         0.00000E+00
         0.00000E+00
         0.00000E+00
         0.00000E+00
         0.00000E+00
         0.00000E+00
         0.00000E+00
         0.00000E+00
         0.00000E+00
         0.00000E+00
         0.00000E+00
         0.00000E+00
         0.00000E+00
         0.00000E+00
         0.00000E+00
         0.00000E+00
         0.00000E+00
         0.00000E+00
         0.00000E+00
         0.00000E+00
         0.00000E+00
         0.00000E+00
         0.00000E+00
         0.00000E+00
         0.00000E+00
         0.00000E+00
         0.00000E+00
         0.00000E+00
         0.00000E+00
         0.00000E+00
         0.00000E+00
         0.00000E+00
         0.00000E+00
         0.00000E+00
         0.00000E+00
         0.00000E+00
         0.00000E+00
         0.00000E+00
         0.00000E+00
         0.00000E+00
         0.00000E+00
         0.00000E+00
         0.00000E+00
         0.00000E+00
         0.00000E+00
         0.00000E+00
         0.00000E+00
         0.00000E+00
         0.00000E+00
         0.00000E+00
         0.00000E+00
         0.00000E+00
         0.00000E+00
         0.00000E+00
         0.00000E+00
         0.00000E+00
         0.00000E+00
         0.00000E+00
         0.00000E+00
         0.00000E+00
         0.00000E+00
         0.00000E+00
         0.00000E+00
         0.00000E+00
         0.00000E+00
         0.00000E+00
         0.00000E+00
         0.00000E+00
         0.00000E+00
         0.00000E+00
         0.00000E+00
         0.00000E+00
         0.00000E+00
         0.00000E+00
         0.00000E+00
         0.00000E+00
         0.00000E+00
         0.00000E+00
         0.00000E+00
         0.00000E+00
         0.00000E+00
         0.00000E+00
         0.00000E+00
         0.00000E+00
         0.00000E+00
         0.00000E+00
         0.00000E+00
         0.00000E+00
         0.00000E+00
         0.00000E+00
         0.00000E+00
         0.00000E+00
         0.00000E+00
         0.00000E+00
         0.00000E+00
         0.00000E+00
         0.00000E+00
         0.00000E+00
         0.00000E+00
         0.00000E+00
         0.00000E+00
         0.00000E+00
         0.00000E+00
         0.00000E+00
         0.00000E+00
         0.00000E+00
         0.00000E+00
         0.00000E+00
         0.00000E+00
         0.00000E+00
         0.00000E+00
         0.00000E+00
         0.00000E+00
         0.00000E+00
         0.00000E+00
         0.00000E+00
         0.00000E+00
         0.00000E+00
         0.00000E+00
         0.00000E+00
         0.00000E+00
         0.00000E+00
         0.00000E+00
         0.00000E+00
         0.00000E+00
         0.00000E+00
         0.00000E+00
         0.00000E+00
         0.00000E+00
         0.00000E+00
         0.00000E+00
         0.00000E+00
         0.00000E+00
         0.00000E+00
         0.00000E+00
         0.00000E+00
         0.00000E+00
         0.00000E+00
         0.00000E+00
         0.00000E+00
         0.00000E+00
         0.00000E+00
         0.00000E+00
         0.00000E+00
         0.00000E+00
         0.00000E+00
         0.00000E+00
         0.00000E+00
         0.00000E+00
         0.00000E+00
         0.00000E+00
         0.00000E+00
         0.00000E+00
         0.00000E+00
         0.00000E+00
         0.00000E+00
         0.00000E+00
         0.00000E+00
         0.00000E+00
         0.00000E+00
         0.00000E+00
         0.00000E+00
         0.00000E+00
         0.00000E+00
         0.00000E+00
         0.00000E+00
         0.00000E+00
         0.00000E+00
         0.00000E+00
         0.00000E+00
         0.00000E+00
         0.00000E+00
         0.00000E+00
         0.00000E+00
         0.00000E+00
         0.00000E+00
         0.00000E+00
         0.00000E+00
         0.00000E+00
         0.00000E+00
         0.00000E+00
         0.00000E+00
         0.00000E+00
         0.00000E+00
         0.00000E+00
         0.00000E+00
         0.00000E+00
         0.00000E+00
         0.00000E+00
         0.00000E+00
         0.00000E+00
         0.00000E+00
         0.00000E+00
         0.00000E+00
         0.00000E+00
         0.00000E+00
         0.00000E+00
         0.00000E+00
         0.00000E+00
         0.00000E+00
         0.00000E+00
         0.00000E+00
         0.00000E+00
         0.00000E+00
         0.00000E+00
         0.00000E+00
         0.00000E+00
         0.00000E+00
         0.00000E+00
         0.00000E+00
         0.00000E+00
         0.00000E+00
         0.00000E+00
         0.00000E+00
         0.00000E+00
         0.00000E+00
         0.00000E+00
         0.00000E+00
         0.00000E+00
         0.00000E+00
         0.00000E+00
         0.00000E+00
         0.00000E+00
         0.00000E+00
         0.00000E+00
         0.00000E+00
         0.00000E+00
         0.00000E+00
         0.00000E+00
         0.00000E+00
         0.00000E+00
         0.00000E+00
         0.00000E+00
         0.00000E+00
         0.00000E+00
         0.00000E+00
         0.00000E+00
         0.00000E+00
         0.00000E+00
         0.00000E+00
         0.00000E+00
         0.00000E+00
         0.00000E+00
         0.00000E+00
         0.00000E+00
         0.00000E+00
         0.00000E+00
         0.00000E+00
         0.00000E+00
         0.00000E+00
         0.00000E+00
         0.00000E+00
         0.00000E+00
         0.00000E+00
         0.00000E+00
         0.00000E+00
         0.00000E+00
         0.00000E+00
         0.00000E+00
         0.00000E+00
         0.00000E+00
         0.00000E+00
         0.00000E+00
         0.00000E+00
         0.00000E+00
         0.00000E+00
         0.00000E+00
         0.00000E+00
         0.00000E+00
         0.00000E+00
         0.00000E+00
         0.00000E+00
         0.00000E+00
         0.00000E+00
         0.00000E+00
         0.00000E+00
         0.00000E+00
         0.00000E+00
         0.00000E+00
         0.00000E+00
         0.00000E+00
         0.00000E+00
         0.00000E+00
         0.00000E+00
         0.00000E+00
         0.00000E+00
         0.00000E+00
         0.00000E+00
         0.00000E+00
         0.00000E+00
         0.00000E+00
         0.00000E+00
         0.00000E+00
         0.00000E+00
         0.00000E+00
         0.00000E+00
         0.00000E+00
         0.00000E+00
         0.00000E+00
         0.00000E+00
         0.00000E+00
         0.00000E+00
         0.00000E+00
         0.00000E+00
         0.00000E+00
         0.00000E+00
         0.00000E+00
         0.00000E+00
         0.00000E+00
         0.00000E+00
         0.00000E+00
         0.00000E+00
         0.00000E+00
         0.00000E+00
         0.00000E+00
         0.00000E+00
         0.00000E+00
         0.00000E+00
         0.00000E+00
         0.00000E+00
         0.00000E+00
         0.00000E+00
         0.00000E+00
         0.00000E+00
         0.00000E+00
         0.00000E+00
         0.00000E+00
         0.00000E+00
         0.00000E+00
         0.00000E+00
         0.00000E+00
         0.00000E+00
         0.00000E+00
         0.00000E+00
         0.00000E+00
         0.00000E+00
         0.00000E+00
         0.00000E+00
         0.00000E+00
         0.00000E+00
         0.00000E+00
         0.00000E+00
         0.00000E+00
         0.00000E+00
         0.00000E+00
         0.00000E+00
         0.00000E+00
         0.00000E+00
         0.00000E+00
         0.00000E+00
         0.00000E+00
         0.00000E+00
         0.00000E+00
         0.00000E+00
         0.00000E+00
         0.00000E+00
         0.00000E+00
         0.00000E+00
         0.00000E+00
         0.00000E+00
         0.00000E+00
         0.00000E+00
         0.00000E+00
         0.00000E+00
         0.00000E+00
         0.00000E+00
         0.00000E+00
         0.00000E+00
         0.00000E+00
         0.00000E+00
         0.00000E+00
         0.00000E+00
         0.00000E+00
         0.00000E+00
         0.00000E+00
         0.00000E+00
         0.00000E+00
         0.00000E+00
         0.00000E+00
         0.00000E+00
         0.00000E+00
         0.00000E+00
         0.00000E+00
         0.00000E+00
         0.00000E+00
         0.00000E+00
         0.00000E+00
         0.00000E+00
         0.00000E+00
         0.00000E+00
         0.00000E+00
         0.00000E+00
         0.00000E+00
         0.00000E+00
         0.00000E+00
         0.00000E+00
         0.00000E+00
         0.00000E+00
         0.00000E+00
         0.00000E+00
         0.00000E+00
         0.00000E+00
         0.00000E+00
         0.00000E+00
         0.00000E+00
         0.00000E+00
         0.00000E+00
         0.00000E+00
         0.00000E+00
         0.00000E+00
         0.00000E+00
         0.00000E+00
         0.00000E+00
         0.00000E+00
         0.00000E+00
         0.00000E+00
         0.00000E+00
         0.00000E+00
         0.00000E+00
         0.00000E+00
         0.00000E+00
         0.00000E+00
         0.00000E+00
         0.00000E+00
         0.00000E+00
         0.00000E+00
         0.00000E+00
         0.00000E+00
         0.00000E+00
         0.00000E+00
         0.00000E+00
         0.00000E+00
         0.00000E+00
         0.00000E+00
         0.00000E+00
         0.00000E+00
         0.00000E+00
         0.00000E+00
         0.00000E+00
         0.00000E+00
         0.00000E+00
         0.00000E+00
         0.00000E+00
         0.00000E+00
         0.00000E+00
         0.00000E+00
         0.00000E+00
         0.00000E+00
         0.00000E+00
         0.00000E+00
         0.00000E+00
         0.00000E+00
         0.00000E+00
         0.00000E+00
         0.00000E+00
         0.00000E+00
         0.00000E+00
         0.00000E+00
         0.00000E+00
         0.00000E+00
         0.00000E+00
         0.00000E+00
         0.00000E+00
         0.00000E+00
         0.00000E+00
         0.00000E+00
         0.00000E+00
         0.00000E+00
         0.00000E+00
         0.00000E+00
         0.00000E+00
         0.00000E+00
         0.00000E+00
         0.00000E+00
         0.00000E+00
         0.00000E+00
         0.00000E+00
         0.00000E+00
         0.00000E+00
         0.00000E+00
         0.00000E+00
         0.00000E+00
         0.00000E+00
         0.00000E+00
         0.00000E+00
         0.00000E+00
         0.00000E+00
         0.00000E+00
         0.00000E+00
         0.00000E+00
         0.00000E+00
         0.00000E+00
         0.00000E+00
         0.00000E+00
         0.00000E+00
         0.00000E+00
         0.00000E+00
         0.00000E+00
         0.00000E+00
         0.00000E+00
         0.00000E+00
         0.00000E+00
         0.00000E+00
         0.00000E+00
         0.00000E+00
         0.00000E+00
         0.00000E+00
         0.00000E+00
         0.00000E+00
         0.00000E+00
         0.00000E+00
         0.00000E+00
         0.00000E+00
         0.00000E+00
         0.00000E+00
         0.00000E+00
         0.00000E+00
         0.00000E+00
         0.00000E+00
         0.00000E+00
         0.00000E+00
         0.00000E+00
         0.00000E+00
         0.00000E+00
         0.00000E+00
         0.00000E+00
         0.00000E+00
         0.00000E+00
         0.00000E+00
         0.00000E+00
         0.00000E+00
         0.00000E+00
         0.00000E+00
         0.00000E+00
         0.00000E+00
         0.00000E+00
         0.00000E+00
         0.00000E+00
         0.00000E+00
         0.00000E+00
         0.00000E+00
         0.00000E+00
         0.00000E+00
         0.00000E+00
         0.00000E+00
         0.00000E+00
         0.00000E+00
         0.00000E+00
         0.00000E+00
         0.00000E+00
         0.00000E+00
         0.00000E+00
         0.00000E+00
         0.00000E+00
         0.00000E+00
         0.00000E+00
         0.00000E+00
         0.00000E+00
         0.00000E+00
         0.00000E+00
         0.00000E+00
         0.00000E+00
         0.00000E+00
         0.00000E+00
         0.00000E+00
         0.00000E+00
         0.00000E+00
         0.00000E+00
         0.00000E+00
         0.00000E+00
         0.00000E+00
         0.00000E+00
         0.00000E+00
         0.00000E+00
         0.00000E+00
         0.00000E+00
         0.00000E+00
         0.00000E+00
         0.00000E+00
         0.00000E+00
         0.00000E+00
         0.00000E+00
         0.00000E+00
         0.00000E+00
         0.00000E+00
         0.00000E+00
         0.00000E+00
         0.00000E+00
         0.00000E+00
         0.00000E+00
         0.00000E+00
         0.00000E+00
         0.00000E+00
         0.00000E+00
         0.00000E+00
         0.00000E+00
         0.00000E+00
         0.00000E+00
         0.00000E+00
         0.00000E+00
         0.00000E+00
         0.00000E+00
         0.00000E+00
         0.00000E+00
         0.00000E+00
         0.00000E+00
         0.00000E+00
         0.00000E+00
         0.00000E+00
         0.00000E+00
         0.00000E+00
         0.00000E+00
         0.00000E+00
         0.00000E+00
         0.00000E+00
         0.00000E+00
         0.00000E+00
         0.00000E+00
         0.00000E+00
         0.00000E+00
         0.00000E+00
         0.00000E+00
         0.00000E+00
         0.00000E+00
         0.00000E+00
         0.00000E+00
         0.00000E+00
         0.00000E+00
         0.00000E+00
         0.00000E+00
         0.00000E+00
         0.00000E+00
         0.00000E+00
         0.00000E+00
         0.00000E+00
         0.00000E+00
         0.00000E+00
         0.00000E+00
         0.00000E+00
         0.00000E+00
         0.00000E+00
         0.00000E+00
         0.00000E+00
         0.00000E+00
         0.00000E+00
         0.00000E+00
         0.00000E+00
         0.00000E+00
         0.00000E+00
         0.00000E+00
         0.00000E+00
         0.00000E+00
         0.00000E+00
         0.00000E+00
         0.00000E+00
         0.00000E+00
         0.00000E+00
         0.00000E+00
         0.00000E+00
         0.00000E+00
         0.00000E+00
         0.00000E+00
         0.00000E+00
         0.00000E+00
         0.00000E+00
         0.00000E+00
         0.00000E+00
         0.00000E+00
         0.00000E+00
         0.00000E+00
         0.00000E+00
         0.00000E+00
         0.00000E+00
         0.00000E+00
         0.00000E+00
         0.00000E+00
         0.00000E+00
         0.00000E+00
         0.00000E+00
         0.00000E+00
         0.00000E+00
         0.00000E+00
         0.00000E+00
         0.00000E+00
         0.00000E+00
         0.00000E+00
         0.00000E+00
         0.00000E+00
         0.00000E+00
         0.00000E+00
         0.00000E+00
         0.00000E+00
         0.00000E+00
         0.00000E+00
         0.00000E+00
         0.00000E+00
         0.00000E+00
         0.00000E+00
         0.00000E+00
         0.00000E+00
         0.00000E+00
         0.00000E+00
         0.00000E+00
         0.00000E+00
         0.00000E+00
         0.00000E+00
         0.00000E+00
         0.00000E+00
         0.00000E+00
         0.00000E+00
         0.00000E+00
         0.00000E+00
         0.00000E+00
         0.00000E+00
         0.00000E+00
         0.00000E+00
         0.00000E+00
         0.00000E+00
         0.00000E+00
         0.00000E+00
         0.00000E+00
         0.00000E+00
         0.00000E+00
         0.00000E+00
         0.00000E+00
         0.00000E+00
         0.00000E+00
         0.00000E+00
         0.00000E+00
         0.00000E+00
         0.00000E+00
         0.00000E+00
         0.00000E+00
         0.00000E+00
         0.00000E+00
         0.00000E+00
         0.00000E+00
         0.00000E+00
         0.00000E+00
         0.00000E+00
         0.00000E+00
         0.00000E+00
         0.00000E+00
         0.00000E+00
         0.00000E+00
         0.00000E+00
         0.00000E+00
         0.00000E+00
         0.00000E+00
         0.00000E+00
         0.00000E+00
         0.00000E+00
         0.00000E+00
         0.00000E+00
         0.00000E+00
         0.00000E+00
         0.00000E+00
         0.00000E+00
         0.00000E+00
         0.00000E+00
         0.00000E+00
         0.00000E+00
         0.00000E+00
         0.00000E+00
         0.00000E+00
         0.00000E+00
         0.00000E+00
         0.00000E+00
         0.00000E+00
         0.00000E+00
         0.00000E+00
         0.00000E+00
         0.00000E+00
         0.00000E+00
         0.00000E+00
         0.00000E+00
         0.00000E+00
         0.00000E+00
         0.00000E+00
         0.00000E+00
         0.00000E+00
         0.00000E+00
         0.00000E+00
         0.00000E+00
         0.00000E+00
         0.00000E+00
         0.00000E+00
         0.00000E+00
         0.00000E+00
         0.00000E+00
         0.00000E+00
         0.00000E+00
         0.00000E+00
         0.00000E+00
         0.00000E+00
         0.00000E+00
         0.00000E+00
         0.00000E+00
         0.00000E+00
         0.00000E+00
         0.00000E+00
         0.00000E+00
         0.00000E+00
         0.00000E+00
         0.00000E+00
         0.00000E+00
         0.00000E+00
         0.00000E+00
         0.00000E+00
         0.00000E+00
         0.00000E+00
         0.00000E+00
         0.00000E+00
         0.00000E+00
         0.00000E+00
         0.00000E+00
         0.00000E+00
         0.00000E+00
         0.00000E+00
         0.00000E+00
         0.00000E+00
         0.00000E+00
         0.00000E+00
         0.00000E+00
         0.00000E+00
         0.00000E+00
         0.00000E+00
         0.00000E+00
         0.00000E+00
         0.00000E+00
         0.00000E+00
         0.00000E+00
         0.00000E+00
         0.00000E+00
         0.00000E+00
         0.00000E+00
         0.00000E+00
         0.00000E+00
         0.00000E+00
         0.00000E+00
         0.00000E+00
         0.00000E+00
         0.00000E+00
         0.00000E+00
         0.00000E+00
         0.00000E+00
         0.00000E+00
         0.00000E+00
         0.00000E+00
         0.00000E+00
         0.00000E+00
         0.00000E+00
         0.00000E+00
         0.00000E+00
         0.00000E+00
         0.00000E+00
         0.00000E+00
         0.00000E+00
         0.00000E+00
         0.00000E+00
         0.00000E+00
         0.00000E+00
         0.00000E+00
         0.00000E+00
         0.00000E+00
         0.00000E+00
         0.00000E+00
         0.00000E+00
         0.00000E+00
         0.00000E+00
         0.00000E+00
         0.00000E+00
         0.00000E+00
         0.00000E+00
         0.00000E+00
         0.00000E+00
         0.00000E+00
         0.00000E+00
         0.00000E+00
         0.00000E+00
         0.00000E+00
         0.00000E+00
         0.00000E+00
         0.00000E+00
         0.00000E+00
         0.00000E+00
         0.00000E+00
         0.00000E+00
         0.00000E+00
         0.00000E+00
         0.00000E+00
         0.00000E+00
         0.00000E+00
         0.00000E+00
         0.00000E+00
         0.00000E+00
         0.00000E+00
         0.00000E+00
         0.00000E+00
         0.00000E+00
         0.00000E+00
         0.00000E+00
         0.00000E+00
         0.00000E+00
         0.00000E+00
         0.00000E+00
         0.00000E+00
         0.00000E+00
         0.00000E+00
         0.00000E+00
         0.00000E+00
         0.00000E+00
         0.00000E+00
         0.00000E+00
         0.00000E+00
         0.00000E+00
         0.00000E+00
         0.00000E+00
         0.00000E+00
         0.00000E+00
         0.00000E+00
         0.00000E+00
         0.00000E+00
         0.00000E+00
         0.00000E+00
         0.00000E+00
         0.00000E+00
         0.00000E+00
         0.00000E+00
         0.00000E+00
         0.00000E+00
         0.00000E+00
         0.00000E+00
         0.00000E+00
         0.00000E+00
         0.00000E+00
         0.00000E+00
         0.00000E+00
         0.00000E+00
         0.00000E+00
         0.00000E+00
         0.00000E+00
         0.00000E+00
         0.00000E+00
         0.00000E+00
         0.00000E+00
         0.00000E+00
         0.00000E+00
         0.00000E+00
         0.00000E+00
         0.00000E+00
         0.00000E+00
         0.00000E+00
         0.00000E+00
         0.00000E+00
         0.00000E+00
         0.00000E+00
         0.00000E+00
         0.00000E+00
         0.00000E+00
         0.00000E+00
         0.00000E+00
         0.00000E+00
         0.00000E+00
         0.00000E+00
         0.00000E+00
         0.00000E+00
         0.00000E+00
         0.00000E+00
         0.00000E+00
         0.00000E+00
         0.00000E+00
         0.00000E+00
         0.00000E+00
         0.00000E+00
         0.00000E+00
         0.00000E+00
         0.00000E+00
         0.00000E+00
         0.00000E+00
         0.00000E+00
         0.00000E+00
         0.00000E+00
         0.00000E+00
         0.00000E+00
         0.00000E+00
         0.00000E+00
         0.00000E+00
         0.00000E+00
         0.00000E+00
         0.00000E+00
         0.00000E+00
         0.00000E+00
         0.00000E+00
         0.00000E+00
         0.00000E+00
         0.00000E+00
         0.00000E+00
         0.00000E+00
         0.00000E+00
         0.00000E+00
         0.00000E+00
         0.00000E+00
         0.00000E+00
         0.00000E+00
         0.00000E+00
         0.00000E+00
         0.00000E+00
         0.00000E+00
         0.00000E+00
         0.00000E+00
         0.00000E+00
         0.00000E+00
         0.00000E+00
         0.00000E+00
         0.00000E+00
         0.00000E+00
         0.00000E+00
         0.00000E+00
         0.00000E+00
         0.00000E+00
         0.00000E+00
         0.00000E+00
         0.00000E+00
         0.00000E+00
         0.00000E+00
         0.00000E+00
         0.00000E+00
         0.00000E+00
         0.00000E+00
         0.00000E+00
         0.00000E+00
         0.00000E+00
         0.00000E+00
         0.00000E+00
         0.00000E+00
         0.00000E+00
         0.00000E+00
         0.00000E+00
         0.00000E+00
         0.00000E+00
         0.00000E+00
         0.00000E+00
         0.00000E+00
         0.00000E+00
         0.00000E+00
         0.00000E+00
         0.00000E+00
         0.00000E+00
         0.00000E+00
         0.00000E+00
         0.00000E+00
         0.00000E+00
         0.00000E+00
         0.00000E+00
         0.00000E+00
         0.00000E+00
         0.00000E+00
         0.00000E+00
         0.00000E+00
         0.00000E+00
         0.00000E+00
         0.00000E+00
         0.00000E+00
         0.00000E+00
         0.00000E+00
         0.00000E+00
         0.00000E+00
         0.00000E+00
         0.00000E+00
         0.00000E+00
         0.00000E+00
         0.00000E+00
         0.00000E+00
         0.00000E+00
         0.00000E+00
         0.00000E+00
         0.00000E+00
         0.00000E+00
         0.00000E+00
         0.00000E+00
         0.00000E+00
         0.00000E+00
         0.00000E+00
         0.00000E+00
         0.00000E+00
         0.00000E+00
         0.00000E+00
         0.00000E+00
         0.00000E+00
         0.00000E+00
         0.00000E+00
         0.00000E+00
         0.00000E+00
         0.00000E+00
         0.00000E+00
         0.00000E+00
         0.00000E+00
         0.00000E+00
         0.00000E+00
         0.00000E+00
         0.00000E+00
         0.00000E+00
         0.00000E+00
         0.00000E+00
         0.00000E+00
         0.00000E+00
         0.00000E+00
         0.00000E+00
         0.00000E+00
         0.00000E+00
         0.00000E+00
         0.00000E+00
         0.00000E+00
         0.00000E+00
         0.00000E+00
         0.00000E+00
         0.00000E+00
         0.00000E+00
         0.00000E+00
         0.00000E+00
         0.00000E+00
         0.00000E+00
         0.00000E+00
         0.00000E+00
         0.00000E+00
         0.00000E+00
         0.00000E+00
         0.00000E+00
         0.00000E+00
         0.00000E+00
         0.00000E+00
         0.00000E+00
         0.00000E+00
         0.00000E+00
         0.00000E+00
         0.00000E+00
         0.00000E+00
         0.00000E+00
         0.00000E+00
         0.00000E+00
         0.00000E+00
         0.00000E+00
         0.00000E+00
         0.00000E+00
         0.00000E+00
         0.00000E+00
         0.00000E+00
         0.00000E+00
         0.00000E+00
         0.00000E+00
         0.00000E+00
         0.00000E+00
         0.00000E+00
         0.00000E+00
         0.00000E+00
         0.00000E+00
         0.00000E+00
         0.00000E+00
         0.00000E+00
         0.00000E+00
         0.00000E+00
         0.00000E+00
         0.00000E+00
         0.00000E+00
         0.00000E+00
         0.00000E+00
         0.00000E+00
         0.00000E+00
         0.00000E+00
         0.00000E+00
         0.00000E+00
         0.00000E+00
         0.00000E+00
         0.00000E+00
         0.00000E+00
         0.00000E+00
         0.00000E+00
         0.00000E+00
         0.00000E+00
         0.00000E+00
         0.00000E+00
         0.00000E+00
         0.00000E+00
         0.00000E+00
         0.00000E+00
         0.00000E+00
         0.00000E+00
         0.00000E+00
         0.00000E+00
         0.00000E+00
         0.00000E+00
         0.00000E+00
         0.00000E+00
         0.00000E+00
         0.00000E+00
         0.00000E+00
         0.00000E+00
         0.00000E+00
         0.00000E+00
         0.00000E+00
         0.00000E+00
         0.00000E+00
         0.00000E+00
         0.00000E+00
         0.00000E+00
         0.00000E+00
         0.00000E+00
         0.00000E+00
         0.00000E+00
         0.00000E+00
         0.00000E+00
         0.00000E+00
         0.00000E+00
         0.00000E+00
         0.00000E+00
         0.00000E+00
         0.00000E+00
         0.00000E+00
         0.00000E+00
         0.00000E+00
         0.00000E+00
         0.00000E+00
         0.00000E+00
         0.00000E+00
         0.00000E+00
         0.00000E+00
         0.00000E+00
         0.00000E+00
         0.00000E+00
         0.00000E+00
         0.00000E+00
         0.00000E+00
         0.00000E+00
         0.00000E+00
         0.00000E+00
         0.00000E+00
         0.00000E+00
         0.00000E+00
         0.00000E+00
         0.00000E+00
         0.00000E+00
         0.00000E+00
         0.00000E+00
         0.00000E+00
         0.00000E+00
         0.00000E+00
         0.00000E+00
         0.00000E+00
         0.00000E+00
         0.00000E+00
         0.00000E+00
         0.00000E+00
         0.00000E+00
         0.00000E+00
         0.00000E+00
         0.00000E+00
         0.00000E+00
         0.00000E+00
         0.00000E+00
         0.00000E+00
         0.00000E+00
         0.00000E+00
         0.00000E+00
         0.00000E+00
         0.00000E+00
         0.00000E+00
         0.00000E+00
         0.00000E+00
         0.00000E+00
         0.00000E+00
         0.00000E+00
         0.00000E+00
         0.00000E+00
         0.00000E+00
         0.00000E+00
         0.00000E+00
         0.00000E+00
         0.00000E+00
         0.00000E+00
         0.00000E+00
         0.00000E+00
         0.00000E+00
         0.00000E+00
         0.00000E+00
         0.00000E+00
         0.00000E+00
         0.00000E+00
         0.00000E+00
         0.00000E+00
         0.00000E+00
         0.00000E+00
         0.00000E+00
         0.00000E+00
         0.00000E+00
         0.00000E+00
         0.00000E+00
         0.00000E+00
         0.00000E+00
         0.00000E+00
         0.00000E+00
         0.00000E+00
         0.00000E+00
         0.00000E+00
         0.00000E+00
         0.00000E+00
         0.00000E+00
         0.00000E+00
         0.00000E+00
         0.00000E+00
         0.00000E+00
         0.00000E+00
         0.00000E+00
         0.00000E+00
         0.00000E+00
         0.00000E+00
         0.00000E+00
         0.00000E+00
         0.00000E+00
         0.00000E+00
         0.00000E+00
         0.00000E+00
         0.00000E+00
         0.00000E+00
         0.00000E+00
         0.00000E+00
         0.00000E+00
         0.00000E+00
         0.00000E+00
         0.00000E+00
         0.00000E+00
         0.00000E+00
         0.00000E+00
         0.00000E+00
         0.00000E+00
         0.00000E+00
         0.00000E+00
         0.00000E+00
         0.00000E+00
         0.00000E+00
         0.00000E+00
         0.00000E+00
         0.00000E+00
         0.00000E+00
         0.00000E+00
         0.00000E+00
         0.00000E+00
         0.00000E+00
         0.00000E+00
         0.00000E+00
         0.00000E+00
         0.00000E+00
         0.00000E+00
         0.00000E+00
         0.00000E+00
         0.00000E+00
         0.00000E+00
         0.00000E+00
         0.00000E+00
         0.00000E+00
         0.00000E+00
         0.00000E+00
         0.00000E+00
         0.00000E+00
         0.00000E+00
         0.00000E+00
         0.00000E+00
         0.00000E+00
         0.00000E+00
         0.00000E+00
         0.00000E+00
         0.00000E+00
         0.00000E+00
         0.00000E+00
         0.00000E+00
         0.00000E+00
         0.00000E+00
         0.00000E+00
         0.00000E+00
         0.00000E+00
         0.00000E+00
         0.00000E+00
         0.00000E+00
         0.00000E+00
         0.00000E+00
         0.00000E+00
         0.00000E+00
         0.00000E+00
         0.00000E+00
         0.00000E+00
         0.00000E+00
         0.00000E+00
         0.00000E+00
         0.00000E+00
         0.00000E+00
         0.00000E+00
         0.00000E+00
         0.00000E+00
         0.00000E+00
         0.00000E+00
         0.00000E+00
         0.00000E+00
         0.00000E+00
         0.00000E+00
         0.00000E+00
         0.00000E+00
         0.00000E+00
         0.00000E+00
         0.00000E+00
         0.00000E+00
         0.00000E+00
         0.00000E+00
         0.00000E+00
         0.00000E+00
         0.00000E+00
         0.00000E+00
         0.00000E+00
         0.00000E+00
         0.00000E+00
         0.00000E+00
         0.00000E+00
         0.00000E+00
         0.00000E+00
         0.00000E+00
         0.00000E+00
         0.00000E+00
         0.00000E+00
         0.00000E+00
         0.00000E+00
         0.00000E+00
         0.00000E+00
         0.00000E+00
         0.00000E+00
         0.00000E+00
         0.00000E+00
         0.00000E+00
         0.00000E+00
         0.00000E+00
         0.00000E+00
         0.00000E+00
         0.00000E+00
         0.00000E+00
         0.00000E+00
         0.00000E+00
         0.00000E+00
         0.00000E+00
         0.00000E+00
         0.00000E+00
         0.00000E+00
         0.00000E+00
         0.00000E+00
         0.00000E+00
         0.00000E+00
         0.00000E+00
         0.00000E+00
         0.00000E+00
         0.00000E+00
         0.00000E+00
         0.00000E+00
         0.00000E+00
         0.00000E+00
         0.00000E+00
         0.00000E+00
         0.00000E+00
         0.00000E+00
         0.00000E+00
         0.00000E+00
         0.00000E+00
         0.00000E+00
         0.00000E+00
         0.00000E+00
         0.00000E+00
         0.00000E+00
         0.00000E+00
         0.00000E+00
         0.00000E+00
         0.00000E+00
         0.00000E+00
         0.00000E+00
         0.00000E+00
         0.00000E+00
         0.00000E+00
         0.00000E+00
         0.00000E+00
         0.00000E+00
         0.00000E+00
         0.00000E+00
         0.00000E+00
         0.00000E+00
         0.00000E+00
         0.00000E+00
         0.00000E+00
         0.00000E+00
         0.00000E+00
         0.00000E+00
         0.00000E+00
         0.00000E+00
         0.00000E+00
         0.00000E+00
         0.00000E+00
         0.00000E+00
         0.00000E+00
         0.00000E+00
         0.00000E+00
         0.00000E+00
         0.00000E+00
         0.00000E+00
         0.00000E+00
         0.00000E+00
         0.00000E+00
         0.00000E+00
         0.00000E+00
         0.00000E+00
         0.00000E+00
         0.00000E+00
         0.00000E+00
         0.00000E+00
         0.00000E+00
         0.00000E+00
         0.00000E+00
         0.00000E+00
         0.00000E+00
         0.00000E+00
         0.00000E+00
         0.00000E+00
         0.00000E+00
         0.00000E+00
         0.00000E+00
         0.00000E+00
         0.00000E+00
         0.00000E+00
         0.00000E+00
         0.00000E+00
         0.00000E+00
         0.00000E+00
         0.00000E+00
         0.00000E+00
         0.00000E+00
         0.00000E+00
         0.00000E+00
         0.00000E+00
         0.00000E+00
         0.00000E+00
         0.00000E+00
         0.00000E+00
         0.00000E+00
         0.00000E+00
         0.00000E+00
         0.00000E+00
         0.00000E+00
         0.00000E+00
         0.00000E+00
         0.00000E+00
         0.00000E+00
         0.00000E+00
         0.00000E+00
         0.00000E+00
         0.00000E+00
         0.00000E+00
         0.00000E+00
         0.00000E+00
         0.00000E+00
         0.00000E+00
         0.00000E+00
         0.00000E+00
         0.00000E+00
         0.00000E+00
         0.00000E+00
         0.00000E+00
         0.00000E+00
         0.00000E+00
         0.00000E+00
         0.00000E+00
         0.00000E+00
         0.00000E+00
         0.00000E+00
         0.00000E+00
         0.00000E+00
         0.00000E+00
         0.00000E+00
         0.00000E+00
         0.00000E+00
         0.00000E+00
         0.00000E+00
         0.00000E+00
         0.00000E+00
         0.00000E+00
         0.00000E+00
         0.00000E+00
         0.00000E+00
         0.00000E+00
         0.00000E+00
         0.00000E+00
         0.00000E+00
         0.00000E+00
         0.00000E+00
         0.00000E+00
         0.00000E+00
         0.00000E+00
         0.00000E+00
         0.00000E+00
         0.00000E+00
         0.00000E+00
         0.00000E+00
         0.00000E+00
         0.00000E+00
         0.00000E+00
         0.00000E+00
         0.00000E+00
         0.00000E+00
         0.00000E+00
         0.00000E+00
         0.00000E+00
         0.00000E+00
         0.00000E+00
         0.00000E+00
         0.00000E+00
         0.00000E+00
         0.00000E+00
         0.00000E+00
         0.00000E+00
         0.00000E+00
         0.00000E+00
         0.00000E+00
         0.00000E+00
         0.00000E+00
         0.00000E+00
         0.00000E+00
         0.00000E+00
         0.00000E+00
         0.00000E+00
         0.00000E+00
         0.00000E+00
         0.00000E+00
         0.00000E+00
         0.00000E+00
         0.00000E+00
         0.00000E+00
         0.00000E+00
         0.00000E+00
         0.00000E+00
         0.00000E+00
         0.00000E+00
         0.00000E+00
         0.00000E+00
         0.00000E+00
         0.00000E+00
         0.00000E+00
         0.00000E+00
         0.00000E+00
         0.00000E+00
         0.00000E+00
         0.00000E+00
         0.00000E+00
         0.00000E+00
         0.00000E+00
         0.00000E+00
         0.00000E+00
         0.00000E+00
         0.00000E+00
         0.00000E+00
         0.00000E+00
         0.00000E+00
         0.00000E+00
         0.00000E+00
         0.00000E+00
         0.00000E+00
         0.00000E+00
         0.00000E+00
         0.00000E+00
         0.00000E+00
         0.00000E+00
         0.00000E+00
         0.00000E+00
         0.00000E+00
         0.00000E+00
         0.00000E+00
         0.00000E+00
         0.00000E+00
         0.00000E+00
         0.00000E+00
         0.00000E+00
         0.00000E+00
         0.00000E+00
         0.00000E+00
         0.00000E+00
         0.00000E+00
         0.00000E+00
         0.00000E+00
         0.00000E+00
         0.00000E+00
         0.00000E+00
         0.00000E+00
         0.00000E+00
         0.00000E+00
         0.00000E+00
         0.00000E+00
         0.00000E+00
         0.00000E+00
         0.00000E+00
         0.00000E+00
         0.00000E+00
         0.00000E+00
         0.00000E+00
         0.00000E+00
         0.00000E+00
         0.00000E+00
         0.00000E+00
         0.00000E+00
         0.00000E+00
         0.00000E+00
         0.00000E+00
         0.00000E+00
         0.00000E+00
         0.00000E+00
         0.00000E+00
         0.00000E+00
         0.00000E+00
         0.00000E+00
         0.00000E+00
         0.00000E+00
         0.00000E+00
         0.00000E+00
         0.00000E+00
         0.00000E+00
         0.00000E+00
         0.00000E+00
         0.00000E+00
         0.00000E+00
         0.00000E+00
         0.00000E+00
         0.00000E+00
         0.00000E+00
         0.00000E+00
         0.00000E+00
         0.00000E+00
         0.00000E+00
         0.00000E+00
         0.00000E+00
         0.00000E+00
         0.00000E+00
         0.00000E+00
         0.00000E+00
         0.00000E+00
         0.00000E+00
         0.00000E+00
         0.00000E+00
         0.00000E+00
         0.00000E+00
         0.00000E+00
         0.00000E+00
         0.00000E+00
         0.00000E+00
         0.00000E+00
         0.00000E+00
         0.00000E+00
         0.00000E+00
         0.00000E+00
         0.00000E+00
         0.00000E+00
         0.00000E+00
         0.00000E+00
         0.00000E+00
         0.00000E+00
         0.00000E+00
         0.00000E+00
         0.00000E+00
         0.00000E+00
         0.00000E+00
         0.00000E+00
         0.00000E+00
         0.00000E+00
         0.00000E+00
         0.00000E+00
         0.00000E+00
         0.00000E+00
         0.00000E+00
         0.00000E+00
         0.00000E+00
         0.00000E+00
         0.00000E+00
         0.00000E+00
         0.00000E+00
         0.00000E+00
         0.00000E+00
         0.00000E+00
         0.00000E+00
         0.00000E+00
         0.00000E+00
         0.00000E+00
         0.00000E+00
         0.00000E+00
         0.00000E+00
         0.00000E+00
         0.00000E+00
         0.00000E+00
         0.00000E+00
         0.00000E+00
         0.00000E+00
         0.00000E+00
         0.00000E+00
         0.00000E+00
         0.00000E+00
         0.00000E+00
         0.00000E+00
         0.00000E+00
         0.00000E+00
         0.00000E+00
         0.00000E+00
         0.00000E+00
         0.00000E+00
         0.00000E+00
         0.00000E+00
         0.00000E+00
         0.00000E+00
         0.00000E+00
         0.00000E+00
         0.00000E+00
         0.00000E+00
         0.00000E+00
         0.00000E+00
         0.00000E+00
         0.00000E+00
         0.00000E+00
         0.00000E+00
         0.00000E+00
         0.00000E+00
         0.00000E+00
         0.00000E+00
         0.00000E+00
         0.00000E+00
         0.00000E+00
         0.00000E+00
         0.00000E+00
         0.00000E+00
         0.00000E+00
         0.00000E+00
         0.00000E+00
         0.00000E+00
         0.00000E+00
         0.00000E+00
         0.00000E+00
         0.00000E+00
         0.00000E+00
         0.00000E+00
         0.00000E+00
         0.00000E+00
         0.00000E+00
         0.00000E+00
         0.00000E+00
         0.00000E+00
         0.00000E+00
         0.00000E+00
         0.00000E+00
         0.00000E+00
         0.00000E+00
         0.00000E+00
         0.00000E+00
         0.00000E+00
         0.00000E+00
         0.00000E+00
         0.00000E+00
         0.00000E+00
         0.00000E+00
         0.00000E+00
         0.00000E+00
         0.00000E+00
         0.00000E+00
         0.00000E+00
         0.00000E+00
         0.00000E+00
         0.00000E+00
         0.00000E+00
         0.00000E+00
         0.00000E+00
         0.00000E+00
         0.00000E+00
         0.00000E+00
         0.00000E+00
         0.00000E+00
         0.00000E+00
         0.00000E+00
         0.00000E+00
         0.00000E+00
         0.00000E+00
         0.00000E+00
  
SCALARS                         fint_z  double 1
LOOKUP_TABLE default
         0.00000E+00
         0.00000E+00
         0.00000E+00
         0.00000E+00
         0.00000E+00
         0.00000E+00
         0.00000E+00
         0.00000E+00
         0.00000E+00
         0.00000E+00
         0.00000E+00
         0.00000E+00
         0.00000E+00
         0.00000E+00
         0.00000E+00
         0.00000E+00
         0.00000E+00
         0.00000E+00
         0.00000E+00
         0.00000E+00
         0.00000E+00
         0.00000E+00
         0.00000E+00
         0.00000E+00
         0.00000E+00
         0.00000E+00
         0.00000E+00
         0.00000E+00
         0.00000E+00
         0.00000E+00
         0.00000E+00
         0.00000E+00
         0.00000E+00
         0.00000E+00
         0.00000E+00
         0.00000E+00
         0.00000E+00
         0.00000E+00
         0.00000E+00
         0.00000E+00
         0.00000E+00
         0.00000E+00
         0.00000E+00
         0.00000E+00
         0.00000E+00
         0.00000E+00
         0.00000E+00
         0.00000E+00
         0.00000E+00
         0.00000E+00
         0.00000E+00
         0.00000E+00
         0.00000E+00
         0.00000E+00
         0.00000E+00
         0.00000E+00
         0.00000E+00
         0.00000E+00
         0.00000E+00
         0.00000E+00
         0.00000E+00
         0.00000E+00
         0.00000E+00
         0.00000E+00
         0.00000E+00
         0.00000E+00
         0.00000E+00
         0.00000E+00
         0.00000E+00
         0.00000E+00
         0.00000E+00
         0.00000E+00
         0.00000E+00
         0.00000E+00
         0.00000E+00
         0.00000E+00
         0.00000E+00
         0.00000E+00
         0.00000E+00
         0.00000E+00
         0.00000E+00
         0.00000E+00
         0.00000E+00
         0.00000E+00
         0.00000E+00
         0.00000E+00
         0.00000E+00
         0.00000E+00
         0.00000E+00
         0.00000E+00
         0.00000E+00
         0.00000E+00
         0.00000E+00
         0.00000E+00
         0.00000E+00
         0.00000E+00
         0.00000E+00
         0.00000E+00
         0.00000E+00
         0.00000E+00
         0.00000E+00
         0.00000E+00
         0.00000E+00
         0.00000E+00
         0.00000E+00
         0.00000E+00
         0.00000E+00
         0.00000E+00
         0.00000E+00
         0.00000E+00
         0.00000E+00
         0.00000E+00
         0.00000E+00
         0.00000E+00
         0.00000E+00
         0.00000E+00
         0.00000E+00
         0.00000E+00
         0.00000E+00
         0.00000E+00
         0.00000E+00
         0.00000E+00
         0.00000E+00
         0.00000E+00
         0.00000E+00
         0.00000E+00
         0.00000E+00
         0.00000E+00
         0.00000E+00
         0.00000E+00
         0.00000E+00
         0.00000E+00
         0.00000E+00
         0.00000E+00
         0.00000E+00
         0.00000E+00
         0.00000E+00
         0.00000E+00
         0.00000E+00
         0.00000E+00
         0.00000E+00
         0.00000E+00
         0.00000E+00
         0.00000E+00
         0.00000E+00
         0.00000E+00
         0.00000E+00
         0.00000E+00
         0.00000E+00
         0.00000E+00
         0.00000E+00
         0.00000E+00
         0.00000E+00
         0.00000E+00
         0.00000E+00
         0.00000E+00
         0.00000E+00
         0.00000E+00
         0.00000E+00
         0.00000E+00
         0.00000E+00
         0.00000E+00
         0.00000E+00
         0.00000E+00
         0.00000E+00
         0.00000E+00
         0.00000E+00
         0.00000E+00
         0.00000E+00
         0.00000E+00
         0.00000E+00
         0.00000E+00
         0.00000E+00
         0.00000E+00
         0.00000E+00
         0.00000E+00
         0.00000E+00
         0.00000E+00
         0.00000E+00
         0.00000E+00
         0.00000E+00
         0.00000E+00
         0.00000E+00
         0.00000E+00
         0.00000E+00
         0.00000E+00
         0.00000E+00
         0.00000E+00
         0.00000E+00
         0.00000E+00
         0.00000E+00
         0.00000E+00
         0.00000E+00
         0.00000E+00
         0.00000E+00
         0.00000E+00
         0.00000E+00
         0.00000E+00
         0.00000E+00
         0.00000E+00
         0.00000E+00
         0.00000E+00
         0.00000E+00
         0.00000E+00
         0.00000E+00
         0.00000E+00
         0.00000E+00
         0.00000E+00
         0.00000E+00
         0.00000E+00
         0.00000E+00
         0.00000E+00
         0.00000E+00
         0.00000E+00
         0.00000E+00
         0.00000E+00
         0.00000E+00
         0.00000E+00
         0.00000E+00
         0.00000E+00
         0.00000E+00
         0.00000E+00
         0.00000E+00
         0.00000E+00
         0.00000E+00
         0.00000E+00
         0.00000E+00
         0.00000E+00
         0.00000E+00
         0.00000E+00
         0.00000E+00
         0.00000E+00
         0.00000E+00
         0.00000E+00
         0.00000E+00
         0.00000E+00
         0.00000E+00
         0.00000E+00
         0.00000E+00
         0.00000E+00
         0.00000E+00
         0.00000E+00
         0.00000E+00
         0.00000E+00
         0.00000E+00
         0.00000E+00
         0.00000E+00
         0.00000E+00
         0.00000E+00
         0.00000E+00
         0.00000E+00
         0.00000E+00
         0.00000E+00
         0.00000E+00
         0.00000E+00
         0.00000E+00
         0.00000E+00
         0.00000E+00
         0.00000E+00
         0.00000E+00
         0.00000E+00
         0.00000E+00
         0.00000E+00
         0.00000E+00
         0.00000E+00
         0.00000E+00
         0.00000E+00
         0.00000E+00
         0.00000E+00
         0.00000E+00
         0.00000E+00
         0.00000E+00
         0.00000E+00
         0.00000E+00
         0.00000E+00
         0.00000E+00
         0.00000E+00
         0.00000E+00
         0.00000E+00
         0.00000E+00
         0.00000E+00
         0.00000E+00
         0.00000E+00
         0.00000E+00
         0.00000E+00
         0.00000E+00
         0.00000E+00
         0.00000E+00
         0.00000E+00
         0.00000E+00
         0.00000E+00
         0.00000E+00
         0.00000E+00
         0.00000E+00
         0.00000E+00
         0.00000E+00
         0.00000E+00
         0.00000E+00
         0.00000E+00
         0.00000E+00
         0.00000E+00
         0.00000E+00
         0.00000E+00
         0.00000E+00
         0.00000E+00
         0.00000E+00
         0.00000E+00
         0.00000E+00
         0.00000E+00
         0.00000E+00
         0.00000E+00
         0.00000E+00
         0.00000E+00
         0.00000E+00
         0.00000E+00
         0.00000E+00
         0.00000E+00
         0.00000E+00
         0.00000E+00
         0.00000E+00
         0.00000E+00
         0.00000E+00
         0.00000E+00
         0.00000E+00
         0.00000E+00
         0.00000E+00
         0.00000E+00
         0.00000E+00
         0.00000E+00
         0.00000E+00
         0.00000E+00
         0.00000E+00
         0.00000E+00
         0.00000E+00
         0.00000E+00
         0.00000E+00
         0.00000E+00
         0.00000E+00
         0.00000E+00
         0.00000E+00
         0.00000E+00
         0.00000E+00
         0.00000E+00
         0.00000E+00
         0.00000E+00
         0.00000E+00
         0.00000E+00
         0.00000E+00
         0.00000E+00
         0.00000E+00
         0.00000E+00
         0.00000E+00
         0.00000E+00
         0.00000E+00
         0.00000E+00
         0.00000E+00
         0.00000E+00
         0.00000E+00
         0.00000E+00
         0.00000E+00
         0.00000E+00
         0.00000E+00
         0.00000E+00
         0.00000E+00
         0.00000E+00
         0.00000E+00
         0.00000E+00
         0.00000E+00
         0.00000E+00
         0.00000E+00
         0.00000E+00
         0.00000E+00
         0.00000E+00
         0.00000E+00
         0.00000E+00
         0.00000E+00
         0.00000E+00
         0.00000E+00
         0.00000E+00
         0.00000E+00
         0.00000E+00
         0.00000E+00
         0.00000E+00
         0.00000E+00
         0.00000E+00
         0.00000E+00
         0.00000E+00
         0.00000E+00
         0.00000E+00
         0.00000E+00
         0.00000E+00
         0.00000E+00
         0.00000E+00
         0.00000E+00
         0.00000E+00
         0.00000E+00
         0.00000E+00
         0.00000E+00
         0.00000E+00
         0.00000E+00
         0.00000E+00
         0.00000E+00
         0.00000E+00
         0.00000E+00
         0.00000E+00
         0.00000E+00
         0.00000E+00
         0.00000E+00
         0.00000E+00
         0.00000E+00
         0.00000E+00
         0.00000E+00
         0.00000E+00
         0.00000E+00
         0.00000E+00
         0.00000E+00
         0.00000E+00
         0.00000E+00
         0.00000E+00
         0.00000E+00
         0.00000E+00
         0.00000E+00
         0.00000E+00
         0.00000E+00
         0.00000E+00
         0.00000E+00
         0.00000E+00
         0.00000E+00
         0.00000E+00
         0.00000E+00
         0.00000E+00
         0.00000E+00
         0.00000E+00
         0.00000E+00
         0.00000E+00
         0.00000E+00
         0.00000E+00
         0.00000E+00
         0.00000E+00
         0.00000E+00
         0.00000E+00
         0.00000E+00
         0.00000E+00
         0.00000E+00
         0.00000E+00
         0.00000E+00
         0.00000E+00
         0.00000E+00
         0.00000E+00
         0.00000E+00
         0.00000E+00
         0.00000E+00
         0.00000E+00
         0.00000E+00
         0.00000E+00
         0.00000E+00
         0.00000E+00
         0.00000E+00
         0.00000E+00
         0.00000E+00
         0.00000E+00
         0.00000E+00
         0.00000E+00
         0.00000E+00
         0.00000E+00
         0.00000E+00
         0.00000E+00
         0.00000E+00
         0.00000E+00
         0.00000E+00
         0.00000E+00
         0.00000E+00
         0.00000E+00
         0.00000E+00
         0.00000E+00
         0.00000E+00
         0.00000E+00
         0.00000E+00
         0.00000E+00
         0.00000E+00
         0.00000E+00
         0.00000E+00
         0.00000E+00
         0.00000E+00
         0.00000E+00
         0.00000E+00
         0.00000E+00
         0.00000E+00
         0.00000E+00
         0.00000E+00
         0.00000E+00
         0.00000E+00
         0.00000E+00
         0.00000E+00
         0.00000E+00
         0.00000E+00
         0.00000E+00
         0.00000E+00
         0.00000E+00
         0.00000E+00
         0.00000E+00
         0.00000E+00
         0.00000E+00
         0.00000E+00
         0.00000E+00
         0.00000E+00
         0.00000E+00
         0.00000E+00
         0.00000E+00
         0.00000E+00
         0.00000E+00
         0.00000E+00
         0.00000E+00
         0.00000E+00
         0.00000E+00
         0.00000E+00
         0.00000E+00
         0.00000E+00
         0.00000E+00
         0.00000E+00
         0.00000E+00
         0.00000E+00
         0.00000E+00
         0.00000E+00
         0.00000E+00
         0.00000E+00
         0.00000E+00
         0.00000E+00
         0.00000E+00
         0.00000E+00
         0.00000E+00
         0.00000E+00
         0.00000E+00
         0.00000E+00
         0.00000E+00
         0.00000E+00
         0.00000E+00
         0.00000E+00
         0.00000E+00
         0.00000E+00
         0.00000E+00
         0.00000E+00
         0.00000E+00
         0.00000E+00
         0.00000E+00
         0.00000E+00
         0.00000E+00
         0.00000E+00
         0.00000E+00
         0.00000E+00
         0.00000E+00
         0.00000E+00
         0.00000E+00
         0.00000E+00
         0.00000E+00
         0.00000E+00
         0.00000E+00
         0.00000E+00
         0.00000E+00
         0.00000E+00
         0.00000E+00
         0.00000E+00
         0.00000E+00
         0.00000E+00
         0.00000E+00
         0.00000E+00
         0.00000E+00
         0.00000E+00
         0.00000E+00
         0.00000E+00
         0.00000E+00
         0.00000E+00
         0.00000E+00
         0.00000E+00
         0.00000E+00
         0.00000E+00
         0.00000E+00
         0.00000E+00
         0.00000E+00
         0.00000E+00
         0.00000E+00
         0.00000E+00
         0.00000E+00
         0.00000E+00
         0.00000E+00
         0.00000E+00
         0.00000E+00
         0.00000E+00
         0.00000E+00
         0.00000E+00
         0.00000E+00
         0.00000E+00
         0.00000E+00
         0.00000E+00
         0.00000E+00
         0.00000E+00
         0.00000E+00
         0.00000E+00
         0.00000E+00
         0.00000E+00
         0.00000E+00
         0.00000E+00
         0.00000E+00
         0.00000E+00
         0.00000E+00
         0.00000E+00
         0.00000E+00
         0.00000E+00
         0.00000E+00
         0.00000E+00
         0.00000E+00
         0.00000E+00
         0.00000E+00
         0.00000E+00
         0.00000E+00
         0.00000E+00
         0.00000E+00
         0.00000E+00
         0.00000E+00
         0.00000E+00
         0.00000E+00
         0.00000E+00
         0.00000E+00
         0.00000E+00
         0.00000E+00
         0.00000E+00
         0.00000E+00
         0.00000E+00
         0.00000E+00
         0.00000E+00
         0.00000E+00
         0.00000E+00
         0.00000E+00
         0.00000E+00
         0.00000E+00
         0.00000E+00
         0.00000E+00
         0.00000E+00
         0.00000E+00
         0.00000E+00
         0.00000E+00
         0.00000E+00
         0.00000E+00
         0.00000E+00
         0.00000E+00
         0.00000E+00
         0.00000E+00
         0.00000E+00
         0.00000E+00
         0.00000E+00
         0.00000E+00
         0.00000E+00
         0.00000E+00
         0.00000E+00
         0.00000E+00
         0.00000E+00
         0.00000E+00
         0.00000E+00
         0.00000E+00
         0.00000E+00
         0.00000E+00
         0.00000E+00
         0.00000E+00
         0.00000E+00
         0.00000E+00
         0.00000E+00
         0.00000E+00
         0.00000E+00
         0.00000E+00
         0.00000E+00
         0.00000E+00
         0.00000E+00
         0.00000E+00
         0.00000E+00
         0.00000E+00
         0.00000E+00
         0.00000E+00
         0.00000E+00
         0.00000E+00
         0.00000E+00
         0.00000E+00
         0.00000E+00
         0.00000E+00
         0.00000E+00
         0.00000E+00
         0.00000E+00
         0.00000E+00
         0.00000E+00
         0.00000E+00
         0.00000E+00
         0.00000E+00
         0.00000E+00
         0.00000E+00
         0.00000E+00
         0.00000E+00
         0.00000E+00
         0.00000E+00
         0.00000E+00
         0.00000E+00
         0.00000E+00
         0.00000E+00
         0.00000E+00
         0.00000E+00
         0.00000E+00
         0.00000E+00
         0.00000E+00
         0.00000E+00
         0.00000E+00
         0.00000E+00
         0.00000E+00
         0.00000E+00
         0.00000E+00
         0.00000E+00
         0.00000E+00
         0.00000E+00
         0.00000E+00
         0.00000E+00
         0.00000E+00
         0.00000E+00
         0.00000E+00
         0.00000E+00
         0.00000E+00
         0.00000E+00
         0.00000E+00
         0.00000E+00
         0.00000E+00
         0.00000E+00
         0.00000E+00
         0.00000E+00
         0.00000E+00
         0.00000E+00
         0.00000E+00
         0.00000E+00
         0.00000E+00
         0.00000E+00
         0.00000E+00
         0.00000E+00
         0.00000E+00
         0.00000E+00
         0.00000E+00
         0.00000E+00
         0.00000E+00
         0.00000E+00
         0.00000E+00
         0.00000E+00
         0.00000E+00
         0.00000E+00
         0.00000E+00
         0.00000E+00
         0.00000E+00
         0.00000E+00
         0.00000E+00
         0.00000E+00
         0.00000E+00
         0.00000E+00
         0.00000E+00
         0.00000E+00
         0.00000E+00
         0.00000E+00
         0.00000E+00
         0.00000E+00
         0.00000E+00
         0.00000E+00
         0.00000E+00
         0.00000E+00
         0.00000E+00
         0.00000E+00
         0.00000E+00
         0.00000E+00
         0.00000E+00
         0.00000E+00
         0.00000E+00
         0.00000E+00
         0.00000E+00
         0.00000E+00
         0.00000E+00
         0.00000E+00
         0.00000E+00
         0.00000E+00
         0.00000E+00
         0.00000E+00
         0.00000E+00
         0.00000E+00
         0.00000E+00
         0.00000E+00
         0.00000E+00
         0.00000E+00
         0.00000E+00
         0.00000E+00
         0.00000E+00
         0.00000E+00
         0.00000E+00
         0.00000E+00
         0.00000E+00
         0.00000E+00
         0.00000E+00
         0.00000E+00
         0.00000E+00
         0.00000E+00
         0.00000E+00
         0.00000E+00
         0.00000E+00
         0.00000E+00
         0.00000E+00
         0.00000E+00
         0.00000E+00
         0.00000E+00
         0.00000E+00
         0.00000E+00
         0.00000E+00
         0.00000E+00
         0.00000E+00
         0.00000E+00
         0.00000E+00
         0.00000E+00
         0.00000E+00
         0.00000E+00
         0.00000E+00
         0.00000E+00
         0.00000E+00
         0.00000E+00
         0.00000E+00
         0.00000E+00
         0.00000E+00
         0.00000E+00
         0.00000E+00
         0.00000E+00
         0.00000E+00
         0.00000E+00
         0.00000E+00
         0.00000E+00
         0.00000E+00
         0.00000E+00
         0.00000E+00
         0.00000E+00
         0.00000E+00
         0.00000E+00
         0.00000E+00
         0.00000E+00
         0.00000E+00
         0.00000E+00
         0.00000E+00
         0.00000E+00
         0.00000E+00
         0.00000E+00
         0.00000E+00
         0.00000E+00
         0.00000E+00
         0.00000E+00
         0.00000E+00
         0.00000E+00
         0.00000E+00
         0.00000E+00
         0.00000E+00
         0.00000E+00
         0.00000E+00
         0.00000E+00
         0.00000E+00
         0.00000E+00
         0.00000E+00
         0.00000E+00
         0.00000E+00
         0.00000E+00
         0.00000E+00
         0.00000E+00
         0.00000E+00
         0.00000E+00
         0.00000E+00
         0.00000E+00
         0.00000E+00
         0.00000E+00
         0.00000E+00
         0.00000E+00
         0.00000E+00
         0.00000E+00
         0.00000E+00
         0.00000E+00
         0.00000E+00
         0.00000E+00
         0.00000E+00
         0.00000E+00
         0.00000E+00
         0.00000E+00
         0.00000E+00
         0.00000E+00
         0.00000E+00
         0.00000E+00
         0.00000E+00
         0.00000E+00
         0.00000E+00
         0.00000E+00
         0.00000E+00
         0.00000E+00
         0.00000E+00
         0.00000E+00
         0.00000E+00
         0.00000E+00
         0.00000E+00
         0.00000E+00
         0.00000E+00
         0.00000E+00
         0.00000E+00
         0.00000E+00
         0.00000E+00
         0.00000E+00
         0.00000E+00
         0.00000E+00
         0.00000E+00
         0.00000E+00
         0.00000E+00
         0.00000E+00
         0.00000E+00
         0.00000E+00
         0.00000E+00
         0.00000E+00
         0.00000E+00
         0.00000E+00
         0.00000E+00
         0.00000E+00
         0.00000E+00
         0.00000E+00
         0.00000E+00
         0.00000E+00
         0.00000E+00
         0.00000E+00
         0.00000E+00
         0.00000E+00
         0.00000E+00
         0.00000E+00
         0.00000E+00
         0.00000E+00
         0.00000E+00
         0.00000E+00
         0.00000E+00
         0.00000E+00
         0.00000E+00
         0.00000E+00
         0.00000E+00
         0.00000E+00
         0.00000E+00
         0.00000E+00
         0.00000E+00
         0.00000E+00
         0.00000E+00
         0.00000E+00
         0.00000E+00
         0.00000E+00
         0.00000E+00
         0.00000E+00
         0.00000E+00
         0.00000E+00
         0.00000E+00
         0.00000E+00
         0.00000E+00
         0.00000E+00
         0.00000E+00
         0.00000E+00
         0.00000E+00
         0.00000E+00
         0.00000E+00
         0.00000E+00
         0.00000E+00
         0.00000E+00
         0.00000E+00
         0.00000E+00
         0.00000E+00
         0.00000E+00
         0.00000E+00
         0.00000E+00
         0.00000E+00
         0.00000E+00
         0.00000E+00
         0.00000E+00
         0.00000E+00
         0.00000E+00
         0.00000E+00
         0.00000E+00
         0.00000E+00
         0.00000E+00
         0.00000E+00
         0.00000E+00
         0.00000E+00
         0.00000E+00
         0.00000E+00
         0.00000E+00
         0.00000E+00
         0.00000E+00
         0.00000E+00
         0.00000E+00
         0.00000E+00
         0.00000E+00
         0.00000E+00
         0.00000E+00
         0.00000E+00
         0.00000E+00
         0.00000E+00
         0.00000E+00
         0.00000E+00
         0.00000E+00
         0.00000E+00
         0.00000E+00
         0.00000E+00
         0.00000E+00
         0.00000E+00
         0.00000E+00
         0.00000E+00
         0.00000E+00
         0.00000E+00
         0.00000E+00
         0.00000E+00
         0.00000E+00
         0.00000E+00
         0.00000E+00
         0.00000E+00
         0.00000E+00
         0.00000E+00
         0.00000E+00
         0.00000E+00
         0.00000E+00
         0.00000E+00
         0.00000E+00
         0.00000E+00
         0.00000E+00
         0.00000E+00
         0.00000E+00
         0.00000E+00
         0.00000E+00
         0.00000E+00
         0.00000E+00
         0.00000E+00
         0.00000E+00
         0.00000E+00
         0.00000E+00
         0.00000E+00
         0.00000E+00
         0.00000E+00
         0.00000E+00
         0.00000E+00
         0.00000E+00
         0.00000E+00
         0.00000E+00
         0.00000E+00
         0.00000E+00
         0.00000E+00
         0.00000E+00
         0.00000E+00
         0.00000E+00
         0.00000E+00
         0.00000E+00
         0.00000E+00
         0.00000E+00
         0.00000E+00
         0.00000E+00
         0.00000E+00
         0.00000E+00
         0.00000E+00
         0.00000E+00
         0.00000E+00
         0.00000E+00
         0.00000E+00
         0.00000E+00
         0.00000E+00
         0.00000E+00
         0.00000E+00
         0.00000E+00
         0.00000E+00
         0.00000E+00
         0.00000E+00
         0.00000E+00
         0.00000E+00
         0.00000E+00
         0.00000E+00
         0.00000E+00
         0.00000E+00
         0.00000E+00
         0.00000E+00
         0.00000E+00
         0.00000E+00
         0.00000E+00
         0.00000E+00
         0.00000E+00
         0.00000E+00
         0.00000E+00
         0.00000E+00
         0.00000E+00
         0.00000E+00
         0.00000E+00
         0.00000E+00
         0.00000E+00
         0.00000E+00
         0.00000E+00
         0.00000E+00
         0.00000E+00
         0.00000E+00
         0.00000E+00
         0.00000E+00
         0.00000E+00
         0.00000E+00
         0.00000E+00
         0.00000E+00
         0.00000E+00
         0.00000E+00
         0.00000E+00
         0.00000E+00
         0.00000E+00
         0.00000E+00
         0.00000E+00
         0.00000E+00
         0.00000E+00
         0.00000E+00
         0.00000E+00
         0.00000E+00
         0.00000E+00
         0.00000E+00
         0.00000E+00
         0.00000E+00
         0.00000E+00
         0.00000E+00
         0.00000E+00
         0.00000E+00
         0.00000E+00
         0.00000E+00
         0.00000E+00
         0.00000E+00
         0.00000E+00
         0.00000E+00
         0.00000E+00
         0.00000E+00
         0.00000E+00
         0.00000E+00
         0.00000E+00
         0.00000E+00
         0.00000E+00
         0.00000E+00
         0.00000E+00
         0.00000E+00
         0.00000E+00
         0.00000E+00
         0.00000E+00
         0.00000E+00
         0.00000E+00
         0.00000E+00
         0.00000E+00
         0.00000E+00
         0.00000E+00
         0.00000E+00
         0.00000E+00
         0.00000E+00
         0.00000E+00
         0.00000E+00
         0.00000E+00
         0.00000E+00
         0.00000E+00
         0.00000E+00
         0.00000E+00
         0.00000E+00
         0.00000E+00
         0.00000E+00
         0.00000E+00
         0.00000E+00
         0.00000E+00
         0.00000E+00
         0.00000E+00
         0.00000E+00
         0.00000E+00
         0.00000E+00
         0.00000E+00
         0.00000E+00
         0.00000E+00
         0.00000E+00
         0.00000E+00
         0.00000E+00
         0.00000E+00
         0.00000E+00
         0.00000E+00
         0.00000E+00
         0.00000E+00
         0.00000E+00
         0.00000E+00
         0.00000E+00
         0.00000E+00
         0.00000E+00
         0.00000E+00
         0.00000E+00
         0.00000E+00
         0.00000E+00
         0.00000E+00
         0.00000E+00
         0.00000E+00
         0.00000E+00
         0.00000E+00
         0.00000E+00
         0.00000E+00
         0.00000E+00
         0.00000E+00
         0.00000E+00
         0.00000E+00
         0.00000E+00
         0.00000E+00
         0.00000E+00
         0.00000E+00
         0.00000E+00
         0.00000E+00
         0.00000E+00
         0.00000E+00
         0.00000E+00
         0.00000E+00
         0.00000E+00
         0.00000E+00
         0.00000E+00
         0.00000E+00
         0.00000E+00
         0.00000E+00
         0.00000E+00
         0.00000E+00
         0.00000E+00
         0.00000E+00
         0.00000E+00
         0.00000E+00
         0.00000E+00
         0.00000E+00
         0.00000E+00
         0.00000E+00
         0.00000E+00
         0.00000E+00
         0.00000E+00
         0.00000E+00
         0.00000E+00
         0.00000E+00
         0.00000E+00
         0.00000E+00
         0.00000E+00
         0.00000E+00
         0.00000E+00
         0.00000E+00
         0.00000E+00
         0.00000E+00
         0.00000E+00
         0.00000E+00
         0.00000E+00
         0.00000E+00
         0.00000E+00
         0.00000E+00
         0.00000E+00
         0.00000E+00
         0.00000E+00
         0.00000E+00
         0.00000E+00
         0.00000E+00
         0.00000E+00
         0.00000E+00
         0.00000E+00
         0.00000E+00
         0.00000E+00
         0.00000E+00
         0.00000E+00
         0.00000E+00
         0.00000E+00
         0.00000E+00
         0.00000E+00
         0.00000E+00
         0.00000E+00
         0.00000E+00
         0.00000E+00
         0.00000E+00
         0.00000E+00
         0.00000E+00
         0.00000E+00
         0.00000E+00
         0.00000E+00
         0.00000E+00
         0.00000E+00
         0.00000E+00
         0.00000E+00
         0.00000E+00
         0.00000E+00
         0.00000E+00
         0.00000E+00
         0.00000E+00
         0.00000E+00
         0.00000E+00
         0.00000E+00
         0.00000E+00
         0.00000E+00
         0.00000E+00
         0.00000E+00
         0.00000E+00
         0.00000E+00
         0.00000E+00
         0.00000E+00
         0.00000E+00
         0.00000E+00
         0.00000E+00
         0.00000E+00
         0.00000E+00
         0.00000E+00
         0.00000E+00
         0.00000E+00
         0.00000E+00
         0.00000E+00
         0.00000E+00
         0.00000E+00
         0.00000E+00
         0.00000E+00
         0.00000E+00
         0.00000E+00
         0.00000E+00
         0.00000E+00
         0.00000E+00
         0.00000E+00
         0.00000E+00
         0.00000E+00
         0.00000E+00
         0.00000E+00
         0.00000E+00
         0.00000E+00
         0.00000E+00
         0.00000E+00
         0.00000E+00
         0.00000E+00
         0.00000E+00
         0.00000E+00
         0.00000E+00
         0.00000E+00
         0.00000E+00
         0.00000E+00
         0.00000E+00
         0.00000E+00
         0.00000E+00
         0.00000E+00
         0.00000E+00
         0.00000E+00
         0.00000E+00
         0.00000E+00
         0.00000E+00
         0.00000E+00
         0.00000E+00
         0.00000E+00
         0.00000E+00
         0.00000E+00
         0.00000E+00
         0.00000E+00
         0.00000E+00
         0.00000E+00
         0.00000E+00
         0.00000E+00
         0.00000E+00
         0.00000E+00
         0.00000E+00
         0.00000E+00
         0.00000E+00
         0.00000E+00
         0.00000E+00
         0.00000E+00
         0.00000E+00
         0.00000E+00
         0.00000E+00
         0.00000E+00
         0.00000E+00
         0.00000E+00
         0.00000E+00
         0.00000E+00
         0.00000E+00
         0.00000E+00
         0.00000E+00
         0.00000E+00
         0.00000E+00
         0.00000E+00
         0.00000E+00
         0.00000E+00
         0.00000E+00
         0.00000E+00
         0.00000E+00
         0.00000E+00
         0.00000E+00
         0.00000E+00
         0.00000E+00
         0.00000E+00
         0.00000E+00
         0.00000E+00
         0.00000E+00
         0.00000E+00
         0.00000E+00
         0.00000E+00
         0.00000E+00
         0.00000E+00
         0.00000E+00
         0.00000E+00
         0.00000E+00
         0.00000E+00
         0.00000E+00
         0.00000E+00
         0.00000E+00
         0.00000E+00
         0.00000E+00
         0.00000E+00
         0.00000E+00
         0.00000E+00
         0.00000E+00
         0.00000E+00
         0.00000E+00
         0.00000E+00
         0.00000E+00
         0.00000E+00
         0.00000E+00
         0.00000E+00
         0.00000E+00
         0.00000E+00
         0.00000E+00
         0.00000E+00
         0.00000E+00
         0.00000E+00
         0.00000E+00
         0.00000E+00
         0.00000E+00
         0.00000E+00
         0.00000E+00
         0.00000E+00
         0.00000E+00
         0.00000E+00
         0.00000E+00
         0.00000E+00
         0.00000E+00
         0.00000E+00
         0.00000E+00
         0.00000E+00
         0.00000E+00
         0.00000E+00
         0.00000E+00
         0.00000E+00
         0.00000E+00
         0.00000E+00
         0.00000E+00
         0.00000E+00
         0.00000E+00
         0.00000E+00
         0.00000E+00
         0.00000E+00
         0.00000E+00
         0.00000E+00
         0.00000E+00
         0.00000E+00
         0.00000E+00
         0.00000E+00
         0.00000E+00
         0.00000E+00
         0.00000E+00
         0.00000E+00
         0.00000E+00
         0.00000E+00
         0.00000E+00
         0.00000E+00
         0.00000E+00
         0.00000E+00
         0.00000E+00
         0.00000E+00
         0.00000E+00
         0.00000E+00
         0.00000E+00
         0.00000E+00
         0.00000E+00
         0.00000E+00
         0.00000E+00
         0.00000E+00
         0.00000E+00
         0.00000E+00
         0.00000E+00
         0.00000E+00
         0.00000E+00
         0.00000E+00
         0.00000E+00
         0.00000E+00
         0.00000E+00
         0.00000E+00
         0.00000E+00
         0.00000E+00
         0.00000E+00
         0.00000E+00
         0.00000E+00
         0.00000E+00
         0.00000E+00
         0.00000E+00
         0.00000E+00
         0.00000E+00
         0.00000E+00
         0.00000E+00
         0.00000E+00
         0.00000E+00
         0.00000E+00
         0.00000E+00
         0.00000E+00
         0.00000E+00
         0.00000E+00
         0.00000E+00
         0.00000E+00
         0.00000E+00
         0.00000E+00
         0.00000E+00
         0.00000E+00
         0.00000E+00
         0.00000E+00
         0.00000E+00
         0.00000E+00
         0.00000E+00
         0.00000E+00
         0.00000E+00
         0.00000E+00
         0.00000E+00
         0.00000E+00
         0.00000E+00
         0.00000E+00
         0.00000E+00
         0.00000E+00
         0.00000E+00
         0.00000E+00
         0.00000E+00
         0.00000E+00
         0.00000E+00
         0.00000E+00
         0.00000E+00
         0.00000E+00
         0.00000E+00
         0.00000E+00
         0.00000E+00
         0.00000E+00
         0.00000E+00
         0.00000E+00
         0.00000E+00
         0.00000E+00
         0.00000E+00
         0.00000E+00
         0.00000E+00
         0.00000E+00
         0.00000E+00
         0.00000E+00
         0.00000E+00
         0.00000E+00
         0.00000E+00
         0.00000E+00
         0.00000E+00
         0.00000E+00
         0.00000E+00
         0.00000E+00
         0.00000E+00
         0.00000E+00
         0.00000E+00
         0.00000E+00
         0.00000E+00
         0.00000E+00
         0.00000E+00
         0.00000E+00
         0.00000E+00
         0.00000E+00
         0.00000E+00
         0.00000E+00
         0.00000E+00
         0.00000E+00
         0.00000E+00
         0.00000E+00
         0.00000E+00
         0.00000E+00
         0.00000E+00
         0.00000E+00
         0.00000E+00
         0.00000E+00
         0.00000E+00
         0.00000E+00
         0.00000E+00
         0.00000E+00
         0.00000E+00
         0.00000E+00
         0.00000E+00
         0.00000E+00
         0.00000E+00
         0.00000E+00
         0.00000E+00
         0.00000E+00
         0.00000E+00
         0.00000E+00
         0.00000E+00
         0.00000E+00
         0.00000E+00
         0.00000E+00
         0.00000E+00
         0.00000E+00
         0.00000E+00
         0.00000E+00
         0.00000E+00
         0.00000E+00
         0.00000E+00
         0.00000E+00
         0.00000E+00
         0.00000E+00
         0.00000E+00
         0.00000E+00
         0.00000E+00
         0.00000E+00
         0.00000E+00
         0.00000E+00
         0.00000E+00
         0.00000E+00
         0.00000E+00
         0.00000E+00
         0.00000E+00
         0.00000E+00
         0.00000E+00
         0.00000E+00
         0.00000E+00
         0.00000E+00
         0.00000E+00
         0.00000E+00
         0.00000E+00
         0.00000E+00
         0.00000E+00
         0.00000E+00
         0.00000E+00
         0.00000E+00
         0.00000E+00
         0.00000E+00
         0.00000E+00
         0.00000E+00
         0.00000E+00
         0.00000E+00
         0.00000E+00
         0.00000E+00
         0.00000E+00
         0.00000E+00
         0.00000E+00
         0.00000E+00
         0.00000E+00
         0.00000E+00
         0.00000E+00
         0.00000E+00
         0.00000E+00
         0.00000E+00
         0.00000E+00
         0.00000E+00
         0.00000E+00
         0.00000E+00
         0.00000E+00
         0.00000E+00
         0.00000E+00
         0.00000E+00
         0.00000E+00
         0.00000E+00
         0.00000E+00
         0.00000E+00
         0.00000E+00
         0.00000E+00
         0.00000E+00
         0.00000E+00
         0.00000E+00
         0.00000E+00
         0.00000E+00
         0.00000E+00
         0.00000E+00
         0.00000E+00
         0.00000E+00
         0.00000E+00
         0.00000E+00
         0.00000E+00
         0.00000E+00
         0.00000E+00
         0.00000E+00
         0.00000E+00
         0.00000E+00
         0.00000E+00
         0.00000E+00
         0.00000E+00
         0.00000E+00
         0.00000E+00
         0.00000E+00
         0.00000E+00
         0.00000E+00
         0.00000E+00
         0.00000E+00
         0.00000E+00
         0.00000E+00
         0.00000E+00
         0.00000E+00
         0.00000E+00
         0.00000E+00
         0.00000E+00
         0.00000E+00
         0.00000E+00
         0.00000E+00
         0.00000E+00
         0.00000E+00
         0.00000E+00
         0.00000E+00
         0.00000E+00
         0.00000E+00
         0.00000E+00
         0.00000E+00
         0.00000E+00
         0.00000E+00
         0.00000E+00
         0.00000E+00
         0.00000E+00
         0.00000E+00
         0.00000E+00
         0.00000E+00
         0.00000E+00
         0.00000E+00
         0.00000E+00
         0.00000E+00
         0.00000E+00
         0.00000E+00
         0.00000E+00
         0.00000E+00
         0.00000E+00
         0.00000E+00
         0.00000E+00
         0.00000E+00
         0.00000E+00
         0.00000E+00
         0.00000E+00
         0.00000E+00
         0.00000E+00
         0.00000E+00
         0.00000E+00
         0.00000E+00
         0.00000E+00
         0.00000E+00
         0.00000E+00
         0.00000E+00
         0.00000E+00
         0.00000E+00
         0.00000E+00
         0.00000E+00
         0.00000E+00
         0.00000E+00
         0.00000E+00
         0.00000E+00
         0.00000E+00
         0.00000E+00
         0.00000E+00
         0.00000E+00
         0.00000E+00
         0.00000E+00
         0.00000E+00
         0.00000E+00
         0.00000E+00
         0.00000E+00
         0.00000E+00
         0.00000E+00
         0.00000E+00
         0.00000E+00
         0.00000E+00
         0.00000E+00
         0.00000E+00
         0.00000E+00
         0.00000E+00
         0.00000E+00
         0.00000E+00
         0.00000E+00
         0.00000E+00
         0.00000E+00
         0.00000E+00
         0.00000E+00
         0.00000E+00
         0.00000E+00
         0.00000E+00
         0.00000E+00
         0.00000E+00
         0.00000E+00
         0.00000E+00
         0.00000E+00
         0.00000E+00
         0.00000E+00
         0.00000E+00
         0.00000E+00
         0.00000E+00
         0.00000E+00
         0.00000E+00
         0.00000E+00
         0.00000E+00
         0.00000E+00
         0.00000E+00
         0.00000E+00
         0.00000E+00
         0.00000E+00
         0.00000E+00
         0.00000E+00
         0.00000E+00
         0.00000E+00
         0.00000E+00
         0.00000E+00
         0.00000E+00
         0.00000E+00
         0.00000E+00
         0.00000E+00
         0.00000E+00
         0.00000E+00
         0.00000E+00
         0.00000E+00
         0.00000E+00
         0.00000E+00
         0.00000E+00
         0.00000E+00
         0.00000E+00
         0.00000E+00
         0.00000E+00
         0.00000E+00
         0.00000E+00
         0.00000E+00
         0.00000E+00
         0.00000E+00
         0.00000E+00
         0.00000E+00
         0.00000E+00
         0.00000E+00
         0.00000E+00
         0.00000E+00
         0.00000E+00
         0.00000E+00
         0.00000E+00
         0.00000E+00
         0.00000E+00
         0.00000E+00
         0.00000E+00
         0.00000E+00
         0.00000E+00
         0.00000E+00
         0.00000E+00
         0.00000E+00
         0.00000E+00
         0.00000E+00
         0.00000E+00
         0.00000E+00
         0.00000E+00
         0.00000E+00
         0.00000E+00
         0.00000E+00
         0.00000E+00
         0.00000E+00
         0.00000E+00
         0.00000E+00
         0.00000E+00
         0.00000E+00
         0.00000E+00
         0.00000E+00
         0.00000E+00
         0.00000E+00
         0.00000E+00
         0.00000E+00
         0.00000E+00
         0.00000E+00
         0.00000E+00
         0.00000E+00
         0.00000E+00
         0.00000E+00
         0.00000E+00
         0.00000E+00
         0.00000E+00
         0.00000E+00
         0.00000E+00
         0.00000E+00
         0.00000E+00
         0.00000E+00
         0.00000E+00
         0.00000E+00
         0.00000E+00
         0.00000E+00
         0.00000E+00
         0.00000E+00
         0.00000E+00
         0.00000E+00
         0.00000E+00
         0.00000E+00
         0.00000E+00
         0.00000E+00
         0.00000E+00
         0.00000E+00
         0.00000E+00
         0.00000E+00
         0.00000E+00
         0.00000E+00
         0.00000E+00
         0.00000E+00
         0.00000E+00
         0.00000E+00
         0.00000E+00
         0.00000E+00
         0.00000E+00
         0.00000E+00
         0.00000E+00
         0.00000E+00
         0.00000E+00
         0.00000E+00
         0.00000E+00
         0.00000E+00
         0.00000E+00
         0.00000E+00
         0.00000E+00
         0.00000E+00
         0.00000E+00
         0.00000E+00
         0.00000E+00
         0.00000E+00
         0.00000E+00
         0.00000E+00
         0.00000E+00
         0.00000E+00
         0.00000E+00
         0.00000E+00
         0.00000E+00
         0.00000E+00
         0.00000E+00
         0.00000E+00
         0.00000E+00
         0.00000E+00
         0.00000E+00
         0.00000E+00
         0.00000E+00
         0.00000E+00
         0.00000E+00
         0.00000E+00
         0.00000E+00
         0.00000E+00
         0.00000E+00
         0.00000E+00
         0.00000E+00
         0.00000E+00
         0.00000E+00
         0.00000E+00
         0.00000E+00
         0.00000E+00
         0.00000E+00
         0.00000E+00
         0.00000E+00
         0.00000E+00
         0.00000E+00
         0.00000E+00
         0.00000E+00
         0.00000E+00
         0.00000E+00
         0.00000E+00
         0.00000E+00
         0.00000E+00
         0.00000E+00
         0.00000E+00
         0.00000E+00
         0.00000E+00
         0.00000E+00
         0.00000E+00
         0.00000E+00
         0.00000E+00
         0.00000E+00
         0.00000E+00
  
SCALARS        characteristic_distance  double 1
LOOKUP_TABLE default
         0.00000E+00
         0.00000E+00
         0.00000E+00
         0.00000E+00
         0.00000E+00
         0.00000E+00
         0.00000E+00
         0.00000E+00
         0.00000E+00
         0.00000E+00
         0.00000E+00
         0.00000E+00
         0.00000E+00
         0.00000E+00
         0.00000E+00
         0.00000E+00
         0.00000E+00
         0.00000E+00
         0.00000E+00
         0.00000E+00
         0.00000E+00
         0.00000E+00
         0.00000E+00
         0.00000E+00
         0.00000E+00
         0.00000E+00
         0.00000E+00
         0.00000E+00
         0.00000E+00
         0.00000E+00
         0.00000E+00
         0.00000E+00
         0.00000E+00
         0.00000E+00
         0.00000E+00
         0.00000E+00
         0.00000E+00
         0.00000E+00
         0.00000E+00
         0.00000E+00
         0.00000E+00
         0.00000E+00
         0.00000E+00
         0.00000E+00
         0.00000E+00
         0.00000E+00
         0.00000E+00
         0.00000E+00
         0.00000E+00
         0.00000E+00
         0.00000E+00
         0.00000E+00
         0.00000E+00
         0.00000E+00
         0.00000E+00
         0.00000E+00
         0.00000E+00
         0.00000E+00
         0.00000E+00
         0.00000E+00
         0.00000E+00
         0.00000E+00
         0.00000E+00
         0.00000E+00
         0.00000E+00
         0.00000E+00
         0.00000E+00
         0.00000E+00
         0.00000E+00
         0.00000E+00
         0.00000E+00
         0.00000E+00
         0.00000E+00
         0.00000E+00
         0.00000E+00
         0.00000E+00
         0.00000E+00
         0.00000E+00
         0.00000E+00
         0.00000E+00
         0.00000E+00
         0.00000E+00
         0.00000E+00
         0.00000E+00
         0.00000E+00
         0.00000E+00
         0.00000E+00
         0.00000E+00
         0.00000E+00
         0.00000E+00
         0.00000E+00
         0.00000E+00
         0.00000E+00
         0.00000E+00
         0.00000E+00
         0.00000E+00
         0.00000E+00
         0.00000E+00
         0.00000E+00
         0.00000E+00
         0.00000E+00
         0.00000E+00
         0.00000E+00
         0.00000E+00
         0.00000E+00
         0.00000E+00
         0.00000E+00
         0.00000E+00
         0.00000E+00
         0.00000E+00
         0.00000E+00
         0.00000E+00
         0.00000E+00
         0.00000E+00
         0.00000E+00
         0.00000E+00
         0.00000E+00
         0.00000E+00
         0.00000E+00
         0.00000E+00
         0.00000E+00
         0.00000E+00
         0.00000E+00
         0.00000E+00
         0.00000E+00
         0.00000E+00
         0.00000E+00
         0.00000E+00
         0.00000E+00
         0.00000E+00
         0.00000E+00
         0.00000E+00
         0.00000E+00
         0.00000E+00
         0.00000E+00
         0.00000E+00
         0.00000E+00
         0.00000E+00
         0.00000E+00
         0.00000E+00
         0.00000E+00
         0.00000E+00
         0.00000E+00
         0.00000E+00
         0.00000E+00
         0.00000E+00
         0.00000E+00
         0.00000E+00
         0.00000E+00
         0.00000E+00
         0.00000E+00
         0.00000E+00
         0.00000E+00
         0.00000E+00
         0.00000E+00
         0.00000E+00
         0.00000E+00
         0.00000E+00
         0.00000E+00
         0.00000E+00
         0.00000E+00
         0.00000E+00
         0.00000E+00
         0.00000E+00
         0.00000E+00
         0.00000E+00
         0.00000E+00
         0.00000E+00
         0.00000E+00
         0.00000E+00
         0.00000E+00
         0.00000E+00
         0.00000E+00
         0.00000E+00
         0.00000E+00
         0.00000E+00
         0.00000E+00
         0.00000E+00
         0.00000E+00
         0.00000E+00
         0.00000E+00
         0.00000E+00
         0.00000E+00
         0.00000E+00
         0.00000E+00
         0.00000E+00
         0.00000E+00
         0.00000E+00
         0.00000E+00
         0.00000E+00
         0.00000E+00
         0.00000E+00
         0.00000E+00
         0.00000E+00
         0.00000E+00
         0.00000E+00
         0.00000E+00
         0.00000E+00
         0.00000E+00
         0.00000E+00
         0.00000E+00
         0.00000E+00
         0.00000E+00
         0.00000E+00
         0.00000E+00
         0.00000E+00
         0.00000E+00
         0.00000E+00
         0.00000E+00
         0.00000E+00
         0.00000E+00
         0.00000E+00
         0.00000E+00
         0.00000E+00
         0.00000E+00
         0.00000E+00
         0.00000E+00
         0.00000E+00
         0.00000E+00
         0.00000E+00
         0.00000E+00
         0.00000E+00
         0.00000E+00
         0.00000E+00
         0.00000E+00
         0.00000E+00
         0.00000E+00
         0.00000E+00
         0.00000E+00
         0.00000E+00
         0.00000E+00
         0.00000E+00
         0.00000E+00
         0.00000E+00
         0.00000E+00
         0.00000E+00
         0.00000E+00
         0.00000E+00
         0.00000E+00
         0.00000E+00
         0.00000E+00
         0.00000E+00
         0.00000E+00
         0.00000E+00
         0.00000E+00
         0.00000E+00
         0.00000E+00
         0.00000E+00
         0.00000E+00
         0.00000E+00
         0.00000E+00
         0.00000E+00
         0.00000E+00
         0.00000E+00
         0.00000E+00
         0.00000E+00
         0.00000E+00
         0.00000E+00
         0.00000E+00
         0.00000E+00
         0.00000E+00
         0.00000E+00
         0.00000E+00
         0.00000E+00
         0.00000E+00
         0.00000E+00
         0.00000E+00
         0.00000E+00
         0.00000E+00
         0.00000E+00
         0.00000E+00
         0.00000E+00
         0.00000E+00
         0.00000E+00
         0.00000E+00
         0.00000E+00
         0.00000E+00
         0.00000E+00
         0.00000E+00
         0.00000E+00
         0.00000E+00
         0.00000E+00
         0.00000E+00
         0.00000E+00
         0.00000E+00
         0.00000E+00
         0.00000E+00
         0.00000E+00
         0.00000E+00
         0.00000E+00
         0.00000E+00
         0.00000E+00
         0.00000E+00
         0.00000E+00
         0.00000E+00
         0.00000E+00
         0.00000E+00
         0.00000E+00
         0.00000E+00
         0.00000E+00
         0.00000E+00
         0.00000E+00
         0.00000E+00
         0.00000E+00
         0.00000E+00
         0.00000E+00
         0.00000E+00
         0.00000E+00
         0.00000E+00
         0.00000E+00
         0.00000E+00
         0.00000E+00
         0.00000E+00
         0.00000E+00
         0.00000E+00
         0.00000E+00
         0.00000E+00
         0.00000E+00
         0.00000E+00
         0.00000E+00
         0.00000E+00
         0.00000E+00
         0.00000E+00
         0.00000E+00
         0.00000E+00
         0.00000E+00
         0.00000E+00
         0.00000E+00
         0.00000E+00
         0.00000E+00
         0.00000E+00
         0.00000E+00
         0.00000E+00
         0.00000E+00
         0.00000E+00
         0.00000E+00
         0.00000E+00
         0.00000E+00
         0.00000E+00
         0.00000E+00
         0.00000E+00
         0.00000E+00
         0.00000E+00
         0.00000E+00
         0.00000E+00
         0.00000E+00
         0.00000E+00
         0.00000E+00
         0.00000E+00
         0.00000E+00
         0.00000E+00
         0.00000E+00
         0.00000E+00
         0.00000E+00
         0.00000E+00
         0.00000E+00
         0.00000E+00
         0.00000E+00
         0.00000E+00
         0.00000E+00
         0.00000E+00
         0.00000E+00
         0.00000E+00
         0.00000E+00
         0.00000E+00
         0.00000E+00
         0.00000E+00
         0.00000E+00
         0.00000E+00
         0.00000E+00
         0.00000E+00
         0.00000E+00
         0.00000E+00
         0.00000E+00
         0.00000E+00
         0.00000E+00
         0.00000E+00
         0.00000E+00
         0.00000E+00
         0.00000E+00
         0.00000E+00
         0.00000E+00
         0.00000E+00
         0.00000E+00
         0.00000E+00
         0.00000E+00
         0.00000E+00
         0.00000E+00
         0.00000E+00
         0.00000E+00
         0.00000E+00
         0.00000E+00
         0.00000E+00
         0.00000E+00
         0.00000E+00
         0.00000E+00
         0.00000E+00
         0.00000E+00
         0.00000E+00
         0.00000E+00
         0.00000E+00
         0.00000E+00
         0.00000E+00
         0.00000E+00
         0.00000E+00
         0.00000E+00
         0.00000E+00
         0.00000E+00
         0.00000E+00
         0.00000E+00
         0.00000E+00
         0.00000E+00
         0.00000E+00
         0.00000E+00
         0.00000E+00
         0.00000E+00
         0.00000E+00
         0.00000E+00
         0.00000E+00
         0.00000E+00
         0.00000E+00
         0.00000E+00
         0.00000E+00
         0.00000E+00
         0.00000E+00
         0.00000E+00
         0.00000E+00
         0.00000E+00
         0.00000E+00
         0.00000E+00
         0.00000E+00
         0.00000E+00
         0.00000E+00
         0.00000E+00
         0.00000E+00
         0.00000E+00
         0.00000E+00
         0.00000E+00
         0.00000E+00
         0.00000E+00
         0.00000E+00
         0.00000E+00
         0.00000E+00
         0.00000E+00
         0.00000E+00
         0.00000E+00
         0.00000E+00
         0.00000E+00
         0.00000E+00
         0.00000E+00
         0.00000E+00
         0.00000E+00
         0.00000E+00
         0.00000E+00
         0.00000E+00
         0.00000E+00
         0.00000E+00
         0.00000E+00
         0.00000E+00
         0.00000E+00
         0.00000E+00
         0.00000E+00
         0.00000E+00
         0.00000E+00
         0.00000E+00
         0.00000E+00
         0.00000E+00
         0.00000E+00
         0.00000E+00
         0.00000E+00
         0.00000E+00
         0.00000E+00
         0.00000E+00
         0.00000E+00
         0.00000E+00
         0.00000E+00
         0.00000E+00
         0.00000E+00
         0.00000E+00
         0.00000E+00
         0.00000E+00
         0.00000E+00
         0.00000E+00
         0.00000E+00
         0.00000E+00
         0.00000E+00
         0.00000E+00
         0.00000E+00
         0.00000E+00
         0.00000E+00
         0.00000E+00
         0.00000E+00
         0.00000E+00
         0.00000E+00
         0.00000E+00
         0.00000E+00
         0.00000E+00
         0.00000E+00
         0.00000E+00
         0.00000E+00
         0.00000E+00
         0.00000E+00
         0.00000E+00
         0.00000E+00
         0.00000E+00
         0.00000E+00
         0.00000E+00
         0.00000E+00
         0.00000E+00
         0.00000E+00
         0.00000E+00
         0.00000E+00
         0.00000E+00
         0.00000E+00
         0.00000E+00
         0.00000E+00
         0.00000E+00
         0.00000E+00
         0.00000E+00
         0.00000E+00
         0.00000E+00
         0.00000E+00
         0.00000E+00
         0.00000E+00
         0.00000E+00
         0.00000E+00
         0.00000E+00
         0.00000E+00
         0.00000E+00
         0.00000E+00
         0.00000E+00
         0.00000E+00
         0.00000E+00
         0.00000E+00
         0.00000E+00
         0.00000E+00
         0.00000E+00
         0.00000E+00
         0.00000E+00
         0.00000E+00
         0.00000E+00
         0.00000E+00
         0.00000E+00
         0.00000E+00
         0.00000E+00
         0.00000E+00
         0.00000E+00
         0.00000E+00
         0.00000E+00
         0.00000E+00
         0.00000E+00
         0.00000E+00
         0.00000E+00
         0.00000E+00
         0.00000E+00
         0.00000E+00
         0.00000E+00
         0.00000E+00
         0.00000E+00
         0.00000E+00
         0.00000E+00
         0.00000E+00
         0.00000E+00
         0.00000E+00
         0.00000E+00
         0.00000E+00
         0.00000E+00
         0.00000E+00
         0.00000E+00
         0.00000E+00
         0.00000E+00
         0.00000E+00
         0.00000E+00
         0.00000E+00
         0.00000E+00
         0.00000E+00
         0.00000E+00
         0.00000E+00
         0.00000E+00
         0.00000E+00
         0.00000E+00
         0.00000E+00
         0.00000E+00
         0.00000E+00
         0.00000E+00
         0.00000E+00
         0.00000E+00
         0.00000E+00
         0.00000E+00
         0.00000E+00
         0.00000E+00
         0.00000E+00
         0.00000E+00
         0.00000E+00
         0.00000E+00
         0.00000E+00
         0.00000E+00
         0.00000E+00
         0.00000E+00
         0.00000E+00
         0.00000E+00
         0.00000E+00
         0.00000E+00
         0.00000E+00
         0.00000E+00
         0.00000E+00
         0.00000E+00
         0.00000E+00
         0.00000E+00
         0.00000E+00
         0.00000E+00
         0.00000E+00
         0.00000E+00
         0.00000E+00
         0.00000E+00
         0.00000E+00
         0.00000E+00
         0.00000E+00
         0.00000E+00
         0.00000E+00
         0.00000E+00
         0.00000E+00
         0.00000E+00
         0.00000E+00
         0.00000E+00
         0.00000E+00
         0.00000E+00
         0.00000E+00
         0.00000E+00
         0.00000E+00
         0.00000E+00
         0.00000E+00
         0.00000E+00
         0.00000E+00
         0.00000E+00
         0.00000E+00
         0.00000E+00
         0.00000E+00
         0.00000E+00
         0.00000E+00
         0.00000E+00
         0.00000E+00
         0.00000E+00
         0.00000E+00
         0.00000E+00
         0.00000E+00
         0.00000E+00
         0.00000E+00
         0.00000E+00
         0.00000E+00
         0.00000E+00
         0.00000E+00
         0.00000E+00
         0.00000E+00
         0.00000E+00
         0.00000E+00
         0.00000E+00
         0.00000E+00
         0.00000E+00
         0.00000E+00
         0.00000E+00
         0.00000E+00
         0.00000E+00
         0.00000E+00
         0.00000E+00
         0.00000E+00
         0.00000E+00
         0.00000E+00
         0.00000E+00
         0.00000E+00
         0.00000E+00
         0.00000E+00
         0.00000E+00
         0.00000E+00
         0.00000E+00
         0.00000E+00
         0.00000E+00
         0.00000E+00
         0.00000E+00
         0.00000E+00
         0.00000E+00
         0.00000E+00
         0.00000E+00
         0.00000E+00
         0.00000E+00
         0.00000E+00
         0.00000E+00
         0.00000E+00
         0.00000E+00
         0.00000E+00
         0.00000E+00
         0.00000E+00
         0.00000E+00
         0.00000E+00
         0.00000E+00
         0.00000E+00
         0.00000E+00
         0.00000E+00
         0.00000E+00
         0.00000E+00
         0.00000E+00
         0.00000E+00
         0.00000E+00
         0.00000E+00
         0.00000E+00
         0.00000E+00
         0.00000E+00
         0.00000E+00
         0.00000E+00
         0.00000E+00
         0.00000E+00
         0.00000E+00
         0.00000E+00
         0.00000E+00
         0.00000E+00
         0.00000E+00
         0.00000E+00
         0.00000E+00
         0.00000E+00
         0.00000E+00
         0.00000E+00
         0.00000E+00
         0.00000E+00
         0.00000E+00
         0.00000E+00
         0.00000E+00
         0.00000E+00
         0.00000E+00
         0.00000E+00
         0.00000E+00
         0.00000E+00
         0.00000E+00
         0.00000E+00
         0.00000E+00
         0.00000E+00
         0.00000E+00
         0.00000E+00
         0.00000E+00
         0.00000E+00
         0.00000E+00
         0.00000E+00
         0.00000E+00
         0.00000E+00
         0.00000E+00
         0.00000E+00
         0.00000E+00
         0.00000E+00
         0.00000E+00
         0.00000E+00
         0.00000E+00
         0.00000E+00
         0.00000E+00
         0.00000E+00
         0.00000E+00
         0.00000E+00
         0.00000E+00
         0.00000E+00
         0.00000E+00
         0.00000E+00
         0.00000E+00
         0.00000E+00
         0.00000E+00
         0.00000E+00
         0.00000E+00
         0.00000E+00
         0.00000E+00
         0.00000E+00
         0.00000E+00
         0.00000E+00
         0.00000E+00
         0.00000E+00
         0.00000E+00
         0.00000E+00
         0.00000E+00
         0.00000E+00
         0.00000E+00
         0.00000E+00
         0.00000E+00
         0.00000E+00
         0.00000E+00
         0.00000E+00
         0.00000E+00
         0.00000E+00
         0.00000E+00
         0.00000E+00
         0.00000E+00
         0.00000E+00
         0.00000E+00
         0.00000E+00
         0.00000E+00
         0.00000E+00
         0.00000E+00
         0.00000E+00
         0.00000E+00
         0.00000E+00
         0.00000E+00
         0.00000E+00
         0.00000E+00
         0.00000E+00
         0.00000E+00
         0.00000E+00
         0.00000E+00
         0.00000E+00
         0.00000E+00
         0.00000E+00
         0.00000E+00
         0.00000E+00
         0.00000E+00
         0.00000E+00
         0.00000E+00
         0.00000E+00
         0.00000E+00
         0.00000E+00
         0.00000E+00
         0.00000E+00
         0.00000E+00
         0.00000E+00
         0.00000E+00
         0.00000E+00
         0.00000E+00
         0.00000E+00
         0.00000E+00
         0.00000E+00
         0.00000E+00
         0.00000E+00
         0.00000E+00
         0.00000E+00
         0.00000E+00
         0.00000E+00
         0.00000E+00
         0.00000E+00
         0.00000E+00
         0.00000E+00
         0.00000E+00
         0.00000E+00
         0.00000E+00
         0.00000E+00
         0.00000E+00
         0.00000E+00
         0.00000E+00
         0.00000E+00
         0.00000E+00
         0.00000E+00
         0.00000E+00
         0.00000E+00
         0.00000E+00
         0.00000E+00
         0.00000E+00
         0.00000E+00
         0.00000E+00
         0.00000E+00
         0.00000E+00
         0.00000E+00
         0.00000E+00
         0.00000E+00
         0.00000E+00
         0.00000E+00
         0.00000E+00
         0.00000E+00
         0.00000E+00
         0.00000E+00
         0.00000E+00
         0.00000E+00
         0.00000E+00
         0.00000E+00
         0.00000E+00
         0.00000E+00
         0.00000E+00
         0.00000E+00
         0.00000E+00
         0.00000E+00
         0.00000E+00
         0.00000E+00
         0.00000E+00
         0.00000E+00
         0.00000E+00
         0.00000E+00
         0.00000E+00
         0.00000E+00
         0.00000E+00
         0.00000E+00
         0.00000E+00
         0.00000E+00
         0.00000E+00
         0.00000E+00
         0.00000E+00
         0.00000E+00
         0.00000E+00
         0.00000E+00
         0.00000E+00
         0.00000E+00
         0.00000E+00
         0.00000E+00
         0.00000E+00
         0.00000E+00
         0.00000E+00
         0.00000E+00
         0.00000E+00
         0.00000E+00
         0.00000E+00
         0.00000E+00
         0.00000E+00
         0.00000E+00
         0.00000E+00
         0.00000E+00
         0.00000E+00
         0.00000E+00
         0.00000E+00
         0.00000E+00
         0.00000E+00
         0.00000E+00
         0.00000E+00
         0.00000E+00
         0.00000E+00
         0.00000E+00
         0.00000E+00
         0.00000E+00
         0.00000E+00
         0.00000E+00
         0.00000E+00
         0.00000E+00
         0.00000E+00
         0.00000E+00
         0.00000E+00
         0.00000E+00
         0.00000E+00
         0.00000E+00
         0.00000E+00
         0.00000E+00
         0.00000E+00
         0.00000E+00
         0.00000E+00
         0.00000E+00
         0.00000E+00
         0.00000E+00
         0.00000E+00
         0.00000E+00
         0.00000E+00
         0.00000E+00
         0.00000E+00
         0.00000E+00
         0.00000E+00
         0.00000E+00
         0.00000E+00
         0.00000E+00
         0.00000E+00
         0.00000E+00
         0.00000E+00
         0.00000E+00
         0.00000E+00
         0.00000E+00
         0.00000E+00
         0.00000E+00
         0.00000E+00
         0.00000E+00
         0.00000E+00
         0.00000E+00
         0.00000E+00
         0.00000E+00
         0.00000E+00
         0.00000E+00
         0.00000E+00
         0.00000E+00
         0.00000E+00
         0.00000E+00
         0.00000E+00
         0.00000E+00
         0.00000E+00
         0.00000E+00
         0.00000E+00
         0.00000E+00
         0.00000E+00
         0.00000E+00
         0.00000E+00
         0.00000E+00
         0.00000E+00
         0.00000E+00
         0.00000E+00
         0.00000E+00
         0.00000E+00
         0.00000E+00
         0.00000E+00
         0.00000E+00
         0.00000E+00
         0.00000E+00
         0.00000E+00
         0.00000E+00
         0.00000E+00
         0.00000E+00
         0.00000E+00
         0.00000E+00
         0.00000E+00
         0.00000E+00
         0.00000E+00
         0.00000E+00
         0.00000E+00
         0.00000E+00
         0.00000E+00
         0.00000E+00
         0.00000E+00
         0.00000E+00
         0.00000E+00
         0.00000E+00
         0.00000E+00
         0.00000E+00
         0.00000E+00
         0.00000E+00
         0.00000E+00
         0.00000E+00
         0.00000E+00
         0.00000E+00
         0.00000E+00
         0.00000E+00
         0.00000E+00
         0.00000E+00
         0.00000E+00
         0.00000E+00
         0.00000E+00
         0.00000E+00
         0.00000E+00
         0.00000E+00
         0.00000E+00
         0.00000E+00
         0.00000E+00
         0.00000E+00
         0.00000E+00
         0.00000E+00
         0.00000E+00
         0.00000E+00
         0.00000E+00
         0.00000E+00
         0.00000E+00
         0.00000E+00
         0.00000E+00
         0.00000E+00
         0.00000E+00
         0.00000E+00
         0.00000E+00
         0.00000E+00
         0.00000E+00
         0.00000E+00
         0.00000E+00
         0.00000E+00
         0.00000E+00
         0.00000E+00
         0.00000E+00
         0.00000E+00
         0.00000E+00
         0.00000E+00
         0.00000E+00
         0.00000E+00
         0.00000E+00
         0.00000E+00
         0.00000E+00
         0.00000E+00
         0.00000E+00
         0.00000E+00
         0.00000E+00
         0.00000E+00
         0.00000E+00
         0.00000E+00
         0.00000E+00
         0.00000E+00
         0.00000E+00
         0.00000E+00
         0.00000E+00
         0.00000E+00
         0.00000E+00
         0.00000E+00
         0.00000E+00
         0.00000E+00
         0.00000E+00
         0.00000E+00
         0.00000E+00
         0.00000E+00
         0.00000E+00
         0.00000E+00
         0.00000E+00
         0.00000E+00
         0.00000E+00
         0.00000E+00
         0.00000E+00
         0.00000E+00
         0.00000E+00
         0.00000E+00
         0.00000E+00
         0.00000E+00
         0.00000E+00
         0.00000E+00
         0.00000E+00
         0.00000E+00
         0.00000E+00
         0.00000E+00
         0.00000E+00
         0.00000E+00
         0.00000E+00
         0.00000E+00
         0.00000E+00
         0.00000E+00
         0.00000E+00
         0.00000E+00
         0.00000E+00
         0.00000E+00
         0.00000E+00
         0.00000E+00
         0.00000E+00
         0.00000E+00
         0.00000E+00
         0.00000E+00
         0.00000E+00
         0.00000E+00
         0.00000E+00
         0.00000E+00
         0.00000E+00
         0.00000E+00
         0.00000E+00
         0.00000E+00
         0.00000E+00
         0.00000E+00
         0.00000E+00
         0.00000E+00
         0.00000E+00
         0.00000E+00
         0.00000E+00
         0.00000E+00
         0.00000E+00
         0.00000E+00
         0.00000E+00
         0.00000E+00
         0.00000E+00
         0.00000E+00
         0.00000E+00
         0.00000E+00
         0.00000E+00
         0.00000E+00
         0.00000E+00
         0.00000E+00
         0.00000E+00
         0.00000E+00
         0.00000E+00
         0.00000E+00
         0.00000E+00
         0.00000E+00
         0.00000E+00
         0.00000E+00
         0.00000E+00
         0.00000E+00
         0.00000E+00
         0.00000E+00
         0.00000E+00
         0.00000E+00
         0.00000E+00
         0.00000E+00
         0.00000E+00
         0.00000E+00
         0.00000E+00
         0.00000E+00
         0.00000E+00
         0.00000E+00
         0.00000E+00
         0.00000E+00
         0.00000E+00
         0.00000E+00
         0.00000E+00
         0.00000E+00
         0.00000E+00
         0.00000E+00
         0.00000E+00
         0.00000E+00
         0.00000E+00
         0.00000E+00
         0.00000E+00
         0.00000E+00
         0.00000E+00
         0.00000E+00
         0.00000E+00
         0.00000E+00
         0.00000E+00
         0.00000E+00
         0.00000E+00
         0.00000E+00
         0.00000E+00
         0.00000E+00
         0.00000E+00
         0.00000E+00
         0.00000E+00
         0.00000E+00
         0.00000E+00
         0.00000E+00
         0.00000E+00
         0.00000E+00
         0.00000E+00
         0.00000E+00
         0.00000E+00
         0.00000E+00
         0.00000E+00
         0.00000E+00
         0.00000E+00
         0.00000E+00
         0.00000E+00
         0.00000E+00
         0.00000E+00
         0.00000E+00
         0.00000E+00
         0.00000E+00
         0.00000E+00
         0.00000E+00
         0.00000E+00
         0.00000E+00
         0.00000E+00
         0.00000E+00
         0.00000E+00
         0.00000E+00
         0.00000E+00
         0.00000E+00
         0.00000E+00
         0.00000E+00
         0.00000E+00
         0.00000E+00
         0.00000E+00
         0.00000E+00
         0.00000E+00
         0.00000E+00
         0.00000E+00
         0.00000E+00
         0.00000E+00
         0.00000E+00
         0.00000E+00
         0.00000E+00
         0.00000E+00
         0.00000E+00
         0.00000E+00
         0.00000E+00
         0.00000E+00
         0.00000E+00
         0.00000E+00
         0.00000E+00
         0.00000E+00
         0.00000E+00
         0.00000E+00
         0.00000E+00
         0.00000E+00
         0.00000E+00
         0.00000E+00
         0.00000E+00
         0.00000E+00
         0.00000E+00
         0.00000E+00
         0.00000E+00
         0.00000E+00
         0.00000E+00
         0.00000E+00
         0.00000E+00
         0.00000E+00
         0.00000E+00
         0.00000E+00
         0.00000E+00
         0.00000E+00
         0.00000E+00
         0.00000E+00
         0.00000E+00
         0.00000E+00
         0.00000E+00
         0.00000E+00
         0.00000E+00
         0.00000E+00
         0.00000E+00
         0.00000E+00
         0.00000E+00
         0.00000E+00
         0.00000E+00
         0.00000E+00
         0.00000E+00
         0.00000E+00
         0.00000E+00
         0.00000E+00
         0.00000E+00
         0.00000E+00
         0.00000E+00
         0.00000E+00
         0.00000E+00
         0.00000E+00
         0.00000E+00
         0.00000E+00
         0.00000E+00
         0.00000E+00
         0.00000E+00
         0.00000E+00
         0.00000E+00
         0.00000E+00
         0.00000E+00
         0.00000E+00
         0.00000E+00
         0.00000E+00
         0.00000E+00
         0.00000E+00
         0.00000E+00
         0.00000E+00
         0.00000E+00
         0.00000E+00
         0.00000E+00
         0.00000E+00
         0.00000E+00
         0.00000E+00
         0.00000E+00
         0.00000E+00
         0.00000E+00
         0.00000E+00
         0.00000E+00
         0.00000E+00
         0.00000E+00
         0.00000E+00
         0.00000E+00
         0.00000E+00
         0.00000E+00
         0.00000E+00
         0.00000E+00
         0.00000E+00
         0.00000E+00
         0.00000E+00
         0.00000E+00
         0.00000E+00
         0.00000E+00
         0.00000E+00
         0.00000E+00
         0.00000E+00
         0.00000E+00
         0.00000E+00
         0.00000E+00
         0.00000E+00
         0.00000E+00
         0.00000E+00
         0.00000E+00
         0.00000E+00
         0.00000E+00
         0.00000E+00
         0.00000E+00
         0.00000E+00
         0.00000E+00
         0.00000E+00
         0.00000E+00
         0.00000E+00
         0.00000E+00
         0.00000E+00
         0.00000E+00
         0.00000E+00
         0.00000E+00
         0.00000E+00
         0.00000E+00
         0.00000E+00
         0.00000E+00
         0.00000E+00
         0.00000E+00
         0.00000E+00
         0.00000E+00
         0.00000E+00
         0.00000E+00
         0.00000E+00
         0.00000E+00
         0.00000E+00
         0.00000E+00
         0.00000E+00
         0.00000E+00
         0.00000E+00
         0.00000E+00
         0.00000E+00
         0.00000E+00
         0.00000E+00
         0.00000E+00
         0.00000E+00
         0.00000E+00
         0.00000E+00
         0.00000E+00
         0.00000E+00
         0.00000E+00
         0.00000E+00
         0.00000E+00
         0.00000E+00
         0.00000E+00
         0.00000E+00
         0.00000E+00
         0.00000E+00
         0.00000E+00
         0.00000E+00
         0.00000E+00
         0.00000E+00
         0.00000E+00
         0.00000E+00
         0.00000E+00
         0.00000E+00
         0.00000E+00
         0.00000E+00
         0.00000E+00
         0.00000E+00
         0.00000E+00
         0.00000E+00
         0.00000E+00
         0.00000E+00
         0.00000E+00
         0.00000E+00
         0.00000E+00
         0.00000E+00
         0.00000E+00
         0.00000E+00
         0.00000E+00
         0.00000E+00
         0.00000E+00
         0.00000E+00
         0.00000E+00
         0.00000E+00
         0.00000E+00
         0.00000E+00
         0.00000E+00
         0.00000E+00
         0.00000E+00
         0.00000E+00
         0.00000E+00
         0.00000E+00
         0.00000E+00
         0.00000E+00
         0.00000E+00
         0.00000E+00
         0.00000E+00
         0.00000E+00
         0.00000E+00
         0.00000E+00
         0.00000E+00
         0.00000E+00
         0.00000E+00
         0.00000E+00
         0.00000E+00
         0.00000E+00
         0.00000E+00
         0.00000E+00
         0.00000E+00
         0.00000E+00
         0.00000E+00
         0.00000E+00
         0.00000E+00
         0.00000E+00
         0.00000E+00
         0.00000E+00
         0.00000E+00
         0.00000E+00
         0.00000E+00
         0.00000E+00
         0.00000E+00
         0.00000E+00
         0.00000E+00
         0.00000E+00
         0.00000E+00
         0.00000E+00
         0.00000E+00
         0.00000E+00
         0.00000E+00
         0.00000E+00
         0.00000E+00
         0.00000E+00
         0.00000E+00
         0.00000E+00
         0.00000E+00
         0.00000E+00
         0.00000E+00
         0.00000E+00
         0.00000E+00
         0.00000E+00
         0.00000E+00
         0.00000E+00
         0.00000E+00
         0.00000E+00
         0.00000E+00
         0.00000E+00
         0.00000E+00
         0.00000E+00
         0.00000E+00
         0.00000E+00
         0.00000E+00
         0.00000E+00
         0.00000E+00
         0.00000E+00
         0.00000E+00
         0.00000E+00
         0.00000E+00
         0.00000E+00
         0.00000E+00
         0.00000E+00
         0.00000E+00
         0.00000E+00
         0.00000E+00
         0.00000E+00
         0.00000E+00
         0.00000E+00
         0.00000E+00
         0.00000E+00
         0.00000E+00
         0.00000E+00
         0.00000E+00
         0.00000E+00
         0.00000E+00
         0.00000E+00
         0.00000E+00
         0.00000E+00
         0.00000E+00
         0.00000E+00
         0.00000E+00
         0.00000E+00
         0.00000E+00
         0.00000E+00
         0.00000E+00
         0.00000E+00
         0.00000E+00
         0.00000E+00
         0.00000E+00
         0.00000E+00
         0.00000E+00
         0.00000E+00
         0.00000E+00
         0.00000E+00
         0.00000E+00
         0.00000E+00
         0.00000E+00
         0.00000E+00
         0.00000E+00
         0.00000E+00
         0.00000E+00
         0.00000E+00
         0.00000E+00
         0.00000E+00
         0.00000E+00
         0.00000E+00
         0.00000E+00
         0.00000E+00
         0.00000E+00
         0.00000E+00
         0.00000E+00
         0.00000E+00
         0.00000E+00
         0.00000E+00
         0.00000E+00
         0.00000E+00
         0.00000E+00
         0.00000E+00
         0.00000E+00
         0.00000E+00
         0.00000E+00
         0.00000E+00
         0.00000E+00
         0.00000E+00
         0.00000E+00
         0.00000E+00
         0.00000E+00
         0.00000E+00
         0.00000E+00
         0.00000E+00
         0.00000E+00
         0.00000E+00
         0.00000E+00
         0.00000E+00
         0.00000E+00
         0.00000E+00
         0.00000E+00
         0.00000E+00
         0.00000E+00
         0.00000E+00
         0.00000E+00
         0.00000E+00
         0.00000E+00
         0.00000E+00
         0.00000E+00
         0.00000E+00
         0.00000E+00
         0.00000E+00
         0.00000E+00
         0.00000E+00
         0.00000E+00
         0.00000E+00
         0.00000E+00
         0.00000E+00
         0.00000E+00
         0.00000E+00
         0.00000E+00
         0.00000E+00
         0.00000E+00
         0.00000E+00
         0.00000E+00
         0.00000E+00
         0.00000E+00
         0.00000E+00
         0.00000E+00
         0.00000E+00
         0.00000E+00
         0.00000E+00
         0.00000E+00
         0.00000E+00
         0.00000E+00
         0.00000E+00
         0.00000E+00
         0.00000E+00
         0.00000E+00
         0.00000E+00
         0.00000E+00
         0.00000E+00
         0.00000E+00
         0.00000E+00
         0.00000E+00
         0.00000E+00
         0.00000E+00
         0.00000E+00
         0.00000E+00
         0.00000E+00
         0.00000E+00
         0.00000E+00
         0.00000E+00
         0.00000E+00
         0.00000E+00
         0.00000E+00
         0.00000E+00
         0.00000E+00
         0.00000E+00
         0.00000E+00
         0.00000E+00
         0.00000E+00
         0.00000E+00
         0.00000E+00
         0.00000E+00
         0.00000E+00
         0.00000E+00
         0.00000E+00
         0.00000E+00
         0.00000E+00
         0.00000E+00
         0.00000E+00
         0.00000E+00
         0.00000E+00
         0.00000E+00
         0.00000E+00
         0.00000E+00
         0.00000E+00
         0.00000E+00
         0.00000E+00
         0.00000E+00
         0.00000E+00
         0.00000E+00
         0.00000E+00
         0.00000E+00
         0.00000E+00
         0.00000E+00
         0.00000E+00
         0.00000E+00
         0.00000E+00
         0.00000E+00
         0.00000E+00
         0.00000E+00
         0.00000E+00
         0.00000E+00
         0.00000E+00
         0.00000E+00
         0.00000E+00
         0.00000E+00
         0.00000E+00
         0.00000E+00
         0.00000E+00
         0.00000E+00
         0.00000E+00
         0.00000E+00
         0.00000E+00
         0.00000E+00
         0.00000E+00
         0.00000E+00
         0.00000E+00
         0.00000E+00
         0.00000E+00
         0.00000E+00
         0.00000E+00
         0.00000E+00
         0.00000E+00
         0.00000E+00
         0.00000E+00
         0.00000E+00
         0.00000E+00
         0.00000E+00
         0.00000E+00
         0.00000E+00
         0.00000E+00
         0.00000E+00
         0.00000E+00
         0.00000E+00
         0.00000E+00
         0.00000E+00
         0.00000E+00
         0.00000E+00
         0.00000E+00
         0.00000E+00
         0.00000E+00
         0.00000E+00
         0.00000E+00
         0.00000E+00
         0.00000E+00
         0.00000E+00
         0.00000E+00
         0.00000E+00
         0.00000E+00
         0.00000E+00
         0.00000E+00
         0.00000E+00
         0.00000E+00
         0.00000E+00
         0.00000E+00
         0.00000E+00
         0.00000E+00
         0.00000E+00
         0.00000E+00
         0.00000E+00
         0.00000E+00
         0.00000E+00
         0.00000E+00
         0.00000E+00
         0.00000E+00
         0.00000E+00
         0.00000E+00
         0.00000E+00
         0.00000E+00
         0.00000E+00
         0.00000E+00
         0.00000E+00
         0.00000E+00
         0.00000E+00
         0.00000E+00
         0.00000E+00
         0.00000E+00
         0.00000E+00
         0.00000E+00
         0.00000E+00
         0.00000E+00
         0.00000E+00
         0.00000E+00
         0.00000E+00
         0.00000E+00
         0.00000E+00
         0.00000E+00
         0.00000E+00
         0.00000E+00
         0.00000E+00
         0.00000E+00
         0.00000E+00
         0.00000E+00
         0.00000E+00
         0.00000E+00
         0.00000E+00
         0.00000E+00
         0.00000E+00
         0.00000E+00
         0.00000E+00
         0.00000E+00
         0.00000E+00
         0.00000E+00
         0.00000E+00
         0.00000E+00
         0.00000E+00
         0.00000E+00
         0.00000E+00
         0.00000E+00
         0.00000E+00
         0.00000E+00
         0.00000E+00
         0.00000E+00
         0.00000E+00
         0.00000E+00
         0.00000E+00
         0.00000E+00
         0.00000E+00
         0.00000E+00
         0.00000E+00
         0.00000E+00
         0.00000E+00
         0.00000E+00
         0.00000E+00
         0.00000E+00
         0.00000E+00
         0.00000E+00
         0.00000E+00
         0.00000E+00
         0.00000E+00
         0.00000E+00
         0.00000E+00
         0.00000E+00
         0.00000E+00
         0.00000E+00
         0.00000E+00
         0.00000E+00
         0.00000E+00
         0.00000E+00
         0.00000E+00
         0.00000E+00
         0.00000E+00
         0.00000E+00
         0.00000E+00
         0.00000E+00
         0.00000E+00
         0.00000E+00
         0.00000E+00
         0.00000E+00
         0.00000E+00
         0.00000E+00
         0.00000E+00
         0.00000E+00
         0.00000E+00
         0.00000E+00
         0.00000E+00
         0.00000E+00
         0.00000E+00
         0.00000E+00
         0.00000E+00
         0.00000E+00
         0.00000E+00
         0.00000E+00
         0.00000E+00
         0.00000E+00
         0.00000E+00
         0.00000E+00
         0.00000E+00
         0.00000E+00
         0.00000E+00
         0.00000E+00
         0.00000E+00
         0.00000E+00
         0.00000E+00
         0.00000E+00
         0.00000E+00
         0.00000E+00
         0.00000E+00
         0.00000E+00
         0.00000E+00
         0.00000E+00
         0.00000E+00
         0.00000E+00
         0.00000E+00
         0.00000E+00
         0.00000E+00
         0.00000E+00
         0.00000E+00
         0.00000E+00
         0.00000E+00
         0.00000E+00
         0.00000E+00
         0.00000E+00
         0.00000E+00
         0.00000E+00
         0.00000E+00
         0.00000E+00
         0.00000E+00
         0.00000E+00
         0.00000E+00
         0.00000E+00
         0.00000E+00
         0.00000E+00
         0.00000E+00
         0.00000E+00
         0.00000E+00
         0.00000E+00
         0.00000E+00
         0.00000E+00
         0.00000E+00
         0.00000E+00
         0.00000E+00
         0.00000E+00
         0.00000E+00
         0.00000E+00
         0.00000E+00
         0.00000E+00
         0.00000E+00
         0.00000E+00
         0.00000E+00
         0.00000E+00
         0.00000E+00
         0.00000E+00
         0.00000E+00
         0.00000E+00
         0.00000E+00
         0.00000E+00
         0.00000E+00
         0.00000E+00
         0.00000E+00
         0.00000E+00
         0.00000E+00
         0.00000E+00
         0.00000E+00
         0.00000E+00
         0.00000E+00
         0.00000E+00
         0.00000E+00
         0.00000E+00
         0.00000E+00
         0.00000E+00
         0.00000E+00
         0.00000E+00
         0.00000E+00
         0.00000E+00
         0.00000E+00
         0.00000E+00
         0.00000E+00
         0.00000E+00
         0.00000E+00
         0.00000E+00
         0.00000E+00
         0.00000E+00
         0.00000E+00
         0.00000E+00
         0.00000E+00
         0.00000E+00
         0.00000E+00
         0.00000E+00
         0.00000E+00
         0.00000E+00
         0.00000E+00
         0.00000E+00
         0.00000E+00
         0.00000E+00
         0.00000E+00
         0.00000E+00
         0.00000E+00
         0.00000E+00
         0.00000E+00
         0.00000E+00
         0.00000E+00
         0.00000E+00
         0.00000E+00
         0.00000E+00
         0.00000E+00
         0.00000E+00
         0.00000E+00
         0.00000E+00
         0.00000E+00
         0.00000E+00
         0.00000E+00
         0.00000E+00
         0.00000E+00
         0.00000E+00
         0.00000E+00
         0.00000E+00
         0.00000E+00
         0.00000E+00
         0.00000E+00
         0.00000E+00
         0.00000E+00
         0.00000E+00
         0.00000E+00
         0.00000E+00
         0.00000E+00
         0.00000E+00
  
SCALARS                   max_wave_vel  double 1
LOOKUP_TABLE default
         0.00000E+00
         0.00000E+00
         0.00000E+00
         0.00000E+00
         0.00000E+00
         0.00000E+00
         0.00000E+00
         0.00000E+00
         0.00000E+00
         0.00000E+00
         0.00000E+00
         0.00000E+00
         0.00000E+00
         0.00000E+00
         0.00000E+00
         0.00000E+00
         0.00000E+00
         0.00000E+00
         0.00000E+00
         0.00000E+00
         0.00000E+00
         0.00000E+00
         0.00000E+00
         0.00000E+00
         0.00000E+00
         0.00000E+00
         0.00000E+00
         0.00000E+00
         0.00000E+00
         0.00000E+00
         0.00000E+00
         0.00000E+00
         0.00000E+00
         0.00000E+00
         0.00000E+00
         0.00000E+00
         0.00000E+00
         0.00000E+00
         0.00000E+00
         0.00000E+00
         0.00000E+00
         0.00000E+00
         0.00000E+00
         0.00000E+00
         0.00000E+00
         0.00000E+00
         0.00000E+00
         0.00000E+00
         0.00000E+00
         0.00000E+00
         0.00000E+00
         0.00000E+00
         0.00000E+00
         0.00000E+00
         0.00000E+00
         0.00000E+00
         0.00000E+00
         0.00000E+00
         0.00000E+00
         0.00000E+00
         0.00000E+00
         0.00000E+00
         0.00000E+00
         0.00000E+00
         0.00000E+00
         0.00000E+00
         0.00000E+00
         0.00000E+00
         0.00000E+00
         0.00000E+00
         0.00000E+00
         0.00000E+00
         0.00000E+00
         0.00000E+00
         0.00000E+00
         0.00000E+00
         0.00000E+00
         0.00000E+00
         0.00000E+00
         0.00000E+00
         0.00000E+00
         0.00000E+00
         0.00000E+00
         0.00000E+00
         0.00000E+00
         0.00000E+00
         0.00000E+00
         0.00000E+00
         0.00000E+00
         0.00000E+00
         0.00000E+00
         0.00000E+00
         0.00000E+00
         0.00000E+00
         0.00000E+00
         0.00000E+00
         0.00000E+00
         0.00000E+00
         0.00000E+00
         0.00000E+00
         0.00000E+00
         0.00000E+00
         0.00000E+00
         0.00000E+00
         0.00000E+00
         0.00000E+00
         0.00000E+00
         0.00000E+00
         0.00000E+00
         0.00000E+00
         0.00000E+00
         0.00000E+00
         0.00000E+00
         0.00000E+00
         0.00000E+00
         0.00000E+00
         0.00000E+00
         0.00000E+00
         0.00000E+00
         0.00000E+00
         0.00000E+00
         0.00000E+00
         0.00000E+00
         0.00000E+00
         0.00000E+00
         0.00000E+00
         0.00000E+00
         0.00000E+00
         0.00000E+00
         0.00000E+00
         0.00000E+00
         0.00000E+00
         0.00000E+00
         0.00000E+00
         0.00000E+00
         0.00000E+00
         0.00000E+00
         0.00000E+00
         0.00000E+00
         0.00000E+00
         0.00000E+00
         0.00000E+00
         0.00000E+00
         0.00000E+00
         0.00000E+00
         0.00000E+00
         0.00000E+00
         0.00000E+00
         0.00000E+00
         0.00000E+00
         0.00000E+00
         0.00000E+00
         0.00000E+00
         0.00000E+00
         0.00000E+00
         0.00000E+00
         0.00000E+00
         0.00000E+00
         0.00000E+00
         0.00000E+00
         0.00000E+00
         0.00000E+00
         0.00000E+00
         0.00000E+00
         0.00000E+00
         0.00000E+00
         0.00000E+00
         0.00000E+00
         0.00000E+00
         0.00000E+00
         0.00000E+00
         0.00000E+00
         0.00000E+00
         0.00000E+00
         0.00000E+00
         0.00000E+00
         0.00000E+00
         0.00000E+00
         0.00000E+00
         0.00000E+00
         0.00000E+00
         0.00000E+00
         0.00000E+00
         0.00000E+00
         0.00000E+00
         0.00000E+00
         0.00000E+00
         0.00000E+00
         0.00000E+00
         0.00000E+00
         0.00000E+00
         0.00000E+00
         0.00000E+00
         0.00000E+00
         0.00000E+00
         0.00000E+00
         0.00000E+00
         0.00000E+00
         0.00000E+00
         0.00000E+00
         0.00000E+00
         0.00000E+00
         0.00000E+00
         0.00000E+00
         0.00000E+00
         0.00000E+00
         0.00000E+00
         0.00000E+00
         0.00000E+00
         0.00000E+00
         0.00000E+00
         0.00000E+00
         0.00000E+00
         0.00000E+00
         0.00000E+00
         0.00000E+00
         0.00000E+00
         0.00000E+00
         0.00000E+00
         0.00000E+00
         0.00000E+00
         0.00000E+00
         0.00000E+00
         0.00000E+00
         0.00000E+00
         0.00000E+00
         0.00000E+00
         0.00000E+00
         0.00000E+00
         0.00000E+00
         0.00000E+00
         0.00000E+00
         0.00000E+00
         0.00000E+00
         0.00000E+00
         0.00000E+00
         0.00000E+00
         0.00000E+00
         0.00000E+00
         0.00000E+00
         0.00000E+00
         0.00000E+00
         0.00000E+00
         0.00000E+00
         0.00000E+00
         0.00000E+00
         0.00000E+00
         0.00000E+00
         0.00000E+00
         0.00000E+00
         0.00000E+00
         0.00000E+00
         0.00000E+00
         0.00000E+00
         0.00000E+00
         0.00000E+00
         0.00000E+00
         0.00000E+00
         0.00000E+00
         0.00000E+00
         0.00000E+00
         0.00000E+00
         0.00000E+00
         0.00000E+00
         0.00000E+00
         0.00000E+00
         0.00000E+00
         0.00000E+00
         0.00000E+00
         0.00000E+00
         0.00000E+00
         0.00000E+00
         0.00000E+00
         0.00000E+00
         0.00000E+00
         0.00000E+00
         0.00000E+00
         0.00000E+00
         0.00000E+00
         0.00000E+00
         0.00000E+00
         0.00000E+00
         0.00000E+00
         0.00000E+00
         0.00000E+00
         0.00000E+00
         0.00000E+00
         0.00000E+00
         0.00000E+00
         0.00000E+00
         0.00000E+00
         0.00000E+00
         0.00000E+00
         0.00000E+00
         0.00000E+00
         0.00000E+00
         0.00000E+00
         0.00000E+00
         0.00000E+00
         0.00000E+00
         0.00000E+00
         0.00000E+00
         0.00000E+00
         0.00000E+00
         0.00000E+00
         0.00000E+00
         0.00000E+00
         0.00000E+00
         0.00000E+00
         0.00000E+00
         0.00000E+00
         0.00000E+00
         0.00000E+00
         0.00000E+00
         0.00000E+00
         0.00000E+00
         0.00000E+00
         0.00000E+00
         0.00000E+00
         0.00000E+00
         0.00000E+00
         0.00000E+00
         0.00000E+00
         0.00000E+00
         0.00000E+00
         0.00000E+00
         0.00000E+00
         0.00000E+00
         0.00000E+00
         0.00000E+00
         0.00000E+00
         0.00000E+00
         0.00000E+00
         0.00000E+00
         0.00000E+00
         0.00000E+00
         0.00000E+00
         0.00000E+00
         0.00000E+00
         0.00000E+00
         0.00000E+00
         0.00000E+00
         0.00000E+00
         0.00000E+00
         0.00000E+00
         0.00000E+00
         0.00000E+00
         0.00000E+00
         0.00000E+00
         0.00000E+00
         0.00000E+00
         0.00000E+00
         0.00000E+00
         0.00000E+00
         0.00000E+00
         0.00000E+00
         0.00000E+00
         0.00000E+00
         0.00000E+00
         0.00000E+00
         0.00000E+00
         0.00000E+00
         0.00000E+00
         0.00000E+00
         0.00000E+00
         0.00000E+00
         0.00000E+00
         0.00000E+00
         0.00000E+00
         0.00000E+00
         0.00000E+00
         0.00000E+00
         0.00000E+00
         0.00000E+00
         0.00000E+00
         0.00000E+00
         0.00000E+00
         0.00000E+00
         0.00000E+00
         0.00000E+00
         0.00000E+00
         0.00000E+00
         0.00000E+00
         0.00000E+00
         0.00000E+00
         0.00000E+00
         0.00000E+00
         0.00000E+00
         0.00000E+00
         0.00000E+00
         0.00000E+00
         0.00000E+00
         0.00000E+00
         0.00000E+00
         0.00000E+00
         0.00000E+00
         0.00000E+00
         0.00000E+00
         0.00000E+00
         0.00000E+00
         0.00000E+00
         0.00000E+00
         0.00000E+00
         0.00000E+00
         0.00000E+00
         0.00000E+00
         0.00000E+00
         0.00000E+00
         0.00000E+00
         0.00000E+00
         0.00000E+00
         0.00000E+00
         0.00000E+00
         0.00000E+00
         0.00000E+00
         0.00000E+00
         0.00000E+00
         0.00000E+00
         0.00000E+00
         0.00000E+00
         0.00000E+00
         0.00000E+00
         0.00000E+00
         0.00000E+00
         0.00000E+00
         0.00000E+00
         0.00000E+00
         0.00000E+00
         0.00000E+00
         0.00000E+00
         0.00000E+00
         0.00000E+00
         0.00000E+00
         0.00000E+00
         0.00000E+00
         0.00000E+00
         0.00000E+00
         0.00000E+00
         0.00000E+00
         0.00000E+00
         0.00000E+00
         0.00000E+00
         0.00000E+00
         0.00000E+00
         0.00000E+00
         0.00000E+00
         0.00000E+00
         0.00000E+00
         0.00000E+00
         0.00000E+00
         0.00000E+00
         0.00000E+00
         0.00000E+00
         0.00000E+00
         0.00000E+00
         0.00000E+00
         0.00000E+00
         0.00000E+00
         0.00000E+00
         0.00000E+00
         0.00000E+00
         0.00000E+00
         0.00000E+00
         0.00000E+00
         0.00000E+00
         0.00000E+00
         0.00000E+00
         0.00000E+00
         0.00000E+00
         0.00000E+00
         0.00000E+00
         0.00000E+00
         0.00000E+00
         0.00000E+00
         0.00000E+00
         0.00000E+00
         0.00000E+00
         0.00000E+00
         0.00000E+00
         0.00000E+00
         0.00000E+00
         0.00000E+00
         0.00000E+00
         0.00000E+00
         0.00000E+00
         0.00000E+00
         0.00000E+00
         0.00000E+00
         0.00000E+00
         0.00000E+00
         0.00000E+00
         0.00000E+00
         0.00000E+00
         0.00000E+00
         0.00000E+00
         0.00000E+00
         0.00000E+00
         0.00000E+00
         0.00000E+00
         0.00000E+00
         0.00000E+00
         0.00000E+00
         0.00000E+00
         0.00000E+00
         0.00000E+00
         0.00000E+00
         0.00000E+00
         0.00000E+00
         0.00000E+00
         0.00000E+00
         0.00000E+00
         0.00000E+00
         0.00000E+00
         0.00000E+00
         0.00000E+00
         0.00000E+00
         0.00000E+00
         0.00000E+00
         0.00000E+00
         0.00000E+00
         0.00000E+00
         0.00000E+00
         0.00000E+00
         0.00000E+00
         0.00000E+00
         0.00000E+00
         0.00000E+00
         0.00000E+00
         0.00000E+00
         0.00000E+00
         0.00000E+00
         0.00000E+00
         0.00000E+00
         0.00000E+00
         0.00000E+00
         0.00000E+00
         0.00000E+00
         0.00000E+00
         0.00000E+00
         0.00000E+00
         0.00000E+00
         0.00000E+00
         0.00000E+00
         0.00000E+00
         0.00000E+00
         0.00000E+00
         0.00000E+00
         0.00000E+00
         0.00000E+00
         0.00000E+00
         0.00000E+00
         0.00000E+00
         0.00000E+00
         0.00000E+00
         0.00000E+00
         0.00000E+00
         0.00000E+00
         0.00000E+00
         0.00000E+00
         0.00000E+00
         0.00000E+00
         0.00000E+00
         0.00000E+00
         0.00000E+00
         0.00000E+00
         0.00000E+00
         0.00000E+00
         0.00000E+00
         0.00000E+00
         0.00000E+00
         0.00000E+00
         0.00000E+00
         0.00000E+00
         0.00000E+00
         0.00000E+00
         0.00000E+00
         0.00000E+00
         0.00000E+00
         0.00000E+00
         0.00000E+00
         0.00000E+00
         0.00000E+00
         0.00000E+00
         0.00000E+00
         0.00000E+00
         0.00000E+00
         0.00000E+00
         0.00000E+00
         0.00000E+00
         0.00000E+00
         0.00000E+00
         0.00000E+00
         0.00000E+00
         0.00000E+00
         0.00000E+00
         0.00000E+00
         0.00000E+00
         0.00000E+00
         0.00000E+00
         0.00000E+00
         0.00000E+00
         0.00000E+00
         0.00000E+00
         0.00000E+00
         0.00000E+00
         0.00000E+00
         0.00000E+00
         0.00000E+00
         0.00000E+00
         0.00000E+00
         0.00000E+00
         0.00000E+00
         0.00000E+00
         0.00000E+00
         0.00000E+00
         0.00000E+00
         0.00000E+00
         0.00000E+00
         0.00000E+00
         0.00000E+00
         0.00000E+00
         0.00000E+00
         0.00000E+00
         0.00000E+00
         0.00000E+00
         0.00000E+00
         0.00000E+00
         0.00000E+00
         0.00000E+00
         0.00000E+00
         0.00000E+00
         0.00000E+00
         0.00000E+00
         0.00000E+00
         0.00000E+00
         0.00000E+00
         0.00000E+00
         0.00000E+00
         0.00000E+00
         0.00000E+00
         0.00000E+00
         0.00000E+00
         0.00000E+00
         0.00000E+00
         0.00000E+00
         0.00000E+00
         0.00000E+00
         0.00000E+00
         0.00000E+00
         0.00000E+00
         0.00000E+00
         0.00000E+00
         0.00000E+00
         0.00000E+00
         0.00000E+00
         0.00000E+00
         0.00000E+00
         0.00000E+00
         0.00000E+00
         0.00000E+00
         0.00000E+00
         0.00000E+00
         0.00000E+00
         0.00000E+00
         0.00000E+00
         0.00000E+00
         0.00000E+00
         0.00000E+00
         0.00000E+00
         0.00000E+00
         0.00000E+00
         0.00000E+00
         0.00000E+00
         0.00000E+00
         0.00000E+00
         0.00000E+00
         0.00000E+00
         0.00000E+00
         0.00000E+00
         0.00000E+00
         0.00000E+00
         0.00000E+00
         0.00000E+00
         0.00000E+00
         0.00000E+00
         0.00000E+00
         0.00000E+00
         0.00000E+00
         0.00000E+00
         0.00000E+00
         0.00000E+00
         0.00000E+00
         0.00000E+00
         0.00000E+00
         0.00000E+00
         0.00000E+00
         0.00000E+00
         0.00000E+00
         0.00000E+00
         0.00000E+00
         0.00000E+00
         0.00000E+00
         0.00000E+00
         0.00000E+00
         0.00000E+00
         0.00000E+00
         0.00000E+00
         0.00000E+00
         0.00000E+00
         0.00000E+00
         0.00000E+00
         0.00000E+00
         0.00000E+00
         0.00000E+00
         0.00000E+00
         0.00000E+00
         0.00000E+00
         0.00000E+00
         0.00000E+00
         0.00000E+00
         0.00000E+00
         0.00000E+00
         0.00000E+00
         0.00000E+00
         0.00000E+00
         0.00000E+00
         0.00000E+00
         0.00000E+00
         0.00000E+00
         0.00000E+00
         0.00000E+00
         0.00000E+00
         0.00000E+00
         0.00000E+00
         0.00000E+00
         0.00000E+00
         0.00000E+00
         0.00000E+00
         0.00000E+00
         0.00000E+00
         0.00000E+00
         0.00000E+00
         0.00000E+00
         0.00000E+00
         0.00000E+00
         0.00000E+00
         0.00000E+00
         0.00000E+00
         0.00000E+00
         0.00000E+00
         0.00000E+00
         0.00000E+00
         0.00000E+00
         0.00000E+00
         0.00000E+00
         0.00000E+00
         0.00000E+00
         0.00000E+00
         0.00000E+00
         0.00000E+00
         0.00000E+00
         0.00000E+00
         0.00000E+00
         0.00000E+00
         0.00000E+00
         0.00000E+00
         0.00000E+00
         0.00000E+00
         0.00000E+00
         0.00000E+00
         0.00000E+00
         0.00000E+00
         0.00000E+00
         0.00000E+00
         0.00000E+00
         0.00000E+00
         0.00000E+00
         0.00000E+00
         0.00000E+00
         0.00000E+00
         0.00000E+00
         0.00000E+00
         0.00000E+00
         0.00000E+00
         0.00000E+00
         0.00000E+00
         0.00000E+00
         0.00000E+00
         0.00000E+00
         0.00000E+00
         0.00000E+00
         0.00000E+00
         0.00000E+00
         0.00000E+00
         0.00000E+00
         0.00000E+00
         0.00000E+00
         0.00000E+00
         0.00000E+00
         0.00000E+00
         0.00000E+00
         0.00000E+00
         0.00000E+00
         0.00000E+00
         0.00000E+00
         0.00000E+00
         0.00000E+00
         0.00000E+00
         0.00000E+00
         0.00000E+00
         0.00000E+00
         0.00000E+00
         0.00000E+00
         0.00000E+00
         0.00000E+00
         0.00000E+00
         0.00000E+00
         0.00000E+00
         0.00000E+00
         0.00000E+00
         0.00000E+00
         0.00000E+00
         0.00000E+00
         0.00000E+00
         0.00000E+00
         0.00000E+00
         0.00000E+00
         0.00000E+00
         0.00000E+00
         0.00000E+00
         0.00000E+00
         0.00000E+00
         0.00000E+00
         0.00000E+00
         0.00000E+00
         0.00000E+00
         0.00000E+00
         0.00000E+00
         0.00000E+00
         0.00000E+00
         0.00000E+00
         0.00000E+00
         0.00000E+00
         0.00000E+00
         0.00000E+00
         0.00000E+00
         0.00000E+00
         0.00000E+00
         0.00000E+00
         0.00000E+00
         0.00000E+00
         0.00000E+00
         0.00000E+00
         0.00000E+00
         0.00000E+00
         0.00000E+00
         0.00000E+00
         0.00000E+00
         0.00000E+00
         0.00000E+00
         0.00000E+00
         0.00000E+00
         0.00000E+00
         0.00000E+00
         0.00000E+00
         0.00000E+00
         0.00000E+00
         0.00000E+00
         0.00000E+00
         0.00000E+00
         0.00000E+00
         0.00000E+00
         0.00000E+00
         0.00000E+00
         0.00000E+00
         0.00000E+00
         0.00000E+00
         0.00000E+00
         0.00000E+00
         0.00000E+00
         0.00000E+00
         0.00000E+00
         0.00000E+00
         0.00000E+00
         0.00000E+00
         0.00000E+00
         0.00000E+00
         0.00000E+00
         0.00000E+00
         0.00000E+00
         0.00000E+00
         0.00000E+00
         0.00000E+00
         0.00000E+00
         0.00000E+00
         0.00000E+00
         0.00000E+00
         0.00000E+00
         0.00000E+00
         0.00000E+00
         0.00000E+00
         0.00000E+00
         0.00000E+00
         0.00000E+00
         0.00000E+00
         0.00000E+00
         0.00000E+00
         0.00000E+00
         0.00000E+00
         0.00000E+00
         0.00000E+00
         0.00000E+00
         0.00000E+00
         0.00000E+00
         0.00000E+00
         0.00000E+00
         0.00000E+00
         0.00000E+00
         0.00000E+00
         0.00000E+00
         0.00000E+00
         0.00000E+00
         0.00000E+00
         0.00000E+00
         0.00000E+00
         0.00000E+00
         0.00000E+00
         0.00000E+00
         0.00000E+00
         0.00000E+00
         0.00000E+00
         0.00000E+00
         0.00000E+00
         0.00000E+00
         0.00000E+00
         0.00000E+00
         0.00000E+00
         0.00000E+00
         0.00000E+00
         0.00000E+00
         0.00000E+00
         0.00000E+00
         0.00000E+00
         0.00000E+00
         0.00000E+00
         0.00000E+00
         0.00000E+00
         0.00000E+00
         0.00000E+00
         0.00000E+00
         0.00000E+00
         0.00000E+00
         0.00000E+00
         0.00000E+00
         0.00000E+00
         0.00000E+00
         0.00000E+00
         0.00000E+00
         0.00000E+00
         0.00000E+00
         0.00000E+00
         0.00000E+00
         0.00000E+00
         0.00000E+00
         0.00000E+00
         0.00000E+00
         0.00000E+00
         0.00000E+00
         0.00000E+00
         0.00000E+00
         0.00000E+00
         0.00000E+00
         0.00000E+00
         0.00000E+00
         0.00000E+00
         0.00000E+00
         0.00000E+00
         0.00000E+00
         0.00000E+00
         0.00000E+00
         0.00000E+00
         0.00000E+00
         0.00000E+00
         0.00000E+00
         0.00000E+00
         0.00000E+00
         0.00000E+00
         0.00000E+00
         0.00000E+00
         0.00000E+00
         0.00000E+00
         0.00000E+00
         0.00000E+00
         0.00000E+00
         0.00000E+00
         0.00000E+00
         0.00000E+00
         0.00000E+00
         0.00000E+00
         0.00000E+00
         0.00000E+00
         0.00000E+00
         0.00000E+00
         0.00000E+00
         0.00000E+00
         0.00000E+00
         0.00000E+00
         0.00000E+00
         0.00000E+00
         0.00000E+00
         0.00000E+00
         0.00000E+00
         0.00000E+00
         0.00000E+00
         0.00000E+00
         0.00000E+00
         0.00000E+00
         0.00000E+00
         0.00000E+00
         0.00000E+00
         0.00000E+00
         0.00000E+00
         0.00000E+00
         0.00000E+00
         0.00000E+00
         0.00000E+00
         0.00000E+00
         0.00000E+00
         0.00000E+00
         0.00000E+00
         0.00000E+00
         0.00000E+00
         0.00000E+00
         0.00000E+00
         0.00000E+00
         0.00000E+00
         0.00000E+00
         0.00000E+00
         0.00000E+00
         0.00000E+00
         0.00000E+00
         0.00000E+00
         0.00000E+00
         0.00000E+00
         0.00000E+00
         0.00000E+00
         0.00000E+00
         0.00000E+00
         0.00000E+00
         0.00000E+00
         0.00000E+00
         0.00000E+00
         0.00000E+00
         0.00000E+00
         0.00000E+00
         0.00000E+00
         0.00000E+00
         0.00000E+00
         0.00000E+00
         0.00000E+00
         0.00000E+00
         0.00000E+00
         0.00000E+00
         0.00000E+00
         0.00000E+00
         0.00000E+00
         0.00000E+00
         0.00000E+00
         0.00000E+00
         0.00000E+00
         0.00000E+00
         0.00000E+00
         0.00000E+00
         0.00000E+00
         0.00000E+00
         0.00000E+00
         0.00000E+00
         0.00000E+00
         0.00000E+00
         0.00000E+00
         0.00000E+00
         0.00000E+00
         0.00000E+00
         0.00000E+00
         0.00000E+00
         0.00000E+00
         0.00000E+00
         0.00000E+00
         0.00000E+00
         0.00000E+00
         0.00000E+00
         0.00000E+00
         0.00000E+00
         0.00000E+00
         0.00000E+00
         0.00000E+00
         0.00000E+00
         0.00000E+00
         0.00000E+00
         0.00000E+00
         0.00000E+00
         0.00000E+00
         0.00000E+00
         0.00000E+00
         0.00000E+00
         0.00000E+00
         0.00000E+00
         0.00000E+00
         0.00000E+00
         0.00000E+00
         0.00000E+00
         0.00000E+00
         0.00000E+00
         0.00000E+00
         0.00000E+00
         0.00000E+00
         0.00000E+00
         0.00000E+00
         0.00000E+00
         0.00000E+00
         0.00000E+00
         0.00000E+00
         0.00000E+00
         0.00000E+00
         0.00000E+00
         0.00000E+00
         0.00000E+00
         0.00000E+00
         0.00000E+00
         0.00000E+00
         0.00000E+00
         0.00000E+00
         0.00000E+00
         0.00000E+00
         0.00000E+00
         0.00000E+00
         0.00000E+00
         0.00000E+00
         0.00000E+00
         0.00000E+00
         0.00000E+00
         0.00000E+00
         0.00000E+00
         0.00000E+00
         0.00000E+00
         0.00000E+00
         0.00000E+00
         0.00000E+00
         0.00000E+00
         0.00000E+00
         0.00000E+00
         0.00000E+00
         0.00000E+00
         0.00000E+00
         0.00000E+00
         0.00000E+00
         0.00000E+00
         0.00000E+00
         0.00000E+00
         0.00000E+00
         0.00000E+00
         0.00000E+00
         0.00000E+00
         0.00000E+00
         0.00000E+00
         0.00000E+00
         0.00000E+00
         0.00000E+00
         0.00000E+00
         0.00000E+00
         0.00000E+00
         0.00000E+00
         0.00000E+00
         0.00000E+00
         0.00000E+00
         0.00000E+00
         0.00000E+00
         0.00000E+00
         0.00000E+00
         0.00000E+00
         0.00000E+00
         0.00000E+00
         0.00000E+00
         0.00000E+00
         0.00000E+00
         0.00000E+00
         0.00000E+00
         0.00000E+00
         0.00000E+00
         0.00000E+00
         0.00000E+00
         0.00000E+00
         0.00000E+00
         0.00000E+00
         0.00000E+00
         0.00000E+00
         0.00000E+00
         0.00000E+00
         0.00000E+00
         0.00000E+00
         0.00000E+00
         0.00000E+00
         0.00000E+00
         0.00000E+00
         0.00000E+00
         0.00000E+00
         0.00000E+00
         0.00000E+00
         0.00000E+00
         0.00000E+00
         0.00000E+00
         0.00000E+00
         0.00000E+00
         0.00000E+00
         0.00000E+00
         0.00000E+00
         0.00000E+00
         0.00000E+00
         0.00000E+00
         0.00000E+00
         0.00000E+00
         0.00000E+00
         0.00000E+00
         0.00000E+00
         0.00000E+00
         0.00000E+00
         0.00000E+00
         0.00000E+00
         0.00000E+00
         0.00000E+00
         0.00000E+00
         0.00000E+00
         0.00000E+00
         0.00000E+00
         0.00000E+00
         0.00000E+00
         0.00000E+00
         0.00000E+00
         0.00000E+00
         0.00000E+00
         0.00000E+00
         0.00000E+00
         0.00000E+00
         0.00000E+00
         0.00000E+00
         0.00000E+00
         0.00000E+00
         0.00000E+00
         0.00000E+00
         0.00000E+00
         0.00000E+00
         0.00000E+00
         0.00000E+00
         0.00000E+00
         0.00000E+00
         0.00000E+00
         0.00000E+00
         0.00000E+00
         0.00000E+00
         0.00000E+00
         0.00000E+00
         0.00000E+00
         0.00000E+00
         0.00000E+00
         0.00000E+00
         0.00000E+00
         0.00000E+00
         0.00000E+00
         0.00000E+00
         0.00000E+00
         0.00000E+00
         0.00000E+00
         0.00000E+00
         0.00000E+00
         0.00000E+00
         0.00000E+00
         0.00000E+00
         0.00000E+00
         0.00000E+00
         0.00000E+00
         0.00000E+00
         0.00000E+00
         0.00000E+00
         0.00000E+00
         0.00000E+00
         0.00000E+00
         0.00000E+00
         0.00000E+00
         0.00000E+00
         0.00000E+00
         0.00000E+00
         0.00000E+00
         0.00000E+00
         0.00000E+00
         0.00000E+00
         0.00000E+00
         0.00000E+00
         0.00000E+00
         0.00000E+00
         0.00000E+00
         0.00000E+00
         0.00000E+00
         0.00000E+00
         0.00000E+00
         0.00000E+00
         0.00000E+00
         0.00000E+00
         0.00000E+00
         0.00000E+00
         0.00000E+00
         0.00000E+00
         0.00000E+00
         0.00000E+00
         0.00000E+00
         0.00000E+00
         0.00000E+00
         0.00000E+00
         0.00000E+00
         0.00000E+00
         0.00000E+00
         0.00000E+00
         0.00000E+00
         0.00000E+00
         0.00000E+00
         0.00000E+00
         0.00000E+00
         0.00000E+00
         0.00000E+00
         0.00000E+00
         0.00000E+00
         0.00000E+00
         0.00000E+00
         0.00000E+00
         0.00000E+00
         0.00000E+00
         0.00000E+00
         0.00000E+00
         0.00000E+00
         0.00000E+00
         0.00000E+00
         0.00000E+00
         0.00000E+00
         0.00000E+00
         0.00000E+00
         0.00000E+00
         0.00000E+00
         0.00000E+00
         0.00000E+00
         0.00000E+00
         0.00000E+00
         0.00000E+00
         0.00000E+00
         0.00000E+00
         0.00000E+00
         0.00000E+00
         0.00000E+00
         0.00000E+00
         0.00000E+00
         0.00000E+00
         0.00000E+00
         0.00000E+00
         0.00000E+00
         0.00000E+00
         0.00000E+00
         0.00000E+00
         0.00000E+00
         0.00000E+00
         0.00000E+00
         0.00000E+00
         0.00000E+00
         0.00000E+00
         0.00000E+00
         0.00000E+00
         0.00000E+00
         0.00000E+00
         0.00000E+00
         0.00000E+00
         0.00000E+00
         0.00000E+00
         0.00000E+00
         0.00000E+00
         0.00000E+00
         0.00000E+00
         0.00000E+00
         0.00000E+00
         0.00000E+00
         0.00000E+00
         0.00000E+00
         0.00000E+00
         0.00000E+00
         0.00000E+00
         0.00000E+00
         0.00000E+00
         0.00000E+00
         0.00000E+00
         0.00000E+00
         0.00000E+00
         0.00000E+00
         0.00000E+00
         0.00000E+00
         0.00000E+00
         0.00000E+00
         0.00000E+00
         0.00000E+00
         0.00000E+00
         0.00000E+00
         0.00000E+00
         0.00000E+00
         0.00000E+00
         0.00000E+00
         0.00000E+00
         0.00000E+00
         0.00000E+00
         0.00000E+00
         0.00000E+00
         0.00000E+00
         0.00000E+00
         0.00000E+00
         0.00000E+00
         0.00000E+00
         0.00000E+00
         0.00000E+00
         0.00000E+00
         0.00000E+00
         0.00000E+00
         0.00000E+00
         0.00000E+00
         0.00000E+00
         0.00000E+00
         0.00000E+00
         0.00000E+00
         0.00000E+00
         0.00000E+00
         0.00000E+00
         0.00000E+00
         0.00000E+00
         0.00000E+00
         0.00000E+00
         0.00000E+00
         0.00000E+00
         0.00000E+00
         0.00000E+00
         0.00000E+00
         0.00000E+00
         0.00000E+00
         0.00000E+00
         0.00000E+00
         0.00000E+00
         0.00000E+00
         0.00000E+00
         0.00000E+00
         0.00000E+00
         0.00000E+00
         0.00000E+00
         0.00000E+00
         0.00000E+00
         0.00000E+00
         0.00000E+00
         0.00000E+00
         0.00000E+00
         0.00000E+00
         0.00000E+00
         0.00000E+00
         0.00000E+00
         0.00000E+00
         0.00000E+00
         0.00000E+00
         0.00000E+00
         0.00000E+00
         0.00000E+00
         0.00000E+00
         0.00000E+00
         0.00000E+00
         0.00000E+00
         0.00000E+00
         0.00000E+00
         0.00000E+00
         0.00000E+00
         0.00000E+00
         0.00000E+00
         0.00000E+00
         0.00000E+00
         0.00000E+00
         0.00000E+00
         0.00000E+00
         0.00000E+00
         0.00000E+00
         0.00000E+00
         0.00000E+00
         0.00000E+00
         0.00000E+00
         0.00000E+00
         0.00000E+00
         0.00000E+00
         0.00000E+00
         0.00000E+00
         0.00000E+00
         0.00000E+00
         0.00000E+00
         0.00000E+00
         0.00000E+00
         0.00000E+00
         0.00000E+00
         0.00000E+00
         0.00000E+00
         0.00000E+00
         0.00000E+00
         0.00000E+00
         0.00000E+00
         0.00000E+00
         0.00000E+00
         0.00000E+00
         0.00000E+00
         0.00000E+00
         0.00000E+00
         0.00000E+00
         0.00000E+00
         0.00000E+00
         0.00000E+00
         0.00000E+00
         0.00000E+00
         0.00000E+00
         0.00000E+00
         0.00000E+00
         0.00000E+00
         0.00000E+00
         0.00000E+00
         0.00000E+00
         0.00000E+00
         0.00000E+00
         0.00000E+00
         0.00000E+00
         0.00000E+00
         0.00000E+00
         0.00000E+00
         0.00000E+00
         0.00000E+00
         0.00000E+00
         0.00000E+00
         0.00000E+00
         0.00000E+00
         0.00000E+00
         0.00000E+00
         0.00000E+00
         0.00000E+00
         0.00000E+00
         0.00000E+00
         0.00000E+00
         0.00000E+00
         0.00000E+00
         0.00000E+00
         0.00000E+00
         0.00000E+00
         0.00000E+00
         0.00000E+00
         0.00000E+00
         0.00000E+00
         0.00000E+00
         0.00000E+00
         0.00000E+00
         0.00000E+00
         0.00000E+00
         0.00000E+00
         0.00000E+00
         0.00000E+00
         0.00000E+00
         0.00000E+00
         0.00000E+00
         0.00000E+00
         0.00000E+00
         0.00000E+00
         0.00000E+00
         0.00000E+00
         0.00000E+00
         0.00000E+00
         0.00000E+00
         0.00000E+00
         0.00000E+00
         0.00000E+00
         0.00000E+00
         0.00000E+00
         0.00000E+00
         0.00000E+00
         0.00000E+00
         0.00000E+00
         0.00000E+00
         0.00000E+00
         0.00000E+00
         0.00000E+00
         0.00000E+00
         0.00000E+00
         0.00000E+00
         0.00000E+00
         0.00000E+00
         0.00000E+00
         0.00000E+00
         0.00000E+00
         0.00000E+00
         0.00000E+00
         0.00000E+00
         0.00000E+00
         0.00000E+00
         0.00000E+00
         0.00000E+00
         0.00000E+00
         0.00000E+00
         0.00000E+00
         0.00000E+00
         0.00000E+00
         0.00000E+00
         0.00000E+00
         0.00000E+00
         0.00000E+00
         0.00000E+00
         0.00000E+00
         0.00000E+00
         0.00000E+00
         0.00000E+00
         0.00000E+00
         0.00000E+00
         0.00000E+00
         0.00000E+00
         0.00000E+00
         0.00000E+00
         0.00000E+00
         0.00000E+00
         0.00000E+00
         0.00000E+00
         0.00000E+00
         0.00000E+00
         0.00000E+00
         0.00000E+00
         0.00000E+00
         0.00000E+00
         0.00000E+00
         0.00000E+00
         0.00000E+00
         0.00000E+00
         0.00000E+00
         0.00000E+00
         0.00000E+00
         0.00000E+00
         0.00000E+00
         0.00000E+00
         0.00000E+00
         0.00000E+00
         0.00000E+00
         0.00000E+00
         0.00000E+00
         0.00000E+00
         0.00000E+00
         0.00000E+00
         0.00000E+00
         0.00000E+00
         0.00000E+00
         0.00000E+00
         0.00000E+00
         0.00000E+00
         0.00000E+00
         0.00000E+00
         0.00000E+00
         0.00000E+00
         0.00000E+00
         0.00000E+00
         0.00000E+00
         0.00000E+00
         0.00000E+00
         0.00000E+00
         0.00000E+00
         0.00000E+00
         0.00000E+00
         0.00000E+00
         0.00000E+00
         0.00000E+00
         0.00000E+00
         0.00000E+00
         0.00000E+00
         0.00000E+00
         0.00000E+00
         0.00000E+00
         0.00000E+00
         0.00000E+00
         0.00000E+00
         0.00000E+00
         0.00000E+00
         0.00000E+00
         0.00000E+00
         0.00000E+00
         0.00000E+00
         0.00000E+00
         0.00000E+00
         0.00000E+00
         0.00000E+00
         0.00000E+00
         0.00000E+00
         0.00000E+00
         0.00000E+00
         0.00000E+00
         0.00000E+00
         0.00000E+00
         0.00000E+00
         0.00000E+00
         0.00000E+00
         0.00000E+00
         0.00000E+00
         0.00000E+00
         0.00000E+00
         0.00000E+00
         0.00000E+00
         0.00000E+00
         0.00000E+00
         0.00000E+00
         0.00000E+00
         0.00000E+00
         0.00000E+00
         0.00000E+00
         0.00000E+00
         0.00000E+00
         0.00000E+00
         0.00000E+00
         0.00000E+00
         0.00000E+00
         0.00000E+00
         0.00000E+00
         0.00000E+00
         0.00000E+00
         0.00000E+00
         0.00000E+00
         0.00000E+00
         0.00000E+00
         0.00000E+00
         0.00000E+00
         0.00000E+00
         0.00000E+00
         0.00000E+00
         0.00000E+00
         0.00000E+00
         0.00000E+00
         0.00000E+00
         0.00000E+00
         0.00000E+00
         0.00000E+00
         0.00000E+00
         0.00000E+00
         0.00000E+00
         0.00000E+00
         0.00000E+00
         0.00000E+00
         0.00000E+00
         0.00000E+00
         0.00000E+00
         0.00000E+00
         0.00000E+00
         0.00000E+00
         0.00000E+00
         0.00000E+00
         0.00000E+00
         0.00000E+00
         0.00000E+00
         0.00000E+00
         0.00000E+00
         0.00000E+00
         0.00000E+00
         0.00000E+00
         0.00000E+00
         0.00000E+00
         0.00000E+00
         0.00000E+00
         0.00000E+00
         0.00000E+00
         0.00000E+00
         0.00000E+00
         0.00000E+00
         0.00000E+00
         0.00000E+00
         0.00000E+00
         0.00000E+00
         0.00000E+00
         0.00000E+00
         0.00000E+00
         0.00000E+00
         0.00000E+00
         0.00000E+00
         0.00000E+00
         0.00000E+00
         0.00000E+00
         0.00000E+00
         0.00000E+00
         0.00000E+00
         0.00000E+00
         0.00000E+00
         0.00000E+00
         0.00000E+00
         0.00000E+00
         0.00000E+00
         0.00000E+00
         0.00000E+00
         0.00000E+00
         0.00000E+00
         0.00000E+00
         0.00000E+00
         0.00000E+00
         0.00000E+00
         0.00000E+00
         0.00000E+00
         0.00000E+00
         0.00000E+00
         0.00000E+00
         0.00000E+00
         0.00000E+00
         0.00000E+00
         0.00000E+00
         0.00000E+00
         0.00000E+00
         0.00000E+00
         0.00000E+00
         0.00000E+00
         0.00000E+00
         0.00000E+00
         0.00000E+00
         0.00000E+00
         0.00000E+00
         0.00000E+00
         0.00000E+00
         0.00000E+00
         0.00000E+00
         0.00000E+00
         0.00000E+00
         0.00000E+00
         0.00000E+00
         0.00000E+00
         0.00000E+00
         0.00000E+00
         0.00000E+00
         0.00000E+00
         0.00000E+00
         0.00000E+00
         0.00000E+00
         0.00000E+00
         0.00000E+00
         0.00000E+00
         0.00000E+00
         0.00000E+00
         0.00000E+00
         0.00000E+00
         0.00000E+00
         0.00000E+00
         0.00000E+00
         0.00000E+00
         0.00000E+00
         0.00000E+00
         0.00000E+00
         0.00000E+00
         0.00000E+00
         0.00000E+00
         0.00000E+00
         0.00000E+00
         0.00000E+00
         0.00000E+00
         0.00000E+00
         0.00000E+00
         0.00000E+00
         0.00000E+00
         0.00000E+00
         0.00000E+00
         0.00000E+00
         0.00000E+00
         0.00000E+00
         0.00000E+00
         0.00000E+00
         0.00000E+00
         0.00000E+00
         0.00000E+00
         0.00000E+00
         0.00000E+00
         0.00000E+00
         0.00000E+00
         0.00000E+00
         0.00000E+00
         0.00000E+00
         0.00000E+00
         0.00000E+00
         0.00000E+00
         0.00000E+00
         0.00000E+00
         0.00000E+00
         0.00000E+00
         0.00000E+00
         0.00000E+00
         0.00000E+00
         0.00000E+00
         0.00000E+00
         0.00000E+00
         0.00000E+00
         0.00000E+00
         0.00000E+00
         0.00000E+00
         0.00000E+00
         0.00000E+00
         0.00000E+00
         0.00000E+00
         0.00000E+00
         0.00000E+00
         0.00000E+00
         0.00000E+00
         0.00000E+00
         0.00000E+00
         0.00000E+00
         0.00000E+00
         0.00000E+00
         0.00000E+00
         0.00000E+00
         0.00000E+00
         0.00000E+00
         0.00000E+00
         0.00000E+00
         0.00000E+00
         0.00000E+00
         0.00000E+00
         0.00000E+00
         0.00000E+00
         0.00000E+00
         0.00000E+00
         0.00000E+00
         0.00000E+00
         0.00000E+00
         0.00000E+00
         0.00000E+00
         0.00000E+00
         0.00000E+00
         0.00000E+00
         0.00000E+00
         0.00000E+00
         0.00000E+00
         0.00000E+00
         0.00000E+00
         0.00000E+00
         0.00000E+00
         0.00000E+00
         0.00000E+00
         0.00000E+00
         0.00000E+00
         0.00000E+00
         0.00000E+00
         0.00000E+00
         0.00000E+00
         0.00000E+00
         0.00000E+00
         0.00000E+00
         0.00000E+00
  
SCALARS                      eps_shear  double 1
LOOKUP_TABLE default
         0.00000E+00
         0.00000E+00
         0.00000E+00
         0.00000E+00
         0.00000E+00
         0.00000E+00
         0.00000E+00
         0.00000E+00
         0.00000E+00
         0.00000E+00
         0.00000E+00
         0.00000E+00
         0.00000E+00
         0.00000E+00
         0.00000E+00
         0.00000E+00
         0.00000E+00
         0.00000E+00
         0.00000E+00
         0.00000E+00
         0.00000E+00
         0.00000E+00
         0.00000E+00
         0.00000E+00
         0.00000E+00
         0.00000E+00
         0.00000E+00
         0.00000E+00
         0.00000E+00
         0.00000E+00
         0.00000E+00
         0.00000E+00
         0.00000E+00
         0.00000E+00
         0.00000E+00
         0.00000E+00
         0.00000E+00
         0.00000E+00
         0.00000E+00
         0.00000E+00
         0.00000E+00
         0.00000E+00
         0.00000E+00
         0.00000E+00
         0.00000E+00
         0.00000E+00
         0.00000E+00
         0.00000E+00
         0.00000E+00
         0.00000E+00
         0.00000E+00
         0.00000E+00
         0.00000E+00
         0.00000E+00
         0.00000E+00
         0.00000E+00
         0.00000E+00
         0.00000E+00
         0.00000E+00
         0.00000E+00
         0.00000E+00
         0.00000E+00
         0.00000E+00
         0.00000E+00
         0.00000E+00
         0.00000E+00
         0.00000E+00
         0.00000E+00
         0.00000E+00
         0.00000E+00
         0.00000E+00
         0.00000E+00
         0.00000E+00
         0.00000E+00
         0.00000E+00
         0.00000E+00
         0.00000E+00
         0.00000E+00
         0.00000E+00
         0.00000E+00
         0.00000E+00
         0.00000E+00
         0.00000E+00
         0.00000E+00
         0.00000E+00
         0.00000E+00
         0.00000E+00
         0.00000E+00
         0.00000E+00
         0.00000E+00
         0.00000E+00
         0.00000E+00
         0.00000E+00
         0.00000E+00
         0.00000E+00
         0.00000E+00
         0.00000E+00
         0.00000E+00
         0.00000E+00
         0.00000E+00
         0.00000E+00
         0.00000E+00
         0.00000E+00
         0.00000E+00
         0.00000E+00
         0.00000E+00
         0.00000E+00
         0.00000E+00
         0.00000E+00
         0.00000E+00
         0.00000E+00
         0.00000E+00
         0.00000E+00
         0.00000E+00
         0.00000E+00
         0.00000E+00
         0.00000E+00
         0.00000E+00
         0.00000E+00
         0.00000E+00
         0.00000E+00
         0.00000E+00
         0.00000E+00
         0.00000E+00
         0.00000E+00
         0.00000E+00
         0.00000E+00
         0.00000E+00
         0.00000E+00
         0.00000E+00
         0.00000E+00
         0.00000E+00
         0.00000E+00
         0.00000E+00
         0.00000E+00
         0.00000E+00
         0.00000E+00
         0.00000E+00
         0.00000E+00
         0.00000E+00
         0.00000E+00
         0.00000E+00
         0.00000E+00
         0.00000E+00
         0.00000E+00
         0.00000E+00
         0.00000E+00
         0.00000E+00
         0.00000E+00
         0.00000E+00
         0.00000E+00
         0.00000E+00
         0.00000E+00
         0.00000E+00
         0.00000E+00
         0.00000E+00
         0.00000E+00
         0.00000E+00
         0.00000E+00
         0.00000E+00
         0.00000E+00
         0.00000E+00
         0.00000E+00
         0.00000E+00
         0.00000E+00
         0.00000E+00
         0.00000E+00
         0.00000E+00
         0.00000E+00
         0.00000E+00
         0.00000E+00
         0.00000E+00
         0.00000E+00
         0.00000E+00
         0.00000E+00
         0.00000E+00
         0.00000E+00
         0.00000E+00
         0.00000E+00
         0.00000E+00
         0.00000E+00
         0.00000E+00
         0.00000E+00
         0.00000E+00
         0.00000E+00
         0.00000E+00
         0.00000E+00
         0.00000E+00
         0.00000E+00
         0.00000E+00
         0.00000E+00
         0.00000E+00
         0.00000E+00
         0.00000E+00
         0.00000E+00
         0.00000E+00
         0.00000E+00
         0.00000E+00
         0.00000E+00
         0.00000E+00
         0.00000E+00
         0.00000E+00
         0.00000E+00
         0.00000E+00
         0.00000E+00
         0.00000E+00
         0.00000E+00
         0.00000E+00
         0.00000E+00
         0.00000E+00
         0.00000E+00
         0.00000E+00
         0.00000E+00
         0.00000E+00
         0.00000E+00
         0.00000E+00
         0.00000E+00
         0.00000E+00
         0.00000E+00
         0.00000E+00
         0.00000E+00
         0.00000E+00
         0.00000E+00
         0.00000E+00
         0.00000E+00
         0.00000E+00
         0.00000E+00
         0.00000E+00
         0.00000E+00
         0.00000E+00
         0.00000E+00
         0.00000E+00
         0.00000E+00
         0.00000E+00
         0.00000E+00
         0.00000E+00
         0.00000E+00
         0.00000E+00
         0.00000E+00
         0.00000E+00
         0.00000E+00
         0.00000E+00
         0.00000E+00
         0.00000E+00
         0.00000E+00
         0.00000E+00
         0.00000E+00
         0.00000E+00
         0.00000E+00
         0.00000E+00
         0.00000E+00
         0.00000E+00
         0.00000E+00
         0.00000E+00
         0.00000E+00
         0.00000E+00
         0.00000E+00
         0.00000E+00
         0.00000E+00
         0.00000E+00
         0.00000E+00
         0.00000E+00
         0.00000E+00
         0.00000E+00
         0.00000E+00
         0.00000E+00
         0.00000E+00
         0.00000E+00
         0.00000E+00
         0.00000E+00
         0.00000E+00
         0.00000E+00
         0.00000E+00
         0.00000E+00
         0.00000E+00
         0.00000E+00
         0.00000E+00
         0.00000E+00
         0.00000E+00
         0.00000E+00
         0.00000E+00
         0.00000E+00
         0.00000E+00
         0.00000E+00
         0.00000E+00
         0.00000E+00
         0.00000E+00
         0.00000E+00
         0.00000E+00
         0.00000E+00
         0.00000E+00
         0.00000E+00
         0.00000E+00
         0.00000E+00
         0.00000E+00
         0.00000E+00
         0.00000E+00
         0.00000E+00
         0.00000E+00
         0.00000E+00
         0.00000E+00
         0.00000E+00
         0.00000E+00
         0.00000E+00
         0.00000E+00
         0.00000E+00
         0.00000E+00
         0.00000E+00
         0.00000E+00
         0.00000E+00
         0.00000E+00
         0.00000E+00
         0.00000E+00
         0.00000E+00
         0.00000E+00
         0.00000E+00
         0.00000E+00
         0.00000E+00
         0.00000E+00
         0.00000E+00
         0.00000E+00
         0.00000E+00
         0.00000E+00
         0.00000E+00
         0.00000E+00
         0.00000E+00
         0.00000E+00
         0.00000E+00
         0.00000E+00
         0.00000E+00
         0.00000E+00
         0.00000E+00
         0.00000E+00
         0.00000E+00
         0.00000E+00
         0.00000E+00
         0.00000E+00
         0.00000E+00
         0.00000E+00
         0.00000E+00
         0.00000E+00
         0.00000E+00
         0.00000E+00
         0.00000E+00
         0.00000E+00
         0.00000E+00
         0.00000E+00
         0.00000E+00
         0.00000E+00
         0.00000E+00
         0.00000E+00
         0.00000E+00
         0.00000E+00
         0.00000E+00
         0.00000E+00
         0.00000E+00
         0.00000E+00
         0.00000E+00
         0.00000E+00
         0.00000E+00
         0.00000E+00
         0.00000E+00
         0.00000E+00
         0.00000E+00
         0.00000E+00
         0.00000E+00
         0.00000E+00
         0.00000E+00
         0.00000E+00
         0.00000E+00
         0.00000E+00
         0.00000E+00
         0.00000E+00
         0.00000E+00
         0.00000E+00
         0.00000E+00
         0.00000E+00
         0.00000E+00
         0.00000E+00
         0.00000E+00
         0.00000E+00
         0.00000E+00
         0.00000E+00
         0.00000E+00
         0.00000E+00
         0.00000E+00
         0.00000E+00
         0.00000E+00
         0.00000E+00
         0.00000E+00
         0.00000E+00
         0.00000E+00
         0.00000E+00
         0.00000E+00
         0.00000E+00
         0.00000E+00
         0.00000E+00
         0.00000E+00
         0.00000E+00
         0.00000E+00
         0.00000E+00
         0.00000E+00
         0.00000E+00
         0.00000E+00
         0.00000E+00
         0.00000E+00
         0.00000E+00
         0.00000E+00
         0.00000E+00
         0.00000E+00
         0.00000E+00
         0.00000E+00
         0.00000E+00
         0.00000E+00
         0.00000E+00
         0.00000E+00
         0.00000E+00
         0.00000E+00
         0.00000E+00
         0.00000E+00
         0.00000E+00
         0.00000E+00
         0.00000E+00
         0.00000E+00
         0.00000E+00
         0.00000E+00
         0.00000E+00
         0.00000E+00
         0.00000E+00
         0.00000E+00
         0.00000E+00
         0.00000E+00
         0.00000E+00
         0.00000E+00
         0.00000E+00
         0.00000E+00
         0.00000E+00
         0.00000E+00
         0.00000E+00
         0.00000E+00
         0.00000E+00
         0.00000E+00
         0.00000E+00
         0.00000E+00
         0.00000E+00
         0.00000E+00
         0.00000E+00
         0.00000E+00
         0.00000E+00
         0.00000E+00
         0.00000E+00
         0.00000E+00
         0.00000E+00
         0.00000E+00
         0.00000E+00
         0.00000E+00
         0.00000E+00
         0.00000E+00
         0.00000E+00
         0.00000E+00
         0.00000E+00
         0.00000E+00
         0.00000E+00
         0.00000E+00
         0.00000E+00
         0.00000E+00
         0.00000E+00
         0.00000E+00
         0.00000E+00
         0.00000E+00
         0.00000E+00
         0.00000E+00
         0.00000E+00
         0.00000E+00
         0.00000E+00
         0.00000E+00
         0.00000E+00
         0.00000E+00
         0.00000E+00
         0.00000E+00
         0.00000E+00
         0.00000E+00
         0.00000E+00
         0.00000E+00
         0.00000E+00
         0.00000E+00
         0.00000E+00
         0.00000E+00
         0.00000E+00
         0.00000E+00
         0.00000E+00
         0.00000E+00
         0.00000E+00
         0.00000E+00
         0.00000E+00
         0.00000E+00
         0.00000E+00
         0.00000E+00
         0.00000E+00
         0.00000E+00
         0.00000E+00
         0.00000E+00
         0.00000E+00
         0.00000E+00
         0.00000E+00
         0.00000E+00
         0.00000E+00
         0.00000E+00
         0.00000E+00
         0.00000E+00
         0.00000E+00
         0.00000E+00
         0.00000E+00
         0.00000E+00
         0.00000E+00
         0.00000E+00
         0.00000E+00
         0.00000E+00
         0.00000E+00
         0.00000E+00
         0.00000E+00
         0.00000E+00
         0.00000E+00
         0.00000E+00
         0.00000E+00
         0.00000E+00
         0.00000E+00
         0.00000E+00
         0.00000E+00
         0.00000E+00
         0.00000E+00
         0.00000E+00
         0.00000E+00
         0.00000E+00
         0.00000E+00
         0.00000E+00
         0.00000E+00
         0.00000E+00
         0.00000E+00
         0.00000E+00
         0.00000E+00
         0.00000E+00
         0.00000E+00
         0.00000E+00
         0.00000E+00
         0.00000E+00
         0.00000E+00
         0.00000E+00
         0.00000E+00
         0.00000E+00
         0.00000E+00
         0.00000E+00
         0.00000E+00
         0.00000E+00
         0.00000E+00
         0.00000E+00
         0.00000E+00
         0.00000E+00
         0.00000E+00
         0.00000E+00
         0.00000E+00
         0.00000E+00
         0.00000E+00
         0.00000E+00
         0.00000E+00
         0.00000E+00
         0.00000E+00
         0.00000E+00
         0.00000E+00
         0.00000E+00
         0.00000E+00
         0.00000E+00
         0.00000E+00
         0.00000E+00
         0.00000E+00
         0.00000E+00
         0.00000E+00
         0.00000E+00
         0.00000E+00
         0.00000E+00
         0.00000E+00
         0.00000E+00
         0.00000E+00
         0.00000E+00
         0.00000E+00
         0.00000E+00
         0.00000E+00
         0.00000E+00
         0.00000E+00
         0.00000E+00
         0.00000E+00
         0.00000E+00
         0.00000E+00
         0.00000E+00
         0.00000E+00
         0.00000E+00
         0.00000E+00
         0.00000E+00
         0.00000E+00
         0.00000E+00
         0.00000E+00
         0.00000E+00
         0.00000E+00
         0.00000E+00
         0.00000E+00
         0.00000E+00
         0.00000E+00
         0.00000E+00
         0.00000E+00
         0.00000E+00
         0.00000E+00
         0.00000E+00
         0.00000E+00
         0.00000E+00
         0.00000E+00
         0.00000E+00
         0.00000E+00
         0.00000E+00
         0.00000E+00
         0.00000E+00
         0.00000E+00
         0.00000E+00
         0.00000E+00
         0.00000E+00
         0.00000E+00
         0.00000E+00
         0.00000E+00
         0.00000E+00
         0.00000E+00
         0.00000E+00
         0.00000E+00
         0.00000E+00
         0.00000E+00
         0.00000E+00
         0.00000E+00
         0.00000E+00
         0.00000E+00
         0.00000E+00
         0.00000E+00
         0.00000E+00
         0.00000E+00
         0.00000E+00
         0.00000E+00
         0.00000E+00
         0.00000E+00
         0.00000E+00
         0.00000E+00
         0.00000E+00
         0.00000E+00
         0.00000E+00
         0.00000E+00
         0.00000E+00
         0.00000E+00
         0.00000E+00
         0.00000E+00
         0.00000E+00
         0.00000E+00
         0.00000E+00
         0.00000E+00
         0.00000E+00
         0.00000E+00
         0.00000E+00
         0.00000E+00
         0.00000E+00
         0.00000E+00
         0.00000E+00
         0.00000E+00
         0.00000E+00
         0.00000E+00
         0.00000E+00
         0.00000E+00
         0.00000E+00
         0.00000E+00
         0.00000E+00
         0.00000E+00
         0.00000E+00
         0.00000E+00
         0.00000E+00
         0.00000E+00
         0.00000E+00
         0.00000E+00
         0.00000E+00
         0.00000E+00
         0.00000E+00
         0.00000E+00
         0.00000E+00
         0.00000E+00
         0.00000E+00
         0.00000E+00
         0.00000E+00
         0.00000E+00
         0.00000E+00
         0.00000E+00
         0.00000E+00
         0.00000E+00
         0.00000E+00
         0.00000E+00
         0.00000E+00
         0.00000E+00
         0.00000E+00
         0.00000E+00
         0.00000E+00
         0.00000E+00
         0.00000E+00
         0.00000E+00
         0.00000E+00
         0.00000E+00
         0.00000E+00
         0.00000E+00
         0.00000E+00
         0.00000E+00
         0.00000E+00
         0.00000E+00
         0.00000E+00
         0.00000E+00
         0.00000E+00
         0.00000E+00
         0.00000E+00
         0.00000E+00
         0.00000E+00
         0.00000E+00
         0.00000E+00
         0.00000E+00
         0.00000E+00
         0.00000E+00
         0.00000E+00
         0.00000E+00
         0.00000E+00
         0.00000E+00
         0.00000E+00
         0.00000E+00
         0.00000E+00
         0.00000E+00
         0.00000E+00
         0.00000E+00
         0.00000E+00
         0.00000E+00
         0.00000E+00
         0.00000E+00
         0.00000E+00
         0.00000E+00
         0.00000E+00
         0.00000E+00
         0.00000E+00
         0.00000E+00
         0.00000E+00
         0.00000E+00
         0.00000E+00
         0.00000E+00
         0.00000E+00
         0.00000E+00
         0.00000E+00
         0.00000E+00
         0.00000E+00
         0.00000E+00
         0.00000E+00
         0.00000E+00
         0.00000E+00
         0.00000E+00
         0.00000E+00
         0.00000E+00
         0.00000E+00
         0.00000E+00
         0.00000E+00
         0.00000E+00
         0.00000E+00
         0.00000E+00
         0.00000E+00
         0.00000E+00
         0.00000E+00
         0.00000E+00
         0.00000E+00
         0.00000E+00
         0.00000E+00
         0.00000E+00
         0.00000E+00
         0.00000E+00
         0.00000E+00
         0.00000E+00
         0.00000E+00
         0.00000E+00
         0.00000E+00
         0.00000E+00
         0.00000E+00
         0.00000E+00
         0.00000E+00
         0.00000E+00
         0.00000E+00
         0.00000E+00
         0.00000E+00
         0.00000E+00
         0.00000E+00
         0.00000E+00
         0.00000E+00
         0.00000E+00
         0.00000E+00
         0.00000E+00
         0.00000E+00
         0.00000E+00
         0.00000E+00
         0.00000E+00
         0.00000E+00
         0.00000E+00
         0.00000E+00
         0.00000E+00
         0.00000E+00
         0.00000E+00
         0.00000E+00
         0.00000E+00
         0.00000E+00
         0.00000E+00
         0.00000E+00
         0.00000E+00
         0.00000E+00
         0.00000E+00
         0.00000E+00
         0.00000E+00
         0.00000E+00
         0.00000E+00
         0.00000E+00
         0.00000E+00
         0.00000E+00
         0.00000E+00
         0.00000E+00
         0.00000E+00
         0.00000E+00
         0.00000E+00
         0.00000E+00
         0.00000E+00
         0.00000E+00
         0.00000E+00
         0.00000E+00
         0.00000E+00
         0.00000E+00
         0.00000E+00
         0.00000E+00
         0.00000E+00
         0.00000E+00
         0.00000E+00
         0.00000E+00
         0.00000E+00
         0.00000E+00
         0.00000E+00
         0.00000E+00
         0.00000E+00
         0.00000E+00
         0.00000E+00
         0.00000E+00
         0.00000E+00
         0.00000E+00
         0.00000E+00
         0.00000E+00
         0.00000E+00
         0.00000E+00
         0.00000E+00
         0.00000E+00
         0.00000E+00
         0.00000E+00
         0.00000E+00
         0.00000E+00
         0.00000E+00
         0.00000E+00
         0.00000E+00
         0.00000E+00
         0.00000E+00
         0.00000E+00
         0.00000E+00
         0.00000E+00
         0.00000E+00
         0.00000E+00
         0.00000E+00
         0.00000E+00
         0.00000E+00
         0.00000E+00
         0.00000E+00
         0.00000E+00
         0.00000E+00
         0.00000E+00
         0.00000E+00
         0.00000E+00
         0.00000E+00
         0.00000E+00
         0.00000E+00
         0.00000E+00
         0.00000E+00
         0.00000E+00
         0.00000E+00
         0.00000E+00
         0.00000E+00
         0.00000E+00
         0.00000E+00
         0.00000E+00
         0.00000E+00
         0.00000E+00
         0.00000E+00
         0.00000E+00
         0.00000E+00
         0.00000E+00
         0.00000E+00
         0.00000E+00
         0.00000E+00
         0.00000E+00
         0.00000E+00
         0.00000E+00
         0.00000E+00
         0.00000E+00
         0.00000E+00
         0.00000E+00
         0.00000E+00
         0.00000E+00
         0.00000E+00
         0.00000E+00
         0.00000E+00
         0.00000E+00
         0.00000E+00
         0.00000E+00
         0.00000E+00
         0.00000E+00
         0.00000E+00
         0.00000E+00
         0.00000E+00
         0.00000E+00
         0.00000E+00
         0.00000E+00
         0.00000E+00
         0.00000E+00
         0.00000E+00
         0.00000E+00
         0.00000E+00
         0.00000E+00
         0.00000E+00
         0.00000E+00
         0.00000E+00
         0.00000E+00
         0.00000E+00
         0.00000E+00
         0.00000E+00
         0.00000E+00
         0.00000E+00
         0.00000E+00
         0.00000E+00
         0.00000E+00
         0.00000E+00
         0.00000E+00
         0.00000E+00
         0.00000E+00
         0.00000E+00
         0.00000E+00
         0.00000E+00
         0.00000E+00
         0.00000E+00
         0.00000E+00
         0.00000E+00
         0.00000E+00
         0.00000E+00
         0.00000E+00
         0.00000E+00
         0.00000E+00
         0.00000E+00
         0.00000E+00
         0.00000E+00
         0.00000E+00
         0.00000E+00
         0.00000E+00
         0.00000E+00
         0.00000E+00
         0.00000E+00
         0.00000E+00
         0.00000E+00
         0.00000E+00
         0.00000E+00
         0.00000E+00
         0.00000E+00
         0.00000E+00
         0.00000E+00
         0.00000E+00
         0.00000E+00
         0.00000E+00
         0.00000E+00
         0.00000E+00
         0.00000E+00
         0.00000E+00
         0.00000E+00
         0.00000E+00
         0.00000E+00
         0.00000E+00
         0.00000E+00
         0.00000E+00
         0.00000E+00
         0.00000E+00
         0.00000E+00
         0.00000E+00
         0.00000E+00
         0.00000E+00
         0.00000E+00
         0.00000E+00
         0.00000E+00
         0.00000E+00
         0.00000E+00
         0.00000E+00
         0.00000E+00
         0.00000E+00
         0.00000E+00
         0.00000E+00
         0.00000E+00
         0.00000E+00
         0.00000E+00
         0.00000E+00
         0.00000E+00
         0.00000E+00
         0.00000E+00
         0.00000E+00
         0.00000E+00
         0.00000E+00
         0.00000E+00
         0.00000E+00
         0.00000E+00
         0.00000E+00
         0.00000E+00
         0.00000E+00
         0.00000E+00
         0.00000E+00
         0.00000E+00
         0.00000E+00
         0.00000E+00
         0.00000E+00
         0.00000E+00
         0.00000E+00
         0.00000E+00
         0.00000E+00
         0.00000E+00
         0.00000E+00
         0.00000E+00
         0.00000E+00
         0.00000E+00
         0.00000E+00
         0.00000E+00
         0.00000E+00
         0.00000E+00
         0.00000E+00
         0.00000E+00
         0.00000E+00
         0.00000E+00
         0.00000E+00
         0.00000E+00
         0.00000E+00
         0.00000E+00
         0.00000E+00
         0.00000E+00
         0.00000E+00
         0.00000E+00
         0.00000E+00
         0.00000E+00
         0.00000E+00
         0.00000E+00
         0.00000E+00
         0.00000E+00
         0.00000E+00
         0.00000E+00
         0.00000E+00
         0.00000E+00
         0.00000E+00
         0.00000E+00
         0.00000E+00
         0.00000E+00
         0.00000E+00
         0.00000E+00
         0.00000E+00
         0.00000E+00
         0.00000E+00
         0.00000E+00
         0.00000E+00
         0.00000E+00
         0.00000E+00
         0.00000E+00
         0.00000E+00
         0.00000E+00
         0.00000E+00
         0.00000E+00
         0.00000E+00
         0.00000E+00
         0.00000E+00
         0.00000E+00
         0.00000E+00
         0.00000E+00
         0.00000E+00
         0.00000E+00
         0.00000E+00
         0.00000E+00
         0.00000E+00
         0.00000E+00
         0.00000E+00
         0.00000E+00
         0.00000E+00
         0.00000E+00
         0.00000E+00
         0.00000E+00
         0.00000E+00
         0.00000E+00
         0.00000E+00
         0.00000E+00
         0.00000E+00
         0.00000E+00
         0.00000E+00
         0.00000E+00
         0.00000E+00
         0.00000E+00
         0.00000E+00
         0.00000E+00
         0.00000E+00
         0.00000E+00
         0.00000E+00
         0.00000E+00
         0.00000E+00
         0.00000E+00
         0.00000E+00
         0.00000E+00
         0.00000E+00
         0.00000E+00
         0.00000E+00
         0.00000E+00
         0.00000E+00
         0.00000E+00
         0.00000E+00
         0.00000E+00
         0.00000E+00
         0.00000E+00
         0.00000E+00
         0.00000E+00
         0.00000E+00
         0.00000E+00
         0.00000E+00
         0.00000E+00
         0.00000E+00
         0.00000E+00
         0.00000E+00
         0.00000E+00
         0.00000E+00
         0.00000E+00
         0.00000E+00
         0.00000E+00
         0.00000E+00
         0.00000E+00
         0.00000E+00
         0.00000E+00
         0.00000E+00
         0.00000E+00
         0.00000E+00
         0.00000E+00
         0.00000E+00
         0.00000E+00
         0.00000E+00
         0.00000E+00
         0.00000E+00
         0.00000E+00
         0.00000E+00
         0.00000E+00
         0.00000E+00
         0.00000E+00
         0.00000E+00
         0.00000E+00
         0.00000E+00
         0.00000E+00
         0.00000E+00
         0.00000E+00
         0.00000E+00
         0.00000E+00
         0.00000E+00
         0.00000E+00
         0.00000E+00
         0.00000E+00
         0.00000E+00
         0.00000E+00
         0.00000E+00
         0.00000E+00
         0.00000E+00
         0.00000E+00
         0.00000E+00
         0.00000E+00
         0.00000E+00
         0.00000E+00
         0.00000E+00
         0.00000E+00
         0.00000E+00
         0.00000E+00
         0.00000E+00
         0.00000E+00
         0.00000E+00
         0.00000E+00
         0.00000E+00
         0.00000E+00
         0.00000E+00
         0.00000E+00
         0.00000E+00
         0.00000E+00
         0.00000E+00
         0.00000E+00
         0.00000E+00
         0.00000E+00
         0.00000E+00
         0.00000E+00
         0.00000E+00
         0.00000E+00
         0.00000E+00
         0.00000E+00
         0.00000E+00
         0.00000E+00
         0.00000E+00
         0.00000E+00
         0.00000E+00
         0.00000E+00
         0.00000E+00
         0.00000E+00
         0.00000E+00
         0.00000E+00
         0.00000E+00
         0.00000E+00
         0.00000E+00
         0.00000E+00
         0.00000E+00
         0.00000E+00
         0.00000E+00
         0.00000E+00
         0.00000E+00
         0.00000E+00
         0.00000E+00
         0.00000E+00
         0.00000E+00
         0.00000E+00
         0.00000E+00
         0.00000E+00
         0.00000E+00
         0.00000E+00
         0.00000E+00
         0.00000E+00
         0.00000E+00
         0.00000E+00
         0.00000E+00
         0.00000E+00
         0.00000E+00
         0.00000E+00
         0.00000E+00
         0.00000E+00
         0.00000E+00
         0.00000E+00
         0.00000E+00
         0.00000E+00
         0.00000E+00
         0.00000E+00
         0.00000E+00
         0.00000E+00
         0.00000E+00
         0.00000E+00
         0.00000E+00
         0.00000E+00
         0.00000E+00
         0.00000E+00
         0.00000E+00
         0.00000E+00
         0.00000E+00
         0.00000E+00
         0.00000E+00
         0.00000E+00
         0.00000E+00
         0.00000E+00
         0.00000E+00
         0.00000E+00
         0.00000E+00
         0.00000E+00
         0.00000E+00
         0.00000E+00
         0.00000E+00
         0.00000E+00
         0.00000E+00
         0.00000E+00
         0.00000E+00
         0.00000E+00
         0.00000E+00
         0.00000E+00
         0.00000E+00
         0.00000E+00
         0.00000E+00
         0.00000E+00
         0.00000E+00
         0.00000E+00
         0.00000E+00
         0.00000E+00
         0.00000E+00
         0.00000E+00
         0.00000E+00
         0.00000E+00
         0.00000E+00
         0.00000E+00
         0.00000E+00
         0.00000E+00
         0.00000E+00
         0.00000E+00
         0.00000E+00
         0.00000E+00
         0.00000E+00
         0.00000E+00
         0.00000E+00
         0.00000E+00
         0.00000E+00
         0.00000E+00
         0.00000E+00
         0.00000E+00
         0.00000E+00
         0.00000E+00
         0.00000E+00
         0.00000E+00
         0.00000E+00
         0.00000E+00
         0.00000E+00
         0.00000E+00
         0.00000E+00
         0.00000E+00
         0.00000E+00
         0.00000E+00
         0.00000E+00
         0.00000E+00
         0.00000E+00
         0.00000E+00
         0.00000E+00
         0.00000E+00
         0.00000E+00
         0.00000E+00
         0.00000E+00
         0.00000E+00
         0.00000E+00
         0.00000E+00
         0.00000E+00
         0.00000E+00
         0.00000E+00
         0.00000E+00
         0.00000E+00
         0.00000E+00
         0.00000E+00
         0.00000E+00
         0.00000E+00
         0.00000E+00
         0.00000E+00
         0.00000E+00
         0.00000E+00
         0.00000E+00
         0.00000E+00
         0.00000E+00
         0.00000E+00
         0.00000E+00
         0.00000E+00
         0.00000E+00
         0.00000E+00
         0.00000E+00
         0.00000E+00
         0.00000E+00
         0.00000E+00
         0.00000E+00
         0.00000E+00
         0.00000E+00
         0.00000E+00
         0.00000E+00
         0.00000E+00
         0.00000E+00
         0.00000E+00
         0.00000E+00
         0.00000E+00
         0.00000E+00
         0.00000E+00
         0.00000E+00
         0.00000E+00
         0.00000E+00
         0.00000E+00
         0.00000E+00
         0.00000E+00
         0.00000E+00
         0.00000E+00
         0.00000E+00
         0.00000E+00
         0.00000E+00
         0.00000E+00
         0.00000E+00
         0.00000E+00
         0.00000E+00
         0.00000E+00
         0.00000E+00
         0.00000E+00
         0.00000E+00
         0.00000E+00
         0.00000E+00
         0.00000E+00
         0.00000E+00
         0.00000E+00
         0.00000E+00
         0.00000E+00
         0.00000E+00
         0.00000E+00
         0.00000E+00
         0.00000E+00
         0.00000E+00
         0.00000E+00
         0.00000E+00
         0.00000E+00
         0.00000E+00
         0.00000E+00
         0.00000E+00
         0.00000E+00
         0.00000E+00
         0.00000E+00
         0.00000E+00
         0.00000E+00
         0.00000E+00
         0.00000E+00
         0.00000E+00
         0.00000E+00
         0.00000E+00
         0.00000E+00
         0.00000E+00
         0.00000E+00
         0.00000E+00
         0.00000E+00
         0.00000E+00
         0.00000E+00
         0.00000E+00
         0.00000E+00
         0.00000E+00
         0.00000E+00
         0.00000E+00
         0.00000E+00
         0.00000E+00
         0.00000E+00
         0.00000E+00
         0.00000E+00
         0.00000E+00
         0.00000E+00
         0.00000E+00
         0.00000E+00
         0.00000E+00
         0.00000E+00
         0.00000E+00
         0.00000E+00
         0.00000E+00
         0.00000E+00
         0.00000E+00
         0.00000E+00
         0.00000E+00
         0.00000E+00
         0.00000E+00
         0.00000E+00
         0.00000E+00
         0.00000E+00
         0.00000E+00
         0.00000E+00
         0.00000E+00
         0.00000E+00
         0.00000E+00
         0.00000E+00
         0.00000E+00
         0.00000E+00
         0.00000E+00
         0.00000E+00
         0.00000E+00
         0.00000E+00
         0.00000E+00
         0.00000E+00
         0.00000E+00
         0.00000E+00
         0.00000E+00
         0.00000E+00
         0.00000E+00
         0.00000E+00
         0.00000E+00
         0.00000E+00
         0.00000E+00
         0.00000E+00
         0.00000E+00
         0.00000E+00
         0.00000E+00
         0.00000E+00
         0.00000E+00
         0.00000E+00
         0.00000E+00
         0.00000E+00
         0.00000E+00
         0.00000E+00
         0.00000E+00
         0.00000E+00
         0.00000E+00
         0.00000E+00
         0.00000E+00
         0.00000E+00
         0.00000E+00
         0.00000E+00
         0.00000E+00
         0.00000E+00
         0.00000E+00
         0.00000E+00
         0.00000E+00
         0.00000E+00
         0.00000E+00
         0.00000E+00
         0.00000E+00
         0.00000E+00
         0.00000E+00
         0.00000E+00
         0.00000E+00
         0.00000E+00
         0.00000E+00
         0.00000E+00
         0.00000E+00
         0.00000E+00
         0.00000E+00
         0.00000E+00
         0.00000E+00
         0.00000E+00
         0.00000E+00
         0.00000E+00
         0.00000E+00
         0.00000E+00
         0.00000E+00
         0.00000E+00
         0.00000E+00
         0.00000E+00
         0.00000E+00
         0.00000E+00
         0.00000E+00
         0.00000E+00
         0.00000E+00
         0.00000E+00
         0.00000E+00
         0.00000E+00
         0.00000E+00
         0.00000E+00
         0.00000E+00
         0.00000E+00
         0.00000E+00
         0.00000E+00
         0.00000E+00
         0.00000E+00
         0.00000E+00
         0.00000E+00
         0.00000E+00
         0.00000E+00
         0.00000E+00
         0.00000E+00
         0.00000E+00
         0.00000E+00
         0.00000E+00
         0.00000E+00
         0.00000E+00
         0.00000E+00
         0.00000E+00
         0.00000E+00
         0.00000E+00
         0.00000E+00
         0.00000E+00
         0.00000E+00
         0.00000E+00
         0.00000E+00
         0.00000E+00
         0.00000E+00
         0.00000E+00
         0.00000E+00
         0.00000E+00
         0.00000E+00
         0.00000E+00
         0.00000E+00
         0.00000E+00
         0.00000E+00
         0.00000E+00
         0.00000E+00
         0.00000E+00
         0.00000E+00
         0.00000E+00
         0.00000E+00
         0.00000E+00
         0.00000E+00
         0.00000E+00
         0.00000E+00
         0.00000E+00
         0.00000E+00
         0.00000E+00
         0.00000E+00
         0.00000E+00
         0.00000E+00
         0.00000E+00
         0.00000E+00
         0.00000E+00
         0.00000E+00
         0.00000E+00
         0.00000E+00
         0.00000E+00
         0.00000E+00
         0.00000E+00
         0.00000E+00
         0.00000E+00
         0.00000E+00
         0.00000E+00
         0.00000E+00
         0.00000E+00
         0.00000E+00
         0.00000E+00
         0.00000E+00
         0.00000E+00
         0.00000E+00
         0.00000E+00
         0.00000E+00
         0.00000E+00
         0.00000E+00
         0.00000E+00
         0.00000E+00
         0.00000E+00
         0.00000E+00
         0.00000E+00
         0.00000E+00
         0.00000E+00
         0.00000E+00
         0.00000E+00
         0.00000E+00
         0.00000E+00
         0.00000E+00
         0.00000E+00
         0.00000E+00
         0.00000E+00
         0.00000E+00
         0.00000E+00
         0.00000E+00
         0.00000E+00
         0.00000E+00
         0.00000E+00
         0.00000E+00
         0.00000E+00
         0.00000E+00
         0.00000E+00
         0.00000E+00
         0.00000E+00
         0.00000E+00
         0.00000E+00
         0.00000E+00
         0.00000E+00
         0.00000E+00
         0.00000E+00
         0.00000E+00
         0.00000E+00
         0.00000E+00
         0.00000E+00
         0.00000E+00
         0.00000E+00
         0.00000E+00
         0.00000E+00
         0.00000E+00
         0.00000E+00
         0.00000E+00
         0.00000E+00
         0.00000E+00
         0.00000E+00
         0.00000E+00
         0.00000E+00
         0.00000E+00
         0.00000E+00
         0.00000E+00
         0.00000E+00
         0.00000E+00
         0.00000E+00
         0.00000E+00
         0.00000E+00
         0.00000E+00
         0.00000E+00
         0.00000E+00
         0.00000E+00
         0.00000E+00
         0.00000E+00
         0.00000E+00
         0.00000E+00
         0.00000E+00
         0.00000E+00
         0.00000E+00
         0.00000E+00
         0.00000E+00
         0.00000E+00
         0.00000E+00
         0.00000E+00
         0.00000E+00
         0.00000E+00
         0.00000E+00
         0.00000E+00
         0.00000E+00
         0.00000E+00
         0.00000E+00
         0.00000E+00
         0.00000E+00
         0.00000E+00
         0.00000E+00
         0.00000E+00
         0.00000E+00
         0.00000E+00
         0.00000E+00
         0.00000E+00
         0.00000E+00
         0.00000E+00
         0.00000E+00
         0.00000E+00
         0.00000E+00
         0.00000E+00
         0.00000E+00
         0.00000E+00
         0.00000E+00
         0.00000E+00
         0.00000E+00
         0.00000E+00
         0.00000E+00
         0.00000E+00
         0.00000E+00
         0.00000E+00
         0.00000E+00
         0.00000E+00
         0.00000E+00
         0.00000E+00
         0.00000E+00
         0.00000E+00
         0.00000E+00
         0.00000E+00
         0.00000E+00
         0.00000E+00
         0.00000E+00
         0.00000E+00
         0.00000E+00
         0.00000E+00
         0.00000E+00
         0.00000E+00
         0.00000E+00
         0.00000E+00
         0.00000E+00
         0.00000E+00
         0.00000E+00
         0.00000E+00
         0.00000E+00
         0.00000E+00
         0.00000E+00
         0.00000E+00
         0.00000E+00
         0.00000E+00
         0.00000E+00
         0.00000E+00
         0.00000E+00
         0.00000E+00
         0.00000E+00
         0.00000E+00
         0.00000E+00
         0.00000E+00
         0.00000E+00
         0.00000E+00
         0.00000E+00
         0.00000E+00
         0.00000E+00
         0.00000E+00
         0.00000E+00
         0.00000E+00
         0.00000E+00
         0.00000E+00
         0.00000E+00
         0.00000E+00
         0.00000E+00
         0.00000E+00
         0.00000E+00
         0.00000E+00
         0.00000E+00
         0.00000E+00
         0.00000E+00
         0.00000E+00
         0.00000E+00
         0.00000E+00
         0.00000E+00
         0.00000E+00
         0.00000E+00
         0.00000E+00
         0.00000E+00
         0.00000E+00
         0.00000E+00
         0.00000E+00
         0.00000E+00
         0.00000E+00
         0.00000E+00
         0.00000E+00
         0.00000E+00
         0.00000E+00
         0.00000E+00
         0.00000E+00
         0.00000E+00
         0.00000E+00
         0.00000E+00
         0.00000E+00
         0.00000E+00
         0.00000E+00
         0.00000E+00
         0.00000E+00
         0.00000E+00
         0.00000E+00
         0.00000E+00
         0.00000E+00
         0.00000E+00
         0.00000E+00
         0.00000E+00
         0.00000E+00
         0.00000E+00
         0.00000E+00
         0.00000E+00
         0.00000E+00
         0.00000E+00
         0.00000E+00
         0.00000E+00
         0.00000E+00
         0.00000E+00
         0.00000E+00
         0.00000E+00
         0.00000E+00
         0.00000E+00
         0.00000E+00
         0.00000E+00
         0.00000E+00
         0.00000E+00
         0.00000E+00
         0.00000E+00
         0.00000E+00
         0.00000E+00
         0.00000E+00
         0.00000E+00
         0.00000E+00
         0.00000E+00
         0.00000E+00
         0.00000E+00
         0.00000E+00
         0.00000E+00
         0.00000E+00
         0.00000E+00
         0.00000E+00
         0.00000E+00
         0.00000E+00
         0.00000E+00
         0.00000E+00
         0.00000E+00
         0.00000E+00
         0.00000E+00
         0.00000E+00
         0.00000E+00
         0.00000E+00
         0.00000E+00
         0.00000E+00
         0.00000E+00
         0.00000E+00
         0.00000E+00
         0.00000E+00
         0.00000E+00
         0.00000E+00
         0.00000E+00
         0.00000E+00
         0.00000E+00
         0.00000E+00
         0.00000E+00
         0.00000E+00
         0.00000E+00
         0.00000E+00
         0.00000E+00
         0.00000E+00
         0.00000E+00
         0.00000E+00
         0.00000E+00
         0.00000E+00
         0.00000E+00
         0.00000E+00
         0.00000E+00
         0.00000E+00
         0.00000E+00
         0.00000E+00
         0.00000E+00
         0.00000E+00
         0.00000E+00
         0.00000E+00
         0.00000E+00
         0.00000E+00
         0.00000E+00
         0.00000E+00
         0.00000E+00
         0.00000E+00
         0.00000E+00
         0.00000E+00
         0.00000E+00
         0.00000E+00
         0.00000E+00
         0.00000E+00
         0.00000E+00
         0.00000E+00
         0.00000E+00
         0.00000E+00
         0.00000E+00
         0.00000E+00
         0.00000E+00
         0.00000E+00
         0.00000E+00
         0.00000E+00
         0.00000E+00
         0.00000E+00
         0.00000E+00
         0.00000E+00
         0.00000E+00
         0.00000E+00
         0.00000E+00
         0.00000E+00
         0.00000E+00
         0.00000E+00
         0.00000E+00
         0.00000E+00
         0.00000E+00
         0.00000E+00
         0.00000E+00
         0.00000E+00
         0.00000E+00
         0.00000E+00
         0.00000E+00
         0.00000E+00
         0.00000E+00
         0.00000E+00
         0.00000E+00
         0.00000E+00
         0.00000E+00
         0.00000E+00
         0.00000E+00
         0.00000E+00
         0.00000E+00
         0.00000E+00
         0.00000E+00
         0.00000E+00
         0.00000E+00
         0.00000E+00
         0.00000E+00
         0.00000E+00
         0.00000E+00
         0.00000E+00
         0.00000E+00
         0.00000E+00
         0.00000E+00
         0.00000E+00
         0.00000E+00
         0.00000E+00
         0.00000E+00
         0.00000E+00
         0.00000E+00
         0.00000E+00
         0.00000E+00
         0.00000E+00
         0.00000E+00
  
SCALARS                        eps_vol  double 1
LOOKUP_TABLE default
         0.00000E+00
         0.00000E+00
         0.00000E+00
         0.00000E+00
         0.00000E+00
         0.00000E+00
         0.00000E+00
         0.00000E+00
         0.00000E+00
         0.00000E+00
         0.00000E+00
         0.00000E+00
         0.00000E+00
         0.00000E+00
         0.00000E+00
         0.00000E+00
         0.00000E+00
         0.00000E+00
         0.00000E+00
         0.00000E+00
         0.00000E+00
         0.00000E+00
         0.00000E+00
         0.00000E+00
         0.00000E+00
         0.00000E+00
         0.00000E+00
         0.00000E+00
         0.00000E+00
         0.00000E+00
         0.00000E+00
         0.00000E+00
         0.00000E+00
         0.00000E+00
         0.00000E+00
         0.00000E+00
         0.00000E+00
         0.00000E+00
         0.00000E+00
         0.00000E+00
         0.00000E+00
         0.00000E+00
         0.00000E+00
         0.00000E+00
         0.00000E+00
         0.00000E+00
         0.00000E+00
         0.00000E+00
         0.00000E+00
         0.00000E+00
         0.00000E+00
         0.00000E+00
         0.00000E+00
         0.00000E+00
         0.00000E+00
         0.00000E+00
         0.00000E+00
         0.00000E+00
         0.00000E+00
         0.00000E+00
         0.00000E+00
         0.00000E+00
         0.00000E+00
         0.00000E+00
         0.00000E+00
         0.00000E+00
         0.00000E+00
         0.00000E+00
         0.00000E+00
         0.00000E+00
         0.00000E+00
         0.00000E+00
         0.00000E+00
         0.00000E+00
         0.00000E+00
         0.00000E+00
         0.00000E+00
         0.00000E+00
         0.00000E+00
         0.00000E+00
         0.00000E+00
         0.00000E+00
         0.00000E+00
         0.00000E+00
         0.00000E+00
         0.00000E+00
         0.00000E+00
         0.00000E+00
         0.00000E+00
         0.00000E+00
         0.00000E+00
         0.00000E+00
         0.00000E+00
         0.00000E+00
         0.00000E+00
         0.00000E+00
         0.00000E+00
         0.00000E+00
         0.00000E+00
         0.00000E+00
         0.00000E+00
         0.00000E+00
         0.00000E+00
         0.00000E+00
         0.00000E+00
         0.00000E+00
         0.00000E+00
         0.00000E+00
         0.00000E+00
         0.00000E+00
         0.00000E+00
         0.00000E+00
         0.00000E+00
         0.00000E+00
         0.00000E+00
         0.00000E+00
         0.00000E+00
         0.00000E+00
         0.00000E+00
         0.00000E+00
         0.00000E+00
         0.00000E+00
         0.00000E+00
         0.00000E+00
         0.00000E+00
         0.00000E+00
         0.00000E+00
         0.00000E+00
         0.00000E+00
         0.00000E+00
         0.00000E+00
         0.00000E+00
         0.00000E+00
         0.00000E+00
         0.00000E+00
         0.00000E+00
         0.00000E+00
         0.00000E+00
         0.00000E+00
         0.00000E+00
         0.00000E+00
         0.00000E+00
         0.00000E+00
         0.00000E+00
         0.00000E+00
         0.00000E+00
         0.00000E+00
         0.00000E+00
         0.00000E+00
         0.00000E+00
         0.00000E+00
         0.00000E+00
         0.00000E+00
         0.00000E+00
         0.00000E+00
         0.00000E+00
         0.00000E+00
         0.00000E+00
         0.00000E+00
         0.00000E+00
         0.00000E+00
         0.00000E+00
         0.00000E+00
         0.00000E+00
         0.00000E+00
         0.00000E+00
         0.00000E+00
         0.00000E+00
         0.00000E+00
         0.00000E+00
         0.00000E+00
         0.00000E+00
         0.00000E+00
         0.00000E+00
         0.00000E+00
         0.00000E+00
         0.00000E+00
         0.00000E+00
         0.00000E+00
         0.00000E+00
         0.00000E+00
         0.00000E+00
         0.00000E+00
         0.00000E+00
         0.00000E+00
         0.00000E+00
         0.00000E+00
         0.00000E+00
         0.00000E+00
         0.00000E+00
         0.00000E+00
         0.00000E+00
         0.00000E+00
         0.00000E+00
         0.00000E+00
         0.00000E+00
         0.00000E+00
         0.00000E+00
         0.00000E+00
         0.00000E+00
         0.00000E+00
         0.00000E+00
         0.00000E+00
         0.00000E+00
         0.00000E+00
         0.00000E+00
         0.00000E+00
         0.00000E+00
         0.00000E+00
         0.00000E+00
         0.00000E+00
         0.00000E+00
         0.00000E+00
         0.00000E+00
         0.00000E+00
         0.00000E+00
         0.00000E+00
         0.00000E+00
         0.00000E+00
         0.00000E+00
         0.00000E+00
         0.00000E+00
         0.00000E+00
         0.00000E+00
         0.00000E+00
         0.00000E+00
         0.00000E+00
         0.00000E+00
         0.00000E+00
         0.00000E+00
         0.00000E+00
         0.00000E+00
         0.00000E+00
         0.00000E+00
         0.00000E+00
         0.00000E+00
         0.00000E+00
         0.00000E+00
         0.00000E+00
         0.00000E+00
         0.00000E+00
         0.00000E+00
         0.00000E+00
         0.00000E+00
         0.00000E+00
         0.00000E+00
         0.00000E+00
         0.00000E+00
         0.00000E+00
         0.00000E+00
         0.00000E+00
         0.00000E+00
         0.00000E+00
         0.00000E+00
         0.00000E+00
         0.00000E+00
         0.00000E+00
         0.00000E+00
         0.00000E+00
         0.00000E+00
         0.00000E+00
         0.00000E+00
         0.00000E+00
         0.00000E+00
         0.00000E+00
         0.00000E+00
         0.00000E+00
         0.00000E+00
         0.00000E+00
         0.00000E+00
         0.00000E+00
         0.00000E+00
         0.00000E+00
         0.00000E+00
         0.00000E+00
         0.00000E+00
         0.00000E+00
         0.00000E+00
         0.00000E+00
         0.00000E+00
         0.00000E+00
         0.00000E+00
         0.00000E+00
         0.00000E+00
         0.00000E+00
         0.00000E+00
         0.00000E+00
         0.00000E+00
         0.00000E+00
         0.00000E+00
         0.00000E+00
         0.00000E+00
         0.00000E+00
         0.00000E+00
         0.00000E+00
         0.00000E+00
         0.00000E+00
         0.00000E+00
         0.00000E+00
         0.00000E+00
         0.00000E+00
         0.00000E+00
         0.00000E+00
         0.00000E+00
         0.00000E+00
         0.00000E+00
         0.00000E+00
         0.00000E+00
         0.00000E+00
         0.00000E+00
         0.00000E+00
         0.00000E+00
         0.00000E+00
         0.00000E+00
         0.00000E+00
         0.00000E+00
         0.00000E+00
         0.00000E+00
         0.00000E+00
         0.00000E+00
         0.00000E+00
         0.00000E+00
         0.00000E+00
         0.00000E+00
         0.00000E+00
         0.00000E+00
         0.00000E+00
         0.00000E+00
         0.00000E+00
         0.00000E+00
         0.00000E+00
         0.00000E+00
         0.00000E+00
         0.00000E+00
         0.00000E+00
         0.00000E+00
         0.00000E+00
         0.00000E+00
         0.00000E+00
         0.00000E+00
         0.00000E+00
         0.00000E+00
         0.00000E+00
         0.00000E+00
         0.00000E+00
         0.00000E+00
         0.00000E+00
         0.00000E+00
         0.00000E+00
         0.00000E+00
         0.00000E+00
         0.00000E+00
         0.00000E+00
         0.00000E+00
         0.00000E+00
         0.00000E+00
         0.00000E+00
         0.00000E+00
         0.00000E+00
         0.00000E+00
         0.00000E+00
         0.00000E+00
         0.00000E+00
         0.00000E+00
         0.00000E+00
         0.00000E+00
         0.00000E+00
         0.00000E+00
         0.00000E+00
         0.00000E+00
         0.00000E+00
         0.00000E+00
         0.00000E+00
         0.00000E+00
         0.00000E+00
         0.00000E+00
         0.00000E+00
         0.00000E+00
         0.00000E+00
         0.00000E+00
         0.00000E+00
         0.00000E+00
         0.00000E+00
         0.00000E+00
         0.00000E+00
         0.00000E+00
         0.00000E+00
         0.00000E+00
         0.00000E+00
         0.00000E+00
         0.00000E+00
         0.00000E+00
         0.00000E+00
         0.00000E+00
         0.00000E+00
         0.00000E+00
         0.00000E+00
         0.00000E+00
         0.00000E+00
         0.00000E+00
         0.00000E+00
         0.00000E+00
         0.00000E+00
         0.00000E+00
         0.00000E+00
         0.00000E+00
         0.00000E+00
         0.00000E+00
         0.00000E+00
         0.00000E+00
         0.00000E+00
         0.00000E+00
         0.00000E+00
         0.00000E+00
         0.00000E+00
         0.00000E+00
         0.00000E+00
         0.00000E+00
         0.00000E+00
         0.00000E+00
         0.00000E+00
         0.00000E+00
         0.00000E+00
         0.00000E+00
         0.00000E+00
         0.00000E+00
         0.00000E+00
         0.00000E+00
         0.00000E+00
         0.00000E+00
         0.00000E+00
         0.00000E+00
         0.00000E+00
         0.00000E+00
         0.00000E+00
         0.00000E+00
         0.00000E+00
         0.00000E+00
         0.00000E+00
         0.00000E+00
         0.00000E+00
         0.00000E+00
         0.00000E+00
         0.00000E+00
         0.00000E+00
         0.00000E+00
         0.00000E+00
         0.00000E+00
         0.00000E+00
         0.00000E+00
         0.00000E+00
         0.00000E+00
         0.00000E+00
         0.00000E+00
         0.00000E+00
         0.00000E+00
         0.00000E+00
         0.00000E+00
         0.00000E+00
         0.00000E+00
         0.00000E+00
         0.00000E+00
         0.00000E+00
         0.00000E+00
         0.00000E+00
         0.00000E+00
         0.00000E+00
         0.00000E+00
         0.00000E+00
         0.00000E+00
         0.00000E+00
         0.00000E+00
         0.00000E+00
         0.00000E+00
         0.00000E+00
         0.00000E+00
         0.00000E+00
         0.00000E+00
         0.00000E+00
         0.00000E+00
         0.00000E+00
         0.00000E+00
         0.00000E+00
         0.00000E+00
         0.00000E+00
         0.00000E+00
         0.00000E+00
         0.00000E+00
         0.00000E+00
         0.00000E+00
         0.00000E+00
         0.00000E+00
         0.00000E+00
         0.00000E+00
         0.00000E+00
         0.00000E+00
         0.00000E+00
         0.00000E+00
         0.00000E+00
         0.00000E+00
         0.00000E+00
         0.00000E+00
         0.00000E+00
         0.00000E+00
         0.00000E+00
         0.00000E+00
         0.00000E+00
         0.00000E+00
         0.00000E+00
         0.00000E+00
         0.00000E+00
         0.00000E+00
         0.00000E+00
         0.00000E+00
         0.00000E+00
         0.00000E+00
         0.00000E+00
         0.00000E+00
         0.00000E+00
         0.00000E+00
         0.00000E+00
         0.00000E+00
         0.00000E+00
         0.00000E+00
         0.00000E+00
         0.00000E+00
         0.00000E+00
         0.00000E+00
         0.00000E+00
         0.00000E+00
         0.00000E+00
         0.00000E+00
         0.00000E+00
         0.00000E+00
         0.00000E+00
         0.00000E+00
         0.00000E+00
         0.00000E+00
         0.00000E+00
         0.00000E+00
         0.00000E+00
         0.00000E+00
         0.00000E+00
         0.00000E+00
         0.00000E+00
         0.00000E+00
         0.00000E+00
         0.00000E+00
         0.00000E+00
         0.00000E+00
         0.00000E+00
         0.00000E+00
         0.00000E+00
         0.00000E+00
         0.00000E+00
         0.00000E+00
         0.00000E+00
         0.00000E+00
         0.00000E+00
         0.00000E+00
         0.00000E+00
         0.00000E+00
         0.00000E+00
         0.00000E+00
         0.00000E+00
         0.00000E+00
         0.00000E+00
         0.00000E+00
         0.00000E+00
         0.00000E+00
         0.00000E+00
         0.00000E+00
         0.00000E+00
         0.00000E+00
         0.00000E+00
         0.00000E+00
         0.00000E+00
         0.00000E+00
         0.00000E+00
         0.00000E+00
         0.00000E+00
         0.00000E+00
         0.00000E+00
         0.00000E+00
         0.00000E+00
         0.00000E+00
         0.00000E+00
         0.00000E+00
         0.00000E+00
         0.00000E+00
         0.00000E+00
         0.00000E+00
         0.00000E+00
         0.00000E+00
         0.00000E+00
         0.00000E+00
         0.00000E+00
         0.00000E+00
         0.00000E+00
         0.00000E+00
         0.00000E+00
         0.00000E+00
         0.00000E+00
         0.00000E+00
         0.00000E+00
         0.00000E+00
         0.00000E+00
         0.00000E+00
         0.00000E+00
         0.00000E+00
         0.00000E+00
         0.00000E+00
         0.00000E+00
         0.00000E+00
         0.00000E+00
         0.00000E+00
         0.00000E+00
         0.00000E+00
         0.00000E+00
         0.00000E+00
         0.00000E+00
         0.00000E+00
         0.00000E+00
         0.00000E+00
         0.00000E+00
         0.00000E+00
         0.00000E+00
         0.00000E+00
         0.00000E+00
         0.00000E+00
         0.00000E+00
         0.00000E+00
         0.00000E+00
         0.00000E+00
         0.00000E+00
         0.00000E+00
         0.00000E+00
         0.00000E+00
         0.00000E+00
         0.00000E+00
         0.00000E+00
         0.00000E+00
         0.00000E+00
         0.00000E+00
         0.00000E+00
         0.00000E+00
         0.00000E+00
         0.00000E+00
         0.00000E+00
         0.00000E+00
         0.00000E+00
         0.00000E+00
         0.00000E+00
         0.00000E+00
         0.00000E+00
         0.00000E+00
         0.00000E+00
         0.00000E+00
         0.00000E+00
         0.00000E+00
         0.00000E+00
         0.00000E+00
         0.00000E+00
         0.00000E+00
         0.00000E+00
         0.00000E+00
         0.00000E+00
         0.00000E+00
         0.00000E+00
         0.00000E+00
         0.00000E+00
         0.00000E+00
         0.00000E+00
         0.00000E+00
         0.00000E+00
         0.00000E+00
         0.00000E+00
         0.00000E+00
         0.00000E+00
         0.00000E+00
         0.00000E+00
         0.00000E+00
         0.00000E+00
         0.00000E+00
         0.00000E+00
         0.00000E+00
         0.00000E+00
         0.00000E+00
         0.00000E+00
         0.00000E+00
         0.00000E+00
         0.00000E+00
         0.00000E+00
         0.00000E+00
         0.00000E+00
         0.00000E+00
         0.00000E+00
         0.00000E+00
         0.00000E+00
         0.00000E+00
         0.00000E+00
         0.00000E+00
         0.00000E+00
         0.00000E+00
         0.00000E+00
         0.00000E+00
         0.00000E+00
         0.00000E+00
         0.00000E+00
         0.00000E+00
         0.00000E+00
         0.00000E+00
         0.00000E+00
         0.00000E+00
         0.00000E+00
         0.00000E+00
         0.00000E+00
         0.00000E+00
         0.00000E+00
         0.00000E+00
         0.00000E+00
         0.00000E+00
         0.00000E+00
         0.00000E+00
         0.00000E+00
         0.00000E+00
         0.00000E+00
         0.00000E+00
         0.00000E+00
         0.00000E+00
         0.00000E+00
         0.00000E+00
         0.00000E+00
         0.00000E+00
         0.00000E+00
         0.00000E+00
         0.00000E+00
         0.00000E+00
         0.00000E+00
         0.00000E+00
         0.00000E+00
         0.00000E+00
         0.00000E+00
         0.00000E+00
         0.00000E+00
         0.00000E+00
         0.00000E+00
         0.00000E+00
         0.00000E+00
         0.00000E+00
         0.00000E+00
         0.00000E+00
         0.00000E+00
         0.00000E+00
         0.00000E+00
         0.00000E+00
         0.00000E+00
         0.00000E+00
         0.00000E+00
         0.00000E+00
         0.00000E+00
         0.00000E+00
         0.00000E+00
         0.00000E+00
         0.00000E+00
         0.00000E+00
         0.00000E+00
         0.00000E+00
         0.00000E+00
         0.00000E+00
         0.00000E+00
         0.00000E+00
         0.00000E+00
         0.00000E+00
         0.00000E+00
         0.00000E+00
         0.00000E+00
         0.00000E+00
         0.00000E+00
         0.00000E+00
         0.00000E+00
         0.00000E+00
         0.00000E+00
         0.00000E+00
         0.00000E+00
         0.00000E+00
         0.00000E+00
         0.00000E+00
         0.00000E+00
         0.00000E+00
         0.00000E+00
         0.00000E+00
         0.00000E+00
         0.00000E+00
         0.00000E+00
         0.00000E+00
         0.00000E+00
         0.00000E+00
         0.00000E+00
         0.00000E+00
         0.00000E+00
         0.00000E+00
         0.00000E+00
         0.00000E+00
         0.00000E+00
         0.00000E+00
         0.00000E+00
         0.00000E+00
         0.00000E+00
         0.00000E+00
         0.00000E+00
         0.00000E+00
         0.00000E+00
         0.00000E+00
         0.00000E+00
         0.00000E+00
         0.00000E+00
         0.00000E+00
         0.00000E+00
         0.00000E+00
         0.00000E+00
         0.00000E+00
         0.00000E+00
         0.00000E+00
         0.00000E+00
         0.00000E+00
         0.00000E+00
         0.00000E+00
         0.00000E+00
         0.00000E+00
         0.00000E+00
         0.00000E+00
         0.00000E+00
         0.00000E+00
         0.00000E+00
         0.00000E+00
         0.00000E+00
         0.00000E+00
         0.00000E+00
         0.00000E+00
         0.00000E+00
         0.00000E+00
         0.00000E+00
         0.00000E+00
         0.00000E+00
         0.00000E+00
         0.00000E+00
         0.00000E+00
         0.00000E+00
         0.00000E+00
         0.00000E+00
         0.00000E+00
         0.00000E+00
         0.00000E+00
         0.00000E+00
         0.00000E+00
         0.00000E+00
         0.00000E+00
         0.00000E+00
         0.00000E+00
         0.00000E+00
         0.00000E+00
         0.00000E+00
         0.00000E+00
         0.00000E+00
         0.00000E+00
         0.00000E+00
         0.00000E+00
         0.00000E+00
         0.00000E+00
         0.00000E+00
         0.00000E+00
         0.00000E+00
         0.00000E+00
         0.00000E+00
         0.00000E+00
         0.00000E+00
         0.00000E+00
         0.00000E+00
         0.00000E+00
         0.00000E+00
         0.00000E+00
         0.00000E+00
         0.00000E+00
         0.00000E+00
         0.00000E+00
         0.00000E+00
         0.00000E+00
         0.00000E+00
         0.00000E+00
         0.00000E+00
         0.00000E+00
         0.00000E+00
         0.00000E+00
         0.00000E+00
         0.00000E+00
         0.00000E+00
         0.00000E+00
         0.00000E+00
         0.00000E+00
         0.00000E+00
         0.00000E+00
         0.00000E+00
         0.00000E+00
         0.00000E+00
         0.00000E+00
         0.00000E+00
         0.00000E+00
         0.00000E+00
         0.00000E+00
         0.00000E+00
         0.00000E+00
         0.00000E+00
         0.00000E+00
         0.00000E+00
         0.00000E+00
         0.00000E+00
         0.00000E+00
         0.00000E+00
         0.00000E+00
         0.00000E+00
         0.00000E+00
         0.00000E+00
         0.00000E+00
         0.00000E+00
         0.00000E+00
         0.00000E+00
         0.00000E+00
         0.00000E+00
         0.00000E+00
         0.00000E+00
         0.00000E+00
         0.00000E+00
         0.00000E+00
         0.00000E+00
         0.00000E+00
         0.00000E+00
         0.00000E+00
         0.00000E+00
         0.00000E+00
         0.00000E+00
         0.00000E+00
         0.00000E+00
         0.00000E+00
         0.00000E+00
         0.00000E+00
         0.00000E+00
         0.00000E+00
         0.00000E+00
         0.00000E+00
         0.00000E+00
         0.00000E+00
         0.00000E+00
         0.00000E+00
         0.00000E+00
         0.00000E+00
         0.00000E+00
         0.00000E+00
         0.00000E+00
         0.00000E+00
         0.00000E+00
         0.00000E+00
         0.00000E+00
         0.00000E+00
         0.00000E+00
         0.00000E+00
         0.00000E+00
         0.00000E+00
         0.00000E+00
         0.00000E+00
         0.00000E+00
         0.00000E+00
         0.00000E+00
         0.00000E+00
         0.00000E+00
         0.00000E+00
         0.00000E+00
         0.00000E+00
         0.00000E+00
         0.00000E+00
         0.00000E+00
         0.00000E+00
         0.00000E+00
         0.00000E+00
         0.00000E+00
         0.00000E+00
         0.00000E+00
         0.00000E+00
         0.00000E+00
         0.00000E+00
         0.00000E+00
         0.00000E+00
         0.00000E+00
         0.00000E+00
         0.00000E+00
         0.00000E+00
         0.00000E+00
         0.00000E+00
         0.00000E+00
         0.00000E+00
         0.00000E+00
         0.00000E+00
         0.00000E+00
         0.00000E+00
         0.00000E+00
         0.00000E+00
         0.00000E+00
         0.00000E+00
         0.00000E+00
         0.00000E+00
         0.00000E+00
         0.00000E+00
         0.00000E+00
         0.00000E+00
         0.00000E+00
         0.00000E+00
         0.00000E+00
         0.00000E+00
         0.00000E+00
         0.00000E+00
         0.00000E+00
         0.00000E+00
         0.00000E+00
         0.00000E+00
         0.00000E+00
         0.00000E+00
         0.00000E+00
         0.00000E+00
         0.00000E+00
         0.00000E+00
         0.00000E+00
         0.00000E+00
         0.00000E+00
         0.00000E+00
         0.00000E+00
         0.00000E+00
         0.00000E+00
         0.00000E+00
         0.00000E+00
         0.00000E+00
         0.00000E+00
         0.00000E+00
         0.00000E+00
         0.00000E+00
         0.00000E+00
         0.00000E+00
         0.00000E+00
         0.00000E+00
         0.00000E+00
         0.00000E+00
         0.00000E+00
         0.00000E+00
         0.00000E+00
         0.00000E+00
         0.00000E+00
         0.00000E+00
         0.00000E+00
         0.00000E+00
         0.00000E+00
         0.00000E+00
         0.00000E+00
         0.00000E+00
         0.00000E+00
         0.00000E+00
         0.00000E+00
         0.00000E+00
         0.00000E+00
         0.00000E+00
         0.00000E+00
         0.00000E+00
         0.00000E+00
         0.00000E+00
         0.00000E+00
         0.00000E+00
         0.00000E+00
         0.00000E+00
         0.00000E+00
         0.00000E+00
         0.00000E+00
         0.00000E+00
         0.00000E+00
         0.00000E+00
         0.00000E+00
         0.00000E+00
         0.00000E+00
         0.00000E+00
         0.00000E+00
         0.00000E+00
         0.00000E+00
         0.00000E+00
         0.00000E+00
         0.00000E+00
         0.00000E+00
         0.00000E+00
         0.00000E+00
         0.00000E+00
         0.00000E+00
         0.00000E+00
         0.00000E+00
         0.00000E+00
         0.00000E+00
         0.00000E+00
         0.00000E+00
         0.00000E+00
         0.00000E+00
         0.00000E+00
         0.00000E+00
         0.00000E+00
         0.00000E+00
         0.00000E+00
         0.00000E+00
         0.00000E+00
         0.00000E+00
         0.00000E+00
         0.00000E+00
         0.00000E+00
         0.00000E+00
         0.00000E+00
         0.00000E+00
         0.00000E+00
         0.00000E+00
         0.00000E+00
         0.00000E+00
         0.00000E+00
         0.00000E+00
         0.00000E+00
         0.00000E+00
         0.00000E+00
         0.00000E+00
         0.00000E+00
         0.00000E+00
         0.00000E+00
         0.00000E+00
         0.00000E+00
         0.00000E+00
         0.00000E+00
         0.00000E+00
         0.00000E+00
         0.00000E+00
         0.00000E+00
         0.00000E+00
         0.00000E+00
         0.00000E+00
         0.00000E+00
         0.00000E+00
         0.00000E+00
         0.00000E+00
         0.00000E+00
         0.00000E+00
         0.00000E+00
         0.00000E+00
         0.00000E+00
         0.00000E+00
         0.00000E+00
         0.00000E+00
         0.00000E+00
         0.00000E+00
         0.00000E+00
         0.00000E+00
         0.00000E+00
         0.00000E+00
         0.00000E+00
         0.00000E+00
         0.00000E+00
         0.00000E+00
         0.00000E+00
         0.00000E+00
         0.00000E+00
         0.00000E+00
         0.00000E+00
         0.00000E+00
         0.00000E+00
         0.00000E+00
         0.00000E+00
         0.00000E+00
         0.00000E+00
         0.00000E+00
         0.00000E+00
         0.00000E+00
         0.00000E+00
         0.00000E+00
         0.00000E+00
         0.00000E+00
         0.00000E+00
         0.00000E+00
         0.00000E+00
         0.00000E+00
         0.00000E+00
         0.00000E+00
         0.00000E+00
         0.00000E+00
         0.00000E+00
         0.00000E+00
         0.00000E+00
         0.00000E+00
         0.00000E+00
         0.00000E+00
         0.00000E+00
         0.00000E+00
         0.00000E+00
         0.00000E+00
         0.00000E+00
         0.00000E+00
         0.00000E+00
         0.00000E+00
         0.00000E+00
         0.00000E+00
         0.00000E+00
         0.00000E+00
         0.00000E+00
         0.00000E+00
         0.00000E+00
         0.00000E+00
         0.00000E+00
         0.00000E+00
         0.00000E+00
         0.00000E+00
         0.00000E+00
         0.00000E+00
         0.00000E+00
         0.00000E+00
         0.00000E+00
         0.00000E+00
         0.00000E+00
         0.00000E+00
         0.00000E+00
         0.00000E+00
         0.00000E+00
         0.00000E+00
         0.00000E+00
         0.00000E+00
         0.00000E+00
         0.00000E+00
         0.00000E+00
         0.00000E+00
         0.00000E+00
         0.00000E+00
         0.00000E+00
         0.00000E+00
         0.00000E+00
         0.00000E+00
         0.00000E+00
         0.00000E+00
         0.00000E+00
         0.00000E+00
         0.00000E+00
         0.00000E+00
         0.00000E+00
         0.00000E+00
         0.00000E+00
         0.00000E+00
         0.00000E+00
         0.00000E+00
         0.00000E+00
         0.00000E+00
         0.00000E+00
         0.00000E+00
         0.00000E+00
         0.00000E+00
         0.00000E+00
         0.00000E+00
         0.00000E+00
         0.00000E+00
         0.00000E+00
         0.00000E+00
         0.00000E+00
         0.00000E+00
         0.00000E+00
         0.00000E+00
         0.00000E+00
         0.00000E+00
         0.00000E+00
         0.00000E+00
         0.00000E+00
         0.00000E+00
         0.00000E+00
         0.00000E+00
         0.00000E+00
         0.00000E+00
         0.00000E+00
         0.00000E+00
         0.00000E+00
         0.00000E+00
         0.00000E+00
         0.00000E+00
         0.00000E+00
         0.00000E+00
         0.00000E+00
         0.00000E+00
         0.00000E+00
         0.00000E+00
         0.00000E+00
         0.00000E+00
         0.00000E+00
         0.00000E+00
         0.00000E+00
         0.00000E+00
         0.00000E+00
         0.00000E+00
         0.00000E+00
         0.00000E+00
         0.00000E+00
         0.00000E+00
         0.00000E+00
         0.00000E+00
         0.00000E+00
         0.00000E+00
         0.00000E+00
         0.00000E+00
         0.00000E+00
         0.00000E+00
         0.00000E+00
         0.00000E+00
         0.00000E+00
         0.00000E+00
         0.00000E+00
         0.00000E+00
         0.00000E+00
         0.00000E+00
         0.00000E+00
         0.00000E+00
         0.00000E+00
         0.00000E+00
         0.00000E+00
         0.00000E+00
         0.00000E+00
         0.00000E+00
         0.00000E+00
         0.00000E+00
         0.00000E+00
         0.00000E+00
         0.00000E+00
         0.00000E+00
         0.00000E+00
         0.00000E+00
         0.00000E+00
         0.00000E+00
         0.00000E+00
         0.00000E+00
         0.00000E+00
         0.00000E+00
         0.00000E+00
         0.00000E+00
         0.00000E+00
         0.00000E+00
         0.00000E+00
         0.00000E+00
         0.00000E+00
         0.00000E+00
         0.00000E+00
         0.00000E+00
         0.00000E+00
         0.00000E+00
         0.00000E+00
         0.00000E+00
         0.00000E+00
         0.00000E+00
         0.00000E+00
         0.00000E+00
         0.00000E+00
         0.00000E+00
         0.00000E+00
         0.00000E+00
         0.00000E+00
         0.00000E+00
         0.00000E+00
         0.00000E+00
         0.00000E+00
         0.00000E+00
         0.00000E+00
         0.00000E+00
         0.00000E+00
         0.00000E+00
         0.00000E+00
         0.00000E+00
         0.00000E+00
         0.00000E+00
         0.00000E+00
         0.00000E+00
         0.00000E+00
         0.00000E+00
         0.00000E+00
         0.00000E+00
         0.00000E+00
         0.00000E+00
         0.00000E+00
         0.00000E+00
         0.00000E+00
         0.00000E+00
         0.00000E+00
         0.00000E+00
         0.00000E+00
         0.00000E+00
         0.00000E+00
         0.00000E+00
         0.00000E+00
         0.00000E+00
         0.00000E+00
         0.00000E+00
         0.00000E+00
         0.00000E+00
         0.00000E+00
         0.00000E+00
         0.00000E+00
         0.00000E+00
         0.00000E+00
         0.00000E+00
         0.00000E+00
         0.00000E+00
         0.00000E+00
         0.00000E+00
         0.00000E+00
         0.00000E+00
         0.00000E+00
         0.00000E+00
         0.00000E+00
         0.00000E+00
         0.00000E+00
         0.00000E+00
         0.00000E+00
         0.00000E+00
         0.00000E+00
         0.00000E+00
         0.00000E+00
         0.00000E+00
         0.00000E+00
         0.00000E+00
         0.00000E+00
         0.00000E+00
         0.00000E+00
         0.00000E+00
         0.00000E+00
         0.00000E+00
         0.00000E+00
         0.00000E+00
         0.00000E+00
         0.00000E+00
         0.00000E+00
         0.00000E+00
         0.00000E+00
         0.00000E+00
         0.00000E+00
         0.00000E+00
         0.00000E+00
         0.00000E+00
         0.00000E+00
         0.00000E+00
         0.00000E+00
         0.00000E+00
         0.00000E+00
         0.00000E+00
         0.00000E+00
         0.00000E+00
         0.00000E+00
         0.00000E+00
         0.00000E+00
         0.00000E+00
         0.00000E+00
         0.00000E+00
         0.00000E+00
         0.00000E+00
         0.00000E+00
         0.00000E+00
         0.00000E+00
         0.00000E+00
         0.00000E+00
         0.00000E+00
         0.00000E+00
         0.00000E+00
         0.00000E+00
         0.00000E+00
         0.00000E+00
         0.00000E+00
         0.00000E+00
         0.00000E+00
         0.00000E+00
         0.00000E+00
         0.00000E+00
         0.00000E+00
         0.00000E+00
         0.00000E+00
         0.00000E+00
         0.00000E+00
         0.00000E+00
         0.00000E+00
         0.00000E+00
         0.00000E+00
         0.00000E+00
         0.00000E+00
         0.00000E+00
         0.00000E+00
         0.00000E+00
         0.00000E+00
         0.00000E+00
         0.00000E+00
         0.00000E+00
         0.00000E+00
         0.00000E+00
         0.00000E+00
         0.00000E+00
         0.00000E+00
         0.00000E+00
         0.00000E+00
         0.00000E+00
         0.00000E+00
         0.00000E+00
         0.00000E+00
         0.00000E+00
         0.00000E+00
         0.00000E+00
         0.00000E+00
         0.00000E+00
         0.00000E+00
         0.00000E+00
         0.00000E+00
         0.00000E+00
         0.00000E+00
         0.00000E+00
         0.00000E+00
         0.00000E+00
         0.00000E+00
         0.00000E+00
         0.00000E+00
         0.00000E+00
         0.00000E+00
         0.00000E+00
         0.00000E+00
         0.00000E+00
         0.00000E+00
         0.00000E+00
         0.00000E+00
         0.00000E+00
         0.00000E+00
         0.00000E+00
         0.00000E+00
         0.00000E+00
         0.00000E+00
         0.00000E+00
         0.00000E+00
         0.00000E+00
         0.00000E+00
         0.00000E+00
         0.00000E+00
         0.00000E+00
         0.00000E+00
         0.00000E+00
         0.00000E+00
         0.00000E+00
         0.00000E+00
         0.00000E+00
         0.00000E+00
         0.00000E+00
         0.00000E+00
         0.00000E+00
         0.00000E+00
         0.00000E+00
         0.00000E+00
         0.00000E+00
         0.00000E+00
         0.00000E+00
         0.00000E+00
         0.00000E+00
         0.00000E+00
         0.00000E+00
         0.00000E+00
         0.00000E+00
         0.00000E+00
         0.00000E+00
         0.00000E+00
         0.00000E+00
         0.00000E+00
         0.00000E+00
         0.00000E+00
         0.00000E+00
         0.00000E+00
         0.00000E+00
         0.00000E+00
         0.00000E+00
         0.00000E+00
         0.00000E+00
         0.00000E+00
         0.00000E+00
         0.00000E+00
         0.00000E+00
         0.00000E+00
         0.00000E+00
         0.00000E+00
         0.00000E+00
         0.00000E+00
         0.00000E+00
         0.00000E+00
         0.00000E+00
         0.00000E+00
         0.00000E+00
         0.00000E+00
         0.00000E+00
         0.00000E+00
         0.00000E+00
         0.00000E+00
         0.00000E+00
         0.00000E+00
         0.00000E+00
         0.00000E+00
         0.00000E+00
         0.00000E+00
         0.00000E+00
         0.00000E+00
         0.00000E+00
         0.00000E+00
         0.00000E+00
         0.00000E+00
         0.00000E+00
         0.00000E+00
         0.00000E+00
         0.00000E+00
         0.00000E+00
         0.00000E+00
         0.00000E+00
         0.00000E+00
         0.00000E+00
         0.00000E+00
         0.00000E+00
         0.00000E+00
         0.00000E+00
         0.00000E+00
         0.00000E+00
         0.00000E+00
         0.00000E+00
         0.00000E+00
         0.00000E+00
         0.00000E+00
         0.00000E+00
         0.00000E+00
         0.00000E+00
         0.00000E+00
         0.00000E+00
         0.00000E+00
         0.00000E+00
         0.00000E+00
         0.00000E+00
         0.00000E+00
         0.00000E+00
         0.00000E+00
         0.00000E+00
         0.00000E+00
         0.00000E+00
         0.00000E+00
         0.00000E+00
         0.00000E+00
         0.00000E+00
         0.00000E+00
         0.00000E+00
         0.00000E+00
         0.00000E+00
         0.00000E+00
         0.00000E+00
         0.00000E+00
         0.00000E+00
         0.00000E+00
         0.00000E+00
         0.00000E+00
         0.00000E+00
         0.00000E+00
         0.00000E+00
         0.00000E+00
         0.00000E+00
         0.00000E+00
         0.00000E+00
         0.00000E+00
         0.00000E+00
         0.00000E+00
         0.00000E+00
         0.00000E+00
         0.00000E+00
         0.00000E+00
         0.00000E+00
         0.00000E+00
         0.00000E+00
         0.00000E+00
         0.00000E+00
         0.00000E+00
         0.00000E+00
         0.00000E+00
         0.00000E+00
         0.00000E+00
         0.00000E+00
         0.00000E+00
         0.00000E+00
         0.00000E+00
         0.00000E+00
         0.00000E+00
         0.00000E+00
         0.00000E+00
         0.00000E+00
         0.00000E+00
         0.00000E+00
         0.00000E+00
         0.00000E+00
         0.00000E+00
         0.00000E+00
         0.00000E+00
         0.00000E+00
         0.00000E+00
         0.00000E+00
         0.00000E+00
         0.00000E+00
         0.00000E+00
         0.00000E+00
         0.00000E+00
         0.00000E+00
         0.00000E+00
         0.00000E+00
         0.00000E+00
         0.00000E+00
         0.00000E+00
         0.00000E+00
         0.00000E+00
         0.00000E+00
         0.00000E+00
         0.00000E+00
         0.00000E+00
         0.00000E+00
         0.00000E+00
         0.00000E+00
         0.00000E+00
         0.00000E+00
         0.00000E+00
         0.00000E+00
         0.00000E+00
         0.00000E+00
         0.00000E+00
         0.00000E+00
         0.00000E+00
         0.00000E+00
         0.00000E+00
         0.00000E+00
         0.00000E+00
         0.00000E+00
         0.00000E+00
         0.00000E+00
         0.00000E+00
         0.00000E+00
         0.00000E+00
         0.00000E+00
         0.00000E+00
         0.00000E+00
         0.00000E+00
         0.00000E+00
         0.00000E+00
         0.00000E+00
         0.00000E+00
         0.00000E+00
         0.00000E+00
         0.00000E+00
         0.00000E+00
         0.00000E+00
         0.00000E+00
         0.00000E+00
         0.00000E+00
         0.00000E+00
         0.00000E+00
         0.00000E+00
         0.00000E+00
         0.00000E+00
         0.00000E+00
         0.00000E+00
         0.00000E+00
         0.00000E+00
         0.00000E+00
         0.00000E+00
         0.00000E+00
         0.00000E+00
         0.00000E+00
         0.00000E+00
         0.00000E+00
         0.00000E+00
         0.00000E+00
         0.00000E+00
         0.00000E+00
         0.00000E+00
         0.00000E+00
         0.00000E+00
         0.00000E+00
         0.00000E+00
         0.00000E+00
         0.00000E+00
         0.00000E+00
         0.00000E+00
         0.00000E+00
         0.00000E+00
         0.00000E+00
         0.00000E+00
         0.00000E+00
         0.00000E+00
         0.00000E+00
         0.00000E+00
         0.00000E+00
         0.00000E+00
         0.00000E+00
         0.00000E+00
         0.00000E+00
         0.00000E+00
         0.00000E+00
         0.00000E+00
         0.00000E+00
         0.00000E+00
         0.00000E+00
         0.00000E+00
         0.00000E+00
         0.00000E+00
         0.00000E+00
         0.00000E+00
         0.00000E+00
         0.00000E+00
         0.00000E+00
         0.00000E+00
         0.00000E+00
         0.00000E+00
         0.00000E+00
         0.00000E+00
         0.00000E+00
         0.00000E+00
         0.00000E+00
         0.00000E+00
         0.00000E+00
         0.00000E+00
         0.00000E+00
         0.00000E+00
         0.00000E+00
         0.00000E+00
         0.00000E+00
         0.00000E+00
         0.00000E+00
         0.00000E+00
         0.00000E+00
         0.00000E+00
         0.00000E+00
         0.00000E+00
         0.00000E+00
         0.00000E+00
         0.00000E+00
         0.00000E+00
         0.00000E+00
         0.00000E+00
         0.00000E+00
         0.00000E+00
         0.00000E+00
         0.00000E+00
         0.00000E+00
         0.00000E+00
         0.00000E+00
         0.00000E+00
         0.00000E+00
         0.00000E+00
         0.00000E+00
         0.00000E+00
         0.00000E+00
         0.00000E+00
         0.00000E+00
         0.00000E+00
         0.00000E+00
         0.00000E+00
         0.00000E+00
         0.00000E+00
         0.00000E+00
         0.00000E+00
         0.00000E+00
         0.00000E+00
         0.00000E+00
         0.00000E+00
         0.00000E+00
         0.00000E+00
         0.00000E+00
         0.00000E+00
         0.00000E+00
         0.00000E+00
         0.00000E+00
         0.00000E+00
         0.00000E+00
         0.00000E+00
         0.00000E+00
         0.00000E+00
         0.00000E+00
         0.00000E+00
         0.00000E+00
         0.00000E+00
         0.00000E+00
         0.00000E+00
         0.00000E+00
         0.00000E+00
         0.00000E+00
         0.00000E+00
         0.00000E+00
         0.00000E+00
         0.00000E+00
         0.00000E+00
         0.00000E+00
         0.00000E+00
         0.00000E+00
         0.00000E+00
         0.00000E+00
         0.00000E+00
         0.00000E+00
         0.00000E+00
         0.00000E+00
         0.00000E+00
         0.00000E+00
         0.00000E+00
         0.00000E+00
         0.00000E+00
         0.00000E+00
         0.00000E+00
         0.00000E+00
         0.00000E+00
         0.00000E+00
         0.00000E+00
         0.00000E+00
         0.00000E+00
         0.00000E+00
         0.00000E+00
         0.00000E+00
         0.00000E+00
         0.00000E+00
         0.00000E+00
         0.00000E+00
         0.00000E+00
         0.00000E+00
         0.00000E+00
         0.00000E+00
         0.00000E+00
         0.00000E+00
         0.00000E+00
         0.00000E+00
         0.00000E+00
         0.00000E+00
         0.00000E+00
         0.00000E+00
         0.00000E+00
         0.00000E+00
         0.00000E+00
         0.00000E+00
         0.00000E+00
         0.00000E+00
         0.00000E+00
         0.00000E+00
         0.00000E+00
         0.00000E+00
         0.00000E+00
         0.00000E+00
         0.00000E+00
  
SCALARS                            eps  double 1
LOOKUP_TABLE default
         0.29417E+01
         0.29041E+01
         0.29280E+01
         0.29708E+01
         0.00000E+00
         0.00000E+00
         0.00000E+00
         0.00000E+00
         0.29030E+01
         0.29156E+01
         0.00000E+00
         0.00000E+00
         0.28496E+01
         0.28475E+01
         0.00000E+00
         0.00000E+00
         0.29645E+01
         0.28505E+01
         0.00000E+00
         0.00000E+00
         0.28086E+01
         0.27762E+01
         0.28279E+01
         0.00000E+00
         0.00000E+00
         0.00000E+00
         0.27773E+01
         0.27299E+01
         0.00000E+00
         0.00000E+00
         0.29625E+01
         0.29129E+01
         0.30106E+01
         0.00000E+00
         0.00000E+00
         0.00000E+00
         0.29338E+01
         0.28706E+01
         0.00000E+00
         0.00000E+00
         0.29088E+01
         0.28601E+01
         0.00000E+00
         0.00000E+00
         0.29501E+01
         0.29683E+01
         0.00000E+00
         0.00000E+00
         0.28208E+01
         0.00000E+00
         0.29648E+01
         0.00000E+00
         0.27636E+01
         0.00000E+00
         0.27487E+01
         0.00000E+00
         0.27490E+01
         0.28020E+01
         0.00000E+00
         0.00000E+00
         0.29614E+01
         0.29424E+01
         0.00000E+00
         0.00000E+00
         0.29734E+01
         0.00000E+00
         0.29507E+01
         0.00000E+00
         0.28915E+01
         0.28853E+01
         0.00000E+00
         0.00000E+00
         0.28717E+01
         0.00000E+00
         0.27130E+01
         0.00000E+00
         0.27048E+01
         0.00000E+00
         0.27090E+01
         0.00000E+00
         0.27322E+01
         0.27559E+01
         0.00000E+00
         0.00000E+00
         0.28038E+01
         0.00000E+00
         0.29492E+01
         0.00000E+00
         0.29266E+01
         0.00000E+00
         0.29083E+01
         0.28978E+01
         0.00000E+00
         0.00000E+00
         0.29102E+01
         0.00000E+00
         0.29192E+01
         0.00000E+00
         0.29112E+01
         0.00000E+00
         0.29085E+01
         0.29165E+01
         0.00000E+00
         0.00000E+00
         0.28646E+01
         0.28864E+01
         0.00000E+00
         0.00000E+00
         0.28609E+01
         0.00000E+00
         0.28860E+01
         0.00000E+00
         0.28614E+01
         0.00000E+00
         0.28073E+01
         0.00000E+00
         0.27551E+01
         0.00000E+00
         0.27237E+01
         0.00000E+00
         0.27205E+01
         0.00000E+00
         0.27214E+01
         0.00000E+00
         0.27554E+01
         0.00000E+00
         0.28195E+01
         0.00000E+00
         0.28897E+01
         0.00000E+00
         0.29304E+01
         0.00000E+00
         0.29708E+01
         0.00000E+00
         0.29975E+01
         0.00000E+00
         0.29967E+01
         0.00000E+00
         0.29312E+01
         0.00000E+00
         0.28855E+01
         0.00000E+00
         0.28704E+01
         0.00000E+00
         0.28950E+01
         0.00000E+00
         0.29075E+01
         0.00000E+00
         0.28859E+01
         0.00000E+00
         0.28859E+01
         0.00000E+00
         0.29022E+01
         0.00000E+00
         0.29234E+01
         0.00000E+00
         0.30029E+00
         0.30287E+00
         0.30252E+00
         0.29911E+00
         0.30527E+00
         0.30226E+00
         0.30590E+00
         0.30404E+00
         0.29967E+00
         0.30245E+00
         0.30781E+00
         0.30847E+00
         0.30692E+00
         0.30674E+00
         0.30784E+00
         0.29928E+00
         0.29993E+00
         0.29808E+00
         0.30313E+00
         0.30225E+00
         0.30357E+00
         0.30276E+00
         0.30425E+00
         0.30381E+00
         0.30234E+00
         0.30243E+00
         0.30492E+00
         0.30469E+00
         0.30645E+00
         0.30377E+00
         0.29960E+00
         0.30290E+00
         0.29963E+00
         0.30181E+00
         0.30884E+00
         0.30671E+00
         0.30568E+00
         0.30694E+00
         0.30707E+00
         0.30896E+00
         0.31034E+00
         0.30700E+00
         0.30354E+00
         0.30400E+00
         0.30579E+00
         0.30878E+00
         0.30622E+00
         0.30333E+00
         0.30353E+00
         0.30578E+00
         0.30798E+00
         0.30501E+00
         0.31403E+00
         0.31196E+00
         0.31241E+00
         0.31195E+00
         0.31221E+00
         0.31358E+00
         0.31469E+00
         0.31485E+00
         0.31463E+00
         0.31482E+00
         0.31523E+00
         0.31222E+00
         0.31074E+00
         0.31016E+00
         0.30940E+00
         0.30882E+00
         0.30893E+00
         0.31012E+00
         0.31343E+00
         0.31276E+00
         0.31150E+00
         0.31142E+00
         0.31164E+00
         0.31268E+00
         0.31111E+00
         0.31053E+00
         0.30580E-02
         0.59496E-03
         0.38546E-03
         0.00000E+00
         0.32964E-02
         0.13160E-02
         0.00000E+00
         0.29559E-02
         0.68859E-03
         0.26047E-02
         0.00000E+00
         0.89535E-02
         0.60301E-02
         0.14483E-02
         0.95298E-02
         0.13690E-02
         0.00000E+00
         0.00000E+00
         0.00000E+00
         0.00000E+00
         0.63579E-02
         0.57685E-02
         0.55347E-02
         0.00000E+00
         0.57784E-03
         0.00000E+00
         0.11908E-02
         0.00000E+00
         0.00000E+00
         0.88922E-03
         0.71711E-03
         0.00000E+00
         0.00000E+00
         0.00000E+00
         0.51831E-02
         0.18421E-02
         0.33048E-02
         0.71801E-02
         0.47905E-02
         0.42402E-02
         0.73549E-02
         0.63693E-02
         0.64329E-02
         0.42650E-02
         0.34723E-02
         0.59112E-02
         0.27903E-02
         0.19052E-02
         0.10256E-02
         0.17736E-02
         0.48903E-02
         0.23733E-02
         0.32501E-01
         0.33361E-01
         0.35030E-01
         0.34750E-01
         0.37275E-01
         0.40281E-01
         0.38510E-01
         0.33856E-01
         0.32904E-01
         0.35459E-01
         0.34682E-01
         0.34163E-01
         0.27643E-01
         0.26109E-01
         0.29020E-01
         0.31329E-01
         0.32642E-01
         0.35968E-01
         0.34465E-01
         0.35492E-01
         0.31613E-01
         0.29841E-01
         0.32054E-01
         0.31258E-01
         0.32266E-01
         0.31965E-01
         0.30627E-02
         0.59578E-03
         0.38743E-03
         0.00000E+00
         0.32935E-02
         0.13134E-02
         0.00000E+00
         0.29618E-02
         0.69513E-03
         0.26216E-02
         0.00000E+00
         0.89531E-02
         0.60337E-02
         0.14377E-02
         0.95431E-02
         0.13725E-02
         0.00000E+00
         0.00000E+00
         0.00000E+00
         0.00000E+00
         0.63587E-02
         0.57679E-02
         0.55342E-02
         0.00000E+00
         0.59366E-03
         0.00000E+00
         0.11922E-02
         0.00000E+00
         0.00000E+00
         0.89625E-03
         0.72077E-03
         0.00000E+00
         0.00000E+00
         0.00000E+00
         0.51868E-02
         0.18407E-02
         0.33034E-02
         0.71962E-02
         0.48083E-02
         0.42505E-02
         0.73619E-02
         0.63743E-02
         0.64340E-02
         0.42648E-02
         0.34709E-02
         0.59107E-02
         0.27904E-02
         0.19049E-02
         0.10197E-02
         0.17669E-02
         0.48858E-02
         0.23648E-02
         0.32488E-01
         0.33352E-01
         0.35030E-01
         0.34751E-01
         0.37268E-01
         0.40266E-01
         0.38493E-01
         0.33846E-01
         0.32895E-01
         0.35447E-01
         0.34676E-01
         0.34164E-01
         0.27640E-01
         0.26108E-01
         0.29024E-01
         0.31337E-01
         0.32652E-01
         0.35976E-01
         0.34462E-01
         0.35490E-01
         0.31609E-01
         0.29839E-01
         0.32042E-01
         0.31235E-01
         0.32246E-01
         0.31946E-01
         0.30674E-02
         0.59666E-03
         0.38942E-03
         0.00000E+00
         0.32905E-02
         0.13110E-02
         0.00000E+00
         0.29677E-02
         0.70171E-03
         0.26383E-02
         0.00000E+00
         0.89527E-02
         0.60373E-02
         0.14270E-02
         0.95561E-02
         0.13762E-02
         0.00000E+00
         0.00000E+00
         0.00000E+00
         0.00000E+00
         0.63597E-02
         0.57672E-02
         0.55337E-02
         0.00000E+00
         0.60934E-03
         0.00000E+00
         0.11936E-02
         0.00000E+00
         0.00000E+00
         0.90305E-03
         0.72450E-03
         0.00000E+00
         0.00000E+00
         0.00000E+00
         0.51905E-02
         0.18394E-02
         0.33018E-02
         0.72124E-02
         0.48262E-02
         0.42608E-02
         0.73691E-02
         0.63793E-02
         0.64354E-02
         0.42650E-02
         0.34699E-02
         0.59105E-02
         0.27905E-02
         0.19045E-02
         0.10139E-02
         0.17601E-02
         0.48814E-02
         0.23564E-02
         0.32475E-01
         0.33343E-01
         0.35030E-01
         0.34751E-01
         0.37261E-01
         0.40251E-01
         0.38475E-01
         0.33836E-01
         0.32885E-01
         0.35436E-01
         0.34669E-01
         0.34165E-01
         0.27637E-01
         0.26107E-01
         0.29028E-01
         0.31346E-01
         0.32661E-01
         0.35985E-01
         0.34460E-01
         0.35488E-01
         0.31605E-01
         0.29837E-01
         0.32030E-01
         0.31212E-01
         0.32226E-01
         0.31928E-01
         0.30721E-02
         0.59749E-03
         0.39141E-03
         0.00000E+00
         0.32876E-02
         0.13084E-02
         0.00000E+00
         0.29735E-02
         0.70825E-03
         0.26547E-02
         0.00000E+00
         0.89524E-02
         0.60411E-02
         0.14163E-02
         0.95694E-02
         0.13802E-02
         0.00000E+00
         0.00000E+00
         0.00000E+00
         0.00000E+00
         0.63609E-02
         0.57669E-02
         0.55338E-02
         0.00000E+00
         0.62471E-03
         0.00000E+00
         0.11948E-02
         0.00000E+00
         0.00000E+00
         0.90923E-03
         0.72838E-03
         0.00000E+00
         0.00000E+00
         0.00000E+00
         0.51941E-02
         0.18380E-02
         0.33003E-02
         0.72286E-02
         0.48444E-02
         0.42717E-02
         0.73767E-02
         0.63846E-02
         0.64371E-02
         0.42658E-02
         0.34691E-02
         0.59104E-02
         0.27909E-02
         0.19042E-02
         0.10081E-02
         0.17534E-02
         0.48768E-02
         0.23479E-02
         0.32462E-01
         0.33335E-01
         0.35029E-01
         0.34751E-01
         0.37254E-01
         0.40236E-01
         0.38458E-01
         0.33826E-01
         0.32876E-01
         0.35424E-01
         0.34663E-01
         0.34167E-01
         0.27635E-01
         0.26106E-01
         0.29032E-01
         0.31356E-01
         0.32672E-01
         0.35994E-01
         0.34458E-01
         0.35485E-01
         0.31601E-01
         0.29835E-01
         0.32017E-01
         0.31190E-01
         0.32206E-01
         0.31909E-01
         0.30767E-02
         0.59833E-03
         0.39339E-03
         0.00000E+00
         0.32847E-02
         0.13059E-02
         0.00000E+00
         0.29793E-02
         0.71474E-03
         0.26708E-02
         0.00000E+00
         0.89520E-02
         0.60447E-02
         0.14057E-02
         0.95826E-02
         0.13846E-02
         0.00000E+00
         0.00000E+00
         0.00000E+00
         0.00000E+00
         0.63623E-02
         0.57667E-02
         0.55343E-02
         0.00000E+00
         0.63971E-03
         0.00000E+00
         0.11958E-02
         0.00000E+00
         0.00000E+00
         0.91477E-03
         0.73241E-03
         0.00000E+00
         0.00000E+00
         0.00000E+00
         0.51979E-02
         0.18367E-02
         0.32988E-02
         0.72449E-02
         0.48629E-02
         0.42830E-02
         0.73847E-02
         0.63902E-02
         0.64393E-02
         0.42674E-02
         0.34688E-02
         0.59108E-02
         0.27916E-02
         0.19042E-02
         0.10023E-02
         0.17466E-02
         0.48725E-02
         0.23395E-02
         0.32449E-01
         0.33326E-01
         0.35029E-01
         0.34751E-01
         0.37248E-01
         0.40221E-01
         0.38440E-01
         0.33816E-01
         0.32867E-01
         0.35412E-01
         0.34657E-01
         0.34170E-01
         0.27634E-01
         0.26105E-01
         0.29037E-01
         0.31367E-01
         0.32684E-01
         0.36003E-01
         0.34456E-01
         0.35483E-01
         0.31597E-01
         0.29833E-01
         0.32005E-01
         0.31167E-01
         0.32186E-01
         0.31890E-01
         0.30811E-02
         0.59894E-03
         0.39531E-03
         0.00000E+00
         0.32818E-02
         0.13034E-02
         0.00000E+00
         0.29846E-02
         0.72127E-03
         0.26863E-02
         0.00000E+00
         0.89517E-02
         0.60484E-02
         0.13950E-02
         0.95958E-02
         0.13890E-02
         0.00000E+00
         0.00000E+00
         0.00000E+00
         0.00000E+00
         0.63640E-02
         0.57667E-02
         0.55352E-02
         0.00000E+00
         0.65438E-03
         0.00000E+00
         0.11968E-02
         0.00000E+00
         0.00000E+00
         0.92014E-03
         0.73634E-03
         0.00000E+00
         0.00000E+00
         0.00000E+00
         0.52017E-02
         0.18355E-02
         0.32976E-02
         0.72613E-02
         0.48817E-02
         0.42948E-02
         0.73930E-02
         0.63958E-02
         0.64417E-02
         0.42692E-02
         0.34690E-02
         0.59116E-02
         0.27925E-02
         0.19043E-02
         0.99681E-03
         0.17400E-02
         0.48681E-02
         0.23312E-02
         0.32436E-01
         0.33317E-01
         0.35029E-01
         0.34752E-01
         0.37241E-01
         0.40207E-01
         0.38422E-01
         0.33806E-01
         0.32858E-01
         0.35400E-01
         0.34651E-01
         0.34172E-01
         0.27633E-01
         0.26105E-01
         0.29042E-01
         0.31379E-01
         0.32696E-01
         0.36013E-01
         0.34454E-01
         0.35481E-01
         0.31594E-01
         0.29831E-01
         0.31993E-01
         0.31144E-01
         0.32166E-01
         0.31871E-01
         0.30852E-02
         0.59906E-03
         0.39714E-03
         0.00000E+00
         0.32790E-02
         0.13010E-02
         0.00000E+00
         0.29892E-02
         0.72794E-03
         0.27013E-02
         0.00000E+00
         0.89518E-02
         0.60526E-02
         0.13845E-02
         0.96092E-02
         0.13935E-02
         0.00000E+00
         0.00000E+00
         0.00000E+00
         0.00000E+00
         0.63656E-02
         0.57667E-02
         0.55362E-02
         0.00000E+00
         0.66860E-03
         0.00000E+00
         0.11979E-02
         0.00000E+00
         0.00000E+00
         0.92547E-03
         0.73999E-03
         0.00000E+00
         0.00000E+00
         0.00000E+00
         0.52056E-02
         0.18346E-02
         0.32965E-02
         0.72778E-02
         0.49006E-02
         0.43065E-02
         0.74014E-02
         0.64015E-02
         0.64442E-02
         0.42711E-02
         0.34695E-02
         0.59128E-02
         0.27938E-02
         0.19049E-02
         0.99210E-03
         0.17337E-02
         0.48642E-02
         0.23230E-02
         0.32423E-01
         0.33308E-01
         0.35028E-01
         0.34752E-01
         0.37234E-01
         0.40192E-01
         0.38405E-01
         0.33796E-01
         0.32849E-01
         0.35388E-01
         0.34644E-01
         0.34175E-01
         0.27632E-01
         0.26104E-01
         0.29047E-01
         0.31390E-01
         0.32709E-01
         0.36022E-01
         0.34452E-01
         0.35478E-01
         0.31590E-01
         0.29829E-01
         0.31981E-01
         0.31122E-01
         0.32146E-01
         0.31852E-01
         0.30891E-02
         0.59907E-03
         0.39893E-03
         0.00000E+00
         0.32764E-02
         0.12984E-02
         0.00000E+00
         0.29934E-02
         0.73468E-03
         0.27159E-02
         0.00000E+00
         0.89518E-02
         0.60567E-02
         0.13740E-02
         0.96225E-02
         0.13979E-02
         0.00000E+00
         0.00000E+00
         0.00000E+00
         0.00000E+00
         0.63673E-02
         0.57667E-02
         0.55371E-02
         0.00000E+00
         0.68261E-03
         0.00000E+00
         0.11991E-02
         0.00000E+00
         0.00000E+00
         0.93083E-03
         0.74353E-03
         0.00000E+00
         0.00000E+00
         0.00000E+00
         0.52097E-02
         0.18339E-02
         0.32956E-02
         0.72945E-02
         0.49196E-02
         0.43183E-02
         0.74098E-02
         0.64075E-02
         0.64467E-02
         0.42732E-02
         0.34701E-02
         0.59143E-02
         0.27952E-02
         0.19056E-02
         0.98772E-03
         0.17276E-02
         0.48603E-02
         0.23149E-02
         0.32409E-01
         0.33300E-01
         0.35028E-01
         0.34752E-01
         0.37227E-01
         0.40177E-01
         0.38387E-01
         0.33786E-01
         0.32840E-01
         0.35376E-01
         0.34638E-01
         0.34177E-01
         0.27630E-01
         0.26104E-01
         0.29052E-01
         0.31402E-01
         0.32721E-01
         0.36032E-01
         0.34449E-01
         0.35476E-01
         0.31587E-01
         0.29828E-01
         0.31969E-01
         0.31099E-01
         0.32126E-01
         0.31833E-01
         0.30930E-02
         0.59907E-03
         0.40070E-03
         0.00000E+00
         0.32736E-02
         0.12959E-02
         0.00000E+00
         0.29976E-02
         0.74144E-03
         0.27305E-02
         0.00000E+00
         0.89519E-02
         0.60609E-02
         0.13636E-02
         0.96360E-02
         0.14024E-02
         0.00000E+00
         0.00000E+00
         0.00000E+00
         0.00000E+00
         0.63689E-02
         0.57667E-02
         0.55381E-02
         0.00000E+00
         0.69659E-03
         0.00000E+00
         0.12003E-02
         0.00000E+00
         0.00000E+00
         0.93618E-03
         0.74705E-03
         0.00000E+00
         0.00000E+00
         0.00000E+00
         0.52139E-02
         0.18330E-02
         0.32947E-02
         0.73112E-02
         0.49387E-02
         0.43300E-02
         0.74182E-02
         0.64133E-02
         0.64492E-02
         0.42754E-02
         0.34708E-02
         0.59157E-02
         0.27966E-02
         0.19064E-02
         0.98340E-03
         0.17215E-02
         0.48567E-02
         0.23067E-02
         0.32396E-01
         0.33291E-01
         0.35028E-01
         0.34752E-01
         0.37221E-01
         0.40162E-01
         0.38369E-01
         0.33776E-01
         0.32830E-01
         0.35364E-01
         0.34632E-01
         0.34180E-01
         0.27629E-01
         0.26103E-01
         0.29057E-01
         0.31414E-01
         0.32734E-01
         0.36041E-01
         0.34447E-01
         0.35474E-01
         0.31584E-01
         0.29826E-01
         0.31956E-01
         0.31077E-01
         0.32106E-01
         0.31815E-01
         0.30968E-02
         0.59902E-03
         0.40245E-03
         0.00000E+00
         0.32709E-02
         0.12934E-02
         0.00000E+00
         0.30018E-02
         0.74820E-03
         0.27451E-02
         0.00000E+00
         0.89520E-02
         0.60652E-02
         0.13532E-02
         0.96494E-02
         0.14069E-02
         0.00000E+00
         0.00000E+00
         0.00000E+00
         0.00000E+00
         0.63705E-02
         0.57667E-02
         0.55389E-02
         0.00000E+00
         0.71056E-03
         0.00000E+00
         0.12016E-02
         0.00000E+00
         0.00000E+00
         0.94153E-03
         0.75055E-03
         0.00000E+00
         0.00000E+00
         0.00000E+00
         0.52179E-02
         0.18323E-02
         0.32939E-02
         0.73278E-02
         0.49577E-02
         0.43418E-02
         0.74267E-02
         0.64191E-02
         0.64517E-02
         0.42775E-02
         0.34714E-02
         0.59171E-02
         0.27981E-02
         0.19073E-02
         0.97902E-03
         0.17153E-02
         0.48527E-02
         0.22986E-02
         0.32383E-01
         0.33282E-01
         0.35027E-01
         0.34752E-01
         0.37214E-01
         0.40147E-01
         0.38351E-01
         0.33766E-01
         0.32821E-01
         0.35352E-01
         0.34626E-01
         0.34182E-01
         0.27628E-01
         0.26102E-01
         0.29062E-01
         0.31425E-01
         0.32746E-01
         0.36050E-01
         0.34444E-01
         0.35471E-01
         0.31581E-01
         0.29825E-01
         0.31944E-01
         0.31054E-01
         0.32086E-01
         0.31796E-01
         0.31006E-02
         0.59895E-03
         0.40423E-03
         0.00000E+00
         0.32682E-02
         0.12909E-02
         0.00000E+00
         0.30059E-02
         0.75498E-03
         0.27597E-02
         0.00000E+00
         0.89520E-02
         0.60693E-02
         0.13428E-02
         0.96629E-02
         0.14113E-02
         0.00000E+00
         0.00000E+00
         0.00000E+00
         0.00000E+00
         0.63721E-02
         0.57667E-02
         0.55399E-02
         0.00000E+00
         0.72448E-03
         0.00000E+00
         0.12029E-02
         0.00000E+00
         0.00000E+00
         0.94685E-03
         0.75406E-03
         0.00000E+00
         0.00000E+00
         0.00000E+00
         0.52220E-02
         0.18315E-02
         0.32930E-02
         0.73445E-02
         0.49768E-02
         0.43534E-02
         0.74351E-02
         0.64249E-02
         0.64542E-02
         0.42794E-02
         0.34721E-02
         0.59186E-02
         0.27996E-02
         0.19081E-02
         0.97471E-03
         0.17092E-02
         0.48491E-02
         0.22905E-02
         0.32370E-01
         0.33274E-01
         0.35026E-01
         0.34752E-01
         0.37207E-01
         0.40132E-01
         0.38333E-01
         0.33756E-01
         0.32812E-01
         0.35340E-01
         0.34620E-01
         0.34185E-01
         0.27627E-01
         0.26102E-01
         0.29066E-01
         0.31437E-01
         0.32759E-01
         0.36059E-01
         0.34442E-01
         0.35469E-01
         0.31578E-01
         0.29823E-01
         0.31932E-01
         0.31032E-01
         0.32067E-01
         0.31777E-01
         0.31044E-02
         0.59893E-03
         0.40600E-03
         0.00000E+00
         0.32655E-02
         0.12884E-02
         0.00000E+00
         0.30101E-02
         0.76177E-03
         0.27742E-02
         0.00000E+00
         0.89521E-02
         0.60734E-02
         0.13324E-02
         0.96762E-02
         0.14158E-02
         0.00000E+00
         0.00000E+00
         0.00000E+00
         0.00000E+00
         0.63737E-02
         0.57666E-02
         0.55409E-02
         0.00000E+00
         0.73838E-03
         0.00000E+00
         0.12041E-02
         0.00000E+00
         0.00000E+00
         0.95219E-03
         0.75759E-03
         0.00000E+00
         0.00000E+00
         0.00000E+00
         0.52262E-02
         0.18307E-02
         0.32921E-02
         0.73613E-02
         0.49959E-02
         0.43652E-02
         0.74435E-02
         0.64307E-02
         0.64566E-02
         0.42815E-02
         0.34728E-02
         0.59202E-02
         0.28009E-02
         0.19089E-02
         0.97040E-03
         0.17031E-02
         0.48452E-02
         0.22823E-02
         0.32357E-01
         0.33265E-01
         0.35026E-01
         0.34753E-01
         0.37201E-01
         0.40117E-01
         0.38315E-01
         0.33746E-01
         0.32803E-01
         0.35328E-01
         0.34613E-01
         0.34187E-01
         0.27626E-01
         0.26101E-01
         0.29071E-01
         0.31448E-01
         0.32771E-01
         0.36068E-01
         0.34439E-01
         0.35466E-01
         0.31575E-01
         0.29822E-01
         0.31919E-01
         0.31009E-01
         0.32047E-01
         0.31759E-01
         0.31083E-02
         0.59889E-03
         0.40777E-03
         0.00000E+00
         0.32628E-02
         0.12859E-02
         0.00000E+00
         0.30143E-02
         0.76855E-03
         0.27887E-02
         0.00000E+00
         0.89521E-02
         0.60777E-02
         0.13220E-02
         0.96897E-02
         0.14202E-02
         0.00000E+00
         0.00000E+00
         0.00000E+00
         0.00000E+00
         0.63754E-02
         0.57667E-02
         0.55418E-02
         0.00000E+00
         0.75225E-03
         0.00000E+00
         0.12053E-02
         0.00000E+00
         0.00000E+00
         0.95748E-03
         0.76110E-03
         0.00000E+00
         0.00000E+00
         0.00000E+00
         0.52302E-02
         0.18300E-02
         0.32913E-02
         0.73779E-02
         0.50151E-02
         0.43769E-02
         0.74520E-02
         0.64364E-02
         0.64591E-02
         0.42837E-02
         0.34736E-02
         0.59214E-02
         0.28024E-02
         0.19098E-02
         0.96611E-03
         0.16970E-02
         0.48413E-02
         0.22742E-02
         0.32344E-01
         0.33256E-01
         0.35025E-01
         0.34753E-01
         0.37194E-01
         0.40102E-01
         0.38298E-01
         0.33736E-01
         0.32794E-01
         0.35316E-01
         0.34607E-01
         0.34189E-01
         0.27624E-01
         0.26101E-01
         0.29076E-01
         0.31460E-01
         0.32784E-01
         0.36077E-01
         0.34437E-01
         0.35464E-01
         0.31572E-01
         0.29820E-01
         0.31907E-01
         0.30986E-01
         0.32027E-01
         0.31740E-01
         0.31121E-02
         0.59889E-03
         0.40953E-03
         0.00000E+00
         0.32602E-02
         0.12834E-02
         0.00000E+00
         0.30184E-02
         0.77533E-03
         0.28032E-02
         0.00000E+00
         0.89522E-02
         0.60819E-02
         0.13117E-02
         0.97031E-02
         0.14247E-02
         0.00000E+00
         0.00000E+00
         0.00000E+00
         0.00000E+00
         0.63770E-02
         0.57666E-02
         0.55427E-02
         0.00000E+00
         0.76613E-03
         0.00000E+00
         0.12065E-02
         0.00000E+00
         0.00000E+00
         0.96277E-03
         0.76460E-03
         0.00000E+00
         0.00000E+00
         0.00000E+00
         0.52344E-02
         0.18292E-02
         0.32904E-02
         0.73947E-02
         0.50342E-02
         0.43885E-02
         0.74604E-02
         0.64422E-02
         0.64616E-02
         0.42858E-02
         0.34742E-02
         0.59229E-02
         0.28039E-02
         0.19105E-02
         0.96173E-03
         0.16908E-02
         0.48376E-02
         0.22661E-02
         0.32331E-01
         0.33248E-01
         0.35025E-01
         0.34753E-01
         0.37187E-01
         0.40087E-01
         0.38280E-01
         0.33725E-01
         0.32785E-01
         0.35304E-01
         0.34601E-01
         0.34192E-01
         0.27623E-01
         0.26100E-01
         0.29081E-01
         0.31472E-01
         0.32796E-01
         0.36087E-01
         0.34434E-01
         0.35462E-01
         0.31569E-01
         0.29819E-01
         0.31895E-01
         0.30964E-01
         0.32007E-01
         0.31721E-01
         0.31159E-02
         0.59888E-03
         0.41129E-03
         0.00000E+00
         0.32574E-02
         0.12809E-02
         0.00000E+00
         0.30226E-02
         0.78215E-03
         0.28177E-02
         0.00000E+00
         0.89523E-02
         0.60860E-02
         0.13013E-02
         0.97166E-02
         0.14291E-02
         0.00000E+00
         0.00000E+00
         0.00000E+00
         0.00000E+00
         0.63787E-02
         0.57666E-02
         0.55436E-02
         0.00000E+00
         0.78002E-03
         0.00000E+00
         0.12077E-02
         0.00000E+00
         0.00000E+00
         0.96807E-03
         0.76810E-03
         0.00000E+00
         0.00000E+00
         0.00000E+00
         0.52385E-02
         0.18286E-02
         0.32895E-02
         0.74115E-02
         0.50534E-02
         0.44002E-02
         0.74688E-02
         0.64480E-02
         0.64641E-02
         0.42879E-02
         0.34749E-02
         0.59245E-02
         0.28053E-02
         0.19114E-02
         0.95740E-03
         0.16847E-02
         0.48338E-02
         0.22579E-02
         0.32318E-01
         0.33239E-01
         0.35024E-01
         0.34753E-01
         0.37181E-01
         0.40072E-01
         0.38261E-01
         0.33715E-01
         0.32776E-01
         0.35291E-01
         0.34595E-01
         0.34194E-01
         0.27622E-01
         0.26100E-01
         0.29086E-01
         0.31483E-01
         0.32809E-01
         0.36096E-01
         0.34432E-01
         0.35459E-01
         0.31565E-01
         0.29817E-01
         0.31882E-01
         0.30941E-01
         0.31988E-01
         0.31702E-01
         0.31196E-02
         0.59877E-03
         0.41304E-03
         0.00000E+00
         0.32547E-02
         0.12785E-02
         0.00000E+00
         0.30267E-02
         0.78898E-03
         0.28323E-02
         0.00000E+00
         0.89524E-02
         0.60903E-02
         0.12910E-02
         0.97300E-02
         0.14336E-02
         0.00000E+00
         0.00000E+00
         0.00000E+00
         0.00000E+00
         0.63803E-02
         0.57666E-02
         0.55446E-02
         0.00000E+00
         0.79387E-03
         0.00000E+00
         0.12089E-02
         0.00000E+00
         0.00000E+00
         0.97336E-03
         0.77160E-03
         0.00000E+00
         0.00000E+00
         0.00000E+00
         0.52427E-02
         0.18278E-02
         0.32887E-02
         0.74282E-02
         0.50725E-02
         0.44117E-02
         0.74772E-02
         0.64537E-02
         0.64666E-02
         0.42898E-02
         0.34757E-02
         0.59259E-02
         0.28068E-02
         0.19122E-02
         0.95314E-03
         0.16786E-02
         0.48300E-02
         0.22498E-02
         0.32305E-01
         0.33230E-01
         0.35024E-01
         0.34753E-01
         0.37174E-01
         0.40057E-01
         0.38243E-01
         0.33705E-01
         0.32767E-01
         0.35279E-01
         0.34589E-01
         0.34197E-01
         0.27621E-01
         0.26099E-01
         0.29091E-01
         0.31495E-01
         0.32821E-01
         0.36105E-01
         0.34429E-01
         0.35457E-01
         0.31562E-01
         0.29816E-01
         0.31870E-01
         0.30919E-01
         0.31968E-01
         0.31684E-01
         0.31234E-02
         0.59874E-03
         0.41481E-03
         0.00000E+00
         0.32521E-02
         0.12760E-02
         0.00000E+00
         0.30309E-02
         0.79583E-03
         0.28467E-02
         0.00000E+00
         0.89525E-02
         0.60945E-02
         0.12806E-02
         0.97435E-02
         0.14380E-02
         0.00000E+00
         0.00000E+00
         0.00000E+00
         0.00000E+00
         0.63820E-02
         0.57665E-02
         0.55455E-02
         0.00000E+00
         0.80769E-03
         0.00000E+00
         0.12101E-02
         0.00000E+00
         0.00000E+00
         0.97853E-03
         0.77512E-03
         0.00000E+00
         0.00000E+00
         0.00000E+00
         0.52469E-02
         0.18270E-02
         0.32878E-02
         0.74450E-02
         0.50917E-02
         0.44233E-02
         0.74854E-02
         0.64594E-02
         0.64690E-02
         0.42920E-02
         0.34763E-02
         0.59274E-02
         0.28083E-02
         0.19131E-02
         0.94887E-03
         0.16724E-02
         0.48261E-02
         0.22418E-02
         0.32292E-01
         0.33222E-01
         0.35023E-01
         0.34753E-01
         0.37167E-01
         0.40042E-01
         0.38225E-01
         0.33695E-01
         0.32758E-01
         0.35266E-01
         0.34582E-01
         0.34200E-01
         0.27620E-01
         0.26099E-01
         0.29096E-01
         0.31506E-01
         0.32834E-01
         0.36114E-01
         0.34427E-01
         0.35454E-01
         0.31559E-01
         0.29814E-01
         0.31858E-01
         0.30896E-01
         0.31948E-01
         0.31665E-01
         0.31272E-02
         0.59871E-03
         0.41656E-03
         0.00000E+00
         0.32494E-02
         0.12735E-02
         0.00000E+00
         0.30350E-02
         0.80270E-03
         0.28611E-02
         0.00000E+00
         0.89526E-02
         0.60986E-02
         0.12702E-02
         0.97568E-02
         0.14425E-02
         0.00000E+00
         0.00000E+00
         0.00000E+00
         0.00000E+00
         0.63836E-02
         0.57664E-02
         0.55465E-02
         0.00000E+00
         0.82147E-03
         0.00000E+00
         0.12108E-02
         0.00000E+00
         0.00000E+00
         0.98348E-03
         0.77863E-03
         0.00000E+00
         0.00000E+00
         0.00000E+00
         0.52510E-02
         0.18264E-02
         0.32870E-02
         0.74619E-02
         0.51109E-02
         0.44343E-02
         0.74932E-02
         0.64646E-02
         0.64712E-02
         0.42941E-02
         0.34771E-02
         0.59289E-02
         0.28097E-02
         0.19140E-02
         0.94453E-03
         0.16663E-02
         0.48225E-02
         0.22336E-02
         0.32278E-01
         0.33213E-01
         0.35022E-01
         0.34754E-01
         0.37160E-01
         0.40027E-01
         0.38207E-01
         0.33685E-01
         0.32749E-01
         0.35253E-01
         0.34576E-01
         0.34204E-01
         0.27619E-01
         0.26098E-01
         0.29101E-01
         0.31518E-01
         0.32846E-01
         0.36123E-01
         0.34424E-01
         0.35452E-01
         0.31556E-01
         0.29812E-01
         0.31845E-01
         0.30874E-01
         0.31928E-01
         0.31646E-01
         0.31309E-02
         0.59870E-03
         0.41831E-03
         0.00000E+00
         0.32467E-02
         0.12709E-02
         0.00000E+00
         0.30390E-02
         0.80960E-03
         0.28753E-02
         0.00000E+00
         0.89527E-02
         0.61029E-02
         0.12597E-02
         0.97703E-02
         0.14469E-02
         0.00000E+00
         0.00000E+00
         0.00000E+00
         0.00000E+00
         0.63853E-02
         0.57662E-02
         0.55475E-02
         0.00000E+00
         0.83519E-03
         0.00000E+00
         0.12113E-02
         0.00000E+00
         0.00000E+00
         0.98815E-03
         0.78213E-03
         0.00000E+00
         0.00000E+00
         0.00000E+00
         0.52553E-02
         0.18256E-02
         0.32861E-02
         0.74789E-02
         0.51299E-02
         0.44451E-02
         0.75005E-02
         0.64692E-02
         0.64731E-02
         0.42962E-02
         0.34779E-02
         0.59304E-02
         0.28112E-02
         0.19148E-02
         0.94028E-03
         0.16601E-02
         0.48185E-02
         0.22254E-02
         0.32265E-01
         0.33205E-01
         0.35022E-01
         0.34754E-01
         0.37154E-01
         0.40012E-01
         0.38189E-01
         0.33674E-01
         0.32740E-01
         0.35239E-01
         0.34570E-01
         0.34208E-01
         0.27619E-01
         0.26098E-01
         0.29106E-01
         0.31529E-01
         0.32858E-01
         0.36132E-01
         0.34422E-01
         0.35449E-01
         0.31553E-01
         0.29811E-01
         0.31833E-01
         0.30851E-01
         0.31909E-01
         0.31628E-01
         0.31348E-02
         0.59868E-03
         0.42017E-03
         0.00000E+00
         0.32441E-02
         0.12686E-02
         0.00000E+00
         0.30431E-02
         0.81653E-03
         0.28895E-02
         0.00000E+00
         0.89528E-02
         0.61070E-02
         0.12493E-02
         0.97836E-02
         0.14514E-02
         0.00000E+00
         0.00000E+00
         0.00000E+00
         0.00000E+00
         0.63869E-02
         0.57660E-02
         0.55483E-02
         0.00000E+00
         0.84888E-03
         0.00000E+00
         0.12117E-02
         0.00000E+00
         0.00000E+00
         0.99275E-03
         0.78568E-03
         0.00000E+00
         0.00000E+00
         0.00000E+00
         0.52596E-02
         0.18250E-02
         0.32852E-02
         0.74958E-02
         0.51489E-02
         0.44556E-02
         0.75076E-02
         0.64737E-02
         0.64750E-02
         0.42983E-02
         0.34785E-02
         0.59319E-02
         0.28127E-02
         0.19157E-02
         0.93603E-03
         0.16540E-02
         0.48149E-02
         0.22174E-02
         0.32252E-01
         0.33196E-01
         0.35021E-01
         0.34754E-01
         0.37147E-01
         0.39997E-01
         0.38170E-01
         0.33664E-01
         0.32730E-01
         0.35226E-01
         0.34564E-01
         0.34213E-01
         0.27620E-01
         0.26097E-01
         0.29111E-01
         0.31541E-01
         0.32871E-01
         0.36141E-01
         0.34419E-01
         0.35447E-01
         0.31550E-01
         0.29809E-01
         0.31820E-01
         0.30829E-01
         0.31889E-01
         0.31609E-01
         0.34208E-02
         0.10600E-02
         0.89617E-03
         0.00000E+00
         0.36254E-02
         0.17254E-02
         0.00000E+00
         0.34056E-02
         0.12198E-02
         0.32694E-02
         0.49439E-03
         0.92879E-02
         0.64454E-02
         0.18332E-02
         0.10133E-01
         0.17896E-02
         0.00000E+00
         0.00000E+00
         0.51851E-03
         0.00000E+00
         0.66699E-02
         0.60669E-02
         0.58273E-02
         0.00000E+00
         0.13769E-02
         0.00000E+00
         0.17948E-02
         0.00000E+00
         0.00000E+00
         0.15318E-02
         0.11763E-02
         0.00000E+00
         0.00000E+00
         0.00000E+00
         0.56363E-02
         0.22895E-02
         0.36628E-02
         0.78617E-02
         0.55598E-02
         0.48757E-02
         0.78515E-02
         0.68058E-02
         0.67754E-02
         0.45958E-02
         0.38292E-02
         0.62865E-02
         0.32258E-02
         0.23305E-02
         0.14066E-02
         0.20952E-02
         0.51701E-02
         0.26255E-02
         0.32658E-01
         0.33592E-01
         0.35431E-01
         0.35148E-01
         0.37549E-01
         0.40417E-01
         0.38594E-01
         0.34098E-01
         0.33172E-01
         0.35673E-01
         0.35002E-01
         0.34625E-01
         0.27978E-01
         0.26431E-01
         0.29446E-01
         0.31886E-01
         0.33220E-01
         0.36526E-01
         0.34835E-01
         0.35864E-01
         0.31926E-01
         0.30171E-01
         0.32186E-01
         0.31184E-01
         0.32240E-01
         0.31961E-01
         0.18606E-01
         0.18123E-01
         0.17768E-01
         0.15735E-01
         0.21312E-01
         0.19108E-01
         0.19219E-01
         0.21008E-01
         0.16934E-01
         0.20909E-01
         0.21465E-01
         0.28979E-01
         0.24881E-01
         0.22614E-01
         0.30473E-01
         0.16889E-01
         0.17358E-01
         0.14663E-01
         0.18167E-01
         0.18854E-01
         0.23315E-01
         0.23362E-01
         0.21951E-01
         0.17183E-01
         0.20197E-01
         0.16301E-01
         0.22532E-01
         0.21315E-01
         0.21544E-01
         0.20997E-01
         0.16755E-01
         0.17048E-01
         0.15854E-01
         0.16612E-01
         0.24329E-01
         0.20726E-01
         0.21529E-01
         0.28188E-01
         0.26076E-01
         0.25380E-01
         0.27752E-01
         0.25903E-01
         0.24731E-01
         0.20681E-01
         0.20929E-01
         0.24705E-01
         0.21333E-01
         0.19669E-01
         0.18847E-01
         0.19869E-01
         0.23191E-01
         0.20177E-01
         0.56169E-01
         0.56384E-01
         0.58702E-01
         0.57795E-01
         0.60849E-01
         0.65039E-01
         0.64051E-01
         0.59820E-01
         0.59032E-01
         0.61864E-01
         0.60476E-01
         0.58504E-01
         0.49764E-01
         0.47116E-01
         0.49781E-01
         0.52109E-01
         0.53545E-01
         0.58349E-01
         0.58204E-01
         0.59356E-01
         0.54049E-01
         0.51770E-01
         0.54358E-01
         0.53322E-01
         0.54011E-01
         0.53543E-01
  
SCALARS                            dam  double 1
LOOKUP_TABLE default
         0.00000E+00
         0.00000E+00
         0.00000E+00
         0.00000E+00
         0.00000E+00
         0.00000E+00
         0.00000E+00
         0.00000E+00
         0.00000E+00
         0.00000E+00
         0.00000E+00
         0.00000E+00
         0.00000E+00
         0.00000E+00
         0.00000E+00
         0.00000E+00
         0.00000E+00
         0.00000E+00
         0.00000E+00
         0.00000E+00
         0.00000E+00
         0.00000E+00
         0.00000E+00
         0.00000E+00
         0.00000E+00
         0.00000E+00
         0.00000E+00
         0.00000E+00
         0.00000E+00
         0.00000E+00
         0.00000E+00
         0.00000E+00
         0.00000E+00
         0.00000E+00
         0.00000E+00
         0.00000E+00
         0.00000E+00
         0.00000E+00
         0.00000E+00
         0.00000E+00
         0.00000E+00
         0.00000E+00
         0.00000E+00
         0.00000E+00
         0.00000E+00
         0.00000E+00
         0.00000E+00
         0.00000E+00
         0.00000E+00
         0.00000E+00
         0.00000E+00
         0.00000E+00
         0.00000E+00
         0.00000E+00
         0.00000E+00
         0.00000E+00
         0.00000E+00
         0.00000E+00
         0.00000E+00
         0.00000E+00
         0.00000E+00
         0.00000E+00
         0.00000E+00
         0.00000E+00
         0.00000E+00
         0.00000E+00
         0.00000E+00
         0.00000E+00
         0.00000E+00
         0.00000E+00
         0.00000E+00
         0.00000E+00
         0.00000E+00
         0.00000E+00
         0.00000E+00
         0.00000E+00
         0.00000E+00
         0.00000E+00
         0.00000E+00
         0.00000E+00
         0.00000E+00
         0.00000E+00
         0.00000E+00
         0.00000E+00
         0.00000E+00
         0.00000E+00
         0.00000E+00
         0.00000E+00
         0.00000E+00
         0.00000E+00
         0.00000E+00
         0.00000E+00
         0.00000E+00
         0.00000E+00
         0.00000E+00
         0.00000E+00
         0.00000E+00
         0.00000E+00
         0.00000E+00
         0.00000E+00
         0.00000E+00
         0.00000E+00
         0.00000E+00
         0.00000E+00
         0.00000E+00
         0.00000E+00
         0.00000E+00
         0.00000E+00
         0.00000E+00
         0.00000E+00
         0.00000E+00
         0.00000E+00
         0.00000E+00
         0.00000E+00
         0.00000E+00
         0.00000E+00
         0.00000E+00
         0.00000E+00
         0.00000E+00
         0.00000E+00
         0.00000E+00
         0.00000E+00
         0.00000E+00
         0.00000E+00
         0.00000E+00
         0.00000E+00
         0.00000E+00
         0.00000E+00
         0.00000E+00
         0.00000E+00
         0.00000E+00
         0.00000E+00
         0.00000E+00
         0.00000E+00
         0.00000E+00
         0.00000E+00
         0.00000E+00
         0.00000E+00
         0.00000E+00
         0.00000E+00
         0.00000E+00
         0.00000E+00
         0.00000E+00
         0.00000E+00
         0.00000E+00
         0.00000E+00
         0.00000E+00
         0.00000E+00
         0.00000E+00
         0.00000E+00
         0.00000E+00
         0.00000E+00
         0.00000E+00
         0.00000E+00
         0.00000E+00
         0.00000E+00
         0.00000E+00
         0.00000E+00
         0.00000E+00
         0.00000E+00
         0.00000E+00
         0.00000E+00
         0.00000E+00
         0.00000E+00
         0.00000E+00
         0.00000E+00
         0.00000E+00
         0.00000E+00
         0.00000E+00
         0.00000E+00
         0.00000E+00
         0.00000E+00
         0.00000E+00
         0.00000E+00
         0.00000E+00
         0.00000E+00
         0.00000E+00
         0.00000E+00
         0.00000E+00
         0.00000E+00
         0.00000E+00
         0.00000E+00
         0.00000E+00
         0.00000E+00
         0.00000E+00
         0.00000E+00
         0.00000E+00
         0.00000E+00
         0.00000E+00
         0.00000E+00
         0.00000E+00
         0.00000E+00
         0.00000E+00
         0.00000E+00
         0.00000E+00
         0.00000E+00
         0.00000E+00
         0.00000E+00
         0.00000E+00
         0.00000E+00
         0.00000E+00
         0.00000E+00
         0.00000E+00
         0.00000E+00
         0.00000E+00
         0.00000E+00
         0.00000E+00
         0.00000E+00
         0.00000E+00
         0.00000E+00
         0.00000E+00
         0.00000E+00
         0.00000E+00
         0.00000E+00
         0.00000E+00
         0.00000E+00
         0.00000E+00
         0.00000E+00
         0.00000E+00
         0.00000E+00
         0.00000E+00
         0.00000E+00
         0.00000E+00
         0.00000E+00
         0.00000E+00
         0.00000E+00
         0.00000E+00
         0.00000E+00
         0.00000E+00
         0.00000E+00
         0.00000E+00
         0.00000E+00
         0.00000E+00
         0.00000E+00
         0.00000E+00
         0.00000E+00
         0.00000E+00
         0.00000E+00
         0.00000E+00
         0.00000E+00
         0.00000E+00
         0.00000E+00
         0.00000E+00
         0.00000E+00
         0.00000E+00
         0.00000E+00
         0.00000E+00
         0.00000E+00
         0.00000E+00
         0.00000E+00
         0.00000E+00
         0.00000E+00
         0.00000E+00
         0.00000E+00
         0.00000E+00
         0.00000E+00
         0.00000E+00
         0.00000E+00
         0.00000E+00
         0.00000E+00
         0.00000E+00
         0.00000E+00
         0.00000E+00
         0.00000E+00
         0.00000E+00
         0.00000E+00
         0.00000E+00
         0.00000E+00
         0.00000E+00
         0.00000E+00
         0.00000E+00
         0.00000E+00
         0.00000E+00
         0.00000E+00
         0.00000E+00
         0.00000E+00
         0.00000E+00
         0.00000E+00
         0.00000E+00
         0.00000E+00
         0.00000E+00
         0.00000E+00
         0.00000E+00
         0.00000E+00
         0.00000E+00
         0.00000E+00
         0.00000E+00
         0.00000E+00
         0.00000E+00
         0.00000E+00
         0.00000E+00
         0.00000E+00
         0.00000E+00
         0.00000E+00
         0.00000E+00
         0.00000E+00
         0.00000E+00
         0.00000E+00
         0.00000E+00
         0.00000E+00
         0.00000E+00
         0.00000E+00
         0.00000E+00
         0.00000E+00
         0.00000E+00
         0.00000E+00
         0.00000E+00
         0.00000E+00
         0.00000E+00
         0.00000E+00
         0.00000E+00
         0.00000E+00
         0.00000E+00
         0.00000E+00
         0.00000E+00
         0.00000E+00
         0.00000E+00
         0.00000E+00
         0.00000E+00
         0.00000E+00
         0.00000E+00
         0.00000E+00
         0.00000E+00
         0.00000E+00
         0.00000E+00
         0.00000E+00
         0.00000E+00
         0.00000E+00
         0.00000E+00
         0.00000E+00
         0.00000E+00
         0.00000E+00
         0.00000E+00
         0.00000E+00
         0.00000E+00
         0.00000E+00
         0.00000E+00
         0.00000E+00
         0.00000E+00
         0.00000E+00
         0.00000E+00
         0.00000E+00
         0.00000E+00
         0.00000E+00
         0.00000E+00
         0.00000E+00
         0.00000E+00
         0.00000E+00
         0.00000E+00
         0.00000E+00
         0.00000E+00
         0.00000E+00
         0.00000E+00
         0.00000E+00
         0.00000E+00
         0.00000E+00
         0.00000E+00
         0.00000E+00
         0.00000E+00
         0.00000E+00
         0.00000E+00
         0.00000E+00
         0.00000E+00
         0.00000E+00
         0.00000E+00
         0.00000E+00
         0.00000E+00
         0.00000E+00
         0.00000E+00
         0.00000E+00
         0.00000E+00
         0.00000E+00
         0.00000E+00
         0.00000E+00
         0.00000E+00
         0.00000E+00
         0.00000E+00
         0.00000E+00
         0.00000E+00
         0.00000E+00
         0.00000E+00
         0.00000E+00
         0.00000E+00
         0.00000E+00
         0.00000E+00
         0.00000E+00
         0.00000E+00
         0.00000E+00
         0.00000E+00
         0.00000E+00
         0.00000E+00
         0.00000E+00
         0.00000E+00
         0.00000E+00
         0.00000E+00
         0.00000E+00
         0.00000E+00
         0.00000E+00
         0.00000E+00
         0.00000E+00
         0.00000E+00
         0.00000E+00
         0.00000E+00
         0.00000E+00
         0.00000E+00
         0.00000E+00
         0.00000E+00
         0.00000E+00
         0.00000E+00
         0.00000E+00
         0.00000E+00
         0.00000E+00
         0.00000E+00
         0.00000E+00
         0.00000E+00
         0.00000E+00
         0.00000E+00
         0.00000E+00
         0.00000E+00
         0.00000E+00
         0.00000E+00
         0.00000E+00
         0.00000E+00
         0.00000E+00
         0.00000E+00
         0.00000E+00
         0.00000E+00
         0.00000E+00
         0.00000E+00
         0.00000E+00
         0.00000E+00
         0.00000E+00
         0.00000E+00
         0.00000E+00
         0.00000E+00
         0.00000E+00
         0.00000E+00
         0.00000E+00
         0.00000E+00
         0.00000E+00
         0.00000E+00
         0.00000E+00
         0.00000E+00
         0.00000E+00
         0.00000E+00
         0.00000E+00
         0.00000E+00
         0.00000E+00
         0.00000E+00
         0.00000E+00
         0.00000E+00
         0.00000E+00
         0.00000E+00
         0.00000E+00
         0.00000E+00
         0.00000E+00
         0.00000E+00
         0.00000E+00
         0.00000E+00
         0.00000E+00
         0.00000E+00
         0.00000E+00
         0.00000E+00
         0.00000E+00
         0.00000E+00
         0.00000E+00
         0.00000E+00
         0.00000E+00
         0.00000E+00
         0.00000E+00
         0.00000E+00
         0.00000E+00
         0.00000E+00
         0.00000E+00
         0.00000E+00
         0.00000E+00
         0.00000E+00
         0.00000E+00
         0.00000E+00
         0.00000E+00
         0.00000E+00
         0.00000E+00
         0.00000E+00
         0.00000E+00
         0.00000E+00
         0.00000E+00
         0.00000E+00
         0.00000E+00
         0.00000E+00
         0.00000E+00
         0.00000E+00
         0.00000E+00
         0.00000E+00
         0.00000E+00
         0.00000E+00
         0.00000E+00
         0.00000E+00
         0.00000E+00
         0.00000E+00
         0.00000E+00
         0.00000E+00
         0.00000E+00
         0.00000E+00
         0.00000E+00
         0.00000E+00
         0.00000E+00
         0.00000E+00
         0.00000E+00
         0.00000E+00
         0.00000E+00
         0.00000E+00
         0.00000E+00
         0.00000E+00
         0.00000E+00
         0.00000E+00
         0.00000E+00
         0.00000E+00
         0.00000E+00
         0.00000E+00
         0.00000E+00
         0.00000E+00
         0.00000E+00
         0.00000E+00
         0.00000E+00
         0.00000E+00
         0.00000E+00
         0.00000E+00
         0.00000E+00
         0.00000E+00
         0.00000E+00
         0.00000E+00
         0.00000E+00
         0.00000E+00
         0.00000E+00
         0.00000E+00
         0.00000E+00
         0.00000E+00
         0.00000E+00
         0.00000E+00
         0.00000E+00
         0.00000E+00
         0.00000E+00
         0.00000E+00
         0.00000E+00
         0.00000E+00
         0.00000E+00
         0.00000E+00
         0.00000E+00
         0.00000E+00
         0.00000E+00
         0.00000E+00
         0.00000E+00
         0.00000E+00
         0.00000E+00
         0.00000E+00
         0.00000E+00
         0.00000E+00
         0.00000E+00
         0.00000E+00
         0.00000E+00
         0.00000E+00
         0.00000E+00
         0.00000E+00
         0.00000E+00
         0.00000E+00
         0.00000E+00
         0.00000E+00
         0.00000E+00
         0.00000E+00
         0.00000E+00
         0.00000E+00
         0.00000E+00
         0.00000E+00
         0.00000E+00
         0.00000E+00
         0.00000E+00
         0.00000E+00
         0.00000E+00
         0.00000E+00
         0.00000E+00
         0.00000E+00
         0.00000E+00
         0.00000E+00
         0.00000E+00
         0.00000E+00
         0.00000E+00
         0.00000E+00
         0.00000E+00
         0.00000E+00
         0.00000E+00
         0.00000E+00
         0.00000E+00
         0.00000E+00
         0.00000E+00
         0.00000E+00
         0.00000E+00
         0.00000E+00
         0.00000E+00
         0.00000E+00
         0.00000E+00
         0.00000E+00
         0.00000E+00
         0.00000E+00
         0.00000E+00
         0.00000E+00
         0.00000E+00
         0.00000E+00
         0.00000E+00
         0.00000E+00
         0.00000E+00
         0.00000E+00
         0.00000E+00
         0.00000E+00
         0.00000E+00
         0.00000E+00
         0.00000E+00
         0.00000E+00
         0.00000E+00
         0.00000E+00
         0.00000E+00
         0.00000E+00
         0.00000E+00
         0.00000E+00
         0.00000E+00
         0.00000E+00
         0.00000E+00
         0.00000E+00
         0.00000E+00
         0.00000E+00
         0.00000E+00
         0.00000E+00
         0.00000E+00
         0.00000E+00
         0.00000E+00
         0.00000E+00
         0.00000E+00
         0.00000E+00
         0.00000E+00
         0.00000E+00
         0.00000E+00
         0.00000E+00
         0.00000E+00
         0.00000E+00
         0.00000E+00
         0.00000E+00
         0.00000E+00
         0.00000E+00
         0.00000E+00
         0.00000E+00
         0.00000E+00
         0.00000E+00
         0.00000E+00
         0.00000E+00
         0.00000E+00
         0.00000E+00
         0.00000E+00
         0.00000E+00
         0.00000E+00
         0.00000E+00
         0.00000E+00
         0.00000E+00
         0.00000E+00
         0.00000E+00
         0.00000E+00
         0.00000E+00
         0.00000E+00
         0.00000E+00
         0.00000E+00
         0.00000E+00
         0.00000E+00
         0.00000E+00
         0.00000E+00
         0.00000E+00
         0.00000E+00
         0.00000E+00
         0.00000E+00
         0.00000E+00
         0.00000E+00
         0.00000E+00
         0.00000E+00
         0.00000E+00
         0.00000E+00
         0.00000E+00
         0.00000E+00
         0.00000E+00
         0.00000E+00
         0.00000E+00
         0.00000E+00
         0.00000E+00
         0.00000E+00
         0.00000E+00
         0.00000E+00
         0.00000E+00
         0.00000E+00
         0.00000E+00
         0.00000E+00
         0.00000E+00
         0.00000E+00
         0.00000E+00
         0.00000E+00
         0.00000E+00
         0.00000E+00
         0.00000E+00
         0.00000E+00
         0.00000E+00
         0.00000E+00
         0.00000E+00
         0.00000E+00
         0.00000E+00
         0.00000E+00
         0.00000E+00
         0.00000E+00
         0.00000E+00
         0.00000E+00
         0.00000E+00
         0.00000E+00
         0.00000E+00
         0.00000E+00
         0.00000E+00
         0.00000E+00
         0.00000E+00
         0.00000E+00
         0.00000E+00
         0.00000E+00
         0.00000E+00
         0.00000E+00
         0.00000E+00
         0.00000E+00
         0.00000E+00
         0.00000E+00
         0.00000E+00
         0.00000E+00
         0.00000E+00
         0.00000E+00
         0.00000E+00
         0.00000E+00
         0.00000E+00
         0.00000E+00
         0.00000E+00
         0.00000E+00
         0.00000E+00
         0.00000E+00
         0.00000E+00
         0.00000E+00
         0.00000E+00
         0.00000E+00
         0.00000E+00
         0.00000E+00
         0.00000E+00
         0.00000E+00
         0.00000E+00
         0.00000E+00
         0.00000E+00
         0.00000E+00
         0.00000E+00
         0.00000E+00
         0.00000E+00
         0.00000E+00
         0.00000E+00
         0.00000E+00
         0.00000E+00
         0.00000E+00
         0.00000E+00
         0.00000E+00
         0.00000E+00
         0.00000E+00
         0.00000E+00
         0.00000E+00
         0.00000E+00
         0.00000E+00
         0.00000E+00
         0.00000E+00
         0.00000E+00
         0.00000E+00
         0.00000E+00
         0.00000E+00
         0.00000E+00
         0.00000E+00
         0.00000E+00
         0.00000E+00
         0.00000E+00
         0.00000E+00
         0.00000E+00
         0.00000E+00
         0.00000E+00
         0.00000E+00
         0.00000E+00
         0.00000E+00
         0.00000E+00
         0.00000E+00
         0.00000E+00
         0.00000E+00
         0.00000E+00
         0.00000E+00
         0.00000E+00
         0.00000E+00
         0.00000E+00
         0.00000E+00
         0.00000E+00
         0.00000E+00
         0.00000E+00
         0.00000E+00
         0.00000E+00
         0.00000E+00
         0.00000E+00
         0.00000E+00
         0.00000E+00
         0.00000E+00
         0.00000E+00
         0.00000E+00
         0.00000E+00
         0.00000E+00
         0.00000E+00
         0.00000E+00
         0.00000E+00
         0.00000E+00
         0.00000E+00
         0.00000E+00
         0.00000E+00
         0.00000E+00
         0.00000E+00
         0.00000E+00
         0.00000E+00
         0.00000E+00
         0.00000E+00
         0.00000E+00
         0.00000E+00
         0.00000E+00
         0.00000E+00
         0.00000E+00
         0.00000E+00
         0.00000E+00
         0.00000E+00
         0.00000E+00
         0.00000E+00
         0.00000E+00
         0.00000E+00
         0.00000E+00
         0.00000E+00
         0.00000E+00
         0.00000E+00
         0.00000E+00
         0.00000E+00
         0.00000E+00
         0.00000E+00
         0.00000E+00
         0.00000E+00
         0.00000E+00
         0.00000E+00
         0.00000E+00
         0.00000E+00
         0.00000E+00
         0.00000E+00
         0.00000E+00
         0.00000E+00
         0.00000E+00
         0.00000E+00
         0.00000E+00
         0.00000E+00
         0.00000E+00
         0.00000E+00
         0.00000E+00
         0.00000E+00
         0.00000E+00
         0.00000E+00
         0.00000E+00
         0.00000E+00
         0.00000E+00
         0.00000E+00
         0.00000E+00
         0.00000E+00
         0.00000E+00
         0.00000E+00
         0.00000E+00
         0.00000E+00
         0.00000E+00
         0.00000E+00
         0.00000E+00
         0.00000E+00
         0.00000E+00
         0.00000E+00
         0.00000E+00
         0.00000E+00
         0.00000E+00
         0.00000E+00
         0.00000E+00
         0.00000E+00
         0.00000E+00
         0.00000E+00
         0.00000E+00
         0.00000E+00
         0.00000E+00
         0.00000E+00
         0.00000E+00
         0.00000E+00
         0.00000E+00
         0.00000E+00
         0.00000E+00
         0.00000E+00
         0.00000E+00
         0.00000E+00
         0.00000E+00
         0.00000E+00
         0.00000E+00
         0.00000E+00
         0.00000E+00
         0.00000E+00
         0.00000E+00
         0.00000E+00
         0.00000E+00
         0.00000E+00
         0.00000E+00
         0.00000E+00
         0.00000E+00
         0.00000E+00
         0.00000E+00
         0.00000E+00
         0.00000E+00
         0.00000E+00
         0.00000E+00
         0.00000E+00
         0.00000E+00
         0.00000E+00
         0.00000E+00
         0.00000E+00
         0.00000E+00
         0.00000E+00
         0.00000E+00
         0.00000E+00
         0.00000E+00
         0.00000E+00
         0.00000E+00
         0.00000E+00
         0.00000E+00
         0.00000E+00
         0.00000E+00
         0.00000E+00
         0.00000E+00
         0.00000E+00
         0.00000E+00
         0.00000E+00
         0.00000E+00
         0.00000E+00
         0.00000E+00
         0.00000E+00
         0.00000E+00
         0.00000E+00
         0.00000E+00
         0.00000E+00
         0.00000E+00
         0.00000E+00
         0.00000E+00
         0.00000E+00
         0.00000E+00
         0.00000E+00
         0.00000E+00
         0.00000E+00
         0.00000E+00
         0.00000E+00
         0.00000E+00
         0.00000E+00
         0.00000E+00
         0.00000E+00
         0.00000E+00
         0.00000E+00
         0.00000E+00
         0.00000E+00
         0.00000E+00
         0.00000E+00
         0.00000E+00
         0.00000E+00
         0.00000E+00
         0.00000E+00
         0.00000E+00
         0.00000E+00
         0.00000E+00
         0.00000E+00
         0.00000E+00
         0.00000E+00
         0.00000E+00
         0.00000E+00
         0.00000E+00
         0.00000E+00
         0.00000E+00
         0.00000E+00
         0.00000E+00
         0.00000E+00
         0.00000E+00
         0.00000E+00
         0.00000E+00
         0.00000E+00
         0.00000E+00
         0.00000E+00
         0.00000E+00
         0.00000E+00
         0.00000E+00
         0.00000E+00
         0.00000E+00
         0.00000E+00
         0.00000E+00
         0.00000E+00
         0.00000E+00
         0.00000E+00
         0.00000E+00
         0.00000E+00
         0.00000E+00
         0.00000E+00
         0.00000E+00
         0.00000E+00
         0.00000E+00
         0.00000E+00
         0.00000E+00
         0.00000E+00
         0.00000E+00
         0.00000E+00
         0.00000E+00
         0.00000E+00
         0.00000E+00
         0.00000E+00
         0.00000E+00
         0.00000E+00
         0.00000E+00
         0.00000E+00
         0.00000E+00
         0.00000E+00
         0.00000E+00
         0.00000E+00
         0.00000E+00
         0.00000E+00
         0.00000E+00
         0.00000E+00
         0.00000E+00
         0.00000E+00
         0.00000E+00
         0.00000E+00
         0.00000E+00
         0.00000E+00
         0.00000E+00
         0.00000E+00
         0.00000E+00
         0.00000E+00
         0.00000E+00
         0.00000E+00
         0.00000E+00
         0.00000E+00
         0.00000E+00
         0.00000E+00
         0.00000E+00
         0.00000E+00
         0.00000E+00
         0.00000E+00
         0.00000E+00
         0.00000E+00
         0.00000E+00
         0.00000E+00
         0.00000E+00
         0.00000E+00
         0.00000E+00
         0.00000E+00
         0.00000E+00
         0.00000E+00
         0.00000E+00
         0.00000E+00
         0.00000E+00
         0.00000E+00
         0.00000E+00
         0.00000E+00
         0.00000E+00
         0.00000E+00
         0.00000E+00
         0.00000E+00
         0.00000E+00
         0.00000E+00
         0.00000E+00
         0.00000E+00
         0.00000E+00
         0.00000E+00
         0.00000E+00
         0.00000E+00
         0.00000E+00
         0.00000E+00
         0.00000E+00
         0.00000E+00
         0.00000E+00
         0.00000E+00
         0.00000E+00
         0.00000E+00
         0.00000E+00
         0.00000E+00
         0.00000E+00
         0.00000E+00
         0.00000E+00
         0.00000E+00
         0.00000E+00
         0.00000E+00
         0.00000E+00
         0.00000E+00
         0.00000E+00
         0.00000E+00
         0.00000E+00
         0.00000E+00
         0.00000E+00
         0.00000E+00
         0.00000E+00
         0.00000E+00
         0.00000E+00
         0.00000E+00
         0.00000E+00
         0.00000E+00
         0.00000E+00
         0.00000E+00
         0.00000E+00
         0.00000E+00
         0.00000E+00
         0.00000E+00
         0.00000E+00
         0.00000E+00
         0.00000E+00
         0.00000E+00
         0.00000E+00
         0.00000E+00
         0.00000E+00
         0.00000E+00
         0.00000E+00
         0.00000E+00
         0.00000E+00
         0.00000E+00
         0.00000E+00
         0.00000E+00
         0.00000E+00
         0.00000E+00
         0.00000E+00
         0.00000E+00
         0.00000E+00
         0.00000E+00
         0.00000E+00
         0.00000E+00
         0.00000E+00
         0.00000E+00
         0.00000E+00
         0.00000E+00
         0.00000E+00
         0.00000E+00
         0.00000E+00
         0.00000E+00
         0.00000E+00
         0.00000E+00
         0.00000E+00
         0.00000E+00
         0.00000E+00
         0.00000E+00
         0.00000E+00
         0.00000E+00
         0.00000E+00
         0.00000E+00
         0.00000E+00
         0.00000E+00
         0.00000E+00
         0.00000E+00
         0.00000E+00
         0.00000E+00
         0.00000E+00
         0.00000E+00
         0.00000E+00
         0.00000E+00
         0.00000E+00
         0.00000E+00
         0.00000E+00
         0.00000E+00
         0.00000E+00
         0.00000E+00
         0.00000E+00
         0.00000E+00
         0.00000E+00
         0.00000E+00
         0.00000E+00
         0.00000E+00
         0.00000E+00
         0.00000E+00
         0.00000E+00
         0.00000E+00
         0.00000E+00
         0.00000E+00
         0.00000E+00
         0.00000E+00
         0.00000E+00
         0.00000E+00
         0.00000E+00
         0.00000E+00
         0.00000E+00
         0.00000E+00
         0.00000E+00
         0.00000E+00
         0.00000E+00
         0.00000E+00
         0.00000E+00
         0.00000E+00
         0.00000E+00
         0.00000E+00
         0.00000E+00
         0.00000E+00
         0.00000E+00
         0.00000E+00
         0.00000E+00
         0.00000E+00
         0.00000E+00
         0.00000E+00
         0.00000E+00
         0.00000E+00
         0.00000E+00
         0.00000E+00
         0.00000E+00
         0.00000E+00
         0.00000E+00
         0.00000E+00
         0.00000E+00
         0.00000E+00
         0.00000E+00
         0.00000E+00
         0.00000E+00
         0.00000E+00
         0.00000E+00
         0.00000E+00
         0.00000E+00
         0.00000E+00
         0.00000E+00
         0.00000E+00
         0.00000E+00
         0.00000E+00
         0.00000E+00
         0.00000E+00
         0.00000E+00
         0.00000E+00
         0.00000E+00
         0.00000E+00
         0.00000E+00
         0.00000E+00
         0.00000E+00
         0.00000E+00
         0.00000E+00
         0.00000E+00
         0.00000E+00
         0.00000E+00
         0.00000E+00
         0.00000E+00
         0.00000E+00
         0.00000E+00
         0.00000E+00
         0.00000E+00
         0.00000E+00
         0.00000E+00
         0.00000E+00
         0.00000E+00
         0.00000E+00
         0.00000E+00
         0.00000E+00
         0.00000E+00
         0.00000E+00
         0.00000E+00
         0.00000E+00
         0.00000E+00
         0.00000E+00
         0.00000E+00
         0.00000E+00
         0.00000E+00
         0.00000E+00
         0.00000E+00
         0.00000E+00
         0.00000E+00
         0.00000E+00
         0.00000E+00
         0.00000E+00
         0.00000E+00
         0.00000E+00
         0.00000E+00
         0.00000E+00
         0.00000E+00
         0.00000E+00
         0.00000E+00
         0.00000E+00
         0.00000E+00
         0.00000E+00
         0.00000E+00
         0.00000E+00
         0.00000E+00
         0.00000E+00
         0.00000E+00
         0.00000E+00
         0.00000E+00
         0.00000E+00
         0.00000E+00
         0.00000E+00
         0.00000E+00
         0.00000E+00
         0.00000E+00
         0.00000E+00
         0.00000E+00
         0.00000E+00
         0.00000E+00
         0.00000E+00
         0.00000E+00
         0.00000E+00
         0.00000E+00
         0.00000E+00
         0.00000E+00
         0.00000E+00
         0.00000E+00
         0.00000E+00
         0.00000E+00
         0.00000E+00
         0.00000E+00
         0.00000E+00
         0.00000E+00
         0.00000E+00
         0.00000E+00
         0.00000E+00
         0.00000E+00
         0.00000E+00
         0.00000E+00
         0.00000E+00
         0.00000E+00
         0.00000E+00
         0.00000E+00
         0.00000E+00
         0.00000E+00
         0.00000E+00
         0.00000E+00
         0.00000E+00
         0.00000E+00
         0.00000E+00
         0.00000E+00
         0.00000E+00
         0.00000E+00
         0.00000E+00
         0.00000E+00
         0.00000E+00
         0.00000E+00
         0.00000E+00
         0.00000E+00
         0.00000E+00
         0.00000E+00
         0.00000E+00
         0.00000E+00
         0.00000E+00
         0.00000E+00
         0.00000E+00
         0.00000E+00
         0.00000E+00
         0.00000E+00
         0.00000E+00
         0.00000E+00
         0.00000E+00
         0.00000E+00
         0.00000E+00
         0.00000E+00
         0.00000E+00
         0.00000E+00
         0.00000E+00
         0.00000E+00
         0.00000E+00
         0.00000E+00
         0.00000E+00
         0.00000E+00
         0.00000E+00
         0.00000E+00
         0.00000E+00
         0.00000E+00
         0.00000E+00
         0.00000E+00
         0.00000E+00
         0.00000E+00
         0.00000E+00
         0.00000E+00
         0.00000E+00
         0.00000E+00
         0.00000E+00
         0.00000E+00
         0.00000E+00
         0.00000E+00
         0.00000E+00
         0.00000E+00
         0.00000E+00
         0.00000E+00
         0.00000E+00
         0.00000E+00
         0.00000E+00
         0.00000E+00
         0.00000E+00
         0.00000E+00
         0.00000E+00
         0.00000E+00
         0.00000E+00
         0.00000E+00
         0.00000E+00
         0.00000E+00
         0.00000E+00
         0.00000E+00
         0.00000E+00
         0.00000E+00
         0.00000E+00
         0.00000E+00
         0.00000E+00
         0.00000E+00
         0.00000E+00
         0.00000E+00
         0.00000E+00
         0.00000E+00
         0.00000E+00
         0.00000E+00
         0.00000E+00
         0.00000E+00
         0.00000E+00
         0.00000E+00
         0.00000E+00
         0.00000E+00
         0.00000E+00
         0.00000E+00
         0.00000E+00
         0.00000E+00
         0.00000E+00
         0.00000E+00
         0.00000E+00
         0.00000E+00
         0.00000E+00
         0.00000E+00
         0.00000E+00
         0.00000E+00
         0.00000E+00
         0.00000E+00
         0.00000E+00
         0.00000E+00
         0.00000E+00
         0.00000E+00
         0.00000E+00
         0.00000E+00
         0.00000E+00
         0.00000E+00
         0.00000E+00
         0.00000E+00
         0.00000E+00
         0.00000E+00
         0.00000E+00
         0.00000E+00
         0.00000E+00
         0.00000E+00
         0.00000E+00
         0.00000E+00
         0.00000E+00
         0.00000E+00
         0.00000E+00
         0.00000E+00
         0.00000E+00
         0.00000E+00
         0.00000E+00
         0.00000E+00
         0.00000E+00
         0.00000E+00
         0.00000E+00
         0.00000E+00
         0.00000E+00
         0.00000E+00
         0.00000E+00
         0.00000E+00
         0.00000E+00
         0.00000E+00
         0.00000E+00
         0.00000E+00
         0.00000E+00
         0.00000E+00
         0.00000E+00
         0.00000E+00
         0.00000E+00
         0.00000E+00
         0.00000E+00
         0.00000E+00
         0.00000E+00
         0.00000E+00
         0.00000E+00
         0.00000E+00
         0.00000E+00
         0.00000E+00
         0.00000E+00
         0.00000E+00
         0.00000E+00
         0.00000E+00
         0.00000E+00
         0.00000E+00
         0.00000E+00
         0.00000E+00
         0.00000E+00
         0.00000E+00
         0.00000E+00
         0.00000E+00
         0.00000E+00
         0.00000E+00
         0.00000E+00
         0.00000E+00
         0.00000E+00
         0.00000E+00
         0.00000E+00
         0.00000E+00
         0.00000E+00
         0.00000E+00
         0.00000E+00
         0.00000E+00
         0.00000E+00
         0.00000E+00
         0.00000E+00
         0.00000E+00
         0.00000E+00
         0.00000E+00
         0.00000E+00
         0.00000E+00
         0.00000E+00
         0.00000E+00
         0.00000E+00
         0.00000E+00
         0.00000E+00
         0.00000E+00
         0.00000E+00
         0.00000E+00
         0.00000E+00
         0.00000E+00
         0.00000E+00
         0.00000E+00
         0.00000E+00
         0.00000E+00
         0.00000E+00
         0.00000E+00
         0.00000E+00
         0.00000E+00
         0.00000E+00
         0.00000E+00
         0.00000E+00
         0.00000E+00
         0.00000E+00
         0.00000E+00
         0.00000E+00
         0.00000E+00
         0.00000E+00
         0.00000E+00
         0.00000E+00
         0.00000E+00
         0.00000E+00
         0.00000E+00
         0.00000E+00
         0.00000E+00
         0.00000E+00
         0.00000E+00
         0.00000E+00
         0.00000E+00
         0.00000E+00
         0.00000E+00
         0.00000E+00
         0.00000E+00
         0.00000E+00
         0.00000E+00
         0.00000E+00
         0.00000E+00
         0.00000E+00
         0.00000E+00
         0.00000E+00
         0.00000E+00
         0.00000E+00
         0.00000E+00
         0.00000E+00
         0.00000E+00
         0.00000E+00
         0.00000E+00
         0.00000E+00
         0.00000E+00
         0.00000E+00
         0.00000E+00
         0.00000E+00
         0.00000E+00
         0.00000E+00
         0.00000E+00
         0.00000E+00
         0.00000E+00
         0.00000E+00
         0.00000E+00
         0.00000E+00
         0.00000E+00
         0.00000E+00
         0.00000E+00
         0.00000E+00
         0.00000E+00
         0.00000E+00
         0.00000E+00
         0.00000E+00
         0.00000E+00
         0.00000E+00
         0.00000E+00
         0.00000E+00
         0.00000E+00
         0.00000E+00
         0.00000E+00
         0.00000E+00
         0.00000E+00
         0.00000E+00
         0.00000E+00
         0.00000E+00
         0.00000E+00
         0.00000E+00
         0.00000E+00
         0.00000E+00
         0.00000E+00
         0.00000E+00
         0.00000E+00
         0.00000E+00
         0.00000E+00
         0.00000E+00
         0.00000E+00
         0.00000E+00
         0.00000E+00
         0.00000E+00
         0.00000E+00
         0.00000E+00
         0.00000E+00
         0.00000E+00
         0.00000E+00
         0.00000E+00
         0.00000E+00
         0.00000E+00
         0.00000E+00
         0.00000E+00
         0.00000E+00
         0.00000E+00
         0.00000E+00
         0.00000E+00
         0.00000E+00
         0.00000E+00
         0.00000E+00
         0.00000E+00
         0.00000E+00
         0.00000E+00
         0.00000E+00
         0.00000E+00
         0.00000E+00
         0.00000E+00
         0.00000E+00
         0.00000E+00
         0.00000E+00
         0.00000E+00
         0.00000E+00
         0.00000E+00
         0.00000E+00
         0.00000E+00
         0.00000E+00
         0.00000E+00
         0.00000E+00
         0.00000E+00
         0.00000E+00
         0.00000E+00
         0.00000E+00
         0.00000E+00
         0.00000E+00
         0.00000E+00
         0.00000E+00
         0.00000E+00
         0.00000E+00
         0.00000E+00
         0.00000E+00
         0.00000E+00
         0.00000E+00
         0.00000E+00
         0.00000E+00
         0.00000E+00
         0.00000E+00
         0.00000E+00
         0.00000E+00
         0.00000E+00
         0.00000E+00
         0.00000E+00
         0.00000E+00
         0.00000E+00
         0.00000E+00
         0.00000E+00
         0.00000E+00
         0.00000E+00
         0.00000E+00
         0.00000E+00
         0.00000E+00
         0.00000E+00
         0.00000E+00
         0.00000E+00
         0.00000E+00
         0.00000E+00
         0.00000E+00
         0.00000E+00
         0.00000E+00
         0.00000E+00
         0.00000E+00
         0.00000E+00
         0.00000E+00
         0.00000E+00
         0.00000E+00
         0.00000E+00
         0.00000E+00
         0.00000E+00
         0.00000E+00
         0.00000E+00
         0.00000E+00
         0.00000E+00
         0.00000E+00
         0.00000E+00
         0.00000E+00
         0.00000E+00
         0.00000E+00
         0.00000E+00
         0.00000E+00
         0.00000E+00
         0.00000E+00
         0.00000E+00
         0.00000E+00
         0.00000E+00
         0.00000E+00
         0.00000E+00
         0.00000E+00
         0.00000E+00
         0.00000E+00
         0.00000E+00
         0.00000E+00
         0.00000E+00
         0.00000E+00
         0.00000E+00
         0.00000E+00
         0.00000E+00
         0.00000E+00
         0.00000E+00
         0.00000E+00
         0.00000E+00
         0.00000E+00
         0.00000E+00
         0.00000E+00
         0.00000E+00
         0.00000E+00
         0.00000E+00
         0.00000E+00
         0.00000E+00
         0.00000E+00
         0.00000E+00
         0.00000E+00
         0.00000E+00
         0.00000E+00
         0.00000E+00
         0.00000E+00
         0.00000E+00
         0.00000E+00
         0.00000E+00
         0.00000E+00
         0.00000E+00
         0.00000E+00
         0.00000E+00
         0.00000E+00
         0.00000E+00
         0.00000E+00
         0.00000E+00
         0.00000E+00
         0.00000E+00
         0.00000E+00
         0.00000E+00
         0.00000E+00
         0.00000E+00
         0.00000E+00
         0.00000E+00
         0.00000E+00
         0.00000E+00
         0.00000E+00
         0.00000E+00
         0.00000E+00
         0.00000E+00
         0.00000E+00
         0.00000E+00
         0.00000E+00
         0.00000E+00
         0.00000E+00
         0.00000E+00
         0.00000E+00
         0.00000E+00
         0.00000E+00
         0.00000E+00
         0.00000E+00
         0.00000E+00
         0.00000E+00
         0.00000E+00
         0.00000E+00
         0.00000E+00
         0.00000E+00
         0.00000E+00
         0.00000E+00
         0.00000E+00
         0.00000E+00
         0.00000E+00
         0.00000E+00
         0.00000E+00
         0.00000E+00
         0.00000E+00
         0.00000E+00
         0.00000E+00
         0.00000E+00
         0.00000E+00
         0.00000E+00
         0.00000E+00
         0.00000E+00
         0.00000E+00
         0.00000E+00
         0.00000E+00
         0.00000E+00
         0.00000E+00
         0.00000E+00
         0.00000E+00
         0.00000E+00
         0.00000E+00
         0.00000E+00
         0.00000E+00
         0.00000E+00
         0.00000E+00
         0.00000E+00
         0.00000E+00
         0.00000E+00
         0.00000E+00
         0.00000E+00
         0.00000E+00
         0.00000E+00
         0.00000E+00
         0.00000E+00
         0.00000E+00
         0.00000E+00
         0.00000E+00
         0.00000E+00
         0.00000E+00
         0.00000E+00
         0.00000E+00
         0.00000E+00
         0.00000E+00
         0.00000E+00
         0.00000E+00
         0.00000E+00
         0.00000E+00
         0.00000E+00
         0.00000E+00
         0.00000E+00
         0.00000E+00
         0.00000E+00
         0.00000E+00
         0.00000E+00
         0.00000E+00
         0.00000E+00
         0.00000E+00
         0.00000E+00
         0.00000E+00
         0.00000E+00
         0.00000E+00
         0.00000E+00
         0.00000E+00
         0.00000E+00
         0.00000E+00
         0.00000E+00
         0.00000E+00
         0.00000E+00
         0.00000E+00
         0.00000E+00
         0.00000E+00
         0.00000E+00
         0.00000E+00
         0.00000E+00
         0.00000E+00
         0.00000E+00
         0.00000E+00
         0.00000E+00
         0.00000E+00
         0.00000E+00
         0.00000E+00
         0.00000E+00
         0.00000E+00
         0.00000E+00
         0.00000E+00
         0.00000E+00
         0.00000E+00
         0.00000E+00
         0.00000E+00
         0.00000E+00
         0.00000E+00
         0.00000E+00
         0.00000E+00
         0.00000E+00
         0.00000E+00
         0.00000E+00
         0.00000E+00
         0.00000E+00
         0.00000E+00
         0.00000E+00
         0.00000E+00
         0.00000E+00
         0.00000E+00
         0.00000E+00
         0.00000E+00
         0.00000E+00
         0.00000E+00
         0.00000E+00
         0.00000E+00
         0.00000E+00
         0.00000E+00
         0.00000E+00
         0.00000E+00
         0.00000E+00
         0.00000E+00
         0.00000E+00
         0.00000E+00
         0.00000E+00
         0.00000E+00
         0.00000E+00
         0.00000E+00
         0.00000E+00
         0.00000E+00
         0.00000E+00
         0.00000E+00
         0.00000E+00
         0.00000E+00
         0.00000E+00
         0.00000E+00
         0.00000E+00
         0.00000E+00
         0.00000E+00
         0.00000E+00
         0.00000E+00
         0.00000E+00
         0.00000E+00
         0.00000E+00
         0.00000E+00
         0.00000E+00
         0.00000E+00
         0.00000E+00
         0.00000E+00
         0.00000E+00
         0.00000E+00
         0.00000E+00
         0.00000E+00
         0.00000E+00
         0.00000E+00
         0.00000E+00
         0.00000E+00
         0.00000E+00
         0.00000E+00
         0.00000E+00
         0.00000E+00
         0.00000E+00
         0.00000E+00
         0.00000E+00
  
SCALARS           initial_coordinate_x  double 1
LOOKUP_TABLE default
         0.10378E-02
         0.17452E-02
         0.23177E-02
         0.16698E-02
         0.10379E-02
         0.17453E-02
         0.23178E-02
         0.16700E-02
         0.30377E-02
         0.27791E-02
         0.30377E-02
         0.27788E-02
         0.12850E-02
         0.65139E-03
         0.12851E-02
         0.65164E-03
         0.12757E-03
        -0.12822E-03
         0.12783E-03
        -0.12804E-03
         0.94500E-03
         0.11327E-02
         0.17490E-02
         0.94533E-03
         0.11330E-02
         0.17494E-02
         0.40588E-03
         0.39779E-03
         0.40594E-03
         0.39781E-03
        -0.76303E-03
        -0.86604E-03
         0.46119E-03
        -0.76268E-03
        -0.86593E-03
         0.46164E-03
        -0.18300E-02
        -0.18440E-02
        -0.18297E-02
        -0.18441E-02
        -0.27238E-02
        -0.28028E-02
        -0.27238E-02
        -0.28031E-02
        -0.25365E-02
        -0.19287E-02
        -0.25363E-02
        -0.19283E-02
        -0.99363E-03
        -0.99377E-03
        -0.14380E-02
        -0.14377E-02
        -0.31574E-03
        -0.31594E-03
        -0.11068E-02
        -0.11071E-02
        -0.18845E-02
        -0.18713E-02
        -0.18846E-02
        -0.18714E-02
        -0.15871E-03
        -0.94089E-03
        -0.15844E-03
        -0.94029E-03
         0.78856E-03
         0.78922E-03
         0.17211E-02
         0.17211E-02
         0.32050E-02
         0.28046E-02
         0.32047E-02
         0.28047E-02
         0.23059E-02
         0.23060E-02
        -0.40614E-03
        -0.40627E-03
        -0.12092E-02
        -0.12092E-02
        -0.19448E-02
        -0.19448E-02
        -0.25029E-02
        -0.26371E-02
        -0.25029E-02
        -0.26372E-02
        -0.27671E-02
        -0.27674E-02
        -0.21123E-02
        -0.21122E-02
        -0.16087E-02
        -0.16087E-02
        -0.11939E-02
        -0.58641E-03
        -0.11937E-02
        -0.58606E-03
         0.20912E-03
         0.20952E-03
         0.10586E-02
         0.10589E-02
         0.18413E-02
         0.18413E-02
         0.24544E-02
         0.26022E-02
         0.24543E-02
         0.26021E-02
         0.37964E-02
         0.39100E-02
         0.37964E-02
         0.39100E-02
         0.34621E-02
         0.34621E-02
         0.29267E-02
         0.29267E-02
         0.22211E-02
         0.22211E-02
         0.13865E-02
         0.13865E-02
         0.47130E-03
         0.47130E-03
        -0.47130E-03
        -0.47130E-03
        -0.13865E-02
        -0.13865E-02
        -0.22211E-02
        -0.22211E-02
        -0.29267E-02
        -0.29267E-02
        -0.34621E-02
        -0.34621E-02
        -0.37964E-02
        -0.37964E-02
        -0.39100E-02
        -0.39100E-02
        -0.37964E-02
        -0.37964E-02
        -0.34621E-02
        -0.34621E-02
        -0.29267E-02
        -0.29267E-02
        -0.22211E-02
        -0.22211E-02
        -0.13865E-02
        -0.13865E-02
        -0.47130E-03
        -0.47130E-03
         0.47130E-03
         0.47130E-03
         0.13865E-02
         0.13865E-02
         0.22211E-02
         0.22211E-02
         0.29267E-02
         0.29267E-02
         0.34621E-02
         0.34621E-02
         0.37964E-02
         0.37964E-02
         0.10376E-02
         0.17450E-02
         0.23175E-02
         0.16696E-02
         0.30377E-02
         0.27795E-02
         0.12849E-02
         0.65115E-03
         0.12731E-03
        -0.12841E-03
         0.94467E-03
         0.11323E-02
         0.17487E-02
         0.40583E-03
         0.39777E-03
        -0.76338E-03
        -0.86615E-03
         0.46074E-03
        -0.18303E-02
        -0.18439E-02
        -0.27238E-02
        -0.28025E-02
        -0.25366E-02
        -0.19292E-02
        -0.99349E-03
        -0.14384E-02
        -0.31554E-03
        -0.11064E-02
        -0.18845E-02
        -0.18712E-02
        -0.15899E-03
        -0.94149E-03
         0.78790E-03
         0.17210E-02
         0.32053E-02
         0.28046E-02
         0.23058E-02
        -0.40600E-03
        -0.12092E-02
        -0.19447E-02
        -0.25028E-02
        -0.26370E-02
        -0.27668E-02
        -0.21125E-02
        -0.16088E-02
        -0.11940E-02
        -0.58676E-03
         0.20871E-03
         0.10583E-02
         0.18413E-02
         0.24545E-02
         0.26022E-02
         0.37964E-02
         0.39100E-02
         0.34621E-02
         0.29267E-02
         0.22211E-02
         0.13865E-02
         0.47130E-03
        -0.47130E-03
        -0.13865E-02
        -0.22211E-02
        -0.29267E-02
        -0.34621E-02
        -0.37964E-02
        -0.39100E-02
        -0.37964E-02
        -0.34621E-02
        -0.29267E-02
        -0.22211E-02
        -0.13865E-02
        -0.47130E-03
         0.47130E-03
         0.13865E-02
         0.22211E-02
         0.29267E-02
         0.34621E-02
         0.37964E-02
         0.10375E-02
         0.17448E-02
         0.23174E-02
         0.16694E-02
         0.30377E-02
         0.27798E-02
         0.12848E-02
         0.65090E-03
         0.12705E-03
        -0.12859E-03
         0.94434E-03
         0.11320E-02
         0.17483E-02
         0.40577E-03
         0.39776E-03
        -0.76374E-03
        -0.86626E-03
         0.46029E-03
        -0.18306E-02
        -0.18438E-02
        -0.27238E-02
        -0.28022E-02
        -0.25368E-02
        -0.19296E-02
        -0.99334E-03
        -0.14387E-02
        -0.31534E-03
        -0.11061E-02
        -0.18844E-02
        -0.18710E-02
        -0.15926E-03
        -0.94209E-03
         0.78724E-03
         0.17210E-02
         0.32056E-02
         0.28046E-02
         0.23057E-02
        -0.40586E-03
        -0.12092E-02
        -0.19447E-02
        -0.25028E-02
        -0.26369E-02
        -0.27665E-02
        -0.21126E-02
        -0.16088E-02
        -0.11941E-02
        -0.58711E-03
         0.20830E-03
         0.10580E-02
         0.18414E-02
         0.24546E-02
         0.26023E-02
         0.37964E-02
         0.39100E-02
         0.34621E-02
         0.29267E-02
         0.22211E-02
         0.13865E-02
         0.47130E-03
        -0.47130E-03
        -0.13865E-02
        -0.22211E-02
        -0.29267E-02
        -0.34621E-02
        -0.37964E-02
        -0.39100E-02
        -0.37964E-02
        -0.34621E-02
        -0.29267E-02
        -0.22211E-02
        -0.13865E-02
        -0.47130E-03
         0.47130E-03
         0.13865E-02
         0.22211E-02
         0.29267E-02
         0.34621E-02
         0.37964E-02
         0.10374E-02
         0.17446E-02
         0.23173E-02
         0.16692E-02
         0.30376E-02
         0.27801E-02
         0.12847E-02
         0.65065E-03
         0.12678E-03
        -0.12878E-03
         0.94401E-03
         0.11316E-02
         0.17479E-02
         0.40572E-03
         0.39774E-03
        -0.76409E-03
        -0.86637E-03
         0.45985E-03
        -0.18309E-02
        -0.18437E-02
        -0.27237E-02
        -0.28020E-02
        -0.25369E-02
        -0.19300E-02
        -0.99320E-03
        -0.14391E-02
        -0.31514E-03
        -0.11057E-02
        -0.18844E-02
        -0.18709E-02
        -0.15954E-03
        -0.94269E-03
         0.78658E-03
         0.17209E-02
         0.32060E-02
         0.28046E-02
         0.23056E-02
        -0.40572E-03
        -0.12092E-02
        -0.19446E-02
        -0.25028E-02
        -0.26368E-02
        -0.27662E-02
        -0.21128E-02
        -0.16088E-02
        -0.11942E-02
        -0.58746E-03
         0.20790E-03
         0.10577E-02
         0.18414E-02
         0.24548E-02
         0.26024E-02
         0.37964E-02
         0.39100E-02
         0.34621E-02
         0.29267E-02
         0.22211E-02
         0.13865E-02
         0.47130E-03
        -0.47130E-03
        -0.13865E-02
        -0.22211E-02
        -0.29267E-02
        -0.34621E-02
        -0.37964E-02
        -0.39100E-02
        -0.37964E-02
        -0.34621E-02
        -0.29267E-02
        -0.22211E-02
        -0.13865E-02
        -0.47130E-03
         0.47130E-03
         0.13865E-02
         0.22211E-02
         0.29267E-02
         0.34621E-02
         0.37964E-02
         0.10373E-02
         0.17445E-02
         0.23172E-02
         0.16689E-02
         0.30376E-02
         0.27805E-02
         0.12846E-02
         0.65041E-03
         0.12652E-03
        -0.12896E-03
         0.94367E-03
         0.11313E-02
         0.17475E-02
         0.40566E-03
         0.39772E-03
        -0.76444E-03
        -0.86648E-03
         0.45940E-03
        -0.18312E-02
        -0.18436E-02
        -0.27237E-02
        -0.28017E-02
        -0.25371E-02
        -0.19305E-02
        -0.99305E-03
        -0.14394E-02
        -0.31494E-03
        -0.11054E-02
        -0.18843E-02
        -0.18708E-02
        -0.15981E-03
        -0.94328E-03
         0.78592E-03
         0.17209E-02
         0.32063E-02
         0.28045E-02
         0.23055E-02
        -0.40558E-03
        -0.12092E-02
        -0.19446E-02
        -0.25027E-02
        -0.26367E-02
        -0.27658E-02
        -0.21129E-02
        -0.16089E-02
        -0.11943E-02
        -0.58781E-03
         0.20749E-03
         0.10574E-02
         0.18415E-02
         0.24549E-02
         0.26025E-02
         0.37964E-02
         0.39100E-02
         0.34621E-02
         0.29267E-02
         0.22211E-02
         0.13865E-02
         0.47130E-03
        -0.47130E-03
        -0.13865E-02
        -0.22211E-02
        -0.29267E-02
        -0.34621E-02
        -0.37964E-02
        -0.39100E-02
        -0.37964E-02
        -0.34621E-02
        -0.29267E-02
        -0.22211E-02
        -0.13865E-02
        -0.47130E-03
         0.47130E-03
         0.13865E-02
         0.22211E-02
         0.29267E-02
         0.34621E-02
         0.37964E-02
         0.10372E-02
         0.17443E-02
         0.23171E-02
         0.16687E-02
         0.30376E-02
         0.27808E-02
         0.12845E-02
         0.65016E-03
         0.12626E-03
        -0.12915E-03
         0.94334E-03
         0.11310E-02
         0.17471E-02
         0.40561E-03
         0.39770E-03
        -0.76480E-03
        -0.86659E-03
         0.45895E-03
        -0.18315E-02
        -0.18435E-02
        -0.27237E-02
        -0.28014E-02
        -0.25372E-02
        -0.19309E-02
        -0.99291E-03
        -0.14398E-02
        -0.31474E-03
        -0.11051E-02
        -0.18843E-02
        -0.18706E-02
        -0.16009E-03
        -0.94388E-03
         0.78526E-03
         0.17208E-02
         0.32066E-02
         0.28045E-02
         0.23053E-02
        -0.40545E-03
        -0.12092E-02
        -0.19446E-02
        -0.25027E-02
        -0.26366E-02
        -0.27655E-02
        -0.21130E-02
        -0.16089E-02
        -0.11944E-02
        -0.58816E-03
         0.20709E-03
         0.10571E-02
         0.18415E-02
         0.24550E-02
         0.26025E-02
         0.37964E-02
         0.39100E-02
         0.34621E-02
         0.29267E-02
         0.22211E-02
         0.13865E-02
         0.47130E-03
        -0.47130E-03
        -0.13865E-02
        -0.22211E-02
        -0.29267E-02
        -0.34621E-02
        -0.37964E-02
        -0.39100E-02
        -0.37964E-02
        -0.34621E-02
        -0.29267E-02
        -0.22211E-02
        -0.13865E-02
        -0.47130E-03
         0.47130E-03
         0.13865E-02
         0.22211E-02
         0.29267E-02
         0.34621E-02
         0.37964E-02
         0.10371E-02
         0.17441E-02
         0.23169E-02
         0.16685E-02
         0.30376E-02
         0.27812E-02
         0.12844E-02
         0.64992E-03
         0.12600E-03
        -0.12933E-03
         0.94301E-03
         0.11306E-02
         0.17467E-02
         0.40556E-03
         0.39769E-03
        -0.76515E-03
        -0.86670E-03
         0.45850E-03
        -0.18318E-02
        -0.18434E-02
        -0.27236E-02
        -0.28011E-02
        -0.25374E-02
        -0.19313E-02
        -0.99277E-03
        -0.14401E-02
        -0.31454E-03
        -0.11047E-02
        -0.18842E-02
        -0.18705E-02
        -0.16036E-03
        -0.94448E-03
         0.78460E-03
         0.17208E-02
         0.32070E-02
         0.28045E-02
         0.23052E-02
        -0.40531E-03
        -0.12092E-02
        -0.19445E-02
        -0.25027E-02
        -0.26366E-02
        -0.27652E-02
        -0.21132E-02
        -0.16090E-02
        -0.11946E-02
        -0.58851E-03
         0.20668E-03
         0.10567E-02
         0.18416E-02
         0.24551E-02
         0.26026E-02
         0.37964E-02
         0.39100E-02
         0.34621E-02
         0.29267E-02
         0.22211E-02
         0.13865E-02
         0.47130E-03
        -0.47130E-03
        -0.13865E-02
        -0.22211E-02
        -0.29267E-02
        -0.34621E-02
        -0.37964E-02
        -0.39100E-02
        -0.37964E-02
        -0.34621E-02
        -0.29267E-02
        -0.22211E-02
        -0.13865E-02
        -0.47130E-03
         0.47130E-03
         0.13865E-02
         0.22211E-02
         0.29267E-02
         0.34621E-02
         0.37964E-02
         0.10370E-02
         0.17439E-02
         0.23168E-02
         0.16683E-02
         0.30375E-02
         0.27815E-02
         0.12843E-02
         0.64967E-03
         0.12573E-03
        -0.12952E-03
         0.94268E-03
         0.11303E-02
         0.17463E-02
         0.40550E-03
         0.39767E-03
        -0.76551E-03
        -0.86680E-03
         0.45806E-03
        -0.18321E-02
        -0.18433E-02
        -0.27236E-02
        -0.28009E-02
        -0.25375E-02
        -0.19317E-02
        -0.99262E-03
        -0.14405E-02
        -0.31434E-03
        -0.11044E-02
        -0.18842E-02
        -0.18704E-02
        -0.16064E-03
        -0.94508E-03
         0.78394E-03
         0.17208E-02
         0.32073E-02
         0.28045E-02
         0.23051E-02
        -0.40517E-03
        -0.12092E-02
        -0.19445E-02
        -0.25026E-02
        -0.26365E-02
        -0.27649E-02
        -0.21133E-02
        -0.16090E-02
        -0.11947E-02
        -0.58886E-03
         0.20627E-03
         0.10564E-02
         0.18416E-02
         0.24553E-02
         0.26027E-02
         0.37964E-02
         0.39100E-02
         0.34621E-02
         0.29267E-02
         0.22211E-02
         0.13865E-02
         0.47130E-03
        -0.47130E-03
        -0.13865E-02
        -0.22211E-02
        -0.29267E-02
        -0.34621E-02
        -0.37964E-02
        -0.39100E-02
        -0.37964E-02
        -0.34621E-02
        -0.29267E-02
        -0.22211E-02
        -0.13865E-02
        -0.47130E-03
         0.47130E-03
         0.13865E-02
         0.22211E-02
         0.29267E-02
         0.34621E-02
         0.37964E-02
         0.10368E-02
         0.17438E-02
         0.23167E-02
         0.16681E-02
         0.30375E-02
         0.27819E-02
         0.12842E-02
         0.64943E-03
         0.12547E-03
        -0.12970E-03
         0.94235E-03
         0.11300E-02
         0.17459E-02
         0.40545E-03
         0.39766E-03
        -0.76586E-03
        -0.86691E-03
         0.45761E-03
        -0.18324E-02
        -0.18432E-02
        -0.27236E-02
        -0.28006E-02
        -0.25377E-02
        -0.19322E-02
        -0.99248E-03
        -0.14408E-02
        -0.31414E-03
        -0.11040E-02
        -0.18841E-02
        -0.18703E-02
        -0.16091E-03
        -0.94568E-03
         0.78328E-03
         0.17207E-02
         0.32076E-02
         0.28044E-02
         0.23050E-02
        -0.40503E-03
        -0.12092E-02
        -0.19445E-02
        -0.25026E-02
        -0.26364E-02
        -0.27646E-02
        -0.21134E-02
        -0.16091E-02
        -0.11948E-02
        -0.58921E-03
         0.20587E-03
         0.10561E-02
         0.18416E-02
         0.24554E-02
         0.26027E-02
         0.37964E-02
         0.39100E-02
         0.34621E-02
         0.29267E-02
         0.22211E-02
         0.13865E-02
         0.47130E-03
        -0.47130E-03
        -0.13865E-02
        -0.22211E-02
        -0.29267E-02
        -0.34621E-02
        -0.37964E-02
        -0.39100E-02
        -0.37964E-02
        -0.34621E-02
        -0.29267E-02
        -0.22211E-02
        -0.13865E-02
        -0.47130E-03
         0.47130E-03
         0.13865E-02
         0.22211E-02
         0.29267E-02
         0.34621E-02
         0.37964E-02
         0.10367E-02
         0.17436E-02
         0.23166E-02
         0.16679E-02
         0.30375E-02
         0.27822E-02
         0.12841E-02
         0.64918E-03
         0.12521E-03
        -0.12989E-03
         0.94202E-03
         0.11296E-02
         0.17455E-02
         0.40539E-03
         0.39764E-03
        -0.76621E-03
        -0.86702E-03
         0.45716E-03
        -0.18326E-02
        -0.18431E-02
        -0.27235E-02
        -0.28003E-02
        -0.25379E-02
        -0.19326E-02
        -0.99233E-03
        -0.14412E-02
        -0.31394E-03
        -0.11037E-02
        -0.18841E-02
        -0.18701E-02
        -0.16119E-03
        -0.94628E-03
         0.78262E-03
         0.17207E-02
         0.32079E-02
         0.28044E-02
         0.23049E-02
        -0.40490E-03
        -0.12093E-02
        -0.19444E-02
        -0.25026E-02
        -0.26363E-02
        -0.27643E-02
        -0.21136E-02
        -0.16091E-02
        -0.11949E-02
        -0.58956E-03
         0.20546E-03
         0.10558E-02
         0.18417E-02
         0.24555E-02
         0.26028E-02
         0.37964E-02
         0.39100E-02
         0.34621E-02
         0.29267E-02
         0.22211E-02
         0.13865E-02
         0.47130E-03
        -0.47130E-03
        -0.13865E-02
        -0.22211E-02
        -0.29267E-02
        -0.34621E-02
        -0.37964E-02
        -0.39100E-02
        -0.37964E-02
        -0.34621E-02
        -0.29267E-02
        -0.22211E-02
        -0.13865E-02
        -0.47130E-03
         0.47130E-03
         0.13865E-02
         0.22211E-02
         0.29267E-02
         0.34621E-02
         0.37964E-02
         0.10366E-02
         0.17434E-02
         0.23164E-02
         0.16677E-02
         0.30375E-02
         0.27825E-02
         0.12840E-02
         0.64894E-03
         0.12495E-03
        -0.13007E-03
         0.94169E-03
         0.11293E-02
         0.17451E-02
         0.40534E-03
         0.39762E-03
        -0.76657E-03
        -0.86713E-03
         0.45671E-03
        -0.18329E-02
        -0.18430E-02
        -0.27235E-02
        -0.28001E-02
        -0.25380E-02
        -0.19330E-02
        -0.99219E-03
        -0.14415E-02
        -0.31374E-03
        -0.11033E-02
        -0.18840E-02
        -0.18700E-02
        -0.16146E-03
        -0.94687E-03
         0.78195E-03
         0.17207E-02
         0.32083E-02
         0.28044E-02
         0.23048E-02
        -0.40476E-03
        -0.12093E-02
        -0.19444E-02
        -0.25026E-02
        -0.26362E-02
        -0.27640E-02
        -0.21137E-02
        -0.16091E-02
        -0.11950E-02
        -0.58991E-03
         0.20505E-03
         0.10555E-02
         0.18417E-02
         0.24556E-02
         0.26029E-02
         0.37964E-02
         0.39100E-02
         0.34621E-02
         0.29267E-02
         0.22211E-02
         0.13865E-02
         0.47130E-03
        -0.47130E-03
        -0.13865E-02
        -0.22211E-02
        -0.29267E-02
        -0.34621E-02
        -0.37964E-02
        -0.39100E-02
        -0.37964E-02
        -0.34621E-02
        -0.29267E-02
        -0.22211E-02
        -0.13865E-02
        -0.47130E-03
         0.47130E-03
         0.13865E-02
         0.22211E-02
         0.29267E-02
         0.34621E-02
         0.37964E-02
         0.10365E-02
         0.17432E-02
         0.23163E-02
         0.16675E-02
         0.30374E-02
         0.27829E-02
         0.12839E-02
         0.64869E-03
         0.12468E-03
        -0.13026E-03
         0.94135E-03
         0.11289E-02
         0.17447E-02
         0.40528E-03
         0.39760E-03
        -0.76692E-03
        -0.86724E-03
         0.45626E-03
        -0.18332E-02
        -0.18430E-02
        -0.27235E-02
        -0.27998E-02
        -0.25382E-02
        -0.19334E-02
        -0.99205E-03
        -0.14419E-02
        -0.31354E-03
        -0.11030E-02
        -0.18840E-02
        -0.18699E-02
        -0.16174E-03
        -0.94747E-03
         0.78129E-03
         0.17206E-02
         0.32086E-02
         0.28044E-02
         0.23047E-02
        -0.40462E-03
        -0.12093E-02
        -0.19444E-02
        -0.25025E-02
        -0.26361E-02
        -0.27637E-02
        -0.21139E-02
        -0.16092E-02
        -0.11951E-02
        -0.59025E-03
         0.20465E-03
         0.10552E-02
         0.18418E-02
         0.24558E-02
         0.26030E-02
         0.37964E-02
         0.39100E-02
         0.34621E-02
         0.29267E-02
         0.22211E-02
         0.13865E-02
         0.47130E-03
        -0.47130E-03
        -0.13865E-02
        -0.22211E-02
        -0.29267E-02
        -0.34621E-02
        -0.37964E-02
        -0.39100E-02
        -0.37964E-02
        -0.34621E-02
        -0.29267E-02
        -0.22211E-02
        -0.13865E-02
        -0.47130E-03
         0.47130E-03
         0.13865E-02
         0.22211E-02
         0.29267E-02
         0.34621E-02
         0.37964E-02
         0.10364E-02
         0.17430E-02
         0.23162E-02
         0.16672E-02
         0.30374E-02
         0.27832E-02
         0.12838E-02
         0.64845E-03
         0.12442E-03
        -0.13044E-03
         0.94102E-03
         0.11286E-02
         0.17443E-02
         0.40523E-03
         0.39759E-03
        -0.76727E-03
        -0.86735E-03
         0.45582E-03
        -0.18335E-02
        -0.18429E-02
        -0.27235E-02
        -0.27995E-02
        -0.25383E-02
        -0.19339E-02
        -0.99190E-03
        -0.14422E-02
        -0.31334E-03
        -0.11026E-02
        -0.18839E-02
        -0.18697E-02
        -0.16201E-03
        -0.94807E-03
         0.78063E-03
         0.17206E-02
         0.32089E-02
         0.28043E-02
         0.23046E-02
        -0.40448E-03
        -0.12093E-02
        -0.19443E-02
        -0.25025E-02
        -0.26360E-02
        -0.27633E-02
        -0.21140E-02
        -0.16092E-02
        -0.11953E-02
        -0.59060E-03
         0.20424E-03
         0.10549E-02
         0.18418E-02
         0.24559E-02
         0.26030E-02
         0.37964E-02
         0.39100E-02
         0.34621E-02
         0.29267E-02
         0.22211E-02
         0.13865E-02
         0.47130E-03
        -0.47130E-03
        -0.13865E-02
        -0.22211E-02
        -0.29267E-02
        -0.34621E-02
        -0.37964E-02
        -0.39100E-02
        -0.37964E-02
        -0.34621E-02
        -0.29267E-02
        -0.22211E-02
        -0.13865E-02
        -0.47130E-03
         0.47130E-03
         0.13865E-02
         0.22211E-02
         0.29267E-02
         0.34621E-02
         0.37964E-02
         0.10363E-02
         0.17429E-02
         0.23161E-02
         0.16670E-02
         0.30374E-02
         0.27836E-02
         0.12837E-02
         0.64820E-03
         0.12416E-03
        -0.13063E-03
         0.94069E-03
         0.11282E-02
         0.17439E-02
         0.40518E-03
         0.39757E-03
        -0.76763E-03
        -0.86746E-03
         0.45537E-03
        -0.18338E-02
        -0.18428E-02
        -0.27234E-02
        -0.27992E-02
        -0.25385E-02
        -0.19343E-02
        -0.99176E-03
        -0.14425E-02
        -0.31314E-03
        -0.11023E-02
        -0.18839E-02
        -0.18696E-02
        -0.16229E-03
        -0.94867E-03
         0.77997E-03
         0.17205E-02
         0.32092E-02
         0.28043E-02
         0.23044E-02
        -0.40434E-03
        -0.12093E-02
        -0.19443E-02
        -0.25025E-02
        -0.26359E-02
        -0.27630E-02
        -0.21141E-02
        -0.16093E-02
        -0.11954E-02
        -0.59095E-03
         0.20384E-03
         0.10546E-02
         0.18419E-02
         0.24560E-02
         0.26031E-02
         0.37964E-02
         0.39100E-02
         0.34621E-02
         0.29267E-02
         0.22211E-02
         0.13865E-02
         0.47130E-03
        -0.47130E-03
        -0.13865E-02
        -0.22211E-02
        -0.29267E-02
        -0.34621E-02
        -0.37964E-02
        -0.39100E-02
        -0.37964E-02
        -0.34621E-02
        -0.29267E-02
        -0.22211E-02
        -0.13865E-02
        -0.47130E-03
         0.47130E-03
         0.13865E-02
         0.22211E-02
         0.29267E-02
         0.34621E-02
         0.37964E-02
         0.10362E-02
         0.17427E-02
         0.23160E-02
         0.16668E-02
         0.30373E-02
         0.27839E-02
         0.12836E-02
         0.64796E-03
         0.12390E-03
        -0.13082E-03
         0.94036E-03
         0.11279E-02
         0.17435E-02
         0.40512E-03
         0.39755E-03
        -0.76798E-03
        -0.86756E-03
         0.45492E-03
        -0.18341E-02
        -0.18427E-02
        -0.27234E-02
        -0.27990E-02
        -0.25386E-02
        -0.19347E-02
        -0.99161E-03
        -0.14429E-02
        -0.31294E-03
        -0.11019E-02
        -0.18838E-02
        -0.18695E-02
        -0.16256E-03
        -0.94927E-03
         0.77931E-03
         0.17205E-02
         0.32096E-02
         0.28043E-02
         0.23043E-02
        -0.40420E-03
        -0.12093E-02
        -0.19443E-02
        -0.25024E-02
        -0.26358E-02
        -0.27627E-02
        -0.21143E-02
        -0.16093E-02
        -0.11955E-02
        -0.59130E-03
         0.20343E-03
         0.10543E-02
         0.18419E-02
         0.24561E-02
         0.26032E-02
         0.37964E-02
         0.39100E-02
         0.34621E-02
         0.29267E-02
         0.22211E-02
         0.13865E-02
         0.47130E-03
        -0.47130E-03
        -0.13865E-02
        -0.22211E-02
        -0.29267E-02
        -0.34621E-02
        -0.37964E-02
        -0.39100E-02
        -0.37964E-02
        -0.34621E-02
        -0.29267E-02
        -0.22211E-02
        -0.13865E-02
        -0.47130E-03
         0.47130E-03
         0.13865E-02
         0.22211E-02
         0.29267E-02
         0.34621E-02
         0.37964E-02
         0.10360E-02
         0.17425E-02
         0.23158E-02
         0.16666E-02
         0.30373E-02
         0.27842E-02
         0.12835E-02
         0.64771E-03
         0.12363E-03
        -0.13100E-03
         0.94003E-03
         0.11276E-02
         0.17432E-02
         0.40507E-03
         0.39754E-03
        -0.76834E-03
        -0.86767E-03
         0.45447E-03
        -0.18344E-02
        -0.18426E-02
        -0.27234E-02
        -0.27987E-02
        -0.25388E-02
        -0.19352E-02
        -0.99147E-03
        -0.14433E-02
        -0.31274E-03
        -0.11016E-02
        -0.18838E-02
        -0.18694E-02
        -0.16284E-03
        -0.94986E-03
         0.77865E-03
         0.17205E-02
         0.32099E-02
         0.28042E-02
         0.23042E-02
        -0.40407E-03
        -0.12093E-02
        -0.19442E-02
        -0.25024E-02
        -0.26358E-02
        -0.27624E-02
        -0.21144E-02
        -0.16094E-02
        -0.11956E-02
        -0.59165E-03
         0.20302E-03
         0.10540E-02
         0.18419E-02
         0.24563E-02
         0.26033E-02
         0.37964E-02
         0.39100E-02
         0.34621E-02
         0.29267E-02
         0.22211E-02
         0.13865E-02
         0.47130E-03
        -0.47130E-03
        -0.13865E-02
        -0.22211E-02
        -0.29267E-02
        -0.34621E-02
        -0.37964E-02
        -0.39100E-02
        -0.37964E-02
        -0.34621E-02
        -0.29267E-02
        -0.22211E-02
        -0.13865E-02
        -0.47130E-03
         0.47130E-03
         0.13865E-02
         0.22211E-02
         0.29267E-02
         0.34621E-02
         0.37964E-02
         0.10359E-02
         0.17423E-02
         0.23157E-02
         0.16664E-02
         0.30373E-02
         0.27846E-02
         0.12834E-02
         0.64747E-03
         0.12337E-03
        -0.13118E-03
         0.93970E-03
         0.11272E-02
         0.17428E-02
         0.40501E-03
         0.39752E-03
        -0.76869E-03
        -0.86778E-03
         0.45402E-03
        -0.18347E-02
        -0.18425E-02
        -0.27234E-02
        -0.27984E-02
        -0.25389E-02
        -0.19356E-02
        -0.99133E-03
        -0.14436E-02
        -0.31254E-03
        -0.11013E-02
        -0.18837E-02
        -0.18692E-02
        -0.16311E-03
        -0.95046E-03
         0.77799E-03
         0.17204E-02
         0.32102E-02
         0.28042E-02
         0.23041E-02
        -0.40393E-03
        -0.12093E-02
        -0.19442E-02
        -0.25024E-02
        -0.26357E-02
        -0.27621E-02
        -0.21146E-02
        -0.16094E-02
        -0.11957E-02
        -0.59200E-03
         0.20262E-03
         0.10536E-02
         0.18420E-02
         0.24564E-02
         0.26033E-02
         0.37964E-02
         0.39100E-02
         0.34621E-02
         0.29267E-02
         0.22211E-02
         0.13865E-02
         0.47130E-03
        -0.47130E-03
        -0.13865E-02
        -0.22211E-02
        -0.29267E-02
        -0.34621E-02
        -0.37964E-02
        -0.39100E-02
        -0.37964E-02
        -0.34621E-02
        -0.29267E-02
        -0.22211E-02
        -0.13865E-02
        -0.47130E-03
         0.47130E-03
         0.13865E-02
         0.22211E-02
         0.29267E-02
         0.34621E-02
         0.37964E-02
         0.10358E-02
         0.17422E-02
         0.23156E-02
         0.16662E-02
         0.30373E-02
         0.27849E-02
         0.12833E-02
         0.64722E-03
         0.12311E-03
        -0.13137E-03
         0.93937E-03
         0.11269E-02
         0.17424E-02
         0.40496E-03
         0.39750E-03
        -0.76904E-03
        -0.86789E-03
         0.45358E-03
        -0.18350E-02
        -0.18424E-02
        -0.27233E-02
        -0.27981E-02
        -0.25391E-02
        -0.19360E-02
        -0.99118E-03
        -0.14440E-02
        -0.31234E-03
        -0.11009E-02
        -0.18836E-02
        -0.18691E-02
        -0.16339E-03
        -0.95106E-03
         0.77733E-03
         0.17204E-02
         0.32105E-02
         0.28042E-02
         0.23040E-02
        -0.40379E-03
        -0.12093E-02
        -0.19441E-02
        -0.25023E-02
        -0.26356E-02
        -0.27618E-02
        -0.21147E-02
        -0.16094E-02
        -0.11958E-02
        -0.59235E-03
         0.20221E-03
         0.10533E-02
         0.18420E-02
         0.24565E-02
         0.26034E-02
         0.37964E-02
         0.39100E-02
         0.34621E-02
         0.29267E-02
         0.22211E-02
         0.13865E-02
         0.47130E-03
        -0.47130E-03
        -0.13865E-02
        -0.22211E-02
        -0.29267E-02
        -0.34621E-02
        -0.37964E-02
        -0.39100E-02
        -0.37964E-02
        -0.34621E-02
        -0.29267E-02
        -0.22211E-02
        -0.13865E-02
        -0.47130E-03
         0.47130E-03
         0.13865E-02
         0.22211E-02
         0.29267E-02
         0.34621E-02
         0.37964E-02
         0.10357E-02
         0.17420E-02
         0.23155E-02
         0.16660E-02
         0.30372E-02
         0.27853E-02
         0.12832E-02
         0.64698E-03
         0.12285E-03
        -0.13155E-03
         0.93903E-03
         0.11266E-02
         0.17420E-02
         0.40490E-03
         0.39749E-03
        -0.76940E-03
        -0.86800E-03
         0.45313E-03
        -0.18353E-02
        -0.18423E-02
        -0.27233E-02
        -0.27979E-02
        -0.25393E-02
        -0.19365E-02
        -0.99104E-03
        -0.14443E-02
        -0.31214E-03
        -0.11006E-02
        -0.18836E-02
        -0.18690E-02
        -0.16366E-03
        -0.95166E-03
         0.77667E-03
         0.17203E-02
         0.32109E-02
         0.28042E-02
         0.23039E-02
        -0.40365E-03
        -0.12093E-02
        -0.19441E-02
        -0.25023E-02
        -0.26355E-02
        -0.27615E-02
        -0.21148E-02
        -0.16095E-02
        -0.11960E-02
        -0.59270E-03
         0.20180E-03
         0.10530E-02
         0.18421E-02
         0.24566E-02
         0.26035E-02
         0.37964E-02
         0.39100E-02
         0.34621E-02
         0.29267E-02
         0.22211E-02
         0.13865E-02
         0.47130E-03
        -0.47130E-03
        -0.13865E-02
        -0.22211E-02
        -0.29267E-02
        -0.34621E-02
        -0.37964E-02
        -0.39100E-02
        -0.37964E-02
        -0.34621E-02
        -0.29267E-02
        -0.22211E-02
        -0.13865E-02
        -0.47130E-03
         0.47130E-03
         0.13865E-02
         0.22211E-02
         0.29267E-02
         0.34621E-02
         0.37964E-02
         0.10356E-02
         0.17418E-02
         0.23153E-02
         0.16657E-02
         0.30372E-02
         0.27856E-02
         0.12830E-02
         0.64673E-03
         0.12259E-03
        -0.13174E-03
         0.93870E-03
         0.11262E-02
         0.17416E-02
         0.40485E-03
         0.39747E-03
        -0.76975E-03
        -0.86811E-03
         0.45268E-03
        -0.18356E-02
        -0.18422E-02
        -0.27233E-02
        -0.27976E-02
        -0.25394E-02
        -0.19369E-02
        -0.99090E-03
        -0.14446E-02
        -0.31194E-03
        -0.11002E-02
        -0.18835E-02
        -0.18689E-02
        -0.16394E-03
        -0.95226E-03
         0.77601E-03
         0.17203E-02
         0.32112E-02
         0.28042E-02
         0.23038E-02
        -0.40352E-03
        -0.12093E-02
        -0.19441E-02
        -0.25023E-02
        -0.26354E-02
        -0.27612E-02
        -0.21150E-02
        -0.16095E-02
        -0.11961E-02
        -0.59305E-03
         0.20140E-03
         0.10527E-02
         0.18421E-02
         0.24568E-02
         0.26036E-02
         0.37964E-02
         0.39100E-02
         0.34621E-02
         0.29267E-02
         0.22211E-02
         0.13865E-02
         0.47130E-03
        -0.47130E-03
        -0.13865E-02
        -0.22211E-02
        -0.29267E-02
        -0.34621E-02
        -0.37964E-02
        -0.39100E-02
        -0.37964E-02
        -0.34621E-02
        -0.29267E-02
        -0.22211E-02
        -0.13865E-02
        -0.47130E-03
         0.47130E-03
         0.13865E-02
         0.22211E-02
         0.29267E-02
         0.34621E-02
         0.37964E-02
         0.10355E-02
         0.17416E-02
         0.23152E-02
         0.16655E-02
         0.30372E-02
         0.27860E-02
         0.12829E-02
         0.64649E-03
         0.12232E-03
        -0.13193E-03
         0.93837E-03
         0.11259E-02
         0.17412E-02
         0.40480E-03
         0.39745E-03
        -0.77011E-03
        -0.86822E-03
         0.45223E-03
        -0.18359E-02
        -0.18421E-02
        -0.27232E-02
        -0.27973E-02
        -0.25396E-02
        -0.19373E-02
        -0.99075E-03
        -0.14450E-02
        -0.31173E-03
        -0.10999E-02
        -0.18835E-02
        -0.18687E-02
        -0.16421E-03
        -0.95285E-03
         0.77535E-03
         0.17202E-02
         0.32115E-02
         0.28041E-02
         0.23037E-02
        -0.40338E-03
        -0.12093E-02
        -0.19440E-02
        -0.25023E-02
        -0.26353E-02
        -0.27609E-02
        -0.21151E-02
        -0.16096E-02
        -0.11962E-02
        -0.59340E-03
         0.20099E-03
         0.10524E-02
         0.18422E-02
         0.24569E-02
         0.26036E-02
         0.37964E-02
         0.39100E-02
         0.34621E-02
         0.29267E-02
         0.22211E-02
         0.13865E-02
         0.47130E-03
        -0.47130E-03
        -0.13865E-02
        -0.22211E-02
        -0.29267E-02
        -0.34621E-02
        -0.37964E-02
        -0.39100E-02
        -0.37964E-02
        -0.34621E-02
        -0.29267E-02
        -0.22211E-02
        -0.13865E-02
        -0.47130E-03
         0.47130E-03
         0.13865E-02
         0.22211E-02
         0.29267E-02
         0.34621E-02
         0.37964E-02
         0.10354E-02
         0.17414E-02
         0.23151E-02
         0.16653E-02
         0.30372E-02
         0.27863E-02
         0.12829E-02
         0.64624E-03
         0.12206E-03
        -0.13211E-03
         0.93804E-03
         0.11255E-02
         0.17408E-02
         0.40474E-03
         0.39744E-03
        -0.77046E-03
        -0.86832E-03
         0.45179E-03
        -0.18362E-02
        -0.18420E-02
        -0.27232E-02
        -0.27970E-02
        -0.25397E-02
        -0.19377E-02
        -0.99061E-03
        -0.14453E-02
        -0.31153E-03
        -0.10995E-02
        -0.18834E-02
        -0.18686E-02
        -0.16449E-03
        -0.95345E-03
         0.77469E-03
         0.17202E-02
         0.32119E-02
         0.28041E-02
         0.23036E-02
        -0.40324E-03
        -0.12093E-02
        -0.19440E-02
        -0.25022E-02
        -0.26352E-02
        -0.27606E-02
        -0.21152E-02
        -0.16096E-02
        -0.11963E-02
        -0.59375E-03
         0.20059E-03
         0.10521E-02
         0.18422E-02
         0.24570E-02
         0.26037E-02
         0.37964E-02
         0.39100E-02
         0.34621E-02
         0.29267E-02
         0.22211E-02
         0.13865E-02
         0.47130E-03
        -0.47130E-03
        -0.13865E-02
        -0.22211E-02
        -0.29267E-02
        -0.34621E-02
        -0.37964E-02
        -0.39100E-02
        -0.37964E-02
        -0.34621E-02
        -0.29267E-02
        -0.22211E-02
        -0.13865E-02
        -0.47130E-03
         0.47130E-03
         0.13865E-02
         0.22211E-02
         0.29267E-02
         0.34621E-02
         0.37964E-02
         0.10352E-02
         0.17413E-02
         0.23150E-02
         0.16651E-02
         0.30371E-02
         0.27866E-02
         0.12827E-02
         0.64600E-03
         0.12180E-03
        -0.13230E-03
         0.93771E-03
         0.11252E-02
         0.17404E-02
         0.40469E-03
         0.39742E-03
        -0.77081E-03
        -0.86843E-03
         0.45134E-03
        -0.18365E-02
        -0.18419E-02
        -0.27232E-02
        -0.27968E-02
        -0.25399E-02
        -0.19382E-02
        -0.99046E-03
        -0.14457E-02
        -0.31133E-03
        -0.10992E-02
        -0.18834E-02
        -0.18685E-02
        -0.16476E-03
        -0.95405E-03
         0.77402E-03
         0.17202E-02
         0.32122E-02
         0.28041E-02
         0.23034E-02
        -0.40310E-03
        -0.12093E-02
        -0.19440E-02
        -0.25022E-02
        -0.26351E-02
        -0.27602E-02
        -0.21154E-02
        -0.16097E-02
        -0.11964E-02
        -0.59409E-03
         0.20018E-03
         0.10518E-02
         0.18422E-02
         0.24571E-02
         0.26038E-02
         0.37964E-02
         0.39100E-02
         0.34621E-02
         0.29267E-02
         0.22211E-02
         0.13865E-02
         0.47130E-03
        -0.47130E-03
        -0.13865E-02
        -0.22211E-02
        -0.29267E-02
        -0.34621E-02
        -0.37964E-02
        -0.39100E-02
        -0.37964E-02
        -0.34621E-02
        -0.29267E-02
        -0.22211E-02
        -0.13865E-02
        -0.47130E-03
         0.47130E-03
         0.13865E-02
         0.22211E-02
         0.29267E-02
         0.34621E-02
         0.37964E-02
         0.10351E-02
         0.17411E-02
         0.23149E-02
         0.16649E-02
         0.30371E-02
         0.27870E-02
         0.12826E-02
         0.64575E-03
         0.12154E-03
        -0.13248E-03
         0.93738E-03
         0.11249E-02
         0.17400E-02
         0.40463E-03
         0.39740E-03
        -0.77117E-03
        -0.86854E-03
         0.45089E-03
        -0.18368E-02
        -0.18418E-02
        -0.27232E-02
        -0.27965E-02
        -0.25400E-02
        -0.19386E-02
        -0.99032E-03
        -0.14460E-02
        -0.31113E-03
        -0.10988E-02
        -0.18833E-02
        -0.18683E-02
        -0.16504E-03
        -0.95465E-03
         0.77336E-03
         0.17201E-02
         0.32125E-02
         0.28041E-02
         0.23033E-02
        -0.40296E-03
        -0.12093E-02
        -0.19439E-02
        -0.25022E-02
        -0.26350E-02
        -0.27599E-02
        -0.21155E-02
        -0.16097E-02
        -0.11965E-02
        -0.59444E-03
         0.19977E-03
         0.10515E-02
         0.18423E-02
         0.24573E-02
         0.26039E-02
         0.37964E-02
         0.39100E-02
         0.34621E-02
         0.29267E-02
         0.22211E-02
         0.13865E-02
         0.47130E-03
        -0.47130E-03
        -0.13865E-02
        -0.22211E-02
        -0.29267E-02
        -0.34621E-02
        -0.37964E-02
        -0.39100E-02
        -0.37964E-02
        -0.34621E-02
        -0.29267E-02
        -0.22211E-02
        -0.13865E-02
        -0.47130E-03
         0.47130E-03
         0.13865E-02
         0.22211E-02
         0.29267E-02
         0.34621E-02
         0.37964E-02
  
SCALARS           initial_coordinate_y  double 1
LOOKUP_TABLE default
         0.67292E-03
         0.12308E-02
         0.59151E-03
        -0.33775E-03
         0.67237E-03
         0.12301E-02
         0.59098E-03
        -0.33851E-03
         0.14882E-03
        -0.67643E-03
         0.14846E-03
        -0.67692E-03
         0.18412E-02
         0.14576E-02
         0.18410E-02
         0.14566E-02
         0.29933E-03
         0.11672E-02
         0.29819E-03
         0.11655E-02
         0.22748E-02
         0.28286E-02
         0.24238E-02
         0.22746E-02
         0.28291E-02
         0.24236E-02
         0.21685E-02
         0.29366E-02
         0.21684E-02
         0.29369E-02
        -0.10033E-02
         0.78969E-04
        -0.70318E-03
        -0.10032E-02
         0.78160E-04
        -0.70391E-03
        -0.71196E-03
         0.82749E-04
        -0.71210E-03
         0.82626E-04
        -0.77865E-03
         0.40713E-04
        -0.77882E-03
         0.40439E-04
        -0.15195E-02
        -0.13230E-02
        -0.15195E-02
        -0.13231E-02
         0.98847E-03
         0.98712E-03
        -0.17325E-02
        -0.17325E-02
         0.20220E-02
         0.20217E-02
         0.18615E-02
         0.18616E-02
         0.17175E-02
         0.90940E-03
         0.17175E-02
         0.90916E-03
        -0.19800E-02
        -0.23489E-02
        -0.19800E-02
        -0.23489E-02
        -0.17074E-02
        -0.17074E-02
        -0.14894E-02
        -0.14892E-02
         0.76036E-03
         0.12477E-02
         0.75936E-03
         0.12473E-02
         0.18665E-02
         0.18664E-02
         0.29038E-02
         0.29049E-02
         0.27207E-02
         0.27212E-02
         0.24642E-02
         0.24645E-02
         0.22359E-02
         0.16503E-02
         0.22359E-02
         0.16503E-02
         0.87493E-03
         0.87466E-03
        -0.21373E-02
        -0.21373E-02
        -0.26931E-02
        -0.26931E-02
        -0.31291E-02
        -0.30382E-02
        -0.31291E-02
        -0.30382E-02
        -0.28748E-02
        -0.28748E-02
        -0.26423E-02
        -0.26420E-02
        -0.23707E-02
        -0.23705E-02
        -0.21445E-02
        -0.15105E-02
        -0.21439E-02
        -0.15106E-02
         0.93572E-03
         0.00000E+00
         0.93572E-03
         0.00000E+00
         0.18171E-02
         0.18171E-02
         0.25928E-02
         0.25928E-02
         0.32179E-02
         0.32179E-02
         0.36559E-02
         0.36559E-02
         0.38815E-02
         0.38815E-02
         0.38815E-02
         0.38815E-02
         0.36559E-02
         0.36559E-02
         0.32179E-02
         0.32179E-02
         0.25928E-02
         0.25928E-02
         0.18171E-02
         0.18171E-02
         0.93572E-03
         0.93572E-03
         0.22152E-17
        -0.47884E-18
        -0.93572E-03
        -0.93572E-03
        -0.18171E-02
        -0.18171E-02
        -0.25928E-02
        -0.25928E-02
        -0.32179E-02
        -0.32179E-02
        -0.36559E-02
        -0.36559E-02
        -0.38815E-02
        -0.38815E-02
        -0.38815E-02
        -0.38815E-02
        -0.36559E-02
        -0.36559E-02
        -0.32179E-02
        -0.32179E-02
        -0.25928E-02
        -0.25928E-02
        -0.18171E-02
        -0.18171E-02
        -0.93572E-03
        -0.93572E-03
         0.67348E-03
         0.12314E-02
         0.59203E-03
        -0.33700E-03
         0.14918E-03
        -0.67594E-03
         0.18414E-02
         0.14586E-02
         0.30048E-03
         0.11690E-02
         0.22749E-02
         0.28282E-02
         0.24239E-02
         0.21685E-02
         0.29364E-02
        -0.10035E-02
         0.79778E-04
        -0.70245E-03
        -0.71182E-03
         0.82873E-04
        -0.77848E-03
         0.40986E-04
        -0.15194E-02
        -0.13228E-02
         0.98983E-03
        -0.17324E-02
         0.20223E-02
         0.18614E-02
         0.17175E-02
         0.90964E-03
        -0.19800E-02
        -0.23489E-02
        -0.17074E-02
        -0.14896E-02
         0.76137E-03
         0.12481E-02
         0.18665E-02
         0.29027E-02
         0.27202E-02
         0.24640E-02
         0.22359E-02
         0.16503E-02
         0.87519E-03
        -0.21373E-02
        -0.26932E-02
        -0.31291E-02
        -0.30382E-02
        -0.28748E-02
        -0.26426E-02
        -0.23709E-02
        -0.21450E-02
        -0.15104E-02
         0.93572E-03
         0.00000E+00
         0.18171E-02
         0.25928E-02
         0.32179E-02
         0.36559E-02
         0.38815E-02
         0.38815E-02
         0.36559E-02
         0.32179E-02
         0.25928E-02
         0.18171E-02
         0.93572E-03
        -0.47884E-18
        -0.93572E-03
        -0.18171E-02
        -0.25928E-02
        -0.32179E-02
        -0.36559E-02
        -0.38815E-02
        -0.38815E-02
        -0.36559E-02
        -0.32179E-02
        -0.25928E-02
        -0.18171E-02
        -0.93572E-03
         0.67403E-03
         0.12321E-02
         0.59255E-03
        -0.33624E-03
         0.14955E-03
        -0.67544E-03
         0.18415E-02
         0.14596E-02
         0.30163E-03
         0.11707E-02
         0.22750E-02
         0.28277E-02
         0.24241E-02
         0.21685E-02
         0.29361E-02
        -0.10036E-02
         0.80588E-04
        -0.70173E-03
        -0.71168E-03
         0.82996E-04
        -0.77831E-03
         0.41259E-04
        -0.15194E-02
        -0.13227E-02
         0.99119E-03
        -0.17324E-02
         0.20226E-02
         0.18613E-02
         0.17175E-02
         0.90988E-03
        -0.19801E-02
        -0.23490E-02
        -0.17074E-02
        -0.14899E-02
         0.76237E-03
         0.12485E-02
         0.18666E-02
         0.29017E-02
         0.27198E-02
         0.24638E-02
         0.22359E-02
         0.16503E-02
         0.87545E-03
        -0.21374E-02
        -0.26932E-02
        -0.31291E-02
        -0.30382E-02
        -0.28748E-02
        -0.26428E-02
        -0.23711E-02
        -0.21456E-02
        -0.15103E-02
         0.93572E-03
         0.00000E+00
         0.18171E-02
         0.25928E-02
         0.32179E-02
         0.36559E-02
         0.38815E-02
         0.38815E-02
         0.36559E-02
         0.32179E-02
         0.25928E-02
         0.18171E-02
         0.93572E-03
         0.39516E-17
        -0.93572E-03
        -0.18171E-02
        -0.25928E-02
        -0.32179E-02
        -0.36559E-02
        -0.38815E-02
        -0.38815E-02
        -0.36559E-02
        -0.32179E-02
        -0.25928E-02
        -0.18171E-02
        -0.93572E-03
         0.67459E-03
         0.12328E-02
         0.59308E-03
        -0.33549E-03
         0.14991E-03
        -0.67495E-03
         0.18417E-02
         0.14606E-02
         0.30278E-03
         0.11725E-02
         0.22752E-02
         0.28273E-02
         0.24242E-02
         0.21686E-02
         0.29359E-02
        -0.10038E-02
         0.81397E-04
        -0.70100E-03
        -0.71154E-03
         0.83120E-04
        -0.77814E-03
         0.41533E-04
        -0.15193E-02
        -0.13227E-02
         0.99254E-03
        -0.17324E-02
         0.20228E-02
         0.18611E-02
         0.17175E-02
         0.91012E-03
        -0.19801E-02
        -0.23490E-02
        -0.17074E-02
        -0.14901E-02
         0.76338E-03
         0.12490E-02
         0.18666E-02
         0.29006E-02
         0.27193E-02
         0.24636E-02
         0.22359E-02
         0.16503E-02
         0.87571E-03
        -0.21374E-02
        -0.26932E-02
        -0.31291E-02
        -0.30382E-02
        -0.28748E-02
        -0.26431E-02
        -0.23713E-02
        -0.21461E-02
        -0.15102E-02
         0.93572E-03
         0.00000E+00
         0.18171E-02
         0.25928E-02
         0.32179E-02
         0.36559E-02
         0.38815E-02
         0.38815E-02
         0.36559E-02
         0.32179E-02
         0.25928E-02
         0.18171E-02
         0.93572E-03
        -0.47884E-18
        -0.93572E-03
        -0.18171E-02
        -0.25928E-02
        -0.32179E-02
        -0.36559E-02
        -0.38815E-02
        -0.38815E-02
        -0.36559E-02
        -0.32179E-02
        -0.25928E-02
        -0.18171E-02
        -0.93572E-03
         0.67514E-03
         0.12334E-02
         0.59360E-03
        -0.33474E-03
         0.15027E-03
        -0.67446E-03
         0.18419E-02
         0.14616E-02
         0.30393E-03
         0.11742E-02
         0.22753E-02
         0.28269E-02
         0.24244E-02
         0.21686E-02
         0.29356E-02
        -0.10039E-02
         0.82206E-04
        -0.70028E-03
        -0.71140E-03
         0.83243E-04
        -0.77797E-03
         0.41806E-04
        -0.15193E-02
        -0.13226E-02
         0.99390E-03
        -0.17323E-02
         0.20231E-02
         0.18610E-02
         0.17175E-02
         0.91036E-03
        -0.19801E-02
        -0.23490E-02
        -0.17074E-02
        -0.14904E-02
         0.76439E-03
         0.12494E-02
         0.18666E-02
         0.28995E-02
         0.27188E-02
         0.24633E-02
         0.22359E-02
         0.16503E-02
         0.87597E-03
        -0.21374E-02
        -0.26932E-02
        -0.31291E-02
        -0.30382E-02
        -0.28748E-02
        -0.26434E-02
        -0.23715E-02
        -0.21467E-02
        -0.15101E-02
         0.93572E-03
         0.00000E+00
         0.18171E-02
         0.25928E-02
         0.32179E-02
         0.36559E-02
         0.38815E-02
         0.38815E-02
         0.36559E-02
         0.32179E-02
         0.25928E-02
         0.18171E-02
         0.93572E-03
        -0.47884E-18
        -0.93572E-03
        -0.18171E-02
        -0.25928E-02
        -0.32179E-02
        -0.36559E-02
        -0.38815E-02
        -0.38815E-02
        -0.36559E-02
        -0.32179E-02
        -0.25928E-02
        -0.18171E-02
        -0.93572E-03
         0.67570E-03
         0.12341E-02
         0.59412E-03
        -0.33398E-03
         0.15064E-03
        -0.67396E-03
         0.18421E-02
         0.14626E-02
         0.30507E-03
         0.11760E-02
         0.22754E-02
         0.28264E-02
         0.24245E-02
         0.21686E-02
         0.29353E-02
        -0.10040E-02
         0.83015E-04
        -0.69955E-03
        -0.71126E-03
         0.83367E-04
        -0.77780E-03
         0.42080E-04
        -0.15192E-02
        -0.13224E-02
         0.99526E-03
        -0.17323E-02
         0.20234E-02
         0.18609E-02
         0.17175E-02
         0.91060E-03
        -0.19801E-02
        -0.23490E-02
        -0.17074E-02
        -0.14906E-02
         0.76539E-03
         0.12498E-02
         0.18667E-02
         0.28984E-02
         0.27184E-02
         0.24631E-02
         0.22359E-02
         0.16503E-02
         0.87623E-03
        -0.21374E-02
        -0.26932E-02
        -0.31291E-02
        -0.30382E-02
        -0.28748E-02
        -0.26436E-02
        -0.23717E-02
        -0.21472E-02
        -0.15100E-02
         0.93572E-03
         0.00000E+00
         0.18171E-02
         0.25928E-02
         0.32179E-02
         0.36559E-02
         0.38815E-02
         0.38815E-02
         0.36559E-02
         0.32179E-02
         0.25928E-02
         0.18171E-02
         0.93572E-03
        -0.47884E-18
        -0.93572E-03
        -0.18171E-02
        -0.25928E-02
        -0.32179E-02
        -0.36559E-02
        -0.38815E-02
        -0.38815E-02
        -0.36559E-02
        -0.32179E-02
        -0.25928E-02
        -0.18171E-02
        -0.93572E-03
         0.67625E-03
         0.12348E-02
         0.59465E-03
        -0.33323E-03
         0.15100E-03
        -0.67347E-03
         0.18423E-02
         0.14636E-02
         0.30622E-03
         0.11777E-02
         0.22755E-02
         0.28260E-02
         0.24247E-02
         0.21687E-02
         0.29351E-02
        -0.10042E-02
         0.83825E-04
        -0.69882E-03
        -0.71112E-03
         0.83490E-04
        -0.77763E-03
         0.42353E-04
        -0.15192E-02
        -0.13223E-02
         0.99661E-03
        -0.17322E-02
         0.20237E-02
         0.18607E-02
         0.17175E-02
         0.91084E-03
        -0.19801E-02
        -0.23491E-02
        -0.17074E-02
        -0.14909E-02
         0.76640E-03
         0.12503E-02
         0.18667E-02
         0.28974E-02
         0.27179E-02
         0.24629E-02
         0.22359E-02
         0.16503E-02
         0.87650E-03
        -0.21374E-02
        -0.26933E-02
        -0.31291E-02
        -0.30382E-02
        -0.28749E-02
        -0.26439E-02
        -0.23719E-02
        -0.21478E-02
        -0.15099E-02
         0.93572E-03
         0.00000E+00
         0.18171E-02
         0.25928E-02
         0.32179E-02
         0.36559E-02
         0.38815E-02
         0.38815E-02
         0.36559E-02
         0.32179E-02
         0.25928E-02
         0.18171E-02
         0.93572E-03
        -0.47884E-18
        -0.93572E-03
        -0.18171E-02
        -0.25928E-02
        -0.32179E-02
        -0.36559E-02
        -0.38815E-02
        -0.38815E-02
        -0.36559E-02
        -0.32179E-02
        -0.25928E-02
        -0.18171E-02
        -0.93572E-03
         0.67680E-03
         0.12354E-02
         0.59517E-03
        -0.33247E-03
         0.15136E-03
        -0.67298E-03
         0.18425E-02
         0.14646E-02
         0.30737E-03
         0.11795E-02
         0.22757E-02
         0.28255E-02
         0.24248E-02
         0.21687E-02
         0.29348E-02
        -0.10043E-02
         0.84634E-04
        -0.69810E-03
        -0.71098E-03
         0.83614E-04
        -0.77746E-03
         0.42626E-04
        -0.15191E-02
        -0.13223E-02
         0.99797E-03
        -0.17322E-02
         0.20240E-02
         0.18606E-02
         0.17175E-02
         0.91108E-03
        -0.19802E-02
        -0.23491E-02
        -0.17074E-02
        -0.14911E-02
         0.76740E-03
         0.12507E-02
         0.18668E-02
         0.28963E-02
         0.27174E-02
         0.24627E-02
         0.22358E-02
         0.16503E-02
         0.87676E-03
        -0.21374E-02
        -0.26933E-02
        -0.31291E-02
        -0.30382E-02
        -0.28749E-02
        -0.26442E-02
        -0.23721E-02
        -0.21483E-02
        -0.15097E-02
         0.93572E-03
         0.00000E+00
         0.18171E-02
         0.25928E-02
         0.32179E-02
         0.36559E-02
         0.38815E-02
         0.38815E-02
         0.36559E-02
         0.32179E-02
         0.25928E-02
         0.18171E-02
         0.93572E-03
        -0.47884E-18
        -0.93572E-03
        -0.18171E-02
        -0.25928E-02
        -0.32179E-02
        -0.36559E-02
        -0.38815E-02
        -0.38815E-02
        -0.36559E-02
        -0.32179E-02
        -0.25928E-02
        -0.18171E-02
        -0.93572E-03
         0.67736E-03
         0.12361E-02
         0.59570E-03
        -0.33172E-03
         0.15173E-03
        -0.67248E-03
         0.18427E-02
         0.14656E-02
         0.30852E-03
         0.11812E-02
         0.22758E-02
         0.28251E-02
         0.24249E-02
         0.21688E-02
         0.29345E-02
        -0.10044E-02
         0.85443E-04
        -0.69737E-03
        -0.71084E-03
         0.83737E-04
        -0.77729E-03
         0.42899E-04
        -0.15191E-02
        -0.13222E-02
         0.99932E-03
        -0.17322E-02
         0.20243E-02
         0.18605E-02
         0.17175E-02
         0.91132E-03
        -0.19802E-02
        -0.23491E-02
        -0.17074E-02
        -0.14914E-02
         0.76841E-03
         0.12511E-02
         0.18668E-02
         0.28952E-02
         0.27170E-02
         0.24624E-02
         0.22358E-02
         0.16503E-02
         0.87702E-03
        -0.21374E-02
        -0.26933E-02
        -0.31291E-02
        -0.30382E-02
        -0.28749E-02
        -0.26444E-02
        -0.23723E-02
        -0.21489E-02
        -0.15096E-02
         0.93572E-03
         0.00000E+00
         0.18171E-02
         0.25928E-02
         0.32179E-02
         0.36559E-02
         0.38815E-02
         0.38815E-02
         0.36559E-02
         0.32179E-02
         0.25928E-02
         0.18171E-02
         0.93572E-03
        -0.47884E-18
        -0.93572E-03
        -0.18171E-02
        -0.25928E-02
        -0.32179E-02
        -0.36559E-02
        -0.38815E-02
        -0.38815E-02
        -0.36559E-02
        -0.32179E-02
        -0.25928E-02
        -0.18171E-02
        -0.93572E-03
         0.67791E-03
         0.12368E-02
         0.59622E-03
        -0.33096E-03
         0.15209E-03
        -0.67199E-03
         0.18429E-02
         0.14666E-02
         0.30967E-03
         0.11830E-02
         0.22759E-02
         0.28247E-02
         0.24251E-02
         0.21688E-02
         0.29343E-02
        -0.10046E-02
         0.86253E-04
        -0.69665E-03
        -0.71070E-03
         0.83861E-04
        -0.77712E-03
         0.43173E-04
        -0.15190E-02
        -0.13220E-02
         0.10007E-02
        -0.17321E-02
         0.20245E-02
         0.18603E-02
         0.17175E-02
         0.91156E-03
        -0.19802E-02
        -0.23491E-02
        -0.17074E-02
        -0.14916E-02
         0.76941E-03
         0.12515E-02
         0.18668E-02
         0.28942E-02
         0.27165E-02
         0.24622E-02
         0.22358E-02
         0.16503E-02
         0.87728E-03
        -0.21374E-02
        -0.26933E-02
        -0.31291E-02
        -0.30382E-02
        -0.28749E-02
        -0.26447E-02
        -0.23725E-02
        -0.21494E-02
        -0.15095E-02
         0.93572E-03
         0.00000E+00
         0.18171E-02
         0.25928E-02
         0.32179E-02
         0.36559E-02
         0.38815E-02
         0.38815E-02
         0.36559E-02
         0.32179E-02
         0.25928E-02
         0.18171E-02
         0.93572E-03
        -0.47884E-18
        -0.93572E-03
        -0.18171E-02
        -0.25928E-02
        -0.32179E-02
        -0.36559E-02
        -0.38815E-02
        -0.38815E-02
        -0.36559E-02
        -0.32179E-02
        -0.25928E-02
        -0.18171E-02
        -0.93572E-03
         0.67847E-03
         0.12374E-02
         0.59674E-03
        -0.33021E-03
         0.15245E-03
        -0.67150E-03
         0.18430E-02
         0.14676E-02
         0.31081E-03
         0.11847E-02
         0.22761E-02
         0.28242E-02
         0.24252E-02
         0.21688E-02
         0.29340E-02
        -0.10047E-02
         0.87062E-04
        -0.69592E-03
        -0.71056E-03
         0.83985E-04
        -0.77695E-03
         0.43446E-04
        -0.15190E-02
        -0.13219E-02
         0.10020E-02
        -0.17321E-02
         0.20248E-02
         0.18602E-02
         0.17175E-02
         0.91180E-03
        -0.19803E-02
        -0.23491E-02
        -0.17073E-02
        -0.14919E-02
         0.77042E-03
         0.12520E-02
         0.18669E-02
         0.28931E-02
         0.27160E-02
         0.24620E-02
         0.22358E-02
         0.16503E-02
         0.87754E-03
        -0.21374E-02
        -0.26933E-02
        -0.31291E-02
        -0.30382E-02
        -0.28749E-02
        -0.26450E-02
        -0.23727E-02
        -0.21500E-02
        -0.15094E-02
         0.93572E-03
         0.00000E+00
         0.18171E-02
         0.25928E-02
         0.32179E-02
         0.36559E-02
         0.38815E-02
         0.38815E-02
         0.36559E-02
         0.32179E-02
         0.25928E-02
         0.18171E-02
         0.93572E-03
         0.39516E-17
        -0.93572E-03
        -0.18171E-02
        -0.25928E-02
        -0.32179E-02
        -0.36559E-02
        -0.38815E-02
        -0.38815E-02
        -0.36559E-02
        -0.32179E-02
        -0.25928E-02
        -0.18171E-02
        -0.93572E-03
         0.67902E-03
         0.12381E-02
         0.59727E-03
        -0.32945E-03
         0.15282E-03
        -0.67100E-03
         0.18432E-02
         0.14686E-02
         0.31196E-03
         0.11865E-02
         0.22762E-02
         0.28238E-02
         0.24254E-02
         0.21688E-02
         0.29337E-02
        -0.10049E-02
         0.87871E-04
        -0.69519E-03
        -0.71042E-03
         0.84108E-04
        -0.77678E-03
         0.43720E-04
        -0.15189E-02
        -0.13219E-02
         0.10034E-02
        -0.17320E-02
         0.20251E-02
         0.18601E-02
         0.17175E-02
         0.91204E-03
        -0.19803E-02
        -0.23492E-02
        -0.17073E-02
        -0.14921E-02
         0.77142E-03
         0.12524E-02
         0.18669E-02
         0.28920E-02
         0.27155E-02
         0.24618E-02
         0.22358E-02
         0.16503E-02
         0.87781E-03
        -0.21374E-02
        -0.26934E-02
        -0.31291E-02
        -0.30382E-02
        -0.28749E-02
        -0.26452E-02
        -0.23729E-02
        -0.21505E-02
        -0.15093E-02
         0.93572E-03
         0.00000E+00
         0.18171E-02
         0.25928E-02
         0.32179E-02
         0.36559E-02
         0.38815E-02
         0.38815E-02
         0.36559E-02
         0.32179E-02
         0.25928E-02
         0.18171E-02
         0.93572E-03
        -0.47884E-18
        -0.93572E-03
        -0.18171E-02
        -0.25928E-02
        -0.32179E-02
        -0.36559E-02
        -0.38815E-02
        -0.38815E-02
        -0.36559E-02
        -0.32179E-02
        -0.25928E-02
        -0.18171E-02
        -0.93572E-03
         0.67958E-03
         0.12387E-02
         0.59779E-03
        -0.32870E-03
         0.15318E-03
        -0.67051E-03
         0.18434E-02
         0.14696E-02
         0.31311E-03
         0.11882E-02
         0.22763E-02
         0.28233E-02
         0.24255E-02
         0.21689E-02
         0.29335E-02
        -0.10050E-02
         0.88681E-04
        -0.69447E-03
        -0.71028E-03
         0.84232E-04
        -0.77661E-03
         0.43993E-04
        -0.15189E-02
        -0.13218E-02
         0.10048E-02
        -0.17320E-02
         0.20254E-02
         0.18599E-02
         0.17175E-02
         0.91228E-03
        -0.19803E-02
        -0.23492E-02
        -0.17073E-02
        -0.14923E-02
         0.77243E-03
         0.12528E-02
         0.18670E-02
         0.28910E-02
         0.27151E-02
         0.24615E-02
         0.22358E-02
         0.16503E-02
         0.87807E-03
        -0.21374E-02
        -0.26934E-02
        -0.31291E-02
        -0.30382E-02
        -0.28749E-02
        -0.26455E-02
        -0.23732E-02
        -0.21511E-02
        -0.15092E-02
         0.93572E-03
         0.00000E+00
         0.18171E-02
         0.25928E-02
         0.32179E-02
         0.36559E-02
         0.38815E-02
         0.38815E-02
         0.36559E-02
         0.32179E-02
         0.25928E-02
         0.18171E-02
         0.93572E-03
         0.22152E-17
        -0.93572E-03
        -0.18171E-02
        -0.25928E-02
        -0.32179E-02
        -0.36559E-02
        -0.38815E-02
        -0.38815E-02
        -0.36559E-02
        -0.32179E-02
        -0.25928E-02
        -0.18171E-02
        -0.93572E-03
         0.68013E-03
         0.12394E-02
         0.59831E-03
        -0.32794E-03
         0.15354E-03
        -0.67002E-03
         0.18436E-02
         0.14706E-02
         0.31426E-03
         0.11900E-02
         0.22765E-02
         0.28229E-02
         0.24257E-02
         0.21689E-02
         0.29332E-02
        -0.10051E-02
         0.89490E-04
        -0.69374E-03
        -0.71013E-03
         0.84355E-04
        -0.77644E-03
         0.44266E-04
        -0.15188E-02
        -0.13216E-02
         0.10061E-02
        -0.17320E-02
         0.20257E-02
         0.18598E-02
         0.17175E-02
         0.91252E-03
        -0.19803E-02
        -0.23492E-02
        -0.17073E-02
        -0.14926E-02
         0.77343E-03
         0.12533E-02
         0.18670E-02
         0.28899E-02
         0.27146E-02
         0.24613E-02
         0.22358E-02
         0.16503E-02
         0.87833E-03
        -0.21374E-02
        -0.26934E-02
        -0.31291E-02
        -0.30382E-02
        -0.28750E-02
        -0.26458E-02
        -0.23734E-02
        -0.21516E-02
        -0.15091E-02
         0.93572E-03
         0.00000E+00
         0.18171E-02
         0.25928E-02
         0.32179E-02
         0.36559E-02
         0.38815E-02
         0.38815E-02
         0.36559E-02
         0.32179E-02
         0.25928E-02
         0.18171E-02
         0.93572E-03
        -0.47884E-18
        -0.93572E-03
        -0.18171E-02
        -0.25928E-02
        -0.32179E-02
        -0.36559E-02
        -0.38815E-02
        -0.38815E-02
        -0.36559E-02
        -0.32179E-02
        -0.25928E-02
        -0.18171E-02
        -0.93572E-03
         0.68068E-03
         0.12401E-02
         0.59884E-03
        -0.32719E-03
         0.15391E-03
        -0.66953E-03
         0.18438E-02
         0.14716E-02
         0.31541E-03
         0.11917E-02
         0.22766E-02
         0.28225E-02
         0.24258E-02
         0.21690E-02
         0.29330E-02
        -0.10053E-02
         0.90299E-04
        -0.69302E-03
        -0.70999E-03
         0.84479E-04
        -0.77627E-03
         0.44540E-04
        -0.15188E-02
        -0.13215E-02
         0.10075E-02
        -0.17319E-02
         0.20260E-02
         0.18597E-02
         0.17175E-02
         0.91276E-03
        -0.19804E-02
        -0.23493E-02
        -0.17073E-02
        -0.14928E-02
         0.77444E-03
         0.12537E-02
         0.18670E-02
         0.28888E-02
         0.27141E-02
         0.24611E-02
         0.22358E-02
         0.16503E-02
         0.87859E-03
        -0.21374E-02
        -0.26934E-02
        -0.31291E-02
        -0.30382E-02
        -0.28750E-02
        -0.26460E-02
        -0.23736E-02
        -0.21521E-02
        -0.15090E-02
         0.93572E-03
         0.00000E+00
         0.18171E-02
         0.25928E-02
         0.32179E-02
         0.36559E-02
         0.38815E-02
         0.38815E-02
         0.36559E-02
         0.32179E-02
         0.25928E-02
         0.18171E-02
         0.93572E-03
         0.22152E-17
        -0.93572E-03
        -0.18171E-02
        -0.25928E-02
        -0.32179E-02
        -0.36559E-02
        -0.38815E-02
        -0.38815E-02
        -0.36559E-02
        -0.32179E-02
        -0.25928E-02
        -0.18171E-02
        -0.93572E-03
         0.68124E-03
         0.12407E-02
         0.59936E-03
        -0.32643E-03
         0.15427E-03
        -0.66903E-03
         0.18440E-02
         0.14727E-02
         0.31656E-03
         0.11935E-02
         0.22767E-02
         0.28220E-02
         0.24260E-02
         0.21690E-02
         0.29327E-02
        -0.10054E-02
         0.91108E-04
        -0.69229E-03
        -0.70985E-03
         0.84602E-04
        -0.77610E-03
         0.44813E-04
        -0.15187E-02
        -0.13215E-02
         0.10088E-02
        -0.17319E-02
         0.20262E-02
         0.18595E-02
         0.17175E-02
         0.91300E-03
        -0.19804E-02
        -0.23493E-02
        -0.17073E-02
        -0.14931E-02
         0.77544E-03
         0.12541E-02
         0.18671E-02
         0.28877E-02
         0.27137E-02
         0.24609E-02
         0.22358E-02
         0.16503E-02
         0.87885E-03
        -0.21374E-02
        -0.26934E-02
        -0.31291E-02
        -0.30382E-02
        -0.28750E-02
        -0.26463E-02
        -0.23738E-02
        -0.21527E-02
        -0.15088E-02
         0.93572E-03
         0.00000E+00
         0.18171E-02
         0.25928E-02
         0.32179E-02
         0.36559E-02
         0.38815E-02
         0.38815E-02
         0.36559E-02
         0.32179E-02
         0.25928E-02
         0.18171E-02
         0.93572E-03
        -0.47884E-18
        -0.93572E-03
        -0.18171E-02
        -0.25928E-02
        -0.32179E-02
        -0.36559E-02
        -0.38815E-02
        -0.38815E-02
        -0.36559E-02
        -0.32179E-02
        -0.25928E-02
        -0.18171E-02
        -0.93572E-03
         0.68179E-03
         0.12414E-02
         0.59988E-03
        -0.32568E-03
         0.15463E-03
        -0.66854E-03
         0.18442E-02
         0.14736E-02
         0.31770E-03
         0.11952E-02
         0.22768E-02
         0.28216E-02
         0.24261E-02
         0.21690E-02
         0.29324E-02
        -0.10056E-02
         0.91918E-04
        -0.69156E-03
        -0.70971E-03
         0.84726E-04
        -0.77593E-03
         0.45086E-04
        -0.15187E-02
        -0.13213E-02
         0.10102E-02
        -0.17318E-02
         0.20265E-02
         0.18594E-02
         0.17175E-02
         0.91324E-03
        -0.19804E-02
        -0.23493E-02
        -0.17073E-02
        -0.14933E-02
         0.77645E-03
         0.12545E-02
         0.18671E-02
         0.28867E-02
         0.27132E-02
         0.24606E-02
         0.22358E-02
         0.16503E-02
         0.87912E-03
        -0.21374E-02
        -0.26935E-02
        -0.31291E-02
        -0.30381E-02
        -0.28750E-02
        -0.26466E-02
        -0.23740E-02
        -0.21533E-02
        -0.15087E-02
         0.93572E-03
         0.00000E+00
         0.18171E-02
         0.25928E-02
         0.32179E-02
         0.36559E-02
         0.38815E-02
         0.38815E-02
         0.36559E-02
         0.32179E-02
         0.25928E-02
         0.18171E-02
         0.93572E-03
        -0.47884E-18
        -0.93572E-03
        -0.18171E-02
        -0.25928E-02
        -0.32179E-02
        -0.36559E-02
        -0.38815E-02
        -0.38815E-02
        -0.36559E-02
        -0.32179E-02
        -0.25928E-02
        -0.18171E-02
        -0.93572E-03
         0.68235E-03
         0.12421E-02
         0.60041E-03
        -0.32493E-03
         0.15500E-03
        -0.66805E-03
         0.18444E-02
         0.14747E-02
         0.31885E-03
         0.11970E-02
         0.22770E-02
         0.28211E-02
         0.24262E-02
         0.21691E-02
         0.29322E-02
        -0.10057E-02
         0.92727E-04
        -0.69084E-03
        -0.70957E-03
         0.84849E-04
        -0.77576E-03
         0.45359E-04
        -0.15186E-02
        -0.13212E-02
         0.10115E-02
        -0.17318E-02
         0.20268E-02
         0.18593E-02
         0.17175E-02
         0.91347E-03
        -0.19804E-02
        -0.23493E-02
        -0.17073E-02
        -0.14936E-02
         0.77745E-03
         0.12550E-02
         0.18671E-02
         0.28856E-02
         0.27127E-02
         0.24604E-02
         0.22358E-02
         0.16503E-02
         0.87938E-03
        -0.21374E-02
        -0.26935E-02
        -0.31291E-02
        -0.30381E-02
        -0.28750E-02
        -0.26468E-02
        -0.23742E-02
        -0.21538E-02
        -0.15086E-02
         0.93572E-03
         0.00000E+00
         0.18171E-02
         0.25928E-02
         0.32179E-02
         0.36559E-02
         0.38815E-02
         0.38815E-02
         0.36559E-02
         0.32179E-02
         0.25928E-02
         0.18171E-02
         0.93572E-03
        -0.47884E-18
        -0.93572E-03
        -0.18171E-02
        -0.25928E-02
        -0.32179E-02
        -0.36559E-02
        -0.38815E-02
        -0.38815E-02
        -0.36559E-02
        -0.32179E-02
        -0.25928E-02
        -0.18171E-02
        -0.93572E-03
         0.68290E-03
         0.12427E-02
         0.60093E-03
        -0.32417E-03
         0.15536E-03
        -0.66755E-03
         0.18445E-02
         0.14757E-02
         0.32000E-03
         0.11987E-02
         0.22771E-02
         0.28207E-02
         0.24264E-02
         0.21691E-02
         0.29319E-02
        -0.10058E-02
         0.93536E-04
        -0.69011E-03
        -0.70943E-03
         0.84973E-04
        -0.77559E-03
         0.45633E-04
        -0.15186E-02
        -0.13212E-02
         0.10129E-02
        -0.17318E-02
         0.20271E-02
         0.18592E-02
         0.17175E-02
         0.91371E-03
        -0.19805E-02
        -0.23493E-02
        -0.17073E-02
        -0.14938E-02
         0.77846E-03
         0.12554E-02
         0.18672E-02
         0.28845E-02
         0.27122E-02
         0.24602E-02
         0.22358E-02
         0.16502E-02
         0.87964E-03
        -0.21374E-02
        -0.26935E-02
        -0.31291E-02
        -0.30381E-02
        -0.28750E-02
        -0.26471E-02
        -0.23744E-02
        -0.21543E-02
        -0.15085E-02
         0.93572E-03
         0.00000E+00
         0.18171E-02
         0.25928E-02
         0.32179E-02
         0.36559E-02
         0.38815E-02
         0.38815E-02
         0.36559E-02
         0.32179E-02
         0.25928E-02
         0.18171E-02
         0.93572E-03
        -0.47884E-18
        -0.93572E-03
        -0.18171E-02
        -0.25928E-02
        -0.32179E-02
        -0.36559E-02
        -0.38815E-02
        -0.38815E-02
        -0.36559E-02
        -0.32179E-02
        -0.25928E-02
        -0.18171E-02
        -0.93572E-03
         0.68346E-03
         0.12434E-02
         0.60145E-03
        -0.32342E-03
         0.15572E-03
        -0.66706E-03
         0.18447E-02
         0.14767E-02
         0.32115E-03
         0.12005E-02
         0.22772E-02
         0.28203E-02
         0.24265E-02
         0.21691E-02
         0.29316E-02
        -0.10060E-02
         0.94345E-04
        -0.68939E-03
        -0.70929E-03
         0.85096E-04
        -0.77542E-03
         0.45906E-04
        -0.15185E-02
        -0.13211E-02
         0.10142E-02
        -0.17317E-02
         0.20274E-02
         0.18590E-02
         0.17175E-02
         0.91395E-03
        -0.19805E-02
        -0.23494E-02
        -0.17073E-02
        -0.14941E-02
         0.77946E-03
         0.12558E-02
         0.18672E-02
         0.28835E-02
         0.27118E-02
         0.24600E-02
         0.22358E-02
         0.16502E-02
         0.87990E-03
        -0.21374E-02
        -0.26935E-02
        -0.31291E-02
        -0.30381E-02
        -0.28750E-02
        -0.26474E-02
        -0.23746E-02
        -0.21549E-02
        -0.15084E-02
         0.93572E-03
         0.00000E+00
         0.18171E-02
         0.25928E-02
         0.32179E-02
         0.36559E-02
         0.38815E-02
         0.38815E-02
         0.36559E-02
         0.32179E-02
         0.25928E-02
         0.18171E-02
         0.93572E-03
         0.22152E-17
        -0.93572E-03
        -0.18171E-02
        -0.25928E-02
        -0.32179E-02
        -0.36559E-02
        -0.38815E-02
        -0.38815E-02
        -0.36559E-02
        -0.32179E-02
        -0.25928E-02
        -0.18171E-02
        -0.93572E-03
         0.68401E-03
         0.12440E-02
         0.60198E-03
        -0.32266E-03
         0.15609E-03
        -0.66657E-03
         0.18449E-02
         0.14777E-02
         0.32230E-03
         0.12022E-02
         0.22774E-02
         0.28198E-02
         0.24267E-02
         0.21692E-02
         0.29314E-02
        -0.10061E-02
         0.95155E-04
        -0.68866E-03
        -0.70915E-03
         0.85220E-04
        -0.77525E-03
         0.46180E-04
        -0.15185E-02
        -0.13210E-02
         0.10156E-02
        -0.17317E-02
         0.20277E-02
         0.18589E-02
         0.17175E-02
         0.91419E-03
        -0.19805E-02
        -0.23494E-02
        -0.17073E-02
        -0.14943E-02
         0.78047E-03
         0.12563E-02
         0.18672E-02
         0.28824E-02
         0.27113E-02
         0.24597E-02
         0.22358E-02
         0.16502E-02
         0.88016E-03
        -0.21374E-02
        -0.26935E-02
        -0.31291E-02
        -0.30381E-02
        -0.28751E-02
        -0.26476E-02
        -0.23748E-02
        -0.21554E-02
        -0.15083E-02
         0.93572E-03
         0.00000E+00
         0.18171E-02
         0.25928E-02
         0.32179E-02
         0.36559E-02
         0.38815E-02
         0.38815E-02
         0.36559E-02
         0.32179E-02
         0.25928E-02
         0.18171E-02
         0.93572E-03
        -0.47884E-18
        -0.93572E-03
        -0.18171E-02
        -0.25928E-02
        -0.32179E-02
        -0.36559E-02
        -0.38815E-02
        -0.38815E-02
        -0.36559E-02
        -0.32179E-02
        -0.25928E-02
        -0.18171E-02
        -0.93572E-03
         0.68457E-03
         0.12447E-02
         0.60250E-03
        -0.32191E-03
         0.15645E-03
        -0.66607E-03
         0.18451E-02
         0.14787E-02
         0.32345E-03
         0.12040E-02
         0.22775E-02
         0.28194E-02
         0.24268E-02
         0.21692E-02
         0.29311E-02
        -0.10062E-02
         0.95964E-04
        -0.68793E-03
        -0.70901E-03
         0.85343E-04
        -0.77507E-03
         0.46453E-04
        -0.15184E-02
        -0.13209E-02
         0.10169E-02
        -0.17316E-02
         0.20280E-02
         0.18588E-02
         0.17175E-02
         0.91443E-03
        -0.19806E-02
        -0.23494E-02
        -0.17073E-02
        -0.14945E-02
         0.78148E-03
         0.12567E-02
         0.18673E-02
         0.28813E-02
         0.27108E-02
         0.24595E-02
         0.22358E-02
         0.16502E-02
         0.88043E-03
        -0.21374E-02
        -0.26936E-02
        -0.31291E-02
        -0.30381E-02
        -0.28751E-02
        -0.26479E-02
        -0.23750E-02
        -0.21560E-02
        -0.15082E-02
         0.93572E-03
         0.00000E+00
         0.18171E-02
         0.25928E-02
         0.32179E-02
         0.36559E-02
         0.38815E-02
         0.38815E-02
         0.36559E-02
         0.32179E-02
         0.25928E-02
         0.18171E-02
         0.93572E-03
        -0.47884E-18
        -0.93572E-03
        -0.18171E-02
        -0.25928E-02
        -0.32179E-02
        -0.36559E-02
        -0.38815E-02
        -0.38815E-02
        -0.36559E-02
        -0.32179E-02
        -0.25928E-02
        -0.18171E-02
        -0.93572E-03
         0.68512E-03
         0.12454E-02
         0.60302E-03
        -0.32115E-03
         0.15681E-03
        -0.66558E-03
         0.18453E-02
         0.14797E-02
         0.32459E-03
         0.12058E-02
         0.22776E-02
         0.28189E-02
         0.24270E-02
         0.21693E-02
         0.29308E-02
        -0.10064E-02
         0.96773E-04
        -0.68721E-03
        -0.70887E-03
         0.85467E-04
        -0.77490E-03
         0.46726E-04
        -0.15184E-02
        -0.13208E-02
         0.10183E-02
        -0.17316E-02
         0.20283E-02
         0.18586E-02
         0.17175E-02
         0.91467E-03
        -0.19806E-02
        -0.23494E-02
        -0.17073E-02
        -0.14948E-02
         0.78248E-03
         0.12571E-02
         0.18673E-02
         0.28802E-02
         0.27103E-02
         0.24593E-02
         0.22358E-02
         0.16502E-02
         0.88069E-03
        -0.21374E-02
        -0.26936E-02
        -0.31291E-02
        -0.30381E-02
        -0.28751E-02
        -0.26482E-02
        -0.23752E-02
        -0.21565E-02
        -0.15081E-02
         0.93572E-03
         0.00000E+00
         0.18171E-02
         0.25928E-02
         0.32179E-02
         0.36559E-02
         0.38815E-02
         0.38815E-02
         0.36559E-02
         0.32179E-02
         0.25928E-02
         0.18171E-02
         0.93572E-03
        -0.47884E-18
        -0.93572E-03
        -0.18171E-02
        -0.25928E-02
        -0.32179E-02
        -0.36559E-02
        -0.38815E-02
        -0.38815E-02
        -0.36559E-02
        -0.32179E-02
        -0.25928E-02
        -0.18171E-02
        -0.93572E-03
         0.68567E-03
         0.12460E-02
         0.60355E-03
        -0.32040E-03
         0.15718E-03
        -0.66509E-03
         0.18455E-02
         0.14807E-02
         0.32574E-03
         0.12075E-02
         0.22777E-02
         0.28185E-02
         0.24271E-02
         0.21693E-02
         0.29306E-02
        -0.10065E-02
         0.97583E-04
        -0.68648E-03
        -0.70873E-03
         0.85591E-04
        -0.77474E-03
         0.47000E-04
        -0.15183E-02
        -0.13207E-02
         0.10197E-02
        -0.17316E-02
         0.20285E-02
         0.18585E-02
         0.17175E-02
         0.91491E-03
        -0.19806E-02
        -0.23495E-02
        -0.17073E-02
        -0.14950E-02
         0.78348E-03
         0.12576E-02
         0.18674E-02
         0.28792E-02
         0.27099E-02
         0.24591E-02
         0.22358E-02
         0.16502E-02
         0.88095E-03
        -0.21374E-02
        -0.26936E-02
        -0.31290E-02
        -0.30381E-02
        -0.28751E-02
        -0.26484E-02
        -0.23754E-02
        -0.21571E-02
        -0.15080E-02
         0.93572E-03
         0.00000E+00
         0.18171E-02
         0.25928E-02
         0.32179E-02
         0.36559E-02
         0.38815E-02
         0.38815E-02
         0.36559E-02
         0.32179E-02
         0.25928E-02
         0.18171E-02
         0.93572E-03
         0.47884E-18
        -0.93572E-03
        -0.18171E-02
        -0.25928E-02
        -0.32179E-02
        -0.36559E-02
        -0.38815E-02
        -0.38815E-02
        -0.36559E-02
        -0.32179E-02
        -0.25928E-02
        -0.18171E-02
        -0.93572E-03
  
SCALARS           initial_coordinate_z  double 1
LOOKUP_TABLE default
        -0.10771E-01
        -0.10771E-01
        -0.10771E-01
        -0.10771E-01
        -0.11750E-01
        -0.11750E-01
        -0.11750E-01
        -0.11750E-01
        -0.10771E-01
        -0.10771E-01
        -0.11750E-01
        -0.11750E-01
        -0.10771E-01
        -0.10771E-01
        -0.11750E-01
        -0.11750E-01
        -0.10771E-01
        -0.10771E-01
        -0.11750E-01
        -0.11750E-01
        -0.10771E-01
        -0.10771E-01
        -0.10771E-01
        -0.11750E-01
        -0.11750E-01
        -0.11750E-01
        -0.10771E-01
        -0.10771E-01
        -0.11750E-01
        -0.11750E-01
        -0.10771E-01
        -0.10771E-01
        -0.10771E-01
        -0.11750E-01
        -0.11750E-01
        -0.11750E-01
        -0.10771E-01
        -0.10771E-01
        -0.11750E-01
        -0.11750E-01
        -0.10771E-01
        -0.10771E-01
        -0.11750E-01
        -0.11750E-01
        -0.10771E-01
        -0.10771E-01
        -0.11750E-01
        -0.11750E-01
        -0.10771E-01
        -0.11750E-01
        -0.10771E-01
        -0.11750E-01
        -0.10771E-01
        -0.11750E-01
        -0.10771E-01
        -0.11750E-01
        -0.10771E-01
        -0.10771E-01
        -0.11750E-01
        -0.11750E-01
        -0.10771E-01
        -0.10771E-01
        -0.11750E-01
        -0.11750E-01
        -0.10771E-01
        -0.11750E-01
        -0.10771E-01
        -0.11750E-01
        -0.10771E-01
        -0.10771E-01
        -0.11750E-01
        -0.11750E-01
        -0.10771E-01
        -0.11750E-01
        -0.10771E-01
        -0.11750E-01
        -0.10771E-01
        -0.11750E-01
        -0.10771E-01
        -0.11750E-01
        -0.10771E-01
        -0.10771E-01
        -0.11750E-01
        -0.11750E-01
        -0.10771E-01
        -0.11750E-01
        -0.10771E-01
        -0.11750E-01
        -0.10771E-01
        -0.11750E-01
        -0.10771E-01
        -0.10771E-01
        -0.11750E-01
        -0.11750E-01
        -0.10771E-01
        -0.11750E-01
        -0.10771E-01
        -0.11750E-01
        -0.10771E-01
        -0.11750E-01
        -0.10771E-01
        -0.10771E-01
        -0.11750E-01
        -0.11750E-01
        -0.10771E-01
        -0.10771E-01
        -0.11750E-01
        -0.11750E-01
        -0.10771E-01
        -0.11750E-01
        -0.10771E-01
        -0.11750E-01
        -0.10771E-01
        -0.11750E-01
        -0.10771E-01
        -0.11750E-01
        -0.10771E-01
        -0.11750E-01
        -0.10771E-01
        -0.11750E-01
        -0.10771E-01
        -0.11750E-01
        -0.10771E-01
        -0.11750E-01
        -0.10771E-01
        -0.11750E-01
        -0.10771E-01
        -0.11750E-01
        -0.10771E-01
        -0.11750E-01
        -0.10771E-01
        -0.11750E-01
        -0.10771E-01
        -0.11750E-01
        -0.10771E-01
        -0.11750E-01
        -0.10771E-01
        -0.11750E-01
        -0.10771E-01
        -0.11750E-01
        -0.10771E-01
        -0.11750E-01
        -0.10771E-01
        -0.11750E-01
        -0.10771E-01
        -0.11750E-01
        -0.10771E-01
        -0.11750E-01
        -0.10771E-01
        -0.11750E-01
        -0.10771E-01
        -0.11750E-01
        -0.10771E-01
        -0.11750E-01
        -0.10771E-01
        -0.11750E-01
        -0.97917E-02
        -0.97917E-02
        -0.97917E-02
        -0.97917E-02
        -0.97917E-02
        -0.97917E-02
        -0.97917E-02
        -0.97917E-02
        -0.97917E-02
        -0.97917E-02
        -0.97917E-02
        -0.97917E-02
        -0.97917E-02
        -0.97917E-02
        -0.97917E-02
        -0.97917E-02
        -0.97917E-02
        -0.97917E-02
        -0.97917E-02
        -0.97917E-02
        -0.97917E-02
        -0.97917E-02
        -0.97917E-02
        -0.97917E-02
        -0.97917E-02
        -0.97917E-02
        -0.97917E-02
        -0.97917E-02
        -0.97917E-02
        -0.97917E-02
        -0.97917E-02
        -0.97917E-02
        -0.97917E-02
        -0.97917E-02
        -0.97917E-02
        -0.97917E-02
        -0.97917E-02
        -0.97917E-02
        -0.97917E-02
        -0.97917E-02
        -0.97917E-02
        -0.97917E-02
        -0.97917E-02
        -0.97917E-02
        -0.97917E-02
        -0.97917E-02
        -0.97917E-02
        -0.97917E-02
        -0.97917E-02
        -0.97917E-02
        -0.97917E-02
        -0.97917E-02
        -0.97917E-02
        -0.97917E-02
        -0.97917E-02
        -0.97917E-02
        -0.97917E-02
        -0.97917E-02
        -0.97917E-02
        -0.97917E-02
        -0.97917E-02
        -0.97917E-02
        -0.97917E-02
        -0.97917E-02
        -0.97917E-02
        -0.97917E-02
        -0.97917E-02
        -0.97917E-02
        -0.97917E-02
        -0.97917E-02
        -0.97917E-02
        -0.97917E-02
        -0.97917E-02
        -0.97917E-02
        -0.97917E-02
        -0.97917E-02
        -0.97917E-02
        -0.97917E-02
        -0.88125E-02
        -0.88125E-02
        -0.88125E-02
        -0.88125E-02
        -0.88125E-02
        -0.88125E-02
        -0.88125E-02
        -0.88125E-02
        -0.88125E-02
        -0.88125E-02
        -0.88125E-02
        -0.88125E-02
        -0.88125E-02
        -0.88125E-02
        -0.88125E-02
        -0.88125E-02
        -0.88125E-02
        -0.88125E-02
        -0.88125E-02
        -0.88125E-02
        -0.88125E-02
        -0.88125E-02
        -0.88125E-02
        -0.88125E-02
        -0.88125E-02
        -0.88125E-02
        -0.88125E-02
        -0.88125E-02
        -0.88125E-02
        -0.88125E-02
        -0.88125E-02
        -0.88125E-02
        -0.88125E-02
        -0.88125E-02
        -0.88125E-02
        -0.88125E-02
        -0.88125E-02
        -0.88125E-02
        -0.88125E-02
        -0.88125E-02
        -0.88125E-02
        -0.88125E-02
        -0.88125E-02
        -0.88125E-02
        -0.88125E-02
        -0.88125E-02
        -0.88125E-02
        -0.88125E-02
        -0.88125E-02
        -0.88125E-02
        -0.88125E-02
        -0.88125E-02
        -0.88125E-02
        -0.88125E-02
        -0.88125E-02
        -0.88125E-02
        -0.88125E-02
        -0.88125E-02
        -0.88125E-02
        -0.88125E-02
        -0.88125E-02
        -0.88125E-02
        -0.88125E-02
        -0.88125E-02
        -0.88125E-02
        -0.88125E-02
        -0.88125E-02
        -0.88125E-02
        -0.88125E-02
        -0.88125E-02
        -0.88125E-02
        -0.88125E-02
        -0.88125E-02
        -0.88125E-02
        -0.88125E-02
        -0.88125E-02
        -0.88125E-02
        -0.88125E-02
        -0.78333E-02
        -0.78333E-02
        -0.78333E-02
        -0.78333E-02
        -0.78333E-02
        -0.78333E-02
        -0.78333E-02
        -0.78333E-02
        -0.78333E-02
        -0.78333E-02
        -0.78333E-02
        -0.78333E-02
        -0.78333E-02
        -0.78333E-02
        -0.78333E-02
        -0.78333E-02
        -0.78333E-02
        -0.78333E-02
        -0.78333E-02
        -0.78333E-02
        -0.78333E-02
        -0.78333E-02
        -0.78333E-02
        -0.78333E-02
        -0.78333E-02
        -0.78333E-02
        -0.78333E-02
        -0.78333E-02
        -0.78333E-02
        -0.78333E-02
        -0.78333E-02
        -0.78333E-02
        -0.78333E-02
        -0.78333E-02
        -0.78333E-02
        -0.78333E-02
        -0.78333E-02
        -0.78333E-02
        -0.78333E-02
        -0.78333E-02
        -0.78333E-02
        -0.78333E-02
        -0.78333E-02
        -0.78333E-02
        -0.78333E-02
        -0.78333E-02
        -0.78333E-02
        -0.78333E-02
        -0.78333E-02
        -0.78333E-02
        -0.78333E-02
        -0.78333E-02
        -0.78333E-02
        -0.78333E-02
        -0.78333E-02
        -0.78333E-02
        -0.78333E-02
        -0.78333E-02
        -0.78333E-02
        -0.78333E-02
        -0.78333E-02
        -0.78333E-02
        -0.78333E-02
        -0.78333E-02
        -0.78333E-02
        -0.78333E-02
        -0.78333E-02
        -0.78333E-02
        -0.78333E-02
        -0.78333E-02
        -0.78333E-02
        -0.78333E-02
        -0.78333E-02
        -0.78333E-02
        -0.78333E-02
        -0.78333E-02
        -0.78333E-02
        -0.78333E-02
        -0.68542E-02
        -0.68542E-02
        -0.68542E-02
        -0.68542E-02
        -0.68542E-02
        -0.68542E-02
        -0.68542E-02
        -0.68542E-02
        -0.68542E-02
        -0.68542E-02
        -0.68542E-02
        -0.68542E-02
        -0.68542E-02
        -0.68542E-02
        -0.68542E-02
        -0.68542E-02
        -0.68542E-02
        -0.68542E-02
        -0.68542E-02
        -0.68542E-02
        -0.68542E-02
        -0.68542E-02
        -0.68542E-02
        -0.68542E-02
        -0.68542E-02
        -0.68542E-02
        -0.68542E-02
        -0.68542E-02
        -0.68542E-02
        -0.68542E-02
        -0.68542E-02
        -0.68542E-02
        -0.68542E-02
        -0.68542E-02
        -0.68542E-02
        -0.68542E-02
        -0.68542E-02
        -0.68542E-02
        -0.68542E-02
        -0.68542E-02
        -0.68542E-02
        -0.68542E-02
        -0.68542E-02
        -0.68542E-02
        -0.68542E-02
        -0.68542E-02
        -0.68542E-02
        -0.68542E-02
        -0.68542E-02
        -0.68542E-02
        -0.68542E-02
        -0.68542E-02
        -0.68542E-02
        -0.68542E-02
        -0.68542E-02
        -0.68542E-02
        -0.68542E-02
        -0.68542E-02
        -0.68542E-02
        -0.68542E-02
        -0.68542E-02
        -0.68542E-02
        -0.68542E-02
        -0.68542E-02
        -0.68542E-02
        -0.68542E-02
        -0.68542E-02
        -0.68542E-02
        -0.68542E-02
        -0.68542E-02
        -0.68542E-02
        -0.68542E-02
        -0.68542E-02
        -0.68542E-02
        -0.68542E-02
        -0.68542E-02
        -0.68542E-02
        -0.68542E-02
        -0.58750E-02
        -0.58750E-02
        -0.58750E-02
        -0.58750E-02
        -0.58750E-02
        -0.58750E-02
        -0.58750E-02
        -0.58750E-02
        -0.58750E-02
        -0.58750E-02
        -0.58750E-02
        -0.58750E-02
        -0.58750E-02
        -0.58750E-02
        -0.58750E-02
        -0.58750E-02
        -0.58750E-02
        -0.58750E-02
        -0.58750E-02
        -0.58750E-02
        -0.58750E-02
        -0.58750E-02
        -0.58750E-02
        -0.58750E-02
        -0.58750E-02
        -0.58750E-02
        -0.58750E-02
        -0.58750E-02
        -0.58750E-02
        -0.58750E-02
        -0.58750E-02
        -0.58750E-02
        -0.58750E-02
        -0.58750E-02
        -0.58750E-02
        -0.58750E-02
        -0.58750E-02
        -0.58750E-02
        -0.58750E-02
        -0.58750E-02
        -0.58750E-02
        -0.58750E-02
        -0.58750E-02
        -0.58750E-02
        -0.58750E-02
        -0.58750E-02
        -0.58750E-02
        -0.58750E-02
        -0.58750E-02
        -0.58750E-02
        -0.58750E-02
        -0.58750E-02
        -0.58750E-02
        -0.58750E-02
        -0.58750E-02
        -0.58750E-02
        -0.58750E-02
        -0.58750E-02
        -0.58750E-02
        -0.58750E-02
        -0.58750E-02
        -0.58750E-02
        -0.58750E-02
        -0.58750E-02
        -0.58750E-02
        -0.58750E-02
        -0.58750E-02
        -0.58750E-02
        -0.58750E-02
        -0.58750E-02
        -0.58750E-02
        -0.58750E-02
        -0.58750E-02
        -0.58750E-02
        -0.58750E-02
        -0.58750E-02
        -0.58750E-02
        -0.58750E-02
        -0.48958E-02
        -0.48958E-02
        -0.48958E-02
        -0.48958E-02
        -0.48958E-02
        -0.48958E-02
        -0.48958E-02
        -0.48958E-02
        -0.48958E-02
        -0.48958E-02
        -0.48958E-02
        -0.48958E-02
        -0.48958E-02
        -0.48958E-02
        -0.48958E-02
        -0.48958E-02
        -0.48958E-02
        -0.48958E-02
        -0.48958E-02
        -0.48958E-02
        -0.48958E-02
        -0.48958E-02
        -0.48958E-02
        -0.48958E-02
        -0.48958E-02
        -0.48958E-02
        -0.48958E-02
        -0.48958E-02
        -0.48958E-02
        -0.48958E-02
        -0.48958E-02
        -0.48958E-02
        -0.48958E-02
        -0.48958E-02
        -0.48958E-02
        -0.48958E-02
        -0.48958E-02
        -0.48958E-02
        -0.48958E-02
        -0.48958E-02
        -0.48958E-02
        -0.48958E-02
        -0.48958E-02
        -0.48958E-02
        -0.48958E-02
        -0.48958E-02
        -0.48958E-02
        -0.48958E-02
        -0.48958E-02
        -0.48958E-02
        -0.48958E-02
        -0.48958E-02
        -0.48958E-02
        -0.48958E-02
        -0.48958E-02
        -0.48958E-02
        -0.48958E-02
        -0.48958E-02
        -0.48958E-02
        -0.48958E-02
        -0.48958E-02
        -0.48958E-02
        -0.48958E-02
        -0.48958E-02
        -0.48958E-02
        -0.48958E-02
        -0.48958E-02
        -0.48958E-02
        -0.48958E-02
        -0.48958E-02
        -0.48958E-02
        -0.48958E-02
        -0.48958E-02
        -0.48958E-02
        -0.48958E-02
        -0.48958E-02
        -0.48958E-02
        -0.48958E-02
        -0.39167E-02
        -0.39167E-02
        -0.39167E-02
        -0.39167E-02
        -0.39167E-02
        -0.39167E-02
        -0.39167E-02
        -0.39167E-02
        -0.39167E-02
        -0.39167E-02
        -0.39167E-02
        -0.39167E-02
        -0.39167E-02
        -0.39167E-02
        -0.39167E-02
        -0.39167E-02
        -0.39167E-02
        -0.39167E-02
        -0.39167E-02
        -0.39167E-02
        -0.39167E-02
        -0.39167E-02
        -0.39167E-02
        -0.39167E-02
        -0.39167E-02
        -0.39167E-02
        -0.39167E-02
        -0.39167E-02
        -0.39167E-02
        -0.39167E-02
        -0.39167E-02
        -0.39167E-02
        -0.39167E-02
        -0.39167E-02
        -0.39167E-02
        -0.39167E-02
        -0.39167E-02
        -0.39167E-02
        -0.39167E-02
        -0.39167E-02
        -0.39167E-02
        -0.39167E-02
        -0.39167E-02
        -0.39167E-02
        -0.39167E-02
        -0.39167E-02
        -0.39167E-02
        -0.39167E-02
        -0.39167E-02
        -0.39167E-02
        -0.39167E-02
        -0.39167E-02
        -0.39167E-02
        -0.39167E-02
        -0.39167E-02
        -0.39167E-02
        -0.39167E-02
        -0.39167E-02
        -0.39167E-02
        -0.39167E-02
        -0.39167E-02
        -0.39167E-02
        -0.39167E-02
        -0.39167E-02
        -0.39167E-02
        -0.39167E-02
        -0.39167E-02
        -0.39167E-02
        -0.39167E-02
        -0.39167E-02
        -0.39167E-02
        -0.39167E-02
        -0.39167E-02
        -0.39167E-02
        -0.39167E-02
        -0.39167E-02
        -0.39167E-02
        -0.39167E-02
        -0.29375E-02
        -0.29375E-02
        -0.29375E-02
        -0.29375E-02
        -0.29375E-02
        -0.29375E-02
        -0.29375E-02
        -0.29375E-02
        -0.29375E-02
        -0.29375E-02
        -0.29375E-02
        -0.29375E-02
        -0.29375E-02
        -0.29375E-02
        -0.29375E-02
        -0.29375E-02
        -0.29375E-02
        -0.29375E-02
        -0.29375E-02
        -0.29375E-02
        -0.29375E-02
        -0.29375E-02
        -0.29375E-02
        -0.29375E-02
        -0.29375E-02
        -0.29375E-02
        -0.29375E-02
        -0.29375E-02
        -0.29375E-02
        -0.29375E-02
        -0.29375E-02
        -0.29375E-02
        -0.29375E-02
        -0.29375E-02
        -0.29375E-02
        -0.29375E-02
        -0.29375E-02
        -0.29375E-02
        -0.29375E-02
        -0.29375E-02
        -0.29375E-02
        -0.29375E-02
        -0.29375E-02
        -0.29375E-02
        -0.29375E-02
        -0.29375E-02
        -0.29375E-02
        -0.29375E-02
        -0.29375E-02
        -0.29375E-02
        -0.29375E-02
        -0.29375E-02
        -0.29375E-02
        -0.29375E-02
        -0.29375E-02
        -0.29375E-02
        -0.29375E-02
        -0.29375E-02
        -0.29375E-02
        -0.29375E-02
        -0.29375E-02
        -0.29375E-02
        -0.29375E-02
        -0.29375E-02
        -0.29375E-02
        -0.29375E-02
        -0.29375E-02
        -0.29375E-02
        -0.29375E-02
        -0.29375E-02
        -0.29375E-02
        -0.29375E-02
        -0.29375E-02
        -0.29375E-02
        -0.29375E-02
        -0.29375E-02
        -0.29375E-02
        -0.29375E-02
        -0.19583E-02
        -0.19583E-02
        -0.19583E-02
        -0.19583E-02
        -0.19583E-02
        -0.19583E-02
        -0.19583E-02
        -0.19583E-02
        -0.19583E-02
        -0.19583E-02
        -0.19583E-02
        -0.19583E-02
        -0.19583E-02
        -0.19583E-02
        -0.19583E-02
        -0.19583E-02
        -0.19583E-02
        -0.19583E-02
        -0.19583E-02
        -0.19583E-02
        -0.19583E-02
        -0.19583E-02
        -0.19583E-02
        -0.19583E-02
        -0.19583E-02
        -0.19583E-02
        -0.19583E-02
        -0.19583E-02
        -0.19583E-02
        -0.19583E-02
        -0.19583E-02
        -0.19583E-02
        -0.19583E-02
        -0.19583E-02
        -0.19583E-02
        -0.19583E-02
        -0.19583E-02
        -0.19583E-02
        -0.19583E-02
        -0.19583E-02
        -0.19583E-02
        -0.19583E-02
        -0.19583E-02
        -0.19583E-02
        -0.19583E-02
        -0.19583E-02
        -0.19583E-02
        -0.19583E-02
        -0.19583E-02
        -0.19583E-02
        -0.19583E-02
        -0.19583E-02
        -0.19583E-02
        -0.19583E-02
        -0.19583E-02
        -0.19583E-02
        -0.19583E-02
        -0.19583E-02
        -0.19583E-02
        -0.19583E-02
        -0.19583E-02
        -0.19583E-02
        -0.19583E-02
        -0.19583E-02
        -0.19583E-02
        -0.19583E-02
        -0.19583E-02
        -0.19583E-02
        -0.19583E-02
        -0.19583E-02
        -0.19583E-02
        -0.19583E-02
        -0.19583E-02
        -0.19583E-02
        -0.19583E-02
        -0.19583E-02
        -0.19583E-02
        -0.19583E-02
        -0.97917E-03
        -0.97917E-03
        -0.97917E-03
        -0.97917E-03
        -0.97917E-03
        -0.97917E-03
        -0.97917E-03
        -0.97917E-03
        -0.97917E-03
        -0.97917E-03
        -0.97917E-03
        -0.97917E-03
        -0.97917E-03
        -0.97917E-03
        -0.97917E-03
        -0.97917E-03
        -0.97917E-03
        -0.97917E-03
        -0.97917E-03
        -0.97917E-03
        -0.97917E-03
        -0.97917E-03
        -0.97917E-03
        -0.97917E-03
        -0.97917E-03
        -0.97917E-03
        -0.97917E-03
        -0.97917E-03
        -0.97917E-03
        -0.97917E-03
        -0.97917E-03
        -0.97917E-03
        -0.97917E-03
        -0.97917E-03
        -0.97917E-03
        -0.97917E-03
        -0.97917E-03
        -0.97917E-03
        -0.97917E-03
        -0.97917E-03
        -0.97917E-03
        -0.97917E-03
        -0.97917E-03
        -0.97917E-03
        -0.97917E-03
        -0.97917E-03
        -0.97917E-03
        -0.97917E-03
        -0.97917E-03
        -0.97917E-03
        -0.97917E-03
        -0.97917E-03
        -0.97917E-03
        -0.97917E-03
        -0.97917E-03
        -0.97917E-03
        -0.97917E-03
        -0.97917E-03
        -0.97917E-03
        -0.97917E-03
        -0.97917E-03
        -0.97917E-03
        -0.97917E-03
        -0.97917E-03
        -0.97917E-03
        -0.97917E-03
        -0.97917E-03
        -0.97917E-03
        -0.97917E-03
        -0.97917E-03
        -0.97917E-03
        -0.97917E-03
        -0.97917E-03
        -0.97917E-03
        -0.97917E-03
        -0.97917E-03
        -0.97917E-03
        -0.97917E-03
         0.38917E-18
         0.44621E-18
         0.34485E-18
         0.23671E-18
         0.26613E-18
         0.16162E-18
         0.53980E-18
         0.50579E-18
         0.36337E-18
         0.48798E-18
         0.60712E-18
         0.67611E-18
         0.60634E-18
         0.60658E-18
         0.70997E-18
         0.20892E-18
         0.35894E-18
         0.21887E-18
         0.27638E-18
         0.38382E-18
         0.29058E-18
         0.40326E-18
         0.18564E-18
         0.19650E-18
         0.48570E-18
         0.12837E-18
         0.60589E-18
         0.60416E-18
         0.60524E-18
         0.49621E-18
         0.61582E-19
         0.32255E-19
         0.73874E-19
         0.78478E-19
         0.34514E-18
         0.42054E-18
         0.51644E-18
         0.72521E-18
         0.72233E-18
         0.70722E-18
         0.69126E-18
         0.61573E-18
         0.51484E-18
         0.91170E-19
         0.30347E-20
        -0.66516E-19
        -0.69988E-19
        -0.68643E-19
        -0.59779E-19
        -0.43507E-19
        -0.29471E-19
         0.53205E-19
         0.86819E-18
         0.00000E+00
         0.86819E-18
         0.86819E-18
         0.00000E+00
         0.00000E+00
         0.00000E+00
         0.17364E-17
         0.17364E-17
         0.17364E-17
         0.43410E-18
         0.43410E-18
         0.43410E-18
         0.00000E+00
         0.00000E+00
         0.00000E+00
         0.00000E+00
         0.00000E+00
         0.21705E-18
        -0.21705E-18
         0.00000E+00
         0.00000E+00
         0.00000E+00
        -0.32557E-18
         0.54262E-19
        -0.40697E-18
         0.97917E-03
         0.97917E-03
         0.97917E-03
         0.97917E-03
         0.97917E-03
         0.97917E-03
         0.97917E-03
         0.97917E-03
         0.97917E-03
         0.97917E-03
         0.97917E-03
         0.97917E-03
         0.97917E-03
         0.97917E-03
         0.97917E-03
         0.97917E-03
         0.97917E-03
         0.97917E-03
         0.97917E-03
         0.97917E-03
         0.97917E-03
         0.97917E-03
         0.97917E-03
         0.97917E-03
         0.97917E-03
         0.97917E-03
         0.97917E-03
         0.97917E-03
         0.97917E-03
         0.97917E-03
         0.97917E-03
         0.97917E-03
         0.97917E-03
         0.97917E-03
         0.97917E-03
         0.97917E-03
         0.97917E-03
         0.97917E-03
         0.97917E-03
         0.97917E-03
         0.97917E-03
         0.97917E-03
         0.97917E-03
         0.97917E-03
         0.97917E-03
         0.97917E-03
         0.97917E-03
         0.97917E-03
         0.97917E-03
         0.97917E-03
         0.97917E-03
         0.97917E-03
         0.97917E-03
         0.97917E-03
         0.97917E-03
         0.97917E-03
         0.97917E-03
         0.97917E-03
         0.97917E-03
         0.97917E-03
         0.97917E-03
         0.97917E-03
         0.97917E-03
         0.97917E-03
         0.97917E-03
         0.97917E-03
         0.97917E-03
         0.97917E-03
         0.97917E-03
         0.97917E-03
         0.97917E-03
         0.97917E-03
         0.97917E-03
         0.97917E-03
         0.97917E-03
         0.97917E-03
         0.97917E-03
         0.97917E-03
         0.19583E-02
         0.19583E-02
         0.19583E-02
         0.19583E-02
         0.19583E-02
         0.19583E-02
         0.19583E-02
         0.19583E-02
         0.19583E-02
         0.19583E-02
         0.19583E-02
         0.19583E-02
         0.19583E-02
         0.19583E-02
         0.19583E-02
         0.19583E-02
         0.19583E-02
         0.19583E-02
         0.19583E-02
         0.19583E-02
         0.19583E-02
         0.19583E-02
         0.19583E-02
         0.19583E-02
         0.19583E-02
         0.19583E-02
         0.19583E-02
         0.19583E-02
         0.19583E-02
         0.19583E-02
         0.19583E-02
         0.19583E-02
         0.19583E-02
         0.19583E-02
         0.19583E-02
         0.19583E-02
         0.19583E-02
         0.19583E-02
         0.19583E-02
         0.19583E-02
         0.19583E-02
         0.19583E-02
         0.19583E-02
         0.19583E-02
         0.19583E-02
         0.19583E-02
         0.19583E-02
         0.19583E-02
         0.19583E-02
         0.19583E-02
         0.19583E-02
         0.19583E-02
         0.19583E-02
         0.19583E-02
         0.19583E-02
         0.19583E-02
         0.19583E-02
         0.19583E-02
         0.19583E-02
         0.19583E-02
         0.19583E-02
         0.19583E-02
         0.19583E-02
         0.19583E-02
         0.19583E-02
         0.19583E-02
         0.19583E-02
         0.19583E-02
         0.19583E-02
         0.19583E-02
         0.19583E-02
         0.19583E-02
         0.19583E-02
         0.19583E-02
         0.19583E-02
         0.19583E-02
         0.19583E-02
         0.19583E-02
         0.29375E-02
         0.29375E-02
         0.29375E-02
         0.29375E-02
         0.29375E-02
         0.29375E-02
         0.29375E-02
         0.29375E-02
         0.29375E-02
         0.29375E-02
         0.29375E-02
         0.29375E-02
         0.29375E-02
         0.29375E-02
         0.29375E-02
         0.29375E-02
         0.29375E-02
         0.29375E-02
         0.29375E-02
         0.29375E-02
         0.29375E-02
         0.29375E-02
         0.29375E-02
         0.29375E-02
         0.29375E-02
         0.29375E-02
         0.29375E-02
         0.29375E-02
         0.29375E-02
         0.29375E-02
         0.29375E-02
         0.29375E-02
         0.29375E-02
         0.29375E-02
         0.29375E-02
         0.29375E-02
         0.29375E-02
         0.29375E-02
         0.29375E-02
         0.29375E-02
         0.29375E-02
         0.29375E-02
         0.29375E-02
         0.29375E-02
         0.29375E-02
         0.29375E-02
         0.29375E-02
         0.29375E-02
         0.29375E-02
         0.29375E-02
         0.29375E-02
         0.29375E-02
         0.29375E-02
         0.29375E-02
         0.29375E-02
         0.29375E-02
         0.29375E-02
         0.29375E-02
         0.29375E-02
         0.29375E-02
         0.29375E-02
         0.29375E-02
         0.29375E-02
         0.29375E-02
         0.29375E-02
         0.29375E-02
         0.29375E-02
         0.29375E-02
         0.29375E-02
         0.29375E-02
         0.29375E-02
         0.29375E-02
         0.29375E-02
         0.29375E-02
         0.29375E-02
         0.29375E-02
         0.29375E-02
         0.29375E-02
         0.39167E-02
         0.39167E-02
         0.39167E-02
         0.39167E-02
         0.39167E-02
         0.39167E-02
         0.39167E-02
         0.39167E-02
         0.39167E-02
         0.39167E-02
         0.39167E-02
         0.39167E-02
         0.39167E-02
         0.39167E-02
         0.39167E-02
         0.39167E-02
         0.39167E-02
         0.39167E-02
         0.39167E-02
         0.39167E-02
         0.39167E-02
         0.39167E-02
         0.39167E-02
         0.39167E-02
         0.39167E-02
         0.39167E-02
         0.39167E-02
         0.39167E-02
         0.39167E-02
         0.39167E-02
         0.39167E-02
         0.39167E-02
         0.39167E-02
         0.39167E-02
         0.39167E-02
         0.39167E-02
         0.39167E-02
         0.39167E-02
         0.39167E-02
         0.39167E-02
         0.39167E-02
         0.39167E-02
         0.39167E-02
         0.39167E-02
         0.39167E-02
         0.39167E-02
         0.39167E-02
         0.39167E-02
         0.39167E-02
         0.39167E-02
         0.39167E-02
         0.39167E-02
         0.39167E-02
         0.39167E-02
         0.39167E-02
         0.39167E-02
         0.39167E-02
         0.39167E-02
         0.39167E-02
         0.39167E-02
         0.39167E-02
         0.39167E-02
         0.39167E-02
         0.39167E-02
         0.39167E-02
         0.39167E-02
         0.39167E-02
         0.39167E-02
         0.39167E-02
         0.39167E-02
         0.39167E-02
         0.39167E-02
         0.39167E-02
         0.39167E-02
         0.39167E-02
         0.39167E-02
         0.39167E-02
         0.39167E-02
         0.48958E-02
         0.48958E-02
         0.48958E-02
         0.48958E-02
         0.48958E-02
         0.48958E-02
         0.48958E-02
         0.48958E-02
         0.48958E-02
         0.48958E-02
         0.48958E-02
         0.48958E-02
         0.48958E-02
         0.48958E-02
         0.48958E-02
         0.48958E-02
         0.48958E-02
         0.48958E-02
         0.48958E-02
         0.48958E-02
         0.48958E-02
         0.48958E-02
         0.48958E-02
         0.48958E-02
         0.48958E-02
         0.48958E-02
         0.48958E-02
         0.48958E-02
         0.48958E-02
         0.48958E-02
         0.48958E-02
         0.48958E-02
         0.48958E-02
         0.48958E-02
         0.48958E-02
         0.48958E-02
         0.48958E-02
         0.48958E-02
         0.48958E-02
         0.48958E-02
         0.48958E-02
         0.48958E-02
         0.48958E-02
         0.48958E-02
         0.48958E-02
         0.48958E-02
         0.48958E-02
         0.48958E-02
         0.48958E-02
         0.48958E-02
         0.48958E-02
         0.48958E-02
         0.48958E-02
         0.48958E-02
         0.48958E-02
         0.48958E-02
         0.48958E-02
         0.48958E-02
         0.48958E-02
         0.48958E-02
         0.48958E-02
         0.48958E-02
         0.48958E-02
         0.48958E-02
         0.48958E-02
         0.48958E-02
         0.48958E-02
         0.48958E-02
         0.48958E-02
         0.48958E-02
         0.48958E-02
         0.48958E-02
         0.48958E-02
         0.48958E-02
         0.48958E-02
         0.48958E-02
         0.48958E-02
         0.48958E-02
         0.58750E-02
         0.58750E-02
         0.58750E-02
         0.58750E-02
         0.58750E-02
         0.58750E-02
         0.58750E-02
         0.58750E-02
         0.58750E-02
         0.58750E-02
         0.58750E-02
         0.58750E-02
         0.58750E-02
         0.58750E-02
         0.58750E-02
         0.58750E-02
         0.58750E-02
         0.58750E-02
         0.58750E-02
         0.58750E-02
         0.58750E-02
         0.58750E-02
         0.58750E-02
         0.58750E-02
         0.58750E-02
         0.58750E-02
         0.58750E-02
         0.58750E-02
         0.58750E-02
         0.58750E-02
         0.58750E-02
         0.58750E-02
         0.58750E-02
         0.58750E-02
         0.58750E-02
         0.58750E-02
         0.58750E-02
         0.58750E-02
         0.58750E-02
         0.58750E-02
         0.58750E-02
         0.58750E-02
         0.58750E-02
         0.58750E-02
         0.58750E-02
         0.58750E-02
         0.58750E-02
         0.58750E-02
         0.58750E-02
         0.58750E-02
         0.58750E-02
         0.58750E-02
         0.58750E-02
         0.58750E-02
         0.58750E-02
         0.58750E-02
         0.58750E-02
         0.58750E-02
         0.58750E-02
         0.58750E-02
         0.58750E-02
         0.58750E-02
         0.58750E-02
         0.58750E-02
         0.58750E-02
         0.58750E-02
         0.58750E-02
         0.58750E-02
         0.58750E-02
         0.58750E-02
         0.58750E-02
         0.58750E-02
         0.58750E-02
         0.58750E-02
         0.58750E-02
         0.58750E-02
         0.58750E-02
         0.58750E-02
         0.68542E-02
         0.68542E-02
         0.68542E-02
         0.68542E-02
         0.68542E-02
         0.68542E-02
         0.68542E-02
         0.68542E-02
         0.68542E-02
         0.68542E-02
         0.68542E-02
         0.68542E-02
         0.68542E-02
         0.68542E-02
         0.68542E-02
         0.68542E-02
         0.68542E-02
         0.68542E-02
         0.68542E-02
         0.68542E-02
         0.68542E-02
         0.68542E-02
         0.68542E-02
         0.68542E-02
         0.68542E-02
         0.68542E-02
         0.68542E-02
         0.68542E-02
         0.68542E-02
         0.68542E-02
         0.68542E-02
         0.68542E-02
         0.68542E-02
         0.68542E-02
         0.68542E-02
         0.68542E-02
         0.68542E-02
         0.68542E-02
         0.68542E-02
         0.68542E-02
         0.68542E-02
         0.68542E-02
         0.68542E-02
         0.68542E-02
         0.68542E-02
         0.68542E-02
         0.68542E-02
         0.68542E-02
         0.68542E-02
         0.68542E-02
         0.68542E-02
         0.68542E-02
         0.68542E-02
         0.68542E-02
         0.68542E-02
         0.68542E-02
         0.68542E-02
         0.68542E-02
         0.68542E-02
         0.68542E-02
         0.68542E-02
         0.68542E-02
         0.68542E-02
         0.68542E-02
         0.68542E-02
         0.68542E-02
         0.68542E-02
         0.68542E-02
         0.68542E-02
         0.68542E-02
         0.68542E-02
         0.68542E-02
         0.68542E-02
         0.68542E-02
         0.68542E-02
         0.68542E-02
         0.68542E-02
         0.68542E-02
         0.78333E-02
         0.78333E-02
         0.78333E-02
         0.78333E-02
         0.78333E-02
         0.78333E-02
         0.78333E-02
         0.78333E-02
         0.78333E-02
         0.78333E-02
         0.78333E-02
         0.78333E-02
         0.78333E-02
         0.78333E-02
         0.78333E-02
         0.78333E-02
         0.78333E-02
         0.78333E-02
         0.78333E-02
         0.78333E-02
         0.78333E-02
         0.78333E-02
         0.78333E-02
         0.78333E-02
         0.78333E-02
         0.78333E-02
         0.78333E-02
         0.78333E-02
         0.78333E-02
         0.78333E-02
         0.78333E-02
         0.78333E-02
         0.78333E-02
         0.78333E-02
         0.78333E-02
         0.78333E-02
         0.78333E-02
         0.78333E-02
         0.78333E-02
         0.78333E-02
         0.78333E-02
         0.78333E-02
         0.78333E-02
         0.78333E-02
         0.78333E-02
         0.78333E-02
         0.78333E-02
         0.78333E-02
         0.78333E-02
         0.78333E-02
         0.78333E-02
         0.78333E-02
         0.78333E-02
         0.78333E-02
         0.78333E-02
         0.78333E-02
         0.78333E-02
         0.78333E-02
         0.78333E-02
         0.78333E-02
         0.78333E-02
         0.78333E-02
         0.78333E-02
         0.78333E-02
         0.78333E-02
         0.78333E-02
         0.78333E-02
         0.78333E-02
         0.78333E-02
         0.78333E-02
         0.78333E-02
         0.78333E-02
         0.78333E-02
         0.78333E-02
         0.78333E-02
         0.78333E-02
         0.78333E-02
         0.78333E-02
         0.88125E-02
         0.88125E-02
         0.88125E-02
         0.88125E-02
         0.88125E-02
         0.88125E-02
         0.88125E-02
         0.88125E-02
         0.88125E-02
         0.88125E-02
         0.88125E-02
         0.88125E-02
         0.88125E-02
         0.88125E-02
         0.88125E-02
         0.88125E-02
         0.88125E-02
         0.88125E-02
         0.88125E-02
         0.88125E-02
         0.88125E-02
         0.88125E-02
         0.88125E-02
         0.88125E-02
         0.88125E-02
         0.88125E-02
         0.88125E-02
         0.88125E-02
         0.88125E-02
         0.88125E-02
         0.88125E-02
         0.88125E-02
         0.88125E-02
         0.88125E-02
         0.88125E-02
         0.88125E-02
         0.88125E-02
         0.88125E-02
         0.88125E-02
         0.88125E-02
         0.88125E-02
         0.88125E-02
         0.88125E-02
         0.88125E-02
         0.88125E-02
         0.88125E-02
         0.88125E-02
         0.88125E-02
         0.88125E-02
         0.88125E-02
         0.88125E-02
         0.88125E-02
         0.88125E-02
         0.88125E-02
         0.88125E-02
         0.88125E-02
         0.88125E-02
         0.88125E-02
         0.88125E-02
         0.88125E-02
         0.88125E-02
         0.88125E-02
         0.88125E-02
         0.88125E-02
         0.88125E-02
         0.88125E-02
         0.88125E-02
         0.88125E-02
         0.88125E-02
         0.88125E-02
         0.88125E-02
         0.88125E-02
         0.88125E-02
         0.88125E-02
         0.88125E-02
         0.88125E-02
         0.88125E-02
         0.88125E-02
         0.97917E-02
         0.97917E-02
         0.97917E-02
         0.97917E-02
         0.97917E-02
         0.97917E-02
         0.97917E-02
         0.97917E-02
         0.97917E-02
         0.97917E-02
         0.97917E-02
         0.97917E-02
         0.97917E-02
         0.97917E-02
         0.97917E-02
         0.97917E-02
         0.97917E-02
         0.97917E-02
         0.97917E-02
         0.97917E-02
         0.97917E-02
         0.97917E-02
         0.97917E-02
         0.97917E-02
         0.97917E-02
         0.97917E-02
         0.97917E-02
         0.97917E-02
         0.97917E-02
         0.97917E-02
         0.97917E-02
         0.97917E-02
         0.97917E-02
         0.97917E-02
         0.97917E-02
         0.97917E-02
         0.97917E-02
         0.97917E-02
         0.97917E-02
         0.97917E-02
         0.97917E-02
         0.97917E-02
         0.97917E-02
         0.97917E-02
         0.97917E-02
         0.97917E-02
         0.97917E-02
         0.97917E-02
         0.97917E-02
         0.97917E-02
         0.97917E-02
         0.97917E-02
         0.97917E-02
         0.97917E-02
         0.97917E-02
         0.97917E-02
         0.97917E-02
         0.97917E-02
         0.97917E-02
         0.97917E-02
         0.97917E-02
         0.97917E-02
         0.97917E-02
         0.97917E-02
         0.97917E-02
         0.97917E-02
         0.97917E-02
         0.97917E-02
         0.97917E-02
         0.97917E-02
         0.97917E-02
         0.97917E-02
         0.97917E-02
         0.97917E-02
         0.97917E-02
         0.97917E-02
         0.97917E-02
         0.97917E-02
         0.10771E-01
         0.10771E-01
         0.10771E-01
         0.10771E-01
         0.10771E-01
         0.10771E-01
         0.10771E-01
         0.10771E-01
         0.10771E-01
         0.10771E-01
         0.10771E-01
         0.10771E-01
         0.10771E-01
         0.10771E-01
         0.10771E-01
         0.10771E-01
         0.10771E-01
         0.10771E-01
         0.10771E-01
         0.10771E-01
         0.10771E-01
         0.10771E-01
         0.10771E-01
         0.10771E-01
         0.10771E-01
         0.10771E-01
         0.10771E-01
         0.10771E-01
         0.10771E-01
         0.10771E-01
         0.10771E-01
         0.10771E-01
         0.10771E-01
         0.10771E-01
         0.10771E-01
         0.10771E-01
         0.10771E-01
         0.10771E-01
         0.10771E-01
         0.10771E-01
         0.10771E-01
         0.10771E-01
         0.10771E-01
         0.10771E-01
         0.10771E-01
         0.10771E-01
         0.10771E-01
         0.10771E-01
         0.10771E-01
         0.10771E-01
         0.10771E-01
         0.10771E-01
         0.10771E-01
         0.10771E-01
         0.10771E-01
         0.10771E-01
         0.10771E-01
         0.10771E-01
         0.10771E-01
         0.10771E-01
         0.10771E-01
         0.10771E-01
         0.10771E-01
         0.10771E-01
         0.10771E-01
         0.10771E-01
         0.10771E-01
         0.10771E-01
         0.10771E-01
         0.10771E-01
         0.10771E-01
         0.10771E-01
         0.10771E-01
         0.10771E-01
         0.10771E-01
         0.10771E-01
         0.10771E-01
         0.10771E-01
         0.11750E-01
         0.11750E-01
         0.11750E-01
         0.11750E-01
         0.11750E-01
         0.11750E-01
         0.11750E-01
         0.11750E-01
         0.11750E-01
         0.11750E-01
         0.11750E-01
         0.11750E-01
         0.11750E-01
         0.11750E-01
         0.11750E-01
         0.11750E-01
         0.11750E-01
         0.11750E-01
         0.11750E-01
         0.11750E-01
         0.11750E-01
         0.11750E-01
         0.11750E-01
         0.11750E-01
         0.11750E-01
         0.11750E-01
         0.11750E-01
         0.11750E-01
         0.11750E-01
         0.11750E-01
         0.11750E-01
         0.11750E-01
         0.11750E-01
         0.11750E-01
         0.11750E-01
         0.11750E-01
         0.11750E-01
         0.11750E-01
         0.11750E-01
         0.11750E-01
         0.11750E-01
         0.11750E-01
         0.11750E-01
         0.11750E-01
         0.11750E-01
         0.11750E-01
         0.11750E-01
         0.11750E-01
         0.11750E-01
         0.11750E-01
         0.11750E-01
         0.11750E-01
         0.11750E-01
         0.11750E-01
         0.11750E-01
         0.11750E-01
         0.11750E-01
         0.11750E-01
         0.11750E-01
         0.11750E-01
         0.11750E-01
         0.11750E-01
         0.11750E-01
         0.11750E-01
         0.11750E-01
         0.11750E-01
         0.11750E-01
         0.11750E-01
         0.11750E-01
         0.11750E-01
         0.11750E-01
         0.11750E-01
         0.11750E-01
         0.11750E-01
         0.11750E-01
         0.11750E-01
         0.11750E-01
         0.11750E-01
  
SCALARS                init_velocity_x  double 1
LOOKUP_TABLE default
         0.00000E+00
         0.00000E+00
         0.00000E+00
         0.00000E+00
         0.00000E+00
         0.00000E+00
         0.00000E+00
         0.00000E+00
         0.00000E+00
         0.00000E+00
         0.00000E+00
         0.00000E+00
         0.00000E+00
         0.00000E+00
         0.00000E+00
         0.00000E+00
         0.00000E+00
         0.00000E+00
         0.00000E+00
         0.00000E+00
         0.00000E+00
         0.00000E+00
         0.00000E+00
         0.00000E+00
         0.00000E+00
         0.00000E+00
         0.00000E+00
         0.00000E+00
         0.00000E+00
         0.00000E+00
         0.00000E+00
         0.00000E+00
         0.00000E+00
         0.00000E+00
         0.00000E+00
         0.00000E+00
         0.00000E+00
         0.00000E+00
         0.00000E+00
         0.00000E+00
         0.00000E+00
         0.00000E+00
         0.00000E+00
         0.00000E+00
         0.00000E+00
         0.00000E+00
         0.00000E+00
         0.00000E+00
         0.00000E+00
         0.00000E+00
         0.00000E+00
         0.00000E+00
         0.00000E+00
         0.00000E+00
         0.00000E+00
         0.00000E+00
         0.00000E+00
         0.00000E+00
         0.00000E+00
         0.00000E+00
         0.00000E+00
         0.00000E+00
         0.00000E+00
         0.00000E+00
         0.00000E+00
         0.00000E+00
         0.00000E+00
         0.00000E+00
         0.00000E+00
         0.00000E+00
         0.00000E+00
         0.00000E+00
         0.00000E+00
         0.00000E+00
         0.00000E+00
         0.00000E+00
         0.00000E+00
         0.00000E+00
         0.00000E+00
         0.00000E+00
         0.00000E+00
         0.00000E+00
         0.00000E+00
         0.00000E+00
         0.00000E+00
         0.00000E+00
         0.00000E+00
         0.00000E+00
         0.00000E+00
         0.00000E+00
         0.00000E+00
         0.00000E+00
         0.00000E+00
         0.00000E+00
         0.00000E+00
         0.00000E+00
         0.00000E+00
         0.00000E+00
         0.00000E+00
         0.00000E+00
         0.00000E+00
         0.00000E+00
         0.00000E+00
         0.00000E+00
         0.00000E+00
         0.00000E+00
         0.00000E+00
         0.00000E+00
         0.00000E+00
         0.00000E+00
         0.00000E+00
         0.00000E+00
         0.00000E+00
         0.00000E+00
         0.00000E+00
         0.00000E+00
         0.00000E+00
         0.00000E+00
         0.00000E+00
         0.00000E+00
         0.00000E+00
         0.00000E+00
         0.00000E+00
         0.00000E+00
         0.00000E+00
         0.00000E+00
         0.00000E+00
         0.00000E+00
         0.00000E+00
         0.00000E+00
         0.00000E+00
         0.00000E+00
         0.00000E+00
         0.00000E+00
         0.00000E+00
         0.00000E+00
         0.00000E+00
         0.00000E+00
         0.00000E+00
         0.00000E+00
         0.00000E+00
         0.00000E+00
         0.00000E+00
         0.00000E+00
         0.00000E+00
         0.00000E+00
         0.00000E+00
         0.00000E+00
         0.00000E+00
         0.00000E+00
         0.00000E+00
         0.00000E+00
         0.00000E+00
         0.00000E+00
         0.00000E+00
         0.00000E+00
         0.00000E+00
         0.00000E+00
         0.00000E+00
         0.00000E+00
         0.00000E+00
         0.00000E+00
         0.00000E+00
         0.00000E+00
         0.00000E+00
         0.00000E+00
         0.00000E+00
         0.00000E+00
         0.00000E+00
         0.00000E+00
         0.00000E+00
         0.00000E+00
         0.00000E+00
         0.00000E+00
         0.00000E+00
         0.00000E+00
         0.00000E+00
         0.00000E+00
         0.00000E+00
         0.00000E+00
         0.00000E+00
         0.00000E+00
         0.00000E+00
         0.00000E+00
         0.00000E+00
         0.00000E+00
         0.00000E+00
         0.00000E+00
         0.00000E+00
         0.00000E+00
         0.00000E+00
         0.00000E+00
         0.00000E+00
         0.00000E+00
         0.00000E+00
         0.00000E+00
         0.00000E+00
         0.00000E+00
         0.00000E+00
         0.00000E+00
         0.00000E+00
         0.00000E+00
         0.00000E+00
         0.00000E+00
         0.00000E+00
         0.00000E+00
         0.00000E+00
         0.00000E+00
         0.00000E+00
         0.00000E+00
         0.00000E+00
         0.00000E+00
         0.00000E+00
         0.00000E+00
         0.00000E+00
         0.00000E+00
         0.00000E+00
         0.00000E+00
         0.00000E+00
         0.00000E+00
         0.00000E+00
         0.00000E+00
         0.00000E+00
         0.00000E+00
         0.00000E+00
         0.00000E+00
         0.00000E+00
         0.00000E+00
         0.00000E+00
         0.00000E+00
         0.00000E+00
         0.00000E+00
         0.00000E+00
         0.00000E+00
         0.00000E+00
         0.00000E+00
         0.00000E+00
         0.00000E+00
         0.00000E+00
         0.00000E+00
         0.00000E+00
         0.00000E+00
         0.00000E+00
         0.00000E+00
         0.00000E+00
         0.00000E+00
         0.00000E+00
         0.00000E+00
         0.00000E+00
         0.00000E+00
         0.00000E+00
         0.00000E+00
         0.00000E+00
         0.00000E+00
         0.00000E+00
         0.00000E+00
         0.00000E+00
         0.00000E+00
         0.00000E+00
         0.00000E+00
         0.00000E+00
         0.00000E+00
         0.00000E+00
         0.00000E+00
         0.00000E+00
         0.00000E+00
         0.00000E+00
         0.00000E+00
         0.00000E+00
         0.00000E+00
         0.00000E+00
         0.00000E+00
         0.00000E+00
         0.00000E+00
         0.00000E+00
         0.00000E+00
         0.00000E+00
         0.00000E+00
         0.00000E+00
         0.00000E+00
         0.00000E+00
         0.00000E+00
         0.00000E+00
         0.00000E+00
         0.00000E+00
         0.00000E+00
         0.00000E+00
         0.00000E+00
         0.00000E+00
         0.00000E+00
         0.00000E+00
         0.00000E+00
         0.00000E+00
         0.00000E+00
         0.00000E+00
         0.00000E+00
         0.00000E+00
         0.00000E+00
         0.00000E+00
         0.00000E+00
         0.00000E+00
         0.00000E+00
         0.00000E+00
         0.00000E+00
         0.00000E+00
         0.00000E+00
         0.00000E+00
         0.00000E+00
         0.00000E+00
         0.00000E+00
         0.00000E+00
         0.00000E+00
         0.00000E+00
         0.00000E+00
         0.00000E+00
         0.00000E+00
         0.00000E+00
         0.00000E+00
         0.00000E+00
         0.00000E+00
         0.00000E+00
         0.00000E+00
         0.00000E+00
         0.00000E+00
         0.00000E+00
         0.00000E+00
         0.00000E+00
         0.00000E+00
         0.00000E+00
         0.00000E+00
         0.00000E+00
         0.00000E+00
         0.00000E+00
         0.00000E+00
         0.00000E+00
         0.00000E+00
         0.00000E+00
         0.00000E+00
         0.00000E+00
         0.00000E+00
         0.00000E+00
         0.00000E+00
         0.00000E+00
         0.00000E+00
         0.00000E+00
         0.00000E+00
         0.00000E+00
         0.00000E+00
         0.00000E+00
         0.00000E+00
         0.00000E+00
         0.00000E+00
         0.00000E+00
         0.00000E+00
         0.00000E+00
         0.00000E+00
         0.00000E+00
         0.00000E+00
         0.00000E+00
         0.00000E+00
         0.00000E+00
         0.00000E+00
         0.00000E+00
         0.00000E+00
         0.00000E+00
         0.00000E+00
         0.00000E+00
         0.00000E+00
         0.00000E+00
         0.00000E+00
         0.00000E+00
         0.00000E+00
         0.00000E+00
         0.00000E+00
         0.00000E+00
         0.00000E+00
         0.00000E+00
         0.00000E+00
         0.00000E+00
         0.00000E+00
         0.00000E+00
         0.00000E+00
         0.00000E+00
         0.00000E+00
         0.00000E+00
         0.00000E+00
         0.00000E+00
         0.00000E+00
         0.00000E+00
         0.00000E+00
         0.00000E+00
         0.00000E+00
         0.00000E+00
         0.00000E+00
         0.00000E+00
         0.00000E+00
         0.00000E+00
         0.00000E+00
         0.00000E+00
         0.00000E+00
         0.00000E+00
         0.00000E+00
         0.00000E+00
         0.00000E+00
         0.00000E+00
         0.00000E+00
         0.00000E+00
         0.00000E+00
         0.00000E+00
         0.00000E+00
         0.00000E+00
         0.00000E+00
         0.00000E+00
         0.00000E+00
         0.00000E+00
         0.00000E+00
         0.00000E+00
         0.00000E+00
         0.00000E+00
         0.00000E+00
         0.00000E+00
         0.00000E+00
         0.00000E+00
         0.00000E+00
         0.00000E+00
         0.00000E+00
         0.00000E+00
         0.00000E+00
         0.00000E+00
         0.00000E+00
         0.00000E+00
         0.00000E+00
         0.00000E+00
         0.00000E+00
         0.00000E+00
         0.00000E+00
         0.00000E+00
         0.00000E+00
         0.00000E+00
         0.00000E+00
         0.00000E+00
         0.00000E+00
         0.00000E+00
         0.00000E+00
         0.00000E+00
         0.00000E+00
         0.00000E+00
         0.00000E+00
         0.00000E+00
         0.00000E+00
         0.00000E+00
         0.00000E+00
         0.00000E+00
         0.00000E+00
         0.00000E+00
         0.00000E+00
         0.00000E+00
         0.00000E+00
         0.00000E+00
         0.00000E+00
         0.00000E+00
         0.00000E+00
         0.00000E+00
         0.00000E+00
         0.00000E+00
         0.00000E+00
         0.00000E+00
         0.00000E+00
         0.00000E+00
         0.00000E+00
         0.00000E+00
         0.00000E+00
         0.00000E+00
         0.00000E+00
         0.00000E+00
         0.00000E+00
         0.00000E+00
         0.00000E+00
         0.00000E+00
         0.00000E+00
         0.00000E+00
         0.00000E+00
         0.00000E+00
         0.00000E+00
         0.00000E+00
         0.00000E+00
         0.00000E+00
         0.00000E+00
         0.00000E+00
         0.00000E+00
         0.00000E+00
         0.00000E+00
         0.00000E+00
         0.00000E+00
         0.00000E+00
         0.00000E+00
         0.00000E+00
         0.00000E+00
         0.00000E+00
         0.00000E+00
         0.00000E+00
         0.00000E+00
         0.00000E+00
         0.00000E+00
         0.00000E+00
         0.00000E+00
         0.00000E+00
         0.00000E+00
         0.00000E+00
         0.00000E+00
         0.00000E+00
         0.00000E+00
         0.00000E+00
         0.00000E+00
         0.00000E+00
         0.00000E+00
         0.00000E+00
         0.00000E+00
         0.00000E+00
         0.00000E+00
         0.00000E+00
         0.00000E+00
         0.00000E+00
         0.00000E+00
         0.00000E+00
         0.00000E+00
         0.00000E+00
         0.00000E+00
         0.00000E+00
         0.00000E+00
         0.00000E+00
         0.00000E+00
         0.00000E+00
         0.00000E+00
         0.00000E+00
         0.00000E+00
         0.00000E+00
         0.00000E+00
         0.00000E+00
         0.00000E+00
         0.00000E+00
         0.00000E+00
         0.00000E+00
         0.00000E+00
         0.00000E+00
         0.00000E+00
         0.00000E+00
         0.00000E+00
         0.00000E+00
         0.00000E+00
         0.00000E+00
         0.00000E+00
         0.00000E+00
         0.00000E+00
         0.00000E+00
         0.00000E+00
         0.00000E+00
         0.00000E+00
         0.00000E+00
         0.00000E+00
         0.00000E+00
         0.00000E+00
         0.00000E+00
         0.00000E+00
         0.00000E+00
         0.00000E+00
         0.00000E+00
         0.00000E+00
         0.00000E+00
         0.00000E+00
         0.00000E+00
         0.00000E+00
         0.00000E+00
         0.00000E+00
         0.00000E+00
         0.00000E+00
         0.00000E+00
         0.00000E+00
         0.00000E+00
         0.00000E+00
         0.00000E+00
         0.00000E+00
         0.00000E+00
         0.00000E+00
         0.00000E+00
         0.00000E+00
         0.00000E+00
         0.00000E+00
         0.00000E+00
         0.00000E+00
         0.00000E+00
         0.00000E+00
         0.00000E+00
         0.00000E+00
         0.00000E+00
         0.00000E+00
         0.00000E+00
         0.00000E+00
         0.00000E+00
         0.00000E+00
         0.00000E+00
         0.00000E+00
         0.00000E+00
         0.00000E+00
         0.00000E+00
         0.00000E+00
         0.00000E+00
         0.00000E+00
         0.00000E+00
         0.00000E+00
         0.00000E+00
         0.00000E+00
         0.00000E+00
         0.00000E+00
         0.00000E+00
         0.00000E+00
         0.00000E+00
         0.00000E+00
         0.00000E+00
         0.00000E+00
         0.00000E+00
         0.00000E+00
         0.00000E+00
         0.00000E+00
         0.00000E+00
         0.00000E+00
         0.00000E+00
         0.00000E+00
         0.00000E+00
         0.00000E+00
         0.00000E+00
         0.00000E+00
         0.00000E+00
         0.00000E+00
         0.00000E+00
         0.00000E+00
         0.00000E+00
         0.00000E+00
         0.00000E+00
         0.00000E+00
         0.00000E+00
         0.00000E+00
         0.00000E+00
         0.00000E+00
         0.00000E+00
         0.00000E+00
         0.00000E+00
         0.00000E+00
         0.00000E+00
         0.00000E+00
         0.00000E+00
         0.00000E+00
         0.00000E+00
         0.00000E+00
         0.00000E+00
         0.00000E+00
         0.00000E+00
         0.00000E+00
         0.00000E+00
         0.00000E+00
         0.00000E+00
         0.00000E+00
         0.00000E+00
         0.00000E+00
         0.00000E+00
         0.00000E+00
         0.00000E+00
         0.00000E+00
         0.00000E+00
         0.00000E+00
         0.00000E+00
         0.00000E+00
         0.00000E+00
         0.00000E+00
         0.00000E+00
         0.00000E+00
         0.00000E+00
         0.00000E+00
         0.00000E+00
         0.00000E+00
         0.00000E+00
         0.00000E+00
         0.00000E+00
         0.00000E+00
         0.00000E+00
         0.00000E+00
         0.00000E+00
         0.00000E+00
         0.00000E+00
         0.00000E+00
         0.00000E+00
         0.00000E+00
         0.00000E+00
         0.00000E+00
         0.00000E+00
         0.00000E+00
         0.00000E+00
         0.00000E+00
         0.00000E+00
         0.00000E+00
         0.00000E+00
         0.00000E+00
         0.00000E+00
         0.00000E+00
         0.00000E+00
         0.00000E+00
         0.00000E+00
         0.00000E+00
         0.00000E+00
         0.00000E+00
         0.00000E+00
         0.00000E+00
         0.00000E+00
         0.00000E+00
         0.00000E+00
         0.00000E+00
         0.00000E+00
         0.00000E+00
         0.00000E+00
         0.00000E+00
         0.00000E+00
         0.00000E+00
         0.00000E+00
         0.00000E+00
         0.00000E+00
         0.00000E+00
         0.00000E+00
         0.00000E+00
         0.00000E+00
         0.00000E+00
         0.00000E+00
         0.00000E+00
         0.00000E+00
         0.00000E+00
         0.00000E+00
         0.00000E+00
         0.00000E+00
         0.00000E+00
         0.00000E+00
         0.00000E+00
         0.00000E+00
         0.00000E+00
         0.00000E+00
         0.00000E+00
         0.00000E+00
         0.00000E+00
         0.00000E+00
         0.00000E+00
         0.00000E+00
         0.00000E+00
         0.00000E+00
         0.00000E+00
         0.00000E+00
         0.00000E+00
         0.00000E+00
         0.00000E+00
         0.00000E+00
         0.00000E+00
         0.00000E+00
         0.00000E+00
         0.00000E+00
         0.00000E+00
         0.00000E+00
         0.00000E+00
         0.00000E+00
         0.00000E+00
         0.00000E+00
         0.00000E+00
         0.00000E+00
         0.00000E+00
         0.00000E+00
         0.00000E+00
         0.00000E+00
         0.00000E+00
         0.00000E+00
         0.00000E+00
         0.00000E+00
         0.00000E+00
         0.00000E+00
         0.00000E+00
         0.00000E+00
         0.00000E+00
         0.00000E+00
         0.00000E+00
         0.00000E+00
         0.00000E+00
         0.00000E+00
         0.00000E+00
         0.00000E+00
         0.00000E+00
         0.00000E+00
         0.00000E+00
         0.00000E+00
         0.00000E+00
         0.00000E+00
         0.00000E+00
         0.00000E+00
         0.00000E+00
         0.00000E+00
         0.00000E+00
         0.00000E+00
         0.00000E+00
         0.00000E+00
         0.00000E+00
         0.00000E+00
         0.00000E+00
         0.00000E+00
         0.00000E+00
         0.00000E+00
         0.00000E+00
         0.00000E+00
         0.00000E+00
         0.00000E+00
         0.00000E+00
         0.00000E+00
         0.00000E+00
         0.00000E+00
         0.00000E+00
         0.00000E+00
         0.00000E+00
         0.00000E+00
         0.00000E+00
         0.00000E+00
         0.00000E+00
         0.00000E+00
         0.00000E+00
         0.00000E+00
         0.00000E+00
         0.00000E+00
         0.00000E+00
         0.00000E+00
         0.00000E+00
         0.00000E+00
         0.00000E+00
         0.00000E+00
         0.00000E+00
         0.00000E+00
         0.00000E+00
         0.00000E+00
         0.00000E+00
         0.00000E+00
         0.00000E+00
         0.00000E+00
         0.00000E+00
         0.00000E+00
         0.00000E+00
         0.00000E+00
         0.00000E+00
         0.00000E+00
         0.00000E+00
         0.00000E+00
         0.00000E+00
         0.00000E+00
         0.00000E+00
         0.00000E+00
         0.00000E+00
         0.00000E+00
         0.00000E+00
         0.00000E+00
         0.00000E+00
         0.00000E+00
         0.00000E+00
         0.00000E+00
         0.00000E+00
         0.00000E+00
         0.00000E+00
         0.00000E+00
         0.00000E+00
         0.00000E+00
         0.00000E+00
         0.00000E+00
         0.00000E+00
         0.00000E+00
         0.00000E+00
         0.00000E+00
         0.00000E+00
         0.00000E+00
         0.00000E+00
         0.00000E+00
         0.00000E+00
         0.00000E+00
         0.00000E+00
         0.00000E+00
         0.00000E+00
         0.00000E+00
         0.00000E+00
         0.00000E+00
         0.00000E+00
         0.00000E+00
         0.00000E+00
         0.00000E+00
         0.00000E+00
         0.00000E+00
         0.00000E+00
         0.00000E+00
         0.00000E+00
         0.00000E+00
         0.00000E+00
         0.00000E+00
         0.00000E+00
         0.00000E+00
         0.00000E+00
         0.00000E+00
         0.00000E+00
         0.00000E+00
         0.00000E+00
         0.00000E+00
         0.00000E+00
         0.00000E+00
         0.00000E+00
         0.00000E+00
         0.00000E+00
         0.00000E+00
         0.00000E+00
         0.00000E+00
         0.00000E+00
         0.00000E+00
         0.00000E+00
         0.00000E+00
         0.00000E+00
         0.00000E+00
         0.00000E+00
         0.00000E+00
         0.00000E+00
         0.00000E+00
         0.00000E+00
         0.00000E+00
         0.00000E+00
         0.00000E+00
         0.00000E+00
         0.00000E+00
         0.00000E+00
         0.00000E+00
         0.00000E+00
         0.00000E+00
         0.00000E+00
         0.00000E+00
         0.00000E+00
         0.00000E+00
         0.00000E+00
         0.00000E+00
         0.00000E+00
         0.00000E+00
         0.00000E+00
         0.00000E+00
         0.00000E+00
         0.00000E+00
         0.00000E+00
         0.00000E+00
         0.00000E+00
         0.00000E+00
         0.00000E+00
         0.00000E+00
         0.00000E+00
         0.00000E+00
         0.00000E+00
         0.00000E+00
         0.00000E+00
         0.00000E+00
         0.00000E+00
         0.00000E+00
         0.00000E+00
         0.00000E+00
         0.00000E+00
         0.00000E+00
         0.00000E+00
         0.00000E+00
         0.00000E+00
         0.00000E+00
         0.00000E+00
         0.00000E+00
         0.00000E+00
         0.00000E+00
         0.00000E+00
         0.00000E+00
         0.00000E+00
         0.00000E+00
         0.00000E+00
         0.00000E+00
         0.00000E+00
         0.00000E+00
         0.00000E+00
         0.00000E+00
         0.00000E+00
         0.00000E+00
         0.00000E+00
         0.00000E+00
         0.00000E+00
         0.00000E+00
         0.00000E+00
         0.00000E+00
         0.00000E+00
         0.00000E+00
         0.00000E+00
         0.00000E+00
         0.00000E+00
         0.00000E+00
         0.00000E+00
         0.00000E+00
         0.00000E+00
         0.00000E+00
         0.00000E+00
         0.00000E+00
         0.00000E+00
         0.00000E+00
         0.00000E+00
         0.00000E+00
         0.00000E+00
         0.00000E+00
         0.00000E+00
         0.00000E+00
         0.00000E+00
         0.00000E+00
         0.00000E+00
         0.00000E+00
         0.00000E+00
         0.00000E+00
         0.00000E+00
         0.00000E+00
         0.00000E+00
         0.00000E+00
         0.00000E+00
         0.00000E+00
         0.00000E+00
         0.00000E+00
         0.00000E+00
         0.00000E+00
         0.00000E+00
         0.00000E+00
         0.00000E+00
         0.00000E+00
         0.00000E+00
         0.00000E+00
         0.00000E+00
         0.00000E+00
         0.00000E+00
         0.00000E+00
         0.00000E+00
         0.00000E+00
         0.00000E+00
         0.00000E+00
         0.00000E+00
         0.00000E+00
         0.00000E+00
         0.00000E+00
         0.00000E+00
         0.00000E+00
         0.00000E+00
         0.00000E+00
         0.00000E+00
         0.00000E+00
         0.00000E+00
         0.00000E+00
         0.00000E+00
         0.00000E+00
         0.00000E+00
         0.00000E+00
         0.00000E+00
         0.00000E+00
         0.00000E+00
         0.00000E+00
         0.00000E+00
         0.00000E+00
         0.00000E+00
         0.00000E+00
         0.00000E+00
         0.00000E+00
         0.00000E+00
         0.00000E+00
         0.00000E+00
         0.00000E+00
         0.00000E+00
         0.00000E+00
         0.00000E+00
         0.00000E+00
         0.00000E+00
         0.00000E+00
         0.00000E+00
         0.00000E+00
         0.00000E+00
         0.00000E+00
         0.00000E+00
         0.00000E+00
         0.00000E+00
         0.00000E+00
         0.00000E+00
         0.00000E+00
         0.00000E+00
         0.00000E+00
         0.00000E+00
         0.00000E+00
         0.00000E+00
         0.00000E+00
         0.00000E+00
         0.00000E+00
         0.00000E+00
         0.00000E+00
         0.00000E+00
         0.00000E+00
         0.00000E+00
         0.00000E+00
         0.00000E+00
         0.00000E+00
         0.00000E+00
         0.00000E+00
         0.00000E+00
         0.00000E+00
         0.00000E+00
         0.00000E+00
         0.00000E+00
         0.00000E+00
         0.00000E+00
         0.00000E+00
         0.00000E+00
         0.00000E+00
         0.00000E+00
         0.00000E+00
         0.00000E+00
         0.00000E+00
         0.00000E+00
         0.00000E+00
         0.00000E+00
         0.00000E+00
         0.00000E+00
         0.00000E+00
         0.00000E+00
         0.00000E+00
         0.00000E+00
         0.00000E+00
         0.00000E+00
         0.00000E+00
         0.00000E+00
         0.00000E+00
         0.00000E+00
         0.00000E+00
         0.00000E+00
         0.00000E+00
         0.00000E+00
         0.00000E+00
         0.00000E+00
         0.00000E+00
         0.00000E+00
         0.00000E+00
         0.00000E+00
         0.00000E+00
         0.00000E+00
         0.00000E+00
         0.00000E+00
         0.00000E+00
         0.00000E+00
         0.00000E+00
         0.00000E+00
         0.00000E+00
         0.00000E+00
         0.00000E+00
         0.00000E+00
         0.00000E+00
         0.00000E+00
         0.00000E+00
         0.00000E+00
         0.00000E+00
         0.00000E+00
         0.00000E+00
         0.00000E+00
         0.00000E+00
         0.00000E+00
         0.00000E+00
         0.00000E+00
         0.00000E+00
         0.00000E+00
         0.00000E+00
         0.00000E+00
         0.00000E+00
         0.00000E+00
         0.00000E+00
         0.00000E+00
         0.00000E+00
         0.00000E+00
         0.00000E+00
         0.00000E+00
         0.00000E+00
         0.00000E+00
         0.00000E+00
         0.00000E+00
         0.00000E+00
         0.00000E+00
         0.00000E+00
         0.00000E+00
         0.00000E+00
         0.00000E+00
         0.00000E+00
         0.00000E+00
         0.00000E+00
         0.00000E+00
         0.00000E+00
         0.00000E+00
         0.00000E+00
         0.00000E+00
         0.00000E+00
         0.00000E+00
         0.00000E+00
         0.00000E+00
         0.00000E+00
         0.00000E+00
         0.00000E+00
         0.00000E+00
         0.00000E+00
         0.00000E+00
         0.00000E+00
         0.00000E+00
         0.00000E+00
         0.00000E+00
         0.00000E+00
         0.00000E+00
         0.00000E+00
         0.00000E+00
         0.00000E+00
         0.00000E+00
         0.00000E+00
         0.00000E+00
         0.00000E+00
         0.00000E+00
         0.00000E+00
         0.00000E+00
         0.00000E+00
         0.00000E+00
         0.00000E+00
         0.00000E+00
         0.00000E+00
         0.00000E+00
         0.00000E+00
         0.00000E+00
         0.00000E+00
         0.00000E+00
         0.00000E+00
         0.00000E+00
         0.00000E+00
         0.00000E+00
         0.00000E+00
         0.00000E+00
         0.00000E+00
         0.00000E+00
         0.00000E+00
         0.00000E+00
         0.00000E+00
         0.00000E+00
         0.00000E+00
         0.00000E+00
         0.00000E+00
         0.00000E+00
         0.00000E+00
         0.00000E+00
         0.00000E+00
         0.00000E+00
         0.00000E+00
         0.00000E+00
         0.00000E+00
         0.00000E+00
         0.00000E+00
         0.00000E+00
         0.00000E+00
         0.00000E+00
         0.00000E+00
         0.00000E+00
         0.00000E+00
         0.00000E+00
         0.00000E+00
         0.00000E+00
         0.00000E+00
         0.00000E+00
         0.00000E+00
         0.00000E+00
         0.00000E+00
         0.00000E+00
         0.00000E+00
         0.00000E+00
         0.00000E+00
         0.00000E+00
         0.00000E+00
         0.00000E+00
         0.00000E+00
         0.00000E+00
         0.00000E+00
         0.00000E+00
         0.00000E+00
         0.00000E+00
         0.00000E+00
         0.00000E+00
         0.00000E+00
         0.00000E+00
         0.00000E+00
         0.00000E+00
         0.00000E+00
         0.00000E+00
         0.00000E+00
         0.00000E+00
         0.00000E+00
         0.00000E+00
         0.00000E+00
         0.00000E+00
         0.00000E+00
         0.00000E+00
         0.00000E+00
         0.00000E+00
         0.00000E+00
         0.00000E+00
         0.00000E+00
         0.00000E+00
         0.00000E+00
         0.00000E+00
         0.00000E+00
         0.00000E+00
         0.00000E+00
         0.00000E+00
         0.00000E+00
         0.00000E+00
         0.00000E+00
         0.00000E+00
         0.00000E+00
         0.00000E+00
         0.00000E+00
         0.00000E+00
         0.00000E+00
         0.00000E+00
         0.00000E+00
         0.00000E+00
         0.00000E+00
         0.00000E+00
         0.00000E+00
         0.00000E+00
         0.00000E+00
         0.00000E+00
         0.00000E+00
         0.00000E+00
         0.00000E+00
         0.00000E+00
         0.00000E+00
         0.00000E+00
         0.00000E+00
         0.00000E+00
         0.00000E+00
         0.00000E+00
         0.00000E+00
         0.00000E+00
         0.00000E+00
         0.00000E+00
         0.00000E+00
         0.00000E+00
         0.00000E+00
         0.00000E+00
         0.00000E+00
         0.00000E+00
         0.00000E+00
         0.00000E+00
         0.00000E+00
         0.00000E+00
         0.00000E+00
         0.00000E+00
         0.00000E+00
         0.00000E+00
         0.00000E+00
         0.00000E+00
         0.00000E+00
         0.00000E+00
         0.00000E+00
         0.00000E+00
         0.00000E+00
         0.00000E+00
         0.00000E+00
         0.00000E+00
         0.00000E+00
         0.00000E+00
         0.00000E+00
         0.00000E+00
         0.00000E+00
         0.00000E+00
         0.00000E+00
         0.00000E+00
         0.00000E+00
         0.00000E+00
         0.00000E+00
         0.00000E+00
         0.00000E+00
         0.00000E+00
         0.00000E+00
         0.00000E+00
         0.00000E+00
         0.00000E+00
         0.00000E+00
         0.00000E+00
         0.00000E+00
         0.00000E+00
         0.00000E+00
         0.00000E+00
         0.00000E+00
         0.00000E+00
         0.00000E+00
         0.00000E+00
         0.00000E+00
         0.00000E+00
         0.00000E+00
         0.00000E+00
         0.00000E+00
         0.00000E+00
         0.00000E+00
         0.00000E+00
         0.00000E+00
         0.00000E+00
         0.00000E+00
         0.00000E+00
         0.00000E+00
         0.00000E+00
         0.00000E+00
         0.00000E+00
         0.00000E+00
         0.00000E+00
         0.00000E+00
         0.00000E+00
         0.00000E+00
         0.00000E+00
         0.00000E+00
         0.00000E+00
         0.00000E+00
         0.00000E+00
         0.00000E+00
         0.00000E+00
         0.00000E+00
         0.00000E+00
         0.00000E+00
         0.00000E+00
         0.00000E+00
         0.00000E+00
         0.00000E+00
         0.00000E+00
         0.00000E+00
         0.00000E+00
         0.00000E+00
         0.00000E+00
         0.00000E+00
         0.00000E+00
         0.00000E+00
         0.00000E+00
         0.00000E+00
         0.00000E+00
         0.00000E+00
         0.00000E+00
         0.00000E+00
         0.00000E+00
         0.00000E+00
         0.00000E+00
         0.00000E+00
         0.00000E+00
         0.00000E+00
         0.00000E+00
         0.00000E+00
         0.00000E+00
         0.00000E+00
         0.00000E+00
         0.00000E+00
         0.00000E+00
         0.00000E+00
         0.00000E+00
         0.00000E+00
         0.00000E+00
         0.00000E+00
         0.00000E+00
         0.00000E+00
         0.00000E+00
         0.00000E+00
         0.00000E+00
         0.00000E+00
         0.00000E+00
         0.00000E+00
         0.00000E+00
         0.00000E+00
         0.00000E+00
         0.00000E+00
         0.00000E+00
         0.00000E+00
         0.00000E+00
         0.00000E+00
         0.00000E+00
         0.00000E+00
         0.00000E+00
         0.00000E+00
         0.00000E+00
         0.00000E+00
         0.00000E+00
         0.00000E+00
         0.00000E+00
         0.00000E+00
         0.00000E+00
         0.00000E+00
         0.00000E+00
         0.00000E+00
         0.00000E+00
         0.00000E+00
         0.00000E+00
         0.00000E+00
         0.00000E+00
         0.00000E+00
         0.00000E+00
         0.00000E+00
         0.00000E+00
         0.00000E+00
         0.00000E+00
         0.00000E+00
         0.00000E+00
         0.00000E+00
         0.00000E+00
         0.00000E+00
         0.00000E+00
         0.00000E+00
         0.00000E+00
         0.00000E+00
         0.00000E+00
         0.00000E+00
         0.00000E+00
         0.00000E+00
         0.00000E+00
         0.00000E+00
         0.00000E+00
         0.00000E+00
         0.00000E+00
         0.00000E+00
         0.00000E+00
         0.00000E+00
         0.00000E+00
         0.00000E+00
         0.00000E+00
         0.00000E+00
         0.00000E+00
         0.00000E+00
         0.00000E+00
         0.00000E+00
         0.00000E+00
         0.00000E+00
         0.00000E+00
         0.00000E+00
         0.00000E+00
         0.00000E+00
         0.00000E+00
         0.00000E+00
         0.00000E+00
         0.00000E+00
         0.00000E+00
         0.00000E+00
         0.00000E+00
         0.00000E+00
         0.00000E+00
         0.00000E+00
         0.00000E+00
         0.00000E+00
         0.00000E+00
         0.00000E+00
         0.00000E+00
         0.00000E+00
         0.00000E+00
         0.00000E+00
         0.00000E+00
         0.00000E+00
         0.00000E+00
         0.00000E+00
         0.00000E+00
         0.00000E+00
         0.00000E+00
         0.00000E+00
         0.00000E+00
         0.00000E+00
         0.00000E+00
         0.00000E+00
         0.00000E+00
         0.00000E+00
         0.00000E+00
         0.00000E+00
         0.00000E+00
         0.00000E+00
         0.00000E+00
         0.00000E+00
         0.00000E+00
         0.00000E+00
         0.00000E+00
         0.00000E+00
         0.00000E+00
         0.00000E+00
         0.00000E+00
         0.00000E+00
         0.00000E+00
         0.00000E+00
         0.00000E+00
         0.00000E+00
         0.00000E+00
         0.00000E+00
         0.00000E+00
         0.00000E+00
         0.00000E+00
         0.00000E+00
         0.00000E+00
         0.00000E+00
         0.00000E+00
         0.00000E+00
         0.00000E+00
         0.00000E+00
         0.00000E+00
         0.00000E+00
         0.00000E+00
         0.00000E+00
         0.00000E+00
         0.00000E+00
         0.00000E+00
         0.00000E+00
         0.00000E+00
         0.00000E+00
         0.00000E+00
         0.00000E+00
         0.00000E+00
         0.00000E+00
         0.00000E+00
         0.00000E+00
         0.00000E+00
         0.00000E+00
         0.00000E+00
         0.00000E+00
         0.00000E+00
         0.00000E+00
         0.00000E+00
         0.00000E+00
         0.00000E+00
         0.00000E+00
         0.00000E+00
         0.00000E+00
         0.00000E+00
         0.00000E+00
         0.00000E+00
         0.00000E+00
         0.00000E+00
         0.00000E+00
         0.00000E+00
         0.00000E+00
         0.00000E+00
         0.00000E+00
         0.00000E+00
         0.00000E+00
         0.00000E+00
         0.00000E+00
         0.00000E+00
         0.00000E+00
         0.00000E+00
         0.00000E+00
         0.00000E+00
         0.00000E+00
         0.00000E+00
         0.00000E+00
         0.00000E+00
         0.00000E+00
         0.00000E+00
         0.00000E+00
         0.00000E+00
         0.00000E+00
         0.00000E+00
         0.00000E+00
         0.00000E+00
         0.00000E+00
         0.00000E+00
         0.00000E+00
         0.00000E+00
         0.00000E+00
         0.00000E+00
         0.00000E+00
         0.00000E+00
         0.00000E+00
         0.00000E+00
         0.00000E+00
         0.00000E+00
         0.00000E+00
         0.00000E+00
         0.00000E+00
         0.00000E+00
         0.00000E+00
         0.00000E+00
         0.00000E+00
         0.00000E+00
         0.00000E+00
         0.00000E+00
         0.00000E+00
         0.00000E+00
         0.00000E+00
         0.00000E+00
         0.00000E+00
         0.00000E+00
         0.00000E+00
         0.00000E+00
         0.00000E+00
         0.00000E+00
         0.00000E+00
         0.00000E+00
         0.00000E+00
         0.00000E+00
         0.00000E+00
         0.00000E+00
         0.00000E+00
         0.00000E+00
         0.00000E+00
         0.00000E+00
         0.00000E+00
         0.00000E+00
         0.00000E+00
         0.00000E+00
         0.00000E+00
         0.00000E+00
         0.00000E+00
         0.00000E+00
         0.00000E+00
         0.00000E+00
         0.00000E+00
         0.00000E+00
         0.00000E+00
         0.00000E+00
         0.00000E+00
         0.00000E+00
         0.00000E+00
         0.00000E+00
         0.00000E+00
         0.00000E+00
         0.00000E+00
         0.00000E+00
         0.00000E+00
         0.00000E+00
         0.00000E+00
         0.00000E+00
         0.00000E+00
         0.00000E+00
         0.00000E+00
         0.00000E+00
         0.00000E+00
         0.00000E+00
         0.00000E+00
         0.00000E+00
         0.00000E+00
         0.00000E+00
         0.00000E+00
         0.00000E+00
         0.00000E+00
         0.00000E+00
         0.00000E+00
         0.00000E+00
         0.00000E+00
         0.00000E+00
         0.00000E+00
         0.00000E+00
         0.00000E+00
         0.00000E+00
         0.00000E+00
         0.00000E+00
         0.00000E+00
         0.00000E+00
         0.00000E+00
         0.00000E+00
         0.00000E+00
         0.00000E+00
         0.00000E+00
         0.00000E+00
         0.00000E+00
         0.00000E+00
         0.00000E+00
         0.00000E+00
         0.00000E+00
         0.00000E+00
         0.00000E+00
         0.00000E+00
         0.00000E+00
         0.00000E+00
         0.00000E+00
         0.00000E+00
         0.00000E+00
         0.00000E+00
         0.00000E+00
         0.00000E+00
         0.00000E+00
         0.00000E+00
         0.00000E+00
         0.00000E+00
         0.00000E+00
         0.00000E+00
         0.00000E+00
         0.00000E+00
         0.00000E+00
         0.00000E+00
         0.00000E+00
         0.00000E+00
         0.00000E+00
         0.00000E+00
         0.00000E+00
         0.00000E+00
         0.00000E+00
         0.00000E+00
         0.00000E+00
         0.00000E+00
         0.00000E+00
         0.00000E+00
         0.00000E+00
         0.00000E+00
         0.00000E+00
         0.00000E+00
         0.00000E+00
         0.00000E+00
         0.00000E+00
         0.00000E+00
         0.00000E+00
         0.00000E+00
         0.00000E+00
         0.00000E+00
         0.00000E+00
         0.00000E+00
         0.00000E+00
         0.00000E+00
         0.00000E+00
         0.00000E+00
         0.00000E+00
         0.00000E+00
         0.00000E+00
         0.00000E+00
         0.00000E+00
         0.00000E+00
         0.00000E+00
         0.00000E+00
         0.00000E+00
         0.00000E+00
         0.00000E+00
         0.00000E+00
         0.00000E+00
         0.00000E+00
         0.00000E+00
         0.00000E+00
         0.00000E+00
         0.00000E+00
         0.00000E+00
         0.00000E+00
         0.00000E+00
         0.00000E+00
         0.00000E+00
         0.00000E+00
         0.00000E+00
         0.00000E+00
         0.00000E+00
         0.00000E+00
         0.00000E+00
         0.00000E+00
         0.00000E+00
         0.00000E+00
         0.00000E+00
         0.00000E+00
         0.00000E+00
         0.00000E+00
         0.00000E+00
         0.00000E+00
         0.00000E+00
         0.00000E+00
         0.00000E+00
         0.00000E+00
         0.00000E+00
         0.00000E+00
         0.00000E+00
         0.00000E+00
         0.00000E+00
         0.00000E+00
         0.00000E+00
         0.00000E+00
         0.00000E+00
         0.00000E+00
         0.00000E+00
         0.00000E+00
         0.00000E+00
         0.00000E+00
         0.00000E+00
         0.00000E+00
         0.00000E+00
         0.00000E+00
         0.00000E+00
         0.00000E+00
         0.00000E+00
         0.00000E+00
         0.00000E+00
         0.00000E+00
         0.00000E+00
         0.00000E+00
         0.00000E+00
         0.00000E+00
         0.00000E+00
         0.00000E+00
         0.00000E+00
         0.00000E+00
         0.00000E+00
         0.00000E+00
         0.00000E+00
         0.00000E+00
         0.00000E+00
         0.00000E+00
         0.00000E+00
         0.00000E+00
         0.00000E+00
         0.00000E+00
         0.00000E+00
         0.00000E+00
         0.00000E+00
         0.00000E+00
         0.00000E+00
         0.00000E+00
         0.00000E+00
         0.00000E+00
         0.00000E+00
         0.00000E+00
         0.00000E+00
         0.00000E+00
         0.00000E+00
         0.00000E+00
         0.00000E+00
         0.00000E+00
         0.00000E+00
         0.00000E+00
         0.00000E+00
         0.00000E+00
         0.00000E+00
         0.00000E+00
         0.00000E+00
         0.00000E+00
         0.00000E+00
         0.00000E+00
         0.00000E+00
         0.00000E+00
         0.00000E+00
         0.00000E+00
         0.00000E+00
         0.00000E+00
         0.00000E+00
         0.00000E+00
         0.00000E+00
         0.00000E+00
         0.00000E+00
         0.00000E+00
         0.00000E+00
         0.00000E+00
         0.00000E+00
         0.00000E+00
         0.00000E+00
         0.00000E+00
         0.00000E+00
         0.00000E+00
         0.00000E+00
         0.00000E+00
  
SCALARS                init_velocity_y  double 1
LOOKUP_TABLE default
         0.00000E+00
         0.00000E+00
         0.00000E+00
         0.00000E+00
         0.00000E+00
         0.00000E+00
         0.00000E+00
         0.00000E+00
         0.00000E+00
         0.00000E+00
         0.00000E+00
         0.00000E+00
         0.00000E+00
         0.00000E+00
         0.00000E+00
         0.00000E+00
         0.00000E+00
         0.00000E+00
         0.00000E+00
         0.00000E+00
         0.00000E+00
         0.00000E+00
         0.00000E+00
         0.00000E+00
         0.00000E+00
         0.00000E+00
         0.00000E+00
         0.00000E+00
         0.00000E+00
         0.00000E+00
         0.00000E+00
         0.00000E+00
         0.00000E+00
         0.00000E+00
         0.00000E+00
         0.00000E+00
         0.00000E+00
         0.00000E+00
         0.00000E+00
         0.00000E+00
         0.00000E+00
         0.00000E+00
         0.00000E+00
         0.00000E+00
         0.00000E+00
         0.00000E+00
         0.00000E+00
         0.00000E+00
         0.00000E+00
         0.00000E+00
         0.00000E+00
         0.00000E+00
         0.00000E+00
         0.00000E+00
         0.00000E+00
         0.00000E+00
         0.00000E+00
         0.00000E+00
         0.00000E+00
         0.00000E+00
         0.00000E+00
         0.00000E+00
         0.00000E+00
         0.00000E+00
         0.00000E+00
         0.00000E+00
         0.00000E+00
         0.00000E+00
         0.00000E+00
         0.00000E+00
         0.00000E+00
         0.00000E+00
         0.00000E+00
         0.00000E+00
         0.00000E+00
         0.00000E+00
         0.00000E+00
         0.00000E+00
         0.00000E+00
         0.00000E+00
         0.00000E+00
         0.00000E+00
         0.00000E+00
         0.00000E+00
         0.00000E+00
         0.00000E+00
         0.00000E+00
         0.00000E+00
         0.00000E+00
         0.00000E+00
         0.00000E+00
         0.00000E+00
         0.00000E+00
         0.00000E+00
         0.00000E+00
         0.00000E+00
         0.00000E+00
         0.00000E+00
         0.00000E+00
         0.00000E+00
         0.00000E+00
         0.00000E+00
         0.00000E+00
         0.00000E+00
         0.00000E+00
         0.00000E+00
         0.00000E+00
         0.00000E+00
         0.00000E+00
         0.00000E+00
         0.00000E+00
         0.00000E+00
         0.00000E+00
         0.00000E+00
         0.00000E+00
         0.00000E+00
         0.00000E+00
         0.00000E+00
         0.00000E+00
         0.00000E+00
         0.00000E+00
         0.00000E+00
         0.00000E+00
         0.00000E+00
         0.00000E+00
         0.00000E+00
         0.00000E+00
         0.00000E+00
         0.00000E+00
         0.00000E+00
         0.00000E+00
         0.00000E+00
         0.00000E+00
         0.00000E+00
         0.00000E+00
         0.00000E+00
         0.00000E+00
         0.00000E+00
         0.00000E+00
         0.00000E+00
         0.00000E+00
         0.00000E+00
         0.00000E+00
         0.00000E+00
         0.00000E+00
         0.00000E+00
         0.00000E+00
         0.00000E+00
         0.00000E+00
         0.00000E+00
         0.00000E+00
         0.00000E+00
         0.00000E+00
         0.00000E+00
         0.00000E+00
         0.00000E+00
         0.00000E+00
         0.00000E+00
         0.00000E+00
         0.00000E+00
         0.00000E+00
         0.00000E+00
         0.00000E+00
         0.00000E+00
         0.00000E+00
         0.00000E+00
         0.00000E+00
         0.00000E+00
         0.00000E+00
         0.00000E+00
         0.00000E+00
         0.00000E+00
         0.00000E+00
         0.00000E+00
         0.00000E+00
         0.00000E+00
         0.00000E+00
         0.00000E+00
         0.00000E+00
         0.00000E+00
         0.00000E+00
         0.00000E+00
         0.00000E+00
         0.00000E+00
         0.00000E+00
         0.00000E+00
         0.00000E+00
         0.00000E+00
         0.00000E+00
         0.00000E+00
         0.00000E+00
         0.00000E+00
         0.00000E+00
         0.00000E+00
         0.00000E+00
         0.00000E+00
         0.00000E+00
         0.00000E+00
         0.00000E+00
         0.00000E+00
         0.00000E+00
         0.00000E+00
         0.00000E+00
         0.00000E+00
         0.00000E+00
         0.00000E+00
         0.00000E+00
         0.00000E+00
         0.00000E+00
         0.00000E+00
         0.00000E+00
         0.00000E+00
         0.00000E+00
         0.00000E+00
         0.00000E+00
         0.00000E+00
         0.00000E+00
         0.00000E+00
         0.00000E+00
         0.00000E+00
         0.00000E+00
         0.00000E+00
         0.00000E+00
         0.00000E+00
         0.00000E+00
         0.00000E+00
         0.00000E+00
         0.00000E+00
         0.00000E+00
         0.00000E+00
         0.00000E+00
         0.00000E+00
         0.00000E+00
         0.00000E+00
         0.00000E+00
         0.00000E+00
         0.00000E+00
         0.00000E+00
         0.00000E+00
         0.00000E+00
         0.00000E+00
         0.00000E+00
         0.00000E+00
         0.00000E+00
         0.00000E+00
         0.00000E+00
         0.00000E+00
         0.00000E+00
         0.00000E+00
         0.00000E+00
         0.00000E+00
         0.00000E+00
         0.00000E+00
         0.00000E+00
         0.00000E+00
         0.00000E+00
         0.00000E+00
         0.00000E+00
         0.00000E+00
         0.00000E+00
         0.00000E+00
         0.00000E+00
         0.00000E+00
         0.00000E+00
         0.00000E+00
         0.00000E+00
         0.00000E+00
         0.00000E+00
         0.00000E+00
         0.00000E+00
         0.00000E+00
         0.00000E+00
         0.00000E+00
         0.00000E+00
         0.00000E+00
         0.00000E+00
         0.00000E+00
         0.00000E+00
         0.00000E+00
         0.00000E+00
         0.00000E+00
         0.00000E+00
         0.00000E+00
         0.00000E+00
         0.00000E+00
         0.00000E+00
         0.00000E+00
         0.00000E+00
         0.00000E+00
         0.00000E+00
         0.00000E+00
         0.00000E+00
         0.00000E+00
         0.00000E+00
         0.00000E+00
         0.00000E+00
         0.00000E+00
         0.00000E+00
         0.00000E+00
         0.00000E+00
         0.00000E+00
         0.00000E+00
         0.00000E+00
         0.00000E+00
         0.00000E+00
         0.00000E+00
         0.00000E+00
         0.00000E+00
         0.00000E+00
         0.00000E+00
         0.00000E+00
         0.00000E+00
         0.00000E+00
         0.00000E+00
         0.00000E+00
         0.00000E+00
         0.00000E+00
         0.00000E+00
         0.00000E+00
         0.00000E+00
         0.00000E+00
         0.00000E+00
         0.00000E+00
         0.00000E+00
         0.00000E+00
         0.00000E+00
         0.00000E+00
         0.00000E+00
         0.00000E+00
         0.00000E+00
         0.00000E+00
         0.00000E+00
         0.00000E+00
         0.00000E+00
         0.00000E+00
         0.00000E+00
         0.00000E+00
         0.00000E+00
         0.00000E+00
         0.00000E+00
         0.00000E+00
         0.00000E+00
         0.00000E+00
         0.00000E+00
         0.00000E+00
         0.00000E+00
         0.00000E+00
         0.00000E+00
         0.00000E+00
         0.00000E+00
         0.00000E+00
         0.00000E+00
         0.00000E+00
         0.00000E+00
         0.00000E+00
         0.00000E+00
         0.00000E+00
         0.00000E+00
         0.00000E+00
         0.00000E+00
         0.00000E+00
         0.00000E+00
         0.00000E+00
         0.00000E+00
         0.00000E+00
         0.00000E+00
         0.00000E+00
         0.00000E+00
         0.00000E+00
         0.00000E+00
         0.00000E+00
         0.00000E+00
         0.00000E+00
         0.00000E+00
         0.00000E+00
         0.00000E+00
         0.00000E+00
         0.00000E+00
         0.00000E+00
         0.00000E+00
         0.00000E+00
         0.00000E+00
         0.00000E+00
         0.00000E+00
         0.00000E+00
         0.00000E+00
         0.00000E+00
         0.00000E+00
         0.00000E+00
         0.00000E+00
         0.00000E+00
         0.00000E+00
         0.00000E+00
         0.00000E+00
         0.00000E+00
         0.00000E+00
         0.00000E+00
         0.00000E+00
         0.00000E+00
         0.00000E+00
         0.00000E+00
         0.00000E+00
         0.00000E+00
         0.00000E+00
         0.00000E+00
         0.00000E+00
         0.00000E+00
         0.00000E+00
         0.00000E+00
         0.00000E+00
         0.00000E+00
         0.00000E+00
         0.00000E+00
         0.00000E+00
         0.00000E+00
         0.00000E+00
         0.00000E+00
         0.00000E+00
         0.00000E+00
         0.00000E+00
         0.00000E+00
         0.00000E+00
         0.00000E+00
         0.00000E+00
         0.00000E+00
         0.00000E+00
         0.00000E+00
         0.00000E+00
         0.00000E+00
         0.00000E+00
         0.00000E+00
         0.00000E+00
         0.00000E+00
         0.00000E+00
         0.00000E+00
         0.00000E+00
         0.00000E+00
         0.00000E+00
         0.00000E+00
         0.00000E+00
         0.00000E+00
         0.00000E+00
         0.00000E+00
         0.00000E+00
         0.00000E+00
         0.00000E+00
         0.00000E+00
         0.00000E+00
         0.00000E+00
         0.00000E+00
         0.00000E+00
         0.00000E+00
         0.00000E+00
         0.00000E+00
         0.00000E+00
         0.00000E+00
         0.00000E+00
         0.00000E+00
         0.00000E+00
         0.00000E+00
         0.00000E+00
         0.00000E+00
         0.00000E+00
         0.00000E+00
         0.00000E+00
         0.00000E+00
         0.00000E+00
         0.00000E+00
         0.00000E+00
         0.00000E+00
         0.00000E+00
         0.00000E+00
         0.00000E+00
         0.00000E+00
         0.00000E+00
         0.00000E+00
         0.00000E+00
         0.00000E+00
         0.00000E+00
         0.00000E+00
         0.00000E+00
         0.00000E+00
         0.00000E+00
         0.00000E+00
         0.00000E+00
         0.00000E+00
         0.00000E+00
         0.00000E+00
         0.00000E+00
         0.00000E+00
         0.00000E+00
         0.00000E+00
         0.00000E+00
         0.00000E+00
         0.00000E+00
         0.00000E+00
         0.00000E+00
         0.00000E+00
         0.00000E+00
         0.00000E+00
         0.00000E+00
         0.00000E+00
         0.00000E+00
         0.00000E+00
         0.00000E+00
         0.00000E+00
         0.00000E+00
         0.00000E+00
         0.00000E+00
         0.00000E+00
         0.00000E+00
         0.00000E+00
         0.00000E+00
         0.00000E+00
         0.00000E+00
         0.00000E+00
         0.00000E+00
         0.00000E+00
         0.00000E+00
         0.00000E+00
         0.00000E+00
         0.00000E+00
         0.00000E+00
         0.00000E+00
         0.00000E+00
         0.00000E+00
         0.00000E+00
         0.00000E+00
         0.00000E+00
         0.00000E+00
         0.00000E+00
         0.00000E+00
         0.00000E+00
         0.00000E+00
         0.00000E+00
         0.00000E+00
         0.00000E+00
         0.00000E+00
         0.00000E+00
         0.00000E+00
         0.00000E+00
         0.00000E+00
         0.00000E+00
         0.00000E+00
         0.00000E+00
         0.00000E+00
         0.00000E+00
         0.00000E+00
         0.00000E+00
         0.00000E+00
         0.00000E+00
         0.00000E+00
         0.00000E+00
         0.00000E+00
         0.00000E+00
         0.00000E+00
         0.00000E+00
         0.00000E+00
         0.00000E+00
         0.00000E+00
         0.00000E+00
         0.00000E+00
         0.00000E+00
         0.00000E+00
         0.00000E+00
         0.00000E+00
         0.00000E+00
         0.00000E+00
         0.00000E+00
         0.00000E+00
         0.00000E+00
         0.00000E+00
         0.00000E+00
         0.00000E+00
         0.00000E+00
         0.00000E+00
         0.00000E+00
         0.00000E+00
         0.00000E+00
         0.00000E+00
         0.00000E+00
         0.00000E+00
         0.00000E+00
         0.00000E+00
         0.00000E+00
         0.00000E+00
         0.00000E+00
         0.00000E+00
         0.00000E+00
         0.00000E+00
         0.00000E+00
         0.00000E+00
         0.00000E+00
         0.00000E+00
         0.00000E+00
         0.00000E+00
         0.00000E+00
         0.00000E+00
         0.00000E+00
         0.00000E+00
         0.00000E+00
         0.00000E+00
         0.00000E+00
         0.00000E+00
         0.00000E+00
         0.00000E+00
         0.00000E+00
         0.00000E+00
         0.00000E+00
         0.00000E+00
         0.00000E+00
         0.00000E+00
         0.00000E+00
         0.00000E+00
         0.00000E+00
         0.00000E+00
         0.00000E+00
         0.00000E+00
         0.00000E+00
         0.00000E+00
         0.00000E+00
         0.00000E+00
         0.00000E+00
         0.00000E+00
         0.00000E+00
         0.00000E+00
         0.00000E+00
         0.00000E+00
         0.00000E+00
         0.00000E+00
         0.00000E+00
         0.00000E+00
         0.00000E+00
         0.00000E+00
         0.00000E+00
         0.00000E+00
         0.00000E+00
         0.00000E+00
         0.00000E+00
         0.00000E+00
         0.00000E+00
         0.00000E+00
         0.00000E+00
         0.00000E+00
         0.00000E+00
         0.00000E+00
         0.00000E+00
         0.00000E+00
         0.00000E+00
         0.00000E+00
         0.00000E+00
         0.00000E+00
         0.00000E+00
         0.00000E+00
         0.00000E+00
         0.00000E+00
         0.00000E+00
         0.00000E+00
         0.00000E+00
         0.00000E+00
         0.00000E+00
         0.00000E+00
         0.00000E+00
         0.00000E+00
         0.00000E+00
         0.00000E+00
         0.00000E+00
         0.00000E+00
         0.00000E+00
         0.00000E+00
         0.00000E+00
         0.00000E+00
         0.00000E+00
         0.00000E+00
         0.00000E+00
         0.00000E+00
         0.00000E+00
         0.00000E+00
         0.00000E+00
         0.00000E+00
         0.00000E+00
         0.00000E+00
         0.00000E+00
         0.00000E+00
         0.00000E+00
         0.00000E+00
         0.00000E+00
         0.00000E+00
         0.00000E+00
         0.00000E+00
         0.00000E+00
         0.00000E+00
         0.00000E+00
         0.00000E+00
         0.00000E+00
         0.00000E+00
         0.00000E+00
         0.00000E+00
         0.00000E+00
         0.00000E+00
         0.00000E+00
         0.00000E+00
         0.00000E+00
         0.00000E+00
         0.00000E+00
         0.00000E+00
         0.00000E+00
         0.00000E+00
         0.00000E+00
         0.00000E+00
         0.00000E+00
         0.00000E+00
         0.00000E+00
         0.00000E+00
         0.00000E+00
         0.00000E+00
         0.00000E+00
         0.00000E+00
         0.00000E+00
         0.00000E+00
         0.00000E+00
         0.00000E+00
         0.00000E+00
         0.00000E+00
         0.00000E+00
         0.00000E+00
         0.00000E+00
         0.00000E+00
         0.00000E+00
         0.00000E+00
         0.00000E+00
         0.00000E+00
         0.00000E+00
         0.00000E+00
         0.00000E+00
         0.00000E+00
         0.00000E+00
         0.00000E+00
         0.00000E+00
         0.00000E+00
         0.00000E+00
         0.00000E+00
         0.00000E+00
         0.00000E+00
         0.00000E+00
         0.00000E+00
         0.00000E+00
         0.00000E+00
         0.00000E+00
         0.00000E+00
         0.00000E+00
         0.00000E+00
         0.00000E+00
         0.00000E+00
         0.00000E+00
         0.00000E+00
         0.00000E+00
         0.00000E+00
         0.00000E+00
         0.00000E+00
         0.00000E+00
         0.00000E+00
         0.00000E+00
         0.00000E+00
         0.00000E+00
         0.00000E+00
         0.00000E+00
         0.00000E+00
         0.00000E+00
         0.00000E+00
         0.00000E+00
         0.00000E+00
         0.00000E+00
         0.00000E+00
         0.00000E+00
         0.00000E+00
         0.00000E+00
         0.00000E+00
         0.00000E+00
         0.00000E+00
         0.00000E+00
         0.00000E+00
         0.00000E+00
         0.00000E+00
         0.00000E+00
         0.00000E+00
         0.00000E+00
         0.00000E+00
         0.00000E+00
         0.00000E+00
         0.00000E+00
         0.00000E+00
         0.00000E+00
         0.00000E+00
         0.00000E+00
         0.00000E+00
         0.00000E+00
         0.00000E+00
         0.00000E+00
         0.00000E+00
         0.00000E+00
         0.00000E+00
         0.00000E+00
         0.00000E+00
         0.00000E+00
         0.00000E+00
         0.00000E+00
         0.00000E+00
         0.00000E+00
         0.00000E+00
         0.00000E+00
         0.00000E+00
         0.00000E+00
         0.00000E+00
         0.00000E+00
         0.00000E+00
         0.00000E+00
         0.00000E+00
         0.00000E+00
         0.00000E+00
         0.00000E+00
         0.00000E+00
         0.00000E+00
         0.00000E+00
         0.00000E+00
         0.00000E+00
         0.00000E+00
         0.00000E+00
         0.00000E+00
         0.00000E+00
         0.00000E+00
         0.00000E+00
         0.00000E+00
         0.00000E+00
         0.00000E+00
         0.00000E+00
         0.00000E+00
         0.00000E+00
         0.00000E+00
         0.00000E+00
         0.00000E+00
         0.00000E+00
         0.00000E+00
         0.00000E+00
         0.00000E+00
         0.00000E+00
         0.00000E+00
         0.00000E+00
         0.00000E+00
         0.00000E+00
         0.00000E+00
         0.00000E+00
         0.00000E+00
         0.00000E+00
         0.00000E+00
         0.00000E+00
         0.00000E+00
         0.00000E+00
         0.00000E+00
         0.00000E+00
         0.00000E+00
         0.00000E+00
         0.00000E+00
         0.00000E+00
         0.00000E+00
         0.00000E+00
         0.00000E+00
         0.00000E+00
         0.00000E+00
         0.00000E+00
         0.00000E+00
         0.00000E+00
         0.00000E+00
         0.00000E+00
         0.00000E+00
         0.00000E+00
         0.00000E+00
         0.00000E+00
         0.00000E+00
         0.00000E+00
         0.00000E+00
         0.00000E+00
         0.00000E+00
         0.00000E+00
         0.00000E+00
         0.00000E+00
         0.00000E+00
         0.00000E+00
         0.00000E+00
         0.00000E+00
         0.00000E+00
         0.00000E+00
         0.00000E+00
         0.00000E+00
         0.00000E+00
         0.00000E+00
         0.00000E+00
         0.00000E+00
         0.00000E+00
         0.00000E+00
         0.00000E+00
         0.00000E+00
         0.00000E+00
         0.00000E+00
         0.00000E+00
         0.00000E+00
         0.00000E+00
         0.00000E+00
         0.00000E+00
         0.00000E+00
         0.00000E+00
         0.00000E+00
         0.00000E+00
         0.00000E+00
         0.00000E+00
         0.00000E+00
         0.00000E+00
         0.00000E+00
         0.00000E+00
         0.00000E+00
         0.00000E+00
         0.00000E+00
         0.00000E+00
         0.00000E+00
         0.00000E+00
         0.00000E+00
         0.00000E+00
         0.00000E+00
         0.00000E+00
         0.00000E+00
         0.00000E+00
         0.00000E+00
         0.00000E+00
         0.00000E+00
         0.00000E+00
         0.00000E+00
         0.00000E+00
         0.00000E+00
         0.00000E+00
         0.00000E+00
         0.00000E+00
         0.00000E+00
         0.00000E+00
         0.00000E+00
         0.00000E+00
         0.00000E+00
         0.00000E+00
         0.00000E+00
         0.00000E+00
         0.00000E+00
         0.00000E+00
         0.00000E+00
         0.00000E+00
         0.00000E+00
         0.00000E+00
         0.00000E+00
         0.00000E+00
         0.00000E+00
         0.00000E+00
         0.00000E+00
         0.00000E+00
         0.00000E+00
         0.00000E+00
         0.00000E+00
         0.00000E+00
         0.00000E+00
         0.00000E+00
         0.00000E+00
         0.00000E+00
         0.00000E+00
         0.00000E+00
         0.00000E+00
         0.00000E+00
         0.00000E+00
         0.00000E+00
         0.00000E+00
         0.00000E+00
         0.00000E+00
         0.00000E+00
         0.00000E+00
         0.00000E+00
         0.00000E+00
         0.00000E+00
         0.00000E+00
         0.00000E+00
         0.00000E+00
         0.00000E+00
         0.00000E+00
         0.00000E+00
         0.00000E+00
         0.00000E+00
         0.00000E+00
         0.00000E+00
         0.00000E+00
         0.00000E+00
         0.00000E+00
         0.00000E+00
         0.00000E+00
         0.00000E+00
         0.00000E+00
         0.00000E+00
         0.00000E+00
         0.00000E+00
         0.00000E+00
         0.00000E+00
         0.00000E+00
         0.00000E+00
         0.00000E+00
         0.00000E+00
         0.00000E+00
         0.00000E+00
         0.00000E+00
         0.00000E+00
         0.00000E+00
         0.00000E+00
         0.00000E+00
         0.00000E+00
         0.00000E+00
         0.00000E+00
         0.00000E+00
         0.00000E+00
         0.00000E+00
         0.00000E+00
         0.00000E+00
         0.00000E+00
         0.00000E+00
         0.00000E+00
         0.00000E+00
         0.00000E+00
         0.00000E+00
         0.00000E+00
         0.00000E+00
         0.00000E+00
         0.00000E+00
         0.00000E+00
         0.00000E+00
         0.00000E+00
         0.00000E+00
         0.00000E+00
         0.00000E+00
         0.00000E+00
         0.00000E+00
         0.00000E+00
         0.00000E+00
         0.00000E+00
         0.00000E+00
         0.00000E+00
         0.00000E+00
         0.00000E+00
         0.00000E+00
         0.00000E+00
         0.00000E+00
         0.00000E+00
         0.00000E+00
         0.00000E+00
         0.00000E+00
         0.00000E+00
         0.00000E+00
         0.00000E+00
         0.00000E+00
         0.00000E+00
         0.00000E+00
         0.00000E+00
         0.00000E+00
         0.00000E+00
         0.00000E+00
         0.00000E+00
         0.00000E+00
         0.00000E+00
         0.00000E+00
         0.00000E+00
         0.00000E+00
         0.00000E+00
         0.00000E+00
         0.00000E+00
         0.00000E+00
         0.00000E+00
         0.00000E+00
         0.00000E+00
         0.00000E+00
         0.00000E+00
         0.00000E+00
         0.00000E+00
         0.00000E+00
         0.00000E+00
         0.00000E+00
         0.00000E+00
         0.00000E+00
         0.00000E+00
         0.00000E+00
         0.00000E+00
         0.00000E+00
         0.00000E+00
         0.00000E+00
         0.00000E+00
         0.00000E+00
         0.00000E+00
         0.00000E+00
         0.00000E+00
         0.00000E+00
         0.00000E+00
         0.00000E+00
         0.00000E+00
         0.00000E+00
         0.00000E+00
         0.00000E+00
         0.00000E+00
         0.00000E+00
         0.00000E+00
         0.00000E+00
         0.00000E+00
         0.00000E+00
         0.00000E+00
         0.00000E+00
         0.00000E+00
         0.00000E+00
         0.00000E+00
         0.00000E+00
         0.00000E+00
         0.00000E+00
         0.00000E+00
         0.00000E+00
         0.00000E+00
         0.00000E+00
         0.00000E+00
         0.00000E+00
         0.00000E+00
         0.00000E+00
         0.00000E+00
         0.00000E+00
         0.00000E+00
         0.00000E+00
         0.00000E+00
         0.00000E+00
         0.00000E+00
         0.00000E+00
         0.00000E+00
         0.00000E+00
         0.00000E+00
         0.00000E+00
         0.00000E+00
         0.00000E+00
         0.00000E+00
         0.00000E+00
         0.00000E+00
         0.00000E+00
         0.00000E+00
         0.00000E+00
         0.00000E+00
         0.00000E+00
         0.00000E+00
         0.00000E+00
         0.00000E+00
         0.00000E+00
         0.00000E+00
         0.00000E+00
         0.00000E+00
         0.00000E+00
         0.00000E+00
         0.00000E+00
         0.00000E+00
         0.00000E+00
         0.00000E+00
         0.00000E+00
         0.00000E+00
         0.00000E+00
         0.00000E+00
         0.00000E+00
         0.00000E+00
         0.00000E+00
         0.00000E+00
         0.00000E+00
         0.00000E+00
         0.00000E+00
         0.00000E+00
         0.00000E+00
         0.00000E+00
         0.00000E+00
         0.00000E+00
         0.00000E+00
         0.00000E+00
         0.00000E+00
         0.00000E+00
         0.00000E+00
         0.00000E+00
         0.00000E+00
         0.00000E+00
         0.00000E+00
         0.00000E+00
         0.00000E+00
         0.00000E+00
         0.00000E+00
         0.00000E+00
         0.00000E+00
         0.00000E+00
         0.00000E+00
         0.00000E+00
         0.00000E+00
         0.00000E+00
         0.00000E+00
         0.00000E+00
         0.00000E+00
         0.00000E+00
         0.00000E+00
         0.00000E+00
         0.00000E+00
         0.00000E+00
         0.00000E+00
         0.00000E+00
         0.00000E+00
         0.00000E+00
         0.00000E+00
         0.00000E+00
         0.00000E+00
         0.00000E+00
         0.00000E+00
         0.00000E+00
         0.00000E+00
         0.00000E+00
         0.00000E+00
         0.00000E+00
         0.00000E+00
         0.00000E+00
         0.00000E+00
         0.00000E+00
         0.00000E+00
         0.00000E+00
         0.00000E+00
         0.00000E+00
         0.00000E+00
         0.00000E+00
         0.00000E+00
         0.00000E+00
         0.00000E+00
         0.00000E+00
         0.00000E+00
         0.00000E+00
         0.00000E+00
         0.00000E+00
         0.00000E+00
         0.00000E+00
         0.00000E+00
         0.00000E+00
         0.00000E+00
         0.00000E+00
         0.00000E+00
         0.00000E+00
         0.00000E+00
         0.00000E+00
         0.00000E+00
         0.00000E+00
         0.00000E+00
         0.00000E+00
         0.00000E+00
         0.00000E+00
         0.00000E+00
         0.00000E+00
         0.00000E+00
         0.00000E+00
         0.00000E+00
         0.00000E+00
         0.00000E+00
         0.00000E+00
         0.00000E+00
         0.00000E+00
         0.00000E+00
         0.00000E+00
         0.00000E+00
         0.00000E+00
         0.00000E+00
         0.00000E+00
         0.00000E+00
         0.00000E+00
         0.00000E+00
         0.00000E+00
         0.00000E+00
         0.00000E+00
         0.00000E+00
         0.00000E+00
         0.00000E+00
         0.00000E+00
         0.00000E+00
         0.00000E+00
         0.00000E+00
         0.00000E+00
         0.00000E+00
         0.00000E+00
         0.00000E+00
         0.00000E+00
         0.00000E+00
         0.00000E+00
         0.00000E+00
         0.00000E+00
         0.00000E+00
         0.00000E+00
         0.00000E+00
         0.00000E+00
         0.00000E+00
         0.00000E+00
         0.00000E+00
         0.00000E+00
         0.00000E+00
         0.00000E+00
         0.00000E+00
         0.00000E+00
         0.00000E+00
         0.00000E+00
         0.00000E+00
         0.00000E+00
         0.00000E+00
         0.00000E+00
         0.00000E+00
         0.00000E+00
         0.00000E+00
         0.00000E+00
         0.00000E+00
         0.00000E+00
         0.00000E+00
         0.00000E+00
         0.00000E+00
         0.00000E+00
         0.00000E+00
         0.00000E+00
         0.00000E+00
         0.00000E+00
         0.00000E+00
         0.00000E+00
         0.00000E+00
         0.00000E+00
         0.00000E+00
         0.00000E+00
         0.00000E+00
         0.00000E+00
         0.00000E+00
         0.00000E+00
         0.00000E+00
         0.00000E+00
         0.00000E+00
         0.00000E+00
         0.00000E+00
         0.00000E+00
         0.00000E+00
         0.00000E+00
         0.00000E+00
         0.00000E+00
         0.00000E+00
         0.00000E+00
         0.00000E+00
         0.00000E+00
         0.00000E+00
         0.00000E+00
         0.00000E+00
         0.00000E+00
         0.00000E+00
         0.00000E+00
         0.00000E+00
         0.00000E+00
         0.00000E+00
         0.00000E+00
         0.00000E+00
         0.00000E+00
         0.00000E+00
         0.00000E+00
         0.00000E+00
         0.00000E+00
         0.00000E+00
         0.00000E+00
         0.00000E+00
         0.00000E+00
         0.00000E+00
         0.00000E+00
         0.00000E+00
         0.00000E+00
         0.00000E+00
         0.00000E+00
         0.00000E+00
         0.00000E+00
         0.00000E+00
         0.00000E+00
         0.00000E+00
         0.00000E+00
         0.00000E+00
         0.00000E+00
         0.00000E+00
         0.00000E+00
         0.00000E+00
         0.00000E+00
         0.00000E+00
         0.00000E+00
         0.00000E+00
         0.00000E+00
         0.00000E+00
         0.00000E+00
         0.00000E+00
         0.00000E+00
         0.00000E+00
         0.00000E+00
         0.00000E+00
         0.00000E+00
         0.00000E+00
         0.00000E+00
         0.00000E+00
         0.00000E+00
         0.00000E+00
         0.00000E+00
         0.00000E+00
         0.00000E+00
         0.00000E+00
         0.00000E+00
         0.00000E+00
         0.00000E+00
         0.00000E+00
         0.00000E+00
         0.00000E+00
         0.00000E+00
         0.00000E+00
         0.00000E+00
         0.00000E+00
         0.00000E+00
         0.00000E+00
         0.00000E+00
         0.00000E+00
         0.00000E+00
         0.00000E+00
         0.00000E+00
         0.00000E+00
         0.00000E+00
         0.00000E+00
         0.00000E+00
         0.00000E+00
         0.00000E+00
         0.00000E+00
         0.00000E+00
         0.00000E+00
         0.00000E+00
         0.00000E+00
         0.00000E+00
         0.00000E+00
         0.00000E+00
         0.00000E+00
         0.00000E+00
         0.00000E+00
         0.00000E+00
         0.00000E+00
         0.00000E+00
         0.00000E+00
         0.00000E+00
         0.00000E+00
         0.00000E+00
         0.00000E+00
         0.00000E+00
         0.00000E+00
         0.00000E+00
         0.00000E+00
         0.00000E+00
         0.00000E+00
         0.00000E+00
         0.00000E+00
         0.00000E+00
         0.00000E+00
         0.00000E+00
         0.00000E+00
         0.00000E+00
         0.00000E+00
         0.00000E+00
         0.00000E+00
         0.00000E+00
         0.00000E+00
         0.00000E+00
         0.00000E+00
         0.00000E+00
         0.00000E+00
         0.00000E+00
         0.00000E+00
         0.00000E+00
         0.00000E+00
         0.00000E+00
         0.00000E+00
         0.00000E+00
         0.00000E+00
         0.00000E+00
         0.00000E+00
         0.00000E+00
         0.00000E+00
         0.00000E+00
         0.00000E+00
         0.00000E+00
         0.00000E+00
         0.00000E+00
         0.00000E+00
         0.00000E+00
         0.00000E+00
         0.00000E+00
         0.00000E+00
         0.00000E+00
         0.00000E+00
         0.00000E+00
         0.00000E+00
         0.00000E+00
         0.00000E+00
         0.00000E+00
         0.00000E+00
         0.00000E+00
         0.00000E+00
         0.00000E+00
         0.00000E+00
         0.00000E+00
         0.00000E+00
         0.00000E+00
         0.00000E+00
         0.00000E+00
         0.00000E+00
         0.00000E+00
         0.00000E+00
         0.00000E+00
         0.00000E+00
         0.00000E+00
         0.00000E+00
         0.00000E+00
         0.00000E+00
         0.00000E+00
         0.00000E+00
         0.00000E+00
         0.00000E+00
         0.00000E+00
         0.00000E+00
         0.00000E+00
         0.00000E+00
         0.00000E+00
         0.00000E+00
         0.00000E+00
         0.00000E+00
         0.00000E+00
         0.00000E+00
         0.00000E+00
         0.00000E+00
         0.00000E+00
         0.00000E+00
         0.00000E+00
         0.00000E+00
         0.00000E+00
         0.00000E+00
         0.00000E+00
         0.00000E+00
         0.00000E+00
         0.00000E+00
         0.00000E+00
         0.00000E+00
         0.00000E+00
         0.00000E+00
         0.00000E+00
         0.00000E+00
         0.00000E+00
         0.00000E+00
         0.00000E+00
         0.00000E+00
         0.00000E+00
         0.00000E+00
         0.00000E+00
         0.00000E+00
         0.00000E+00
         0.00000E+00
         0.00000E+00
         0.00000E+00
         0.00000E+00
         0.00000E+00
         0.00000E+00
         0.00000E+00
         0.00000E+00
         0.00000E+00
         0.00000E+00
         0.00000E+00
         0.00000E+00
         0.00000E+00
         0.00000E+00
         0.00000E+00
         0.00000E+00
         0.00000E+00
         0.00000E+00
         0.00000E+00
         0.00000E+00
         0.00000E+00
         0.00000E+00
         0.00000E+00
         0.00000E+00
         0.00000E+00
         0.00000E+00
         0.00000E+00
         0.00000E+00
         0.00000E+00
         0.00000E+00
         0.00000E+00
         0.00000E+00
         0.00000E+00
         0.00000E+00
         0.00000E+00
         0.00000E+00
         0.00000E+00
         0.00000E+00
         0.00000E+00
         0.00000E+00
         0.00000E+00
         0.00000E+00
         0.00000E+00
         0.00000E+00
         0.00000E+00
         0.00000E+00
         0.00000E+00
         0.00000E+00
         0.00000E+00
         0.00000E+00
         0.00000E+00
         0.00000E+00
         0.00000E+00
         0.00000E+00
         0.00000E+00
         0.00000E+00
         0.00000E+00
         0.00000E+00
         0.00000E+00
         0.00000E+00
         0.00000E+00
         0.00000E+00
         0.00000E+00
         0.00000E+00
         0.00000E+00
         0.00000E+00
         0.00000E+00
         0.00000E+00
         0.00000E+00
         0.00000E+00
         0.00000E+00
         0.00000E+00
         0.00000E+00
         0.00000E+00
         0.00000E+00
         0.00000E+00
         0.00000E+00
         0.00000E+00
         0.00000E+00
         0.00000E+00
         0.00000E+00
         0.00000E+00
         0.00000E+00
         0.00000E+00
         0.00000E+00
         0.00000E+00
         0.00000E+00
         0.00000E+00
         0.00000E+00
         0.00000E+00
         0.00000E+00
         0.00000E+00
         0.00000E+00
         0.00000E+00
         0.00000E+00
         0.00000E+00
         0.00000E+00
         0.00000E+00
         0.00000E+00
         0.00000E+00
         0.00000E+00
         0.00000E+00
         0.00000E+00
         0.00000E+00
         0.00000E+00
         0.00000E+00
         0.00000E+00
         0.00000E+00
         0.00000E+00
         0.00000E+00
         0.00000E+00
         0.00000E+00
         0.00000E+00
         0.00000E+00
         0.00000E+00
         0.00000E+00
         0.00000E+00
         0.00000E+00
         0.00000E+00
         0.00000E+00
         0.00000E+00
         0.00000E+00
         0.00000E+00
         0.00000E+00
         0.00000E+00
         0.00000E+00
         0.00000E+00
         0.00000E+00
         0.00000E+00
         0.00000E+00
         0.00000E+00
         0.00000E+00
         0.00000E+00
         0.00000E+00
         0.00000E+00
         0.00000E+00
         0.00000E+00
         0.00000E+00
         0.00000E+00
         0.00000E+00
         0.00000E+00
         0.00000E+00
         0.00000E+00
         0.00000E+00
         0.00000E+00
         0.00000E+00
         0.00000E+00
         0.00000E+00
         0.00000E+00
         0.00000E+00
         0.00000E+00
         0.00000E+00
         0.00000E+00
         0.00000E+00
         0.00000E+00
         0.00000E+00
         0.00000E+00
         0.00000E+00
         0.00000E+00
         0.00000E+00
         0.00000E+00
         0.00000E+00
         0.00000E+00
         0.00000E+00
         0.00000E+00
         0.00000E+00
         0.00000E+00
         0.00000E+00
         0.00000E+00
         0.00000E+00
         0.00000E+00
         0.00000E+00
         0.00000E+00
         0.00000E+00
         0.00000E+00
         0.00000E+00
         0.00000E+00
         0.00000E+00
         0.00000E+00
         0.00000E+00
         0.00000E+00
         0.00000E+00
         0.00000E+00
         0.00000E+00
         0.00000E+00
         0.00000E+00
         0.00000E+00
         0.00000E+00
         0.00000E+00
         0.00000E+00
         0.00000E+00
         0.00000E+00
         0.00000E+00
         0.00000E+00
         0.00000E+00
         0.00000E+00
         0.00000E+00
         0.00000E+00
         0.00000E+00
         0.00000E+00
         0.00000E+00
         0.00000E+00
         0.00000E+00
         0.00000E+00
         0.00000E+00
         0.00000E+00
         0.00000E+00
         0.00000E+00
         0.00000E+00
         0.00000E+00
         0.00000E+00
         0.00000E+00
         0.00000E+00
         0.00000E+00
         0.00000E+00
         0.00000E+00
         0.00000E+00
         0.00000E+00
         0.00000E+00
         0.00000E+00
         0.00000E+00
         0.00000E+00
         0.00000E+00
         0.00000E+00
         0.00000E+00
         0.00000E+00
         0.00000E+00
         0.00000E+00
         0.00000E+00
         0.00000E+00
         0.00000E+00
         0.00000E+00
         0.00000E+00
         0.00000E+00
         0.00000E+00
         0.00000E+00
         0.00000E+00
         0.00000E+00
         0.00000E+00
         0.00000E+00
         0.00000E+00
         0.00000E+00
         0.00000E+00
         0.00000E+00
         0.00000E+00
         0.00000E+00
         0.00000E+00
         0.00000E+00
         0.00000E+00
         0.00000E+00
         0.00000E+00
         0.00000E+00
         0.00000E+00
         0.00000E+00
         0.00000E+00
         0.00000E+00
         0.00000E+00
         0.00000E+00
         0.00000E+00
         0.00000E+00
         0.00000E+00
         0.00000E+00
         0.00000E+00
         0.00000E+00
         0.00000E+00
         0.00000E+00
         0.00000E+00
         0.00000E+00
         0.00000E+00
         0.00000E+00
         0.00000E+00
         0.00000E+00
         0.00000E+00
         0.00000E+00
         0.00000E+00
         0.00000E+00
         0.00000E+00
         0.00000E+00
         0.00000E+00
         0.00000E+00
         0.00000E+00
         0.00000E+00
         0.00000E+00
         0.00000E+00
         0.00000E+00
         0.00000E+00
         0.00000E+00
         0.00000E+00
         0.00000E+00
         0.00000E+00
         0.00000E+00
         0.00000E+00
         0.00000E+00
         0.00000E+00
         0.00000E+00
         0.00000E+00
         0.00000E+00
         0.00000E+00
         0.00000E+00
         0.00000E+00
         0.00000E+00
         0.00000E+00
         0.00000E+00
         0.00000E+00
         0.00000E+00
         0.00000E+00
         0.00000E+00
         0.00000E+00
         0.00000E+00
         0.00000E+00
         0.00000E+00
         0.00000E+00
         0.00000E+00
         0.00000E+00
         0.00000E+00
         0.00000E+00
         0.00000E+00
         0.00000E+00
         0.00000E+00
         0.00000E+00
         0.00000E+00
         0.00000E+00
         0.00000E+00
         0.00000E+00
         0.00000E+00
         0.00000E+00
         0.00000E+00
         0.00000E+00
         0.00000E+00
         0.00000E+00
         0.00000E+00
         0.00000E+00
         0.00000E+00
         0.00000E+00
         0.00000E+00
         0.00000E+00
         0.00000E+00
         0.00000E+00
         0.00000E+00
         0.00000E+00
         0.00000E+00
         0.00000E+00
         0.00000E+00
         0.00000E+00
         0.00000E+00
         0.00000E+00
         0.00000E+00
         0.00000E+00
         0.00000E+00
         0.00000E+00
         0.00000E+00
         0.00000E+00
         0.00000E+00
         0.00000E+00
         0.00000E+00
         0.00000E+00
         0.00000E+00
         0.00000E+00
         0.00000E+00
         0.00000E+00
         0.00000E+00
         0.00000E+00
         0.00000E+00
         0.00000E+00
         0.00000E+00
         0.00000E+00
         0.00000E+00
         0.00000E+00
         0.00000E+00
         0.00000E+00
         0.00000E+00
         0.00000E+00
         0.00000E+00
         0.00000E+00
         0.00000E+00
         0.00000E+00
         0.00000E+00
         0.00000E+00
         0.00000E+00
         0.00000E+00
         0.00000E+00
         0.00000E+00
         0.00000E+00
         0.00000E+00
         0.00000E+00
         0.00000E+00
         0.00000E+00
         0.00000E+00
         0.00000E+00
  
SCALARS                init_velocity_z  double 1
LOOKUP_TABLE default
        -0.37300E+03
        -0.37300E+03
        -0.37300E+03
        -0.37300E+03
        -0.37300E+03
        -0.37300E+03
        -0.37300E+03
        -0.37300E+03
        -0.37300E+03
        -0.37300E+03
        -0.37300E+03
        -0.37300E+03
        -0.37300E+03
        -0.37300E+03
        -0.37300E+03
        -0.37300E+03
        -0.37300E+03
        -0.37300E+03
        -0.37300E+03
        -0.37300E+03
        -0.37300E+03
        -0.37300E+03
        -0.37300E+03
        -0.37300E+03
        -0.37300E+03
        -0.37300E+03
        -0.37300E+03
        -0.37300E+03
        -0.37300E+03
        -0.37300E+03
        -0.37300E+03
        -0.37300E+03
        -0.37300E+03
        -0.37300E+03
        -0.37300E+03
        -0.37300E+03
        -0.37300E+03
        -0.37300E+03
        -0.37300E+03
        -0.37300E+03
        -0.37300E+03
        -0.37300E+03
        -0.37300E+03
        -0.37300E+03
        -0.37300E+03
        -0.37300E+03
        -0.37300E+03
        -0.37300E+03
        -0.37300E+03
        -0.37300E+03
        -0.37300E+03
        -0.37300E+03
        -0.37300E+03
        -0.37300E+03
        -0.37300E+03
        -0.37300E+03
        -0.37300E+03
        -0.37300E+03
        -0.37300E+03
        -0.37300E+03
        -0.37300E+03
        -0.37300E+03
        -0.37300E+03
        -0.37300E+03
        -0.37300E+03
        -0.37300E+03
        -0.37300E+03
        -0.37300E+03
        -0.37300E+03
        -0.37300E+03
        -0.37300E+03
        -0.37300E+03
        -0.37300E+03
        -0.37300E+03
        -0.37300E+03
        -0.37300E+03
        -0.37300E+03
        -0.37300E+03
        -0.37300E+03
        -0.37300E+03
        -0.37300E+03
        -0.37300E+03
        -0.37300E+03
        -0.37300E+03
        -0.37300E+03
        -0.37300E+03
        -0.37300E+03
        -0.37300E+03
        -0.37300E+03
        -0.37300E+03
        -0.37300E+03
        -0.37300E+03
        -0.37300E+03
        -0.37300E+03
        -0.37300E+03
        -0.37300E+03
        -0.37300E+03
        -0.37300E+03
        -0.37300E+03
        -0.37300E+03
        -0.37300E+03
        -0.37300E+03
        -0.37300E+03
        -0.37300E+03
        -0.37300E+03
        -0.37300E+03
        -0.37300E+03
        -0.37300E+03
        -0.37300E+03
        -0.37300E+03
        -0.37300E+03
        -0.37300E+03
        -0.37300E+03
        -0.37300E+03
        -0.37300E+03
        -0.37300E+03
        -0.37300E+03
        -0.37300E+03
        -0.37300E+03
        -0.37300E+03
        -0.37300E+03
        -0.37300E+03
        -0.37300E+03
        -0.37300E+03
        -0.37300E+03
        -0.37300E+03
        -0.37300E+03
        -0.37300E+03
        -0.37300E+03
        -0.37300E+03
        -0.37300E+03
        -0.37300E+03
        -0.37300E+03
        -0.37300E+03
        -0.37300E+03
        -0.37300E+03
        -0.37300E+03
        -0.37300E+03
        -0.37300E+03
        -0.37300E+03
        -0.37300E+03
        -0.37300E+03
        -0.37300E+03
        -0.37300E+03
        -0.37300E+03
        -0.37300E+03
        -0.37300E+03
        -0.37300E+03
        -0.37300E+03
        -0.37300E+03
        -0.37300E+03
        -0.37300E+03
        -0.37300E+03
        -0.37300E+03
        -0.37300E+03
        -0.37300E+03
        -0.37300E+03
        -0.37300E+03
        -0.37300E+03
        -0.37300E+03
        -0.37300E+03
        -0.37300E+03
        -0.37300E+03
        -0.37300E+03
        -0.37300E+03
        -0.37300E+03
        -0.37300E+03
        -0.37300E+03
        -0.37300E+03
        -0.37300E+03
        -0.37300E+03
        -0.37300E+03
        -0.37300E+03
        -0.37300E+03
        -0.37300E+03
        -0.37300E+03
        -0.37300E+03
        -0.37300E+03
        -0.37300E+03
        -0.37300E+03
        -0.37300E+03
        -0.37300E+03
        -0.37300E+03
        -0.37300E+03
        -0.37300E+03
        -0.37300E+03
        -0.37300E+03
        -0.37300E+03
        -0.37300E+03
        -0.37300E+03
        -0.37300E+03
        -0.37300E+03
        -0.37300E+03
        -0.37300E+03
        -0.37300E+03
        -0.37300E+03
        -0.37300E+03
        -0.37300E+03
        -0.37300E+03
        -0.37300E+03
        -0.37300E+03
        -0.37300E+03
        -0.37300E+03
        -0.37300E+03
        -0.37300E+03
        -0.37300E+03
        -0.37300E+03
        -0.37300E+03
        -0.37300E+03
        -0.37300E+03
        -0.37300E+03
        -0.37300E+03
        -0.37300E+03
        -0.37300E+03
        -0.37300E+03
        -0.37300E+03
        -0.37300E+03
        -0.37300E+03
        -0.37300E+03
        -0.37300E+03
        -0.37300E+03
        -0.37300E+03
        -0.37300E+03
        -0.37300E+03
        -0.37300E+03
        -0.37300E+03
        -0.37300E+03
        -0.37300E+03
        -0.37300E+03
        -0.37300E+03
        -0.37300E+03
        -0.37300E+03
        -0.37300E+03
        -0.37300E+03
        -0.37300E+03
        -0.37300E+03
        -0.37300E+03
        -0.37300E+03
        -0.37300E+03
        -0.37300E+03
        -0.37300E+03
        -0.37300E+03
        -0.37300E+03
        -0.37300E+03
        -0.37300E+03
        -0.37300E+03
        -0.37300E+03
        -0.37300E+03
        -0.37300E+03
        -0.37300E+03
        -0.37300E+03
        -0.37300E+03
        -0.37300E+03
        -0.37300E+03
        -0.37300E+03
        -0.37300E+03
        -0.37300E+03
        -0.37300E+03
        -0.37300E+03
        -0.37300E+03
        -0.37300E+03
        -0.37300E+03
        -0.37300E+03
        -0.37300E+03
        -0.37300E+03
        -0.37300E+03
        -0.37300E+03
        -0.37300E+03
        -0.37300E+03
        -0.37300E+03
        -0.37300E+03
        -0.37300E+03
        -0.37300E+03
        -0.37300E+03
        -0.37300E+03
        -0.37300E+03
        -0.37300E+03
        -0.37300E+03
        -0.37300E+03
        -0.37300E+03
        -0.37300E+03
        -0.37300E+03
        -0.37300E+03
        -0.37300E+03
        -0.37300E+03
        -0.37300E+03
        -0.37300E+03
        -0.37300E+03
        -0.37300E+03
        -0.37300E+03
        -0.37300E+03
        -0.37300E+03
        -0.37300E+03
        -0.37300E+03
        -0.37300E+03
        -0.37300E+03
        -0.37300E+03
        -0.37300E+03
        -0.37300E+03
        -0.37300E+03
        -0.37300E+03
        -0.37300E+03
        -0.37300E+03
        -0.37300E+03
        -0.37300E+03
        -0.37300E+03
        -0.37300E+03
        -0.37300E+03
        -0.37300E+03
        -0.37300E+03
        -0.37300E+03
        -0.37300E+03
        -0.37300E+03
        -0.37300E+03
        -0.37300E+03
        -0.37300E+03
        -0.37300E+03
        -0.37300E+03
        -0.37300E+03
        -0.37300E+03
        -0.37300E+03
        -0.37300E+03
        -0.37300E+03
        -0.37300E+03
        -0.37300E+03
        -0.37300E+03
        -0.37300E+03
        -0.37300E+03
        -0.37300E+03
        -0.37300E+03
        -0.37300E+03
        -0.37300E+03
        -0.37300E+03
        -0.37300E+03
        -0.37300E+03
        -0.37300E+03
        -0.37300E+03
        -0.37300E+03
        -0.37300E+03
        -0.37300E+03
        -0.37300E+03
        -0.37300E+03
        -0.37300E+03
        -0.37300E+03
        -0.37300E+03
        -0.37300E+03
        -0.37300E+03
        -0.37300E+03
        -0.37300E+03
        -0.37300E+03
        -0.37300E+03
        -0.37300E+03
        -0.37300E+03
        -0.37300E+03
        -0.37300E+03
        -0.37300E+03
        -0.37300E+03
        -0.37300E+03
        -0.37300E+03
        -0.37300E+03
        -0.37300E+03
        -0.37300E+03
        -0.37300E+03
        -0.37300E+03
        -0.37300E+03
        -0.37300E+03
        -0.37300E+03
        -0.37300E+03
        -0.37300E+03
        -0.37300E+03
        -0.37300E+03
        -0.37300E+03
        -0.37300E+03
        -0.37300E+03
        -0.37300E+03
        -0.37300E+03
        -0.37300E+03
        -0.37300E+03
        -0.37300E+03
        -0.37300E+03
        -0.37300E+03
        -0.37300E+03
        -0.37300E+03
        -0.37300E+03
        -0.37300E+03
        -0.37300E+03
        -0.37300E+03
        -0.37300E+03
        -0.37300E+03
        -0.37300E+03
        -0.37300E+03
        -0.37300E+03
        -0.37300E+03
        -0.37300E+03
        -0.37300E+03
        -0.37300E+03
        -0.37300E+03
        -0.37300E+03
        -0.37300E+03
        -0.37300E+03
        -0.37300E+03
        -0.37300E+03
        -0.37300E+03
        -0.37300E+03
        -0.37300E+03
        -0.37300E+03
        -0.37300E+03
        -0.37300E+03
        -0.37300E+03
        -0.37300E+03
        -0.37300E+03
        -0.37300E+03
        -0.37300E+03
        -0.37300E+03
        -0.37300E+03
        -0.37300E+03
        -0.37300E+03
        -0.37300E+03
        -0.37300E+03
        -0.37300E+03
        -0.37300E+03
        -0.37300E+03
        -0.37300E+03
        -0.37300E+03
        -0.37300E+03
        -0.37300E+03
        -0.37300E+03
        -0.37300E+03
        -0.37300E+03
        -0.37300E+03
        -0.37300E+03
        -0.37300E+03
        -0.37300E+03
        -0.37300E+03
        -0.37300E+03
        -0.37300E+03
        -0.37300E+03
        -0.37300E+03
        -0.37300E+03
        -0.37300E+03
        -0.37300E+03
        -0.37300E+03
        -0.37300E+03
        -0.37300E+03
        -0.37300E+03
        -0.37300E+03
        -0.37300E+03
        -0.37300E+03
        -0.37300E+03
        -0.37300E+03
        -0.37300E+03
        -0.37300E+03
        -0.37300E+03
        -0.37300E+03
        -0.37300E+03
        -0.37300E+03
        -0.37300E+03
        -0.37300E+03
        -0.37300E+03
        -0.37300E+03
        -0.37300E+03
        -0.37300E+03
        -0.37300E+03
        -0.37300E+03
        -0.37300E+03
        -0.37300E+03
        -0.37300E+03
        -0.37300E+03
        -0.37300E+03
        -0.37300E+03
        -0.37300E+03
        -0.37300E+03
        -0.37300E+03
        -0.37300E+03
        -0.37300E+03
        -0.37300E+03
        -0.37300E+03
        -0.37300E+03
        -0.37300E+03
        -0.37300E+03
        -0.37300E+03
        -0.37300E+03
        -0.37300E+03
        -0.37300E+03
        -0.37300E+03
        -0.37300E+03
        -0.37300E+03
        -0.37300E+03
        -0.37300E+03
        -0.37300E+03
        -0.37300E+03
        -0.37300E+03
        -0.37300E+03
        -0.37300E+03
        -0.37300E+03
        -0.37300E+03
        -0.37300E+03
        -0.37300E+03
        -0.37300E+03
        -0.37300E+03
        -0.37300E+03
        -0.37300E+03
        -0.37300E+03
        -0.37300E+03
        -0.37300E+03
        -0.37300E+03
        -0.37300E+03
        -0.37300E+03
        -0.37300E+03
        -0.37300E+03
        -0.37300E+03
        -0.37300E+03
        -0.37300E+03
        -0.37300E+03
        -0.37300E+03
        -0.37300E+03
        -0.37300E+03
        -0.37300E+03
        -0.37300E+03
        -0.37300E+03
        -0.37300E+03
        -0.37300E+03
        -0.37300E+03
        -0.37300E+03
        -0.37300E+03
        -0.37300E+03
        -0.37300E+03
        -0.37300E+03
        -0.37300E+03
        -0.37300E+03
        -0.37300E+03
        -0.37300E+03
        -0.37300E+03
        -0.37300E+03
        -0.37300E+03
        -0.37300E+03
        -0.37300E+03
        -0.37300E+03
        -0.37300E+03
        -0.37300E+03
        -0.37300E+03
        -0.37300E+03
        -0.37300E+03
        -0.37300E+03
        -0.37300E+03
        -0.37300E+03
        -0.37300E+03
        -0.37300E+03
        -0.37300E+03
        -0.37300E+03
        -0.37300E+03
        -0.37300E+03
        -0.37300E+03
        -0.37300E+03
        -0.37300E+03
        -0.37300E+03
        -0.37300E+03
        -0.37300E+03
        -0.37300E+03
        -0.37300E+03
        -0.37300E+03
        -0.37300E+03
        -0.37300E+03
        -0.37300E+03
        -0.37300E+03
        -0.37300E+03
        -0.37300E+03
        -0.37300E+03
        -0.37300E+03
        -0.37300E+03
        -0.37300E+03
        -0.37300E+03
        -0.37300E+03
        -0.37300E+03
        -0.37300E+03
        -0.37300E+03
        -0.37300E+03
        -0.37300E+03
        -0.37300E+03
        -0.37300E+03
        -0.37300E+03
        -0.37300E+03
        -0.37300E+03
        -0.37300E+03
        -0.37300E+03
        -0.37300E+03
        -0.37300E+03
        -0.37300E+03
        -0.37300E+03
        -0.37300E+03
        -0.37300E+03
        -0.37300E+03
        -0.37300E+03
        -0.37300E+03
        -0.37300E+03
        -0.37300E+03
        -0.37300E+03
        -0.37300E+03
        -0.37300E+03
        -0.37300E+03
        -0.37300E+03
        -0.37300E+03
        -0.37300E+03
        -0.37300E+03
        -0.37300E+03
        -0.37300E+03
        -0.37300E+03
        -0.37300E+03
        -0.37300E+03
        -0.37300E+03
        -0.37300E+03
        -0.37300E+03
        -0.37300E+03
        -0.37300E+03
        -0.37300E+03
        -0.37300E+03
        -0.37300E+03
        -0.37300E+03
        -0.37300E+03
        -0.37300E+03
        -0.37300E+03
        -0.37300E+03
        -0.37300E+03
        -0.37300E+03
        -0.37300E+03
        -0.37300E+03
        -0.37300E+03
        -0.37300E+03
        -0.37300E+03
        -0.37300E+03
        -0.37300E+03
        -0.37300E+03
        -0.37300E+03
        -0.37300E+03
        -0.37300E+03
        -0.37300E+03
        -0.37300E+03
        -0.37300E+03
        -0.37300E+03
        -0.37300E+03
        -0.37300E+03
        -0.37300E+03
        -0.37300E+03
        -0.37300E+03
        -0.37300E+03
        -0.37300E+03
        -0.37300E+03
        -0.37300E+03
        -0.37300E+03
        -0.37300E+03
        -0.37300E+03
        -0.37300E+03
        -0.37300E+03
        -0.37300E+03
        -0.37300E+03
        -0.37300E+03
        -0.37300E+03
        -0.37300E+03
        -0.37300E+03
        -0.37300E+03
        -0.37300E+03
        -0.37300E+03
        -0.37300E+03
        -0.37300E+03
        -0.37300E+03
        -0.37300E+03
        -0.37300E+03
        -0.37300E+03
        -0.37300E+03
        -0.37300E+03
        -0.37300E+03
        -0.37300E+03
        -0.37300E+03
        -0.37300E+03
        -0.37300E+03
        -0.37300E+03
        -0.37300E+03
        -0.37300E+03
        -0.37300E+03
        -0.37300E+03
        -0.37300E+03
        -0.37300E+03
        -0.37300E+03
        -0.37300E+03
        -0.37300E+03
        -0.37300E+03
        -0.37300E+03
        -0.37300E+03
        -0.37300E+03
        -0.37300E+03
        -0.37300E+03
        -0.37300E+03
        -0.37300E+03
        -0.37300E+03
        -0.37300E+03
        -0.37300E+03
        -0.37300E+03
        -0.37300E+03
        -0.37300E+03
        -0.37300E+03
        -0.37300E+03
        -0.37300E+03
        -0.37300E+03
        -0.37300E+03
        -0.37300E+03
        -0.37300E+03
        -0.37300E+03
        -0.37300E+03
        -0.37300E+03
        -0.37300E+03
        -0.37300E+03
        -0.37300E+03
        -0.37300E+03
        -0.37300E+03
        -0.37300E+03
        -0.37300E+03
        -0.37300E+03
        -0.37300E+03
        -0.37300E+03
        -0.37300E+03
        -0.37300E+03
        -0.37300E+03
        -0.37300E+03
        -0.37300E+03
        -0.37300E+03
        -0.37300E+03
        -0.37300E+03
        -0.37300E+03
        -0.37300E+03
        -0.37300E+03
        -0.37300E+03
        -0.37300E+03
        -0.37300E+03
        -0.37300E+03
        -0.37300E+03
        -0.37300E+03
        -0.37300E+03
        -0.37300E+03
        -0.37300E+03
        -0.37300E+03
        -0.37300E+03
        -0.37300E+03
        -0.37300E+03
        -0.37300E+03
        -0.37300E+03
        -0.37300E+03
        -0.37300E+03
        -0.37300E+03
        -0.37300E+03
        -0.37300E+03
        -0.37300E+03
        -0.37300E+03
        -0.37300E+03
        -0.37300E+03
        -0.37300E+03
        -0.37300E+03
        -0.37300E+03
        -0.37300E+03
        -0.37300E+03
        -0.37300E+03
        -0.37300E+03
        -0.37300E+03
        -0.37300E+03
        -0.37300E+03
        -0.37300E+03
        -0.37300E+03
        -0.37300E+03
        -0.37300E+03
        -0.37300E+03
        -0.37300E+03
        -0.37300E+03
        -0.37300E+03
        -0.37300E+03
        -0.37300E+03
        -0.37300E+03
        -0.37300E+03
        -0.37300E+03
        -0.37300E+03
        -0.37300E+03
        -0.37300E+03
        -0.37300E+03
        -0.37300E+03
        -0.37300E+03
        -0.37300E+03
        -0.37300E+03
        -0.37300E+03
        -0.37300E+03
        -0.37300E+03
        -0.37300E+03
        -0.37300E+03
        -0.37300E+03
        -0.37300E+03
        -0.37300E+03
        -0.37300E+03
        -0.37300E+03
        -0.37300E+03
        -0.37300E+03
        -0.37300E+03
        -0.37300E+03
        -0.37300E+03
        -0.37300E+03
        -0.37300E+03
        -0.37300E+03
        -0.37300E+03
        -0.37300E+03
        -0.37300E+03
        -0.37300E+03
        -0.37300E+03
        -0.37300E+03
        -0.37300E+03
        -0.37300E+03
        -0.37300E+03
        -0.37300E+03
        -0.37300E+03
        -0.37300E+03
        -0.37300E+03
        -0.37300E+03
        -0.37300E+03
        -0.37300E+03
        -0.37300E+03
        -0.37300E+03
        -0.37300E+03
        -0.37300E+03
        -0.37300E+03
        -0.37300E+03
        -0.37300E+03
        -0.37300E+03
        -0.37300E+03
        -0.37300E+03
        -0.37300E+03
        -0.37300E+03
        -0.37300E+03
        -0.37300E+03
        -0.37300E+03
        -0.37300E+03
        -0.37300E+03
        -0.37300E+03
        -0.37300E+03
        -0.37300E+03
        -0.37300E+03
        -0.37300E+03
        -0.37300E+03
        -0.37300E+03
        -0.37300E+03
        -0.37300E+03
        -0.37300E+03
        -0.37300E+03
        -0.37300E+03
        -0.37300E+03
        -0.37300E+03
        -0.37300E+03
        -0.37300E+03
        -0.37300E+03
        -0.37300E+03
        -0.37300E+03
        -0.37300E+03
        -0.37300E+03
        -0.37300E+03
        -0.37300E+03
        -0.37300E+03
        -0.37300E+03
        -0.37300E+03
        -0.37300E+03
        -0.37300E+03
        -0.37300E+03
        -0.37300E+03
        -0.37300E+03
        -0.37300E+03
        -0.37300E+03
        -0.37300E+03
        -0.37300E+03
        -0.37300E+03
        -0.37300E+03
        -0.37300E+03
        -0.37300E+03
        -0.37300E+03
        -0.37300E+03
        -0.37300E+03
        -0.37300E+03
        -0.37300E+03
        -0.37300E+03
        -0.37300E+03
        -0.37300E+03
        -0.37300E+03
        -0.37300E+03
        -0.37300E+03
        -0.37300E+03
        -0.37300E+03
        -0.37300E+03
        -0.37300E+03
        -0.37300E+03
        -0.37300E+03
        -0.37300E+03
        -0.37300E+03
        -0.37300E+03
        -0.37300E+03
        -0.37300E+03
        -0.37300E+03
        -0.37300E+03
        -0.37300E+03
        -0.37300E+03
        -0.37300E+03
        -0.37300E+03
        -0.37300E+03
        -0.37300E+03
        -0.37300E+03
        -0.37300E+03
        -0.37300E+03
        -0.37300E+03
        -0.37300E+03
        -0.37300E+03
        -0.37300E+03
        -0.37300E+03
        -0.37300E+03
        -0.37300E+03
        -0.37300E+03
        -0.37300E+03
        -0.37300E+03
        -0.37300E+03
        -0.37300E+03
        -0.37300E+03
        -0.37300E+03
        -0.37300E+03
        -0.37300E+03
        -0.37300E+03
        -0.37300E+03
        -0.37300E+03
        -0.37300E+03
        -0.37300E+03
        -0.37300E+03
        -0.37300E+03
        -0.37300E+03
        -0.37300E+03
        -0.37300E+03
        -0.37300E+03
        -0.37300E+03
        -0.37300E+03
        -0.37300E+03
        -0.37300E+03
        -0.37300E+03
        -0.37300E+03
        -0.37300E+03
        -0.37300E+03
        -0.37300E+03
        -0.37300E+03
        -0.37300E+03
        -0.37300E+03
        -0.37300E+03
        -0.37300E+03
        -0.37300E+03
        -0.37300E+03
        -0.37300E+03
        -0.37300E+03
        -0.37300E+03
        -0.37300E+03
        -0.37300E+03
        -0.37300E+03
        -0.37300E+03
        -0.37300E+03
        -0.37300E+03
        -0.37300E+03
        -0.37300E+03
        -0.37300E+03
        -0.37300E+03
        -0.37300E+03
        -0.37300E+03
        -0.37300E+03
        -0.37300E+03
        -0.37300E+03
        -0.37300E+03
        -0.37300E+03
        -0.37300E+03
        -0.37300E+03
        -0.37300E+03
        -0.37300E+03
        -0.37300E+03
        -0.37300E+03
        -0.37300E+03
        -0.37300E+03
        -0.37300E+03
        -0.37300E+03
        -0.37300E+03
        -0.37300E+03
        -0.37300E+03
        -0.37300E+03
        -0.37300E+03
        -0.37300E+03
        -0.37300E+03
        -0.37300E+03
        -0.37300E+03
        -0.37300E+03
        -0.37300E+03
        -0.37300E+03
        -0.37300E+03
        -0.37300E+03
        -0.37300E+03
        -0.37300E+03
        -0.37300E+03
        -0.37300E+03
        -0.37300E+03
        -0.37300E+03
        -0.37300E+03
        -0.37300E+03
        -0.37300E+03
        -0.37300E+03
        -0.37300E+03
        -0.37300E+03
        -0.37300E+03
        -0.37300E+03
        -0.37300E+03
        -0.37300E+03
        -0.37300E+03
        -0.37300E+03
        -0.37300E+03
        -0.37300E+03
        -0.37300E+03
        -0.37300E+03
        -0.37300E+03
        -0.37300E+03
        -0.37300E+03
        -0.37300E+03
        -0.37300E+03
        -0.37300E+03
        -0.37300E+03
        -0.37300E+03
        -0.37300E+03
        -0.37300E+03
        -0.37300E+03
        -0.37300E+03
        -0.37300E+03
        -0.37300E+03
        -0.37300E+03
        -0.37300E+03
        -0.37300E+03
        -0.37300E+03
        -0.37300E+03
        -0.37300E+03
        -0.37300E+03
        -0.37300E+03
        -0.37300E+03
        -0.37300E+03
        -0.37300E+03
        -0.37300E+03
        -0.37300E+03
        -0.37300E+03
        -0.37300E+03
        -0.37300E+03
        -0.37300E+03
        -0.37300E+03
        -0.37300E+03
        -0.37300E+03
        -0.37300E+03
        -0.37300E+03
        -0.37300E+03
        -0.37300E+03
        -0.37300E+03
        -0.37300E+03
        -0.37300E+03
        -0.37300E+03
        -0.37300E+03
        -0.37300E+03
        -0.37300E+03
        -0.37300E+03
        -0.37300E+03
        -0.37300E+03
        -0.37300E+03
        -0.37300E+03
        -0.37300E+03
        -0.37300E+03
        -0.37300E+03
        -0.37300E+03
        -0.37300E+03
        -0.37300E+03
        -0.37300E+03
        -0.37300E+03
        -0.37300E+03
        -0.37300E+03
        -0.37300E+03
        -0.37300E+03
        -0.37300E+03
        -0.37300E+03
        -0.37300E+03
        -0.37300E+03
        -0.37300E+03
        -0.37300E+03
        -0.37300E+03
        -0.37300E+03
        -0.37300E+03
        -0.37300E+03
        -0.37300E+03
        -0.37300E+03
        -0.37300E+03
        -0.37300E+03
        -0.37300E+03
        -0.37300E+03
        -0.37300E+03
        -0.37300E+03
        -0.37300E+03
        -0.37300E+03
        -0.37300E+03
        -0.37300E+03
        -0.37300E+03
        -0.37300E+03
        -0.37300E+03
        -0.37300E+03
        -0.37300E+03
        -0.37300E+03
        -0.37300E+03
        -0.37300E+03
        -0.37300E+03
        -0.37300E+03
        -0.37300E+03
        -0.37300E+03
        -0.37300E+03
        -0.37300E+03
        -0.37300E+03
        -0.37300E+03
        -0.37300E+03
        -0.37300E+03
        -0.37300E+03
        -0.37300E+03
        -0.37300E+03
        -0.37300E+03
        -0.37300E+03
        -0.37300E+03
        -0.37300E+03
        -0.37300E+03
        -0.37300E+03
        -0.37300E+03
        -0.37300E+03
        -0.37300E+03
        -0.37300E+03
        -0.37300E+03
        -0.37300E+03
        -0.37300E+03
        -0.37300E+03
        -0.37300E+03
        -0.37300E+03
        -0.37300E+03
        -0.37300E+03
        -0.37300E+03
        -0.37300E+03
        -0.37300E+03
        -0.37300E+03
        -0.37300E+03
        -0.37300E+03
        -0.37300E+03
        -0.37300E+03
        -0.37300E+03
        -0.37300E+03
        -0.37300E+03
        -0.37300E+03
        -0.37300E+03
        -0.37300E+03
        -0.37300E+03
        -0.37300E+03
        -0.37300E+03
        -0.37300E+03
        -0.37300E+03
        -0.37300E+03
        -0.37300E+03
        -0.37300E+03
        -0.37300E+03
        -0.37300E+03
        -0.37300E+03
        -0.37300E+03
        -0.37300E+03
        -0.37300E+03
        -0.37300E+03
        -0.37300E+03
        -0.37300E+03
        -0.37300E+03
        -0.37300E+03
        -0.37300E+03
        -0.37300E+03
        -0.37300E+03
        -0.37300E+03
        -0.37300E+03
        -0.37300E+03
        -0.37300E+03
        -0.37300E+03
        -0.37300E+03
        -0.37300E+03
        -0.37300E+03
        -0.37300E+03
        -0.37300E+03
        -0.37300E+03
        -0.37300E+03
        -0.37300E+03
        -0.37300E+03
        -0.37300E+03
        -0.37300E+03
        -0.37300E+03
        -0.37300E+03
        -0.37300E+03
        -0.37300E+03
        -0.37300E+03
        -0.37300E+03
        -0.37300E+03
        -0.37300E+03
        -0.37300E+03
        -0.37300E+03
        -0.37300E+03
        -0.37300E+03
        -0.37300E+03
        -0.37300E+03
        -0.37300E+03
        -0.37300E+03
        -0.37300E+03
        -0.37300E+03
        -0.37300E+03
        -0.37300E+03
        -0.37300E+03
        -0.37300E+03
        -0.37300E+03
        -0.37300E+03
        -0.37300E+03
        -0.37300E+03
        -0.37300E+03
        -0.37300E+03
        -0.37300E+03
        -0.37300E+03
        -0.37300E+03
        -0.37300E+03
        -0.37300E+03
        -0.37300E+03
        -0.37300E+03
        -0.37300E+03
        -0.37300E+03
        -0.37300E+03
        -0.37300E+03
        -0.37300E+03
        -0.37300E+03
        -0.37300E+03
        -0.37300E+03
        -0.37300E+03
        -0.37300E+03
        -0.37300E+03
        -0.37300E+03
        -0.37300E+03
        -0.37300E+03
        -0.37300E+03
        -0.37300E+03
        -0.37300E+03
        -0.37300E+03
        -0.37300E+03
        -0.37300E+03
        -0.37300E+03
        -0.37300E+03
        -0.37300E+03
        -0.37300E+03
        -0.37300E+03
        -0.37300E+03
        -0.37300E+03
        -0.37300E+03
        -0.37300E+03
        -0.37300E+03
        -0.37300E+03
        -0.37300E+03
        -0.37300E+03
        -0.37300E+03
        -0.37300E+03
        -0.37300E+03
        -0.37300E+03
        -0.37300E+03
        -0.37300E+03
        -0.37300E+03
        -0.37300E+03
        -0.37300E+03
        -0.37300E+03
        -0.37300E+03
        -0.37300E+03
        -0.37300E+03
        -0.37300E+03
        -0.37300E+03
        -0.37300E+03
        -0.37300E+03
        -0.37300E+03
        -0.37300E+03
        -0.37300E+03
        -0.37300E+03
        -0.37300E+03
        -0.37300E+03
        -0.37300E+03
        -0.37300E+03
        -0.37300E+03
        -0.37300E+03
        -0.37300E+03
        -0.37300E+03
        -0.37300E+03
        -0.37300E+03
        -0.37300E+03
        -0.37300E+03
        -0.37300E+03
        -0.37300E+03
        -0.37300E+03
        -0.37300E+03
        -0.37300E+03
        -0.37300E+03
        -0.37300E+03
        -0.37300E+03
        -0.37300E+03
        -0.37300E+03
        -0.37300E+03
        -0.37300E+03
        -0.37300E+03
        -0.37300E+03
        -0.37300E+03
        -0.37300E+03
        -0.37300E+03
        -0.37300E+03
        -0.37300E+03
        -0.37300E+03
        -0.37300E+03
        -0.37300E+03
        -0.37300E+03
        -0.37300E+03
        -0.37300E+03
        -0.37300E+03
        -0.37300E+03
        -0.37300E+03
        -0.37300E+03
        -0.37300E+03
        -0.37300E+03
        -0.37300E+03
        -0.37300E+03
        -0.37300E+03
        -0.37300E+03
        -0.37300E+03
        -0.37300E+03
        -0.37300E+03
        -0.37300E+03
        -0.37300E+03
        -0.37300E+03
        -0.37300E+03
        -0.37300E+03
        -0.37300E+03
        -0.37300E+03
        -0.37300E+03
        -0.37300E+03
        -0.37300E+03
        -0.37300E+03
        -0.37300E+03
        -0.37300E+03
        -0.37300E+03
        -0.37300E+03
        -0.37300E+03
        -0.37300E+03
        -0.37300E+03
        -0.37300E+03
        -0.37300E+03
        -0.37300E+03
        -0.37300E+03
        -0.37300E+03
        -0.37300E+03
        -0.37300E+03
        -0.37300E+03
        -0.37300E+03
        -0.37300E+03
        -0.37300E+03
        -0.37300E+03
        -0.37300E+03
        -0.37300E+03
        -0.37300E+03
        -0.37300E+03
        -0.37300E+03
        -0.37300E+03
        -0.37300E+03
        -0.37300E+03
        -0.37300E+03
        -0.37300E+03
        -0.37300E+03
        -0.37300E+03
        -0.37300E+03
        -0.37300E+03
        -0.37300E+03
        -0.37300E+03
        -0.37300E+03
        -0.37300E+03
        -0.37300E+03
        -0.37300E+03
        -0.37300E+03
        -0.37300E+03
        -0.37300E+03
        -0.37300E+03
        -0.37300E+03
        -0.37300E+03
        -0.37300E+03
        -0.37300E+03
        -0.37300E+03
        -0.37300E+03
        -0.37300E+03
        -0.37300E+03
        -0.37300E+03
        -0.37300E+03
        -0.37300E+03
        -0.37300E+03
        -0.37300E+03
        -0.37300E+03
        -0.37300E+03
        -0.37300E+03
        -0.37300E+03
        -0.37300E+03
        -0.37300E+03
        -0.37300E+03
        -0.37300E+03
        -0.37300E+03
        -0.37300E+03
        -0.37300E+03
        -0.37300E+03
        -0.37300E+03
        -0.37300E+03
        -0.37300E+03
        -0.37300E+03
        -0.37300E+03
        -0.37300E+03
        -0.37300E+03
        -0.37300E+03
        -0.37300E+03
        -0.37300E+03
        -0.37300E+03
        -0.37300E+03
        -0.37300E+03
        -0.37300E+03
        -0.37300E+03
        -0.37300E+03
        -0.37300E+03
        -0.37300E+03
        -0.37300E+03
        -0.37300E+03
        -0.37300E+03
        -0.37300E+03
        -0.37300E+03
        -0.37300E+03
        -0.37300E+03
        -0.37300E+03
        -0.37300E+03
        -0.37300E+03
        -0.37300E+03
        -0.37300E+03
        -0.37300E+03
        -0.37300E+03
        -0.37300E+03
        -0.37300E+03
        -0.37300E+03
        -0.37300E+03
        -0.37300E+03
        -0.37300E+03
        -0.37300E+03
        -0.37300E+03
        -0.37300E+03
        -0.37300E+03
        -0.37300E+03
        -0.37300E+03
        -0.37300E+03
        -0.37300E+03
        -0.37300E+03
        -0.37300E+03
        -0.37300E+03
        -0.37300E+03
        -0.37300E+03
        -0.37300E+03
        -0.37300E+03
        -0.37300E+03
        -0.37300E+03
        -0.37300E+03
        -0.37300E+03
        -0.37300E+03
        -0.37300E+03
        -0.37300E+03
        -0.37300E+03
        -0.37300E+03
        -0.37300E+03
        -0.37300E+03
        -0.37300E+03
        -0.37300E+03
        -0.37300E+03
        -0.37300E+03
        -0.37300E+03
        -0.37300E+03
        -0.37300E+03
        -0.37300E+03
        -0.37300E+03
        -0.37300E+03
        -0.37300E+03
        -0.37300E+03
        -0.37300E+03
        -0.37300E+03
        -0.37300E+03
        -0.37300E+03
        -0.37300E+03
        -0.37300E+03
        -0.37300E+03
        -0.37300E+03
        -0.37300E+03
        -0.37300E+03
        -0.37300E+03
        -0.37300E+03
        -0.37300E+03
        -0.37300E+03
        -0.37300E+03
        -0.37300E+03
        -0.37300E+03
        -0.37300E+03
        -0.37300E+03
        -0.37300E+03
        -0.37300E+03
        -0.37300E+03
        -0.37300E+03
        -0.37300E+03
        -0.37300E+03
        -0.37300E+03
        -0.37300E+03
        -0.37300E+03
        -0.37300E+03
        -0.37300E+03
        -0.37300E+03
        -0.37300E+03
        -0.37300E+03
        -0.37300E+03
        -0.37300E+03
        -0.37300E+03
        -0.37300E+03
        -0.37300E+03
        -0.37300E+03
        -0.37300E+03
        -0.37300E+03
        -0.37300E+03
        -0.37300E+03
        -0.37300E+03
        -0.37300E+03
        -0.37300E+03
        -0.37300E+03
        -0.37300E+03
        -0.37300E+03
        -0.37300E+03
        -0.37300E+03
        -0.37300E+03
        -0.37300E+03
        -0.37300E+03
        -0.37300E+03
        -0.37300E+03
        -0.37300E+03
        -0.37300E+03
        -0.37300E+03
        -0.37300E+03
        -0.37300E+03
        -0.37300E+03
        -0.37300E+03
        -0.37300E+03
        -0.37300E+03
        -0.37300E+03
        -0.37300E+03
        -0.37300E+03
        -0.37300E+03
        -0.37300E+03
        -0.37300E+03
        -0.37300E+03
        -0.37300E+03
        -0.37300E+03
        -0.37300E+03
        -0.37300E+03
        -0.37300E+03
        -0.37300E+03
        -0.37300E+03
        -0.37300E+03
        -0.37300E+03
        -0.37300E+03
        -0.37300E+03
        -0.37300E+03
        -0.37300E+03
        -0.37300E+03
        -0.37300E+03
        -0.37300E+03
        -0.37300E+03
        -0.37300E+03
        -0.37300E+03
        -0.37300E+03
        -0.37300E+03
        -0.37300E+03
        -0.37300E+03
        -0.37300E+03
        -0.37300E+03
        -0.37300E+03
        -0.37300E+03
        -0.37300E+03
        -0.37300E+03
        -0.37300E+03
        -0.37300E+03
        -0.37300E+03
        -0.37300E+03
        -0.37300E+03
        -0.37300E+03
        -0.37300E+03
        -0.37300E+03
        -0.37300E+03
        -0.37300E+03
        -0.37300E+03
        -0.37300E+03
        -0.37300E+03
        -0.37300E+03
        -0.37300E+03
        -0.37300E+03
        -0.37300E+03
        -0.37300E+03
        -0.37300E+03
        -0.37300E+03
        -0.37300E+03
        -0.37300E+03
        -0.37300E+03
        -0.37300E+03
        -0.37300E+03
        -0.37300E+03
        -0.37300E+03
        -0.37300E+03
        -0.37300E+03
        -0.37300E+03
        -0.37300E+03
        -0.37300E+03
        -0.37300E+03
        -0.37300E+03
        -0.37300E+03
        -0.37300E+03
        -0.37300E+03
        -0.37300E+03
        -0.37300E+03
        -0.37300E+03
        -0.37300E+03
        -0.37300E+03
        -0.37300E+03
        -0.37300E+03
        -0.37300E+03
        -0.37300E+03
        -0.37300E+03
        -0.37300E+03
        -0.37300E+03
        -0.37300E+03
        -0.37300E+03
        -0.37300E+03
        -0.37300E+03
        -0.37300E+03
        -0.37300E+03
        -0.37300E+03
        -0.37300E+03
        -0.37300E+03
        -0.37300E+03
        -0.37300E+03
        -0.37300E+03
        -0.37300E+03
        -0.37300E+03
        -0.37300E+03
        -0.37300E+03
        -0.37300E+03
        -0.37300E+03
        -0.37300E+03
        -0.37300E+03
        -0.37300E+03
        -0.37300E+03
        -0.37300E+03
        -0.37300E+03
        -0.37300E+03
        -0.37300E+03
        -0.37300E+03
        -0.37300E+03
        -0.37300E+03
        -0.37300E+03
        -0.37300E+03
        -0.37300E+03
        -0.37300E+03
        -0.37300E+03
        -0.37300E+03
        -0.37300E+03
        -0.37300E+03
        -0.37300E+03
        -0.37300E+03
        -0.37300E+03
        -0.37300E+03
        -0.37300E+03
        -0.37300E+03
        -0.37300E+03
        -0.37300E+03
        -0.37300E+03
        -0.37300E+03
        -0.37300E+03
        -0.37300E+03
        -0.37300E+03
        -0.37300E+03
        -0.37300E+03
        -0.37300E+03
        -0.37300E+03
        -0.37300E+03
        -0.37300E+03
        -0.37300E+03
        -0.37300E+03
        -0.37300E+03
        -0.37300E+03
        -0.37300E+03
        -0.37300E+03
        -0.37300E+03
        -0.37300E+03
        -0.37300E+03
        -0.37300E+03
        -0.37300E+03
        -0.37300E+03
        -0.37300E+03
        -0.37300E+03
        -0.37300E+03
        -0.37300E+03
        -0.37300E+03
        -0.37300E+03
        -0.37300E+03
        -0.37300E+03
        -0.37300E+03
        -0.37300E+03
        -0.37300E+03
        -0.37300E+03
        -0.37300E+03
        -0.37300E+03
        -0.37300E+03
        -0.37300E+03
        -0.37300E+03
        -0.37300E+03
        -0.37300E+03
        -0.37300E+03
        -0.37300E+03
        -0.37300E+03
        -0.37300E+03
        -0.37300E+03
        -0.37300E+03
        -0.37300E+03
        -0.37300E+03
        -0.37300E+03
        -0.37300E+03
        -0.37300E+03
        -0.37300E+03
        -0.37300E+03
        -0.37300E+03
        -0.37300E+03
        -0.37300E+03
        -0.37300E+03
        -0.37300E+03
        -0.37300E+03
        -0.37300E+03
        -0.37300E+03
        -0.37300E+03
        -0.37300E+03
        -0.37300E+03
        -0.37300E+03
        -0.37300E+03
        -0.37300E+03
        -0.37300E+03
        -0.37300E+03
        -0.37300E+03
        -0.37300E+03
        -0.37300E+03
        -0.37300E+03
        -0.37300E+03
        -0.37300E+03
        -0.37300E+03
        -0.37300E+03
        -0.37300E+03
        -0.37300E+03
        -0.37300E+03
        -0.37300E+03
        -0.37300E+03
        -0.37300E+03
        -0.37300E+03
        -0.37300E+03
        -0.37300E+03
        -0.37300E+03
        -0.37300E+03
        -0.37300E+03
        -0.37300E+03
        -0.37300E+03
        -0.37300E+03
        -0.37300E+03
        -0.37300E+03
        -0.37300E+03
        -0.37300E+03
        -0.37300E+03
        -0.37300E+03
        -0.37300E+03
        -0.37300E+03
        -0.37300E+03
        -0.37300E+03
        -0.37300E+03
        -0.37300E+03
        -0.37300E+03
        -0.37300E+03
        -0.37300E+03
        -0.37300E+03
        -0.37300E+03
        -0.37300E+03
        -0.37300E+03
        -0.37300E+03
        -0.37300E+03
        -0.37300E+03
        -0.37300E+03
        -0.37300E+03
        -0.37300E+03
        -0.37300E+03
        -0.37300E+03
        -0.37300E+03
        -0.37300E+03
        -0.37300E+03
        -0.37300E+03
        -0.37300E+03
        -0.37300E+03
        -0.37300E+03
        -0.37300E+03
        -0.37300E+03
        -0.37300E+03
        -0.37300E+03
        -0.37300E+03
        -0.37300E+03
        -0.37300E+03
        -0.37300E+03
        -0.37300E+03
        -0.37300E+03
        -0.37300E+03
        -0.37300E+03
        -0.37300E+03
        -0.37300E+03
        -0.37300E+03
        -0.37300E+03
        -0.37300E+03
        -0.37300E+03
        -0.37300E+03
        -0.37300E+03
        -0.37300E+03
        -0.37300E+03
        -0.37300E+03
        -0.37300E+03
        -0.37300E+03
        -0.37300E+03
        -0.37300E+03
        -0.37300E+03
        -0.37300E+03
        -0.37300E+03
        -0.37300E+03
        -0.37300E+03
        -0.37300E+03
        -0.37300E+03
        -0.37300E+03
        -0.37300E+03
        -0.37300E+03
        -0.37300E+03
        -0.37300E+03
        -0.37300E+03
        -0.37300E+03
        -0.37300E+03
        -0.37300E+03
        -0.37300E+03
        -0.37300E+03
        -0.37300E+03
        -0.37300E+03
        -0.37300E+03
        -0.37300E+03
        -0.37300E+03
        -0.37300E+03
        -0.37300E+03
        -0.37300E+03
        -0.37300E+03
        -0.37300E+03
        -0.37300E+03
        -0.37300E+03
        -0.37300E+03
        -0.37300E+03
        -0.37300E+03
        -0.37300E+03
        -0.37300E+03
        -0.37300E+03
        -0.37300E+03
        -0.37300E+03
        -0.37300E+03
        -0.37300E+03
        -0.37300E+03
        -0.37300E+03
        -0.37300E+03
        -0.37300E+03
        -0.37300E+03
        -0.37300E+03
        -0.37300E+03
        -0.37300E+03
        -0.37300E+03
        -0.37300E+03
        -0.37300E+03
        -0.37300E+03
        -0.37300E+03
        -0.37300E+03
        -0.37300E+03
        -0.37300E+03
        -0.37300E+03
        -0.37300E+03
        -0.37300E+03
        -0.37300E+03
        -0.37300E+03
        -0.37300E+03
        -0.37300E+03
        -0.37300E+03
        -0.37300E+03
        -0.37300E+03
        -0.37300E+03
        -0.37300E+03
        -0.37300E+03
        -0.37300E+03
        -0.37300E+03
        -0.37300E+03
        -0.37300E+03
        -0.37300E+03
        -0.37300E+03
        -0.37300E+03
        -0.37300E+03
        -0.37300E+03
        -0.37300E+03
        -0.37300E+03
        -0.37300E+03
        -0.37300E+03
        -0.37300E+03
        -0.37300E+03
        -0.37300E+03
        -0.37300E+03
        -0.37300E+03
        -0.37300E+03
        -0.37300E+03
        -0.37300E+03
        -0.37300E+03
        -0.37300E+03
        -0.37300E+03
        -0.37300E+03
        -0.37300E+03
        -0.37300E+03
        -0.37300E+03
        -0.37300E+03
        -0.37300E+03
        -0.37300E+03
        -0.37300E+03
        -0.37300E+03
        -0.37300E+03
        -0.37300E+03
        -0.37300E+03
        -0.37300E+03
        -0.37300E+03
        -0.37300E+03
        -0.37300E+03
        -0.37300E+03
        -0.37300E+03
        -0.37300E+03
        -0.37300E+03
        -0.37300E+03
  
SCALARS              normalized_window  double 1
LOOKUP_TABLE default
         0.27500E+01
         0.27500E+01
         0.27500E+01
         0.27500E+01
         0.27500E+01
         0.27500E+01
         0.27500E+01
         0.27500E+01
         0.27500E+01
         0.27500E+01
         0.27500E+01
         0.27500E+01
         0.27500E+01
         0.27500E+01
         0.27500E+01
         0.27500E+01
         0.27500E+01
         0.27500E+01
         0.27500E+01
         0.27500E+01
         0.27500E+01
         0.27500E+01
         0.27500E+01
         0.27500E+01
         0.27500E+01
         0.27500E+01
         0.27500E+01
         0.27500E+01
         0.27500E+01
         0.27500E+01
         0.27500E+01
         0.27500E+01
         0.27500E+01
         0.27500E+01
         0.27500E+01
         0.27500E+01
         0.27500E+01
         0.27500E+01
         0.27500E+01
         0.27500E+01
         0.27500E+01
         0.27500E+01
         0.27500E+01
         0.27500E+01
         0.27500E+01
         0.27500E+01
         0.27500E+01
         0.27500E+01
         0.27500E+01
         0.27500E+01
         0.27500E+01
         0.27500E+01
         0.27500E+01
         0.27500E+01
         0.27500E+01
         0.27500E+01
         0.27500E+01
         0.27500E+01
         0.27500E+01
         0.27500E+01
         0.27500E+01
         0.27500E+01
         0.27500E+01
         0.27500E+01
         0.27500E+01
         0.27500E+01
         0.27500E+01
         0.27500E+01
         0.27500E+01
         0.27500E+01
         0.27500E+01
         0.27500E+01
         0.27500E+01
         0.27500E+01
         0.27500E+01
         0.27500E+01
         0.27500E+01
         0.27500E+01
         0.27500E+01
         0.27500E+01
         0.27500E+01
         0.27500E+01
         0.27500E+01
         0.27500E+01
         0.27500E+01
         0.27500E+01
         0.27500E+01
         0.27500E+01
         0.27500E+01
         0.27500E+01
         0.27500E+01
         0.27500E+01
         0.27500E+01
         0.27500E+01
         0.27500E+01
         0.27500E+01
         0.27500E+01
         0.27500E+01
         0.27500E+01
         0.27500E+01
         0.27500E+01
         0.27500E+01
         0.27500E+01
         0.27500E+01
         0.27500E+01
         0.27500E+01
         0.27500E+01
         0.27500E+01
         0.27500E+01
         0.27500E+01
         0.27500E+01
         0.27500E+01
         0.27500E+01
         0.27500E+01
         0.27500E+01
         0.27500E+01
         0.27500E+01
         0.27500E+01
         0.27500E+01
         0.27500E+01
         0.27500E+01
         0.27500E+01
         0.27500E+01
         0.27500E+01
         0.27500E+01
         0.27500E+01
         0.27500E+01
         0.27500E+01
         0.27500E+01
         0.27500E+01
         0.27500E+01
         0.27500E+01
         0.27500E+01
         0.27500E+01
         0.27500E+01
         0.27500E+01
         0.27500E+01
         0.27500E+01
         0.27500E+01
         0.27500E+01
         0.27500E+01
         0.27500E+01
         0.27500E+01
         0.27500E+01
         0.27500E+01
         0.27500E+01
         0.27500E+01
         0.27500E+01
         0.27500E+01
         0.27500E+01
         0.27500E+01
         0.27500E+01
         0.27500E+01
         0.27500E+01
         0.27500E+01
         0.27500E+01
         0.27500E+01
         0.27500E+01
         0.27500E+01
         0.27500E+01
         0.27500E+01
         0.27500E+01
         0.27500E+01
         0.27500E+01
         0.27500E+01
         0.27500E+01
         0.27500E+01
         0.27500E+01
         0.27500E+01
         0.27500E+01
         0.27500E+01
         0.27500E+01
         0.27500E+01
         0.27500E+01
         0.27500E+01
         0.27500E+01
         0.27500E+01
         0.27500E+01
         0.27500E+01
         0.27500E+01
         0.27500E+01
         0.27500E+01
         0.27500E+01
         0.27500E+01
         0.27500E+01
         0.27500E+01
         0.27500E+01
         0.27500E+01
         0.27500E+01
         0.27500E+01
         0.27500E+01
         0.27500E+01
         0.27500E+01
         0.27500E+01
         0.27500E+01
         0.27500E+01
         0.27500E+01
         0.27500E+01
         0.27500E+01
         0.27500E+01
         0.27500E+01
         0.27500E+01
         0.27500E+01
         0.27500E+01
         0.27500E+01
         0.27500E+01
         0.27500E+01
         0.27500E+01
         0.27500E+01
         0.27500E+01
         0.27500E+01
         0.27500E+01
         0.27500E+01
         0.27500E+01
         0.27500E+01
         0.27500E+01
         0.27500E+01
         0.27500E+01
         0.27500E+01
         0.27500E+01
         0.27500E+01
         0.27500E+01
         0.27500E+01
         0.27500E+01
         0.27500E+01
         0.27500E+01
         0.27500E+01
         0.27500E+01
         0.27500E+01
         0.27500E+01
         0.27500E+01
         0.27500E+01
         0.27500E+01
         0.27500E+01
         0.27500E+01
         0.27500E+01
         0.27500E+01
         0.27500E+01
         0.27500E+01
         0.27500E+01
         0.27500E+01
         0.27500E+01
         0.27500E+01
         0.27500E+01
         0.27500E+01
         0.27500E+01
         0.27500E+01
         0.27500E+01
         0.27500E+01
         0.27500E+01
         0.27500E+01
         0.27500E+01
         0.27500E+01
         0.27500E+01
         0.27500E+01
         0.27500E+01
         0.27500E+01
         0.27500E+01
         0.27500E+01
         0.27500E+01
         0.27500E+01
         0.27500E+01
         0.27500E+01
         0.27500E+01
         0.27500E+01
         0.27500E+01
         0.27500E+01
         0.27500E+01
         0.27500E+01
         0.27500E+01
         0.27500E+01
         0.27500E+01
         0.27500E+01
         0.27500E+01
         0.27500E+01
         0.27500E+01
         0.27500E+01
         0.27500E+01
         0.27500E+01
         0.27500E+01
         0.27500E+01
         0.27500E+01
         0.27500E+01
         0.27500E+01
         0.27500E+01
         0.27500E+01
         0.27500E+01
         0.27500E+01
         0.27500E+01
         0.27500E+01
         0.27500E+01
         0.27500E+01
         0.27500E+01
         0.27500E+01
         0.27500E+01
         0.27500E+01
         0.27500E+01
         0.27500E+01
         0.27500E+01
         0.27500E+01
         0.27500E+01
         0.27500E+01
         0.27500E+01
         0.27500E+01
         0.27500E+01
         0.27500E+01
         0.27500E+01
         0.27500E+01
         0.27500E+01
         0.27500E+01
         0.27500E+01
         0.27500E+01
         0.27500E+01
         0.27500E+01
         0.27500E+01
         0.27500E+01
         0.27500E+01
         0.27500E+01
         0.27500E+01
         0.27500E+01
         0.27500E+01
         0.27500E+01
         0.27500E+01
         0.27500E+01
         0.27500E+01
         0.27500E+01
         0.27500E+01
         0.27500E+01
         0.27500E+01
         0.27500E+01
         0.27500E+01
         0.27500E+01
         0.27500E+01
         0.27500E+01
         0.27500E+01
         0.27500E+01
         0.27500E+01
         0.27500E+01
         0.27500E+01
         0.27500E+01
         0.27500E+01
         0.27500E+01
         0.27500E+01
         0.27500E+01
         0.27500E+01
         0.27500E+01
         0.27500E+01
         0.27500E+01
         0.27500E+01
         0.27500E+01
         0.27500E+01
         0.27500E+01
         0.27500E+01
         0.27500E+01
         0.27500E+01
         0.27500E+01
         0.27500E+01
         0.27500E+01
         0.27500E+01
         0.27500E+01
         0.27500E+01
         0.27500E+01
         0.27500E+01
         0.27500E+01
         0.27500E+01
         0.27500E+01
         0.27500E+01
         0.27500E+01
         0.27500E+01
         0.27500E+01
         0.27500E+01
         0.27500E+01
         0.27500E+01
         0.27500E+01
         0.27500E+01
         0.27500E+01
         0.27500E+01
         0.27500E+01
         0.27500E+01
         0.27500E+01
         0.27500E+01
         0.27500E+01
         0.27500E+01
         0.27500E+01
         0.27500E+01
         0.27500E+01
         0.27500E+01
         0.27500E+01
         0.27500E+01
         0.27500E+01
         0.27500E+01
         0.27500E+01
         0.27500E+01
         0.27500E+01
         0.27500E+01
         0.27500E+01
         0.27500E+01
         0.27500E+01
         0.27500E+01
         0.27500E+01
         0.27500E+01
         0.27500E+01
         0.27500E+01
         0.27500E+01
         0.27500E+01
         0.27500E+01
         0.27500E+01
         0.27500E+01
         0.27500E+01
         0.27500E+01
         0.27500E+01
         0.27500E+01
         0.27500E+01
         0.27500E+01
         0.27500E+01
         0.27500E+01
         0.27500E+01
         0.27500E+01
         0.27500E+01
         0.27500E+01
         0.27500E+01
         0.27500E+01
         0.27500E+01
         0.27500E+01
         0.27500E+01
         0.27500E+01
         0.27500E+01
         0.27500E+01
         0.27500E+01
         0.27500E+01
         0.27500E+01
         0.27500E+01
         0.27500E+01
         0.27500E+01
         0.27500E+01
         0.27500E+01
         0.27500E+01
         0.27500E+01
         0.27500E+01
         0.27500E+01
         0.27500E+01
         0.27500E+01
         0.27500E+01
         0.27500E+01
         0.27500E+01
         0.27500E+01
         0.27500E+01
         0.27500E+01
         0.27500E+01
         0.27500E+01
         0.27500E+01
         0.27500E+01
         0.27500E+01
         0.27500E+01
         0.27500E+01
         0.27500E+01
         0.27500E+01
         0.27500E+01
         0.27500E+01
         0.27500E+01
         0.27500E+01
         0.27500E+01
         0.27500E+01
         0.27500E+01
         0.27500E+01
         0.27500E+01
         0.27500E+01
         0.27500E+01
         0.27500E+01
         0.27500E+01
         0.27500E+01
         0.27500E+01
         0.27500E+01
         0.27500E+01
         0.27500E+01
         0.27500E+01
         0.27500E+01
         0.27500E+01
         0.27500E+01
         0.27500E+01
         0.27500E+01
         0.27500E+01
         0.27500E+01
         0.27500E+01
         0.27500E+01
         0.27500E+01
         0.27500E+01
         0.27500E+01
         0.27500E+01
         0.27500E+01
         0.27500E+01
         0.27500E+01
         0.27500E+01
         0.27500E+01
         0.27500E+01
         0.27500E+01
         0.27500E+01
         0.27500E+01
         0.27500E+01
         0.27500E+01
         0.27500E+01
         0.27500E+01
         0.27500E+01
         0.27500E+01
         0.27500E+01
         0.27500E+01
         0.27500E+01
         0.27500E+01
         0.27500E+01
         0.27500E+01
         0.27500E+01
         0.27500E+01
         0.27500E+01
         0.27500E+01
         0.27500E+01
         0.27500E+01
         0.27500E+01
         0.27500E+01
         0.27500E+01
         0.27500E+01
         0.27500E+01
         0.27500E+01
         0.27500E+01
         0.27500E+01
         0.27500E+01
         0.27500E+01
         0.27500E+01
         0.27500E+01
         0.27500E+01
         0.27500E+01
         0.27500E+01
         0.27500E+01
         0.27500E+01
         0.27500E+01
         0.27500E+01
         0.27500E+01
         0.27500E+01
         0.27500E+01
         0.27500E+01
         0.27500E+01
         0.27500E+01
         0.27500E+01
         0.27500E+01
         0.27500E+01
         0.27500E+01
         0.27500E+01
         0.27500E+01
         0.27500E+01
         0.27500E+01
         0.27500E+01
         0.27500E+01
         0.27500E+01
         0.27500E+01
         0.27500E+01
         0.27500E+01
         0.27500E+01
         0.27500E+01
         0.27500E+01
         0.27500E+01
         0.27500E+01
         0.27500E+01
         0.27500E+01
         0.27500E+01
         0.27500E+01
         0.27500E+01
         0.27500E+01
         0.27500E+01
         0.27500E+01
         0.27500E+01
         0.27500E+01
         0.27500E+01
         0.27500E+01
         0.27500E+01
         0.27500E+01
         0.27500E+01
         0.27500E+01
         0.27500E+01
         0.27500E+01
         0.27500E+01
         0.27500E+01
         0.27500E+01
         0.27500E+01
         0.27500E+01
         0.27500E+01
         0.27500E+01
         0.27500E+01
         0.27500E+01
         0.27500E+01
         0.27500E+01
         0.27500E+01
         0.27500E+01
         0.27500E+01
         0.27500E+01
         0.27500E+01
         0.27500E+01
         0.27500E+01
         0.27500E+01
         0.27500E+01
         0.27500E+01
         0.27500E+01
         0.27500E+01
         0.27500E+01
         0.27500E+01
         0.27500E+01
         0.27500E+01
         0.27500E+01
         0.27500E+01
         0.27500E+01
         0.27500E+01
         0.27500E+01
         0.27500E+01
         0.27500E+01
         0.27500E+01
         0.27500E+01
         0.27500E+01
         0.27500E+01
         0.27500E+01
         0.27500E+01
         0.27500E+01
         0.27500E+01
         0.27500E+01
         0.27500E+01
         0.27500E+01
         0.27500E+01
         0.27500E+01
         0.27500E+01
         0.27500E+01
         0.27500E+01
         0.27500E+01
         0.27500E+01
         0.27500E+01
         0.27500E+01
         0.27500E+01
         0.27500E+01
         0.27500E+01
         0.27500E+01
         0.27500E+01
         0.27500E+01
         0.27500E+01
         0.27500E+01
         0.27500E+01
         0.27500E+01
         0.27500E+01
         0.27500E+01
         0.27500E+01
         0.27500E+01
         0.27500E+01
         0.27500E+01
         0.27500E+01
         0.27500E+01
         0.27500E+01
         0.27500E+01
         0.27500E+01
         0.27500E+01
         0.27500E+01
         0.27500E+01
         0.27500E+01
         0.27500E+01
         0.27500E+01
         0.27500E+01
         0.27500E+01
         0.27500E+01
         0.27500E+01
         0.27500E+01
         0.27500E+01
         0.27500E+01
         0.27500E+01
         0.27500E+01
         0.27500E+01
         0.27500E+01
         0.27500E+01
         0.27500E+01
         0.27500E+01
         0.27500E+01
         0.27500E+01
         0.27500E+01
         0.27500E+01
         0.27500E+01
         0.27500E+01
         0.27500E+01
         0.27500E+01
         0.27500E+01
         0.27500E+01
         0.27500E+01
         0.27500E+01
         0.27500E+01
         0.27500E+01
         0.27500E+01
         0.27500E+01
         0.27500E+01
         0.27500E+01
         0.27500E+01
         0.27500E+01
         0.27500E+01
         0.27500E+01
         0.27500E+01
         0.27500E+01
         0.27500E+01
         0.27500E+01
         0.27500E+01
         0.27500E+01
         0.27500E+01
         0.27500E+01
         0.27500E+01
         0.27500E+01
         0.27500E+01
         0.27500E+01
         0.27500E+01
         0.27500E+01
         0.27500E+01
         0.27500E+01
         0.27500E+01
         0.27500E+01
         0.27500E+01
         0.27500E+01
         0.27500E+01
         0.27500E+01
         0.27500E+01
         0.27500E+01
         0.27500E+01
         0.27500E+01
         0.27500E+01
         0.27500E+01
         0.27500E+01
         0.27500E+01
         0.27500E+01
         0.27500E+01
         0.27500E+01
         0.27500E+01
         0.27500E+01
         0.27500E+01
         0.27500E+01
         0.27500E+01
         0.27500E+01
         0.27500E+01
         0.27500E+01
         0.27500E+01
         0.27500E+01
         0.27500E+01
         0.27500E+01
         0.27500E+01
         0.27500E+01
         0.27500E+01
         0.27500E+01
         0.27500E+01
         0.27500E+01
         0.27500E+01
         0.27500E+01
         0.27500E+01
         0.27500E+01
         0.27500E+01
         0.27500E+01
         0.27500E+01
         0.27500E+01
         0.27500E+01
         0.27500E+01
         0.27500E+01
         0.27500E+01
         0.27500E+01
         0.27500E+01
         0.27500E+01
         0.27500E+01
         0.27500E+01
         0.27500E+01
         0.27500E+01
         0.27500E+01
         0.27500E+01
         0.27500E+01
         0.27500E+01
         0.27500E+01
         0.27500E+01
         0.27500E+01
         0.27500E+01
         0.27500E+01
         0.27500E+01
         0.27500E+01
         0.27500E+01
         0.27500E+01
         0.27500E+01
         0.27500E+01
         0.27500E+01
         0.27500E+01
         0.27500E+01
         0.27500E+01
         0.27500E+01
         0.27500E+01
         0.27500E+01
         0.27500E+01
         0.27500E+01
         0.27500E+01
         0.27500E+01
         0.27500E+01
         0.27500E+01
         0.27500E+01
         0.27500E+01
         0.27500E+01
         0.27500E+01
         0.27500E+01
         0.27500E+01
         0.27500E+01
         0.27500E+01
         0.27500E+01
         0.27500E+01
         0.27500E+01
         0.27500E+01
         0.27500E+01
         0.27500E+01
         0.27500E+01
         0.27500E+01
         0.27500E+01
         0.27500E+01
         0.27500E+01
         0.27500E+01
         0.27500E+01
         0.27500E+01
         0.27500E+01
         0.27500E+01
         0.27500E+01
         0.27500E+01
         0.27500E+01
         0.27500E+01
         0.27500E+01
         0.27500E+01
         0.27500E+01
         0.27500E+01
         0.27500E+01
         0.27500E+01
         0.27500E+01
         0.27500E+01
         0.27500E+01
         0.27500E+01
         0.27500E+01
         0.27500E+01
         0.27500E+01
         0.27500E+01
         0.27500E+01
         0.27500E+01
         0.27500E+01
         0.27500E+01
         0.27500E+01
         0.27500E+01
         0.27500E+01
         0.27500E+01
         0.27500E+01
         0.27500E+01
         0.27500E+01
         0.27500E+01
         0.27500E+01
         0.27500E+01
         0.27500E+01
         0.27500E+01
         0.27500E+01
         0.27500E+01
         0.27500E+01
         0.27500E+01
         0.27500E+01
         0.27500E+01
         0.27500E+01
         0.27500E+01
         0.27500E+01
         0.27500E+01
         0.27500E+01
         0.27500E+01
         0.27500E+01
         0.27500E+01
         0.27500E+01
         0.27500E+01
         0.27500E+01
         0.27500E+01
         0.27500E+01
         0.27500E+01
         0.27500E+01
         0.27500E+01
         0.27500E+01
         0.27500E+01
         0.27500E+01
         0.27500E+01
         0.27500E+01
         0.27500E+01
         0.27500E+01
         0.27500E+01
         0.27500E+01
         0.27500E+01
         0.27500E+01
         0.27500E+01
         0.27500E+01
         0.27500E+01
         0.27500E+01
         0.27500E+01
         0.27500E+01
         0.27500E+01
         0.27500E+01
         0.27500E+01
         0.27500E+01
         0.27500E+01
         0.27500E+01
         0.27500E+01
         0.27500E+01
         0.27500E+01
         0.27500E+01
         0.27500E+01
         0.27500E+01
         0.27500E+01
         0.27500E+01
         0.27500E+01
         0.27500E+01
         0.27500E+01
         0.27500E+01
         0.27500E+01
         0.27500E+01
         0.27500E+01
         0.27500E+01
         0.27500E+01
         0.27500E+01
         0.27500E+01
         0.27500E+01
         0.27500E+01
         0.27500E+01
         0.27500E+01
         0.27500E+01
         0.27500E+01
         0.27500E+01
         0.27500E+01
         0.27500E+01
         0.27500E+01
         0.27500E+01
         0.27500E+01
         0.27500E+01
         0.27500E+01
         0.27500E+01
         0.27500E+01
         0.27500E+01
         0.27500E+01
         0.27500E+01
         0.27500E+01
         0.27500E+01
         0.27500E+01
         0.27500E+01
         0.27500E+01
         0.27500E+01
         0.27500E+01
         0.27500E+01
         0.27500E+01
         0.27500E+01
         0.27500E+01
         0.27500E+01
         0.27500E+01
         0.27500E+01
         0.27500E+01
         0.27500E+01
         0.27500E+01
         0.27500E+01
         0.27500E+01
         0.27500E+01
         0.27500E+01
         0.27500E+01
         0.27500E+01
         0.27500E+01
         0.27500E+01
         0.27500E+01
         0.27500E+01
         0.27500E+01
         0.27500E+01
         0.27500E+01
         0.27500E+01
         0.27500E+01
         0.27500E+01
         0.27500E+01
         0.27500E+01
         0.27500E+01
         0.27500E+01
         0.27500E+01
         0.27500E+01
         0.27500E+01
         0.27500E+01
         0.27500E+01
         0.27500E+01
         0.27500E+01
         0.27500E+01
         0.27500E+01
         0.27500E+01
         0.27500E+01
         0.27500E+01
         0.27500E+01
         0.27500E+01
         0.27500E+01
         0.27500E+01
         0.27500E+01
         0.27500E+01
         0.27500E+01
         0.27500E+01
         0.27500E+01
         0.27500E+01
         0.27500E+01
         0.27500E+01
         0.27500E+01
         0.27500E+01
         0.27500E+01
         0.27500E+01
         0.27500E+01
         0.27500E+01
         0.27500E+01
         0.27500E+01
         0.27500E+01
         0.27500E+01
         0.27500E+01
         0.27500E+01
         0.27500E+01
         0.27500E+01
         0.27500E+01
         0.27500E+01
         0.27500E+01
         0.27500E+01
         0.27500E+01
         0.27500E+01
         0.27500E+01
         0.27500E+01
         0.27500E+01
         0.27500E+01
         0.27500E+01
         0.27500E+01
         0.27500E+01
         0.27500E+01
         0.27500E+01
         0.27500E+01
         0.27500E+01
         0.27500E+01
         0.27500E+01
         0.27500E+01
         0.27500E+01
         0.27500E+01
         0.27500E+01
         0.27500E+01
         0.27500E+01
         0.27500E+01
         0.27500E+01
         0.27500E+01
         0.27500E+01
         0.27500E+01
         0.27500E+01
         0.27500E+01
         0.27500E+01
         0.27500E+01
         0.27500E+01
         0.27500E+01
         0.27500E+01
         0.27500E+01
         0.27500E+01
         0.27500E+01
         0.27500E+01
         0.27500E+01
         0.27500E+01
         0.27500E+01
         0.27500E+01
         0.27500E+01
         0.27500E+01
         0.27500E+01
         0.27500E+01
         0.27500E+01
         0.27500E+01
         0.27500E+01
         0.27500E+01
         0.27500E+01
         0.27500E+01
         0.27500E+01
         0.27500E+01
         0.27500E+01
         0.27500E+01
         0.27500E+01
         0.27500E+01
         0.27500E+01
         0.27500E+01
         0.27500E+01
         0.27500E+01
         0.27500E+01
         0.27500E+01
         0.27500E+01
         0.27500E+01
         0.27500E+01
         0.27500E+01
         0.27500E+01
         0.27500E+01
         0.27500E+01
         0.27500E+01
         0.27500E+01
         0.27500E+01
         0.27500E+01
         0.27500E+01
         0.27500E+01
         0.27500E+01
         0.27500E+01
         0.27500E+01
         0.27500E+01
         0.27500E+01
         0.27500E+01
         0.27500E+01
         0.27500E+01
         0.27500E+01
         0.27500E+01
         0.27500E+01
         0.27500E+01
         0.27500E+01
         0.27500E+01
         0.27500E+01
         0.27500E+01
         0.27500E+01
         0.27500E+01
         0.27500E+01
         0.27500E+01
         0.27500E+01
         0.27500E+01
         0.27500E+01
         0.27500E+01
         0.27500E+01
         0.27500E+01
         0.27500E+01
         0.27500E+01
         0.27500E+01
         0.27500E+01
         0.27500E+01
         0.27500E+01
         0.27500E+01
         0.27500E+01
         0.27500E+01
         0.27500E+01
         0.27500E+01
         0.27500E+01
         0.27500E+01
         0.27500E+01
         0.27500E+01
         0.27500E+01
         0.27500E+01
         0.27500E+01
         0.27500E+01
         0.27500E+01
         0.27500E+01
         0.27500E+01
         0.27500E+01
         0.27500E+01
         0.27500E+01
         0.27500E+01
         0.27500E+01
         0.27500E+01
         0.27500E+01
         0.27500E+01
         0.27500E+01
         0.27500E+01
         0.27500E+01
         0.27500E+01
         0.27500E+01
         0.27500E+01
         0.27500E+01
         0.27500E+01
         0.27500E+01
         0.27500E+01
         0.27500E+01
         0.27500E+01
         0.27500E+01
         0.27500E+01
         0.27500E+01
         0.27500E+01
         0.27500E+01
         0.27500E+01
         0.27500E+01
         0.27500E+01
         0.27500E+01
         0.27500E+01
         0.27500E+01
         0.27500E+01
         0.27500E+01
         0.27500E+01
         0.27500E+01
         0.27500E+01
         0.27500E+01
         0.27500E+01
         0.27500E+01
         0.27500E+01
         0.27500E+01
         0.27500E+01
         0.27500E+01
         0.27500E+01
         0.27500E+01
         0.27500E+01
         0.27500E+01
         0.27500E+01
         0.27500E+01
         0.27500E+01
         0.27500E+01
         0.27500E+01
         0.27500E+01
         0.27500E+01
         0.27500E+01
         0.27500E+01
         0.27500E+01
         0.27500E+01
         0.27500E+01
         0.27500E+01
         0.27500E+01
         0.27500E+01
         0.27500E+01
         0.27500E+01
         0.27500E+01
         0.27500E+01
         0.27500E+01
         0.27500E+01
         0.27500E+01
         0.27500E+01
         0.27500E+01
         0.27500E+01
         0.27500E+01
         0.27500E+01
         0.27500E+01
         0.27500E+01
         0.27500E+01
         0.27500E+01
         0.27500E+01
         0.27500E+01
         0.27500E+01
         0.27500E+01
         0.27500E+01
         0.27500E+01
         0.27500E+01
         0.27500E+01
         0.27500E+01
         0.27500E+01
         0.27500E+01
         0.27500E+01
         0.27500E+01
         0.27500E+01
         0.27500E+01
         0.27500E+01
         0.27500E+01
         0.27500E+01
         0.27500E+01
         0.27500E+01
         0.27500E+01
         0.27500E+01
         0.27500E+01
         0.27500E+01
         0.27500E+01
         0.27500E+01
         0.27500E+01
         0.27500E+01
         0.27500E+01
         0.27500E+01
         0.27500E+01
         0.27500E+01
         0.27500E+01
         0.27500E+01
         0.27500E+01
         0.27500E+01
         0.27500E+01
         0.27500E+01
         0.27500E+01
         0.27500E+01
         0.27500E+01
         0.27500E+01
         0.27500E+01
         0.27500E+01
         0.27500E+01
         0.27500E+01
         0.27500E+01
         0.27500E+01
         0.27500E+01
         0.27500E+01
         0.27500E+01
         0.27500E+01
         0.27500E+01
         0.27500E+01
         0.27500E+01
         0.27500E+01
         0.27500E+01
         0.27500E+01
         0.27500E+01
         0.27500E+01
         0.27500E+01
         0.27500E+01
         0.27500E+01
         0.27500E+01
         0.27500E+01
         0.27500E+01
         0.27500E+01
         0.27500E+01
         0.27500E+01
         0.27500E+01
         0.27500E+01
         0.27500E+01
         0.27500E+01
         0.27500E+01
         0.27500E+01
         0.27500E+01
         0.27500E+01
         0.27500E+01
         0.27500E+01
         0.27500E+01
         0.27500E+01
         0.27500E+01
         0.27500E+01
         0.27500E+01
         0.27500E+01
         0.27500E+01
         0.27500E+01
         0.27500E+01
         0.27500E+01
         0.27500E+01
         0.27500E+01
         0.27500E+01
         0.27500E+01
         0.27500E+01
         0.27500E+01
         0.27500E+01
         0.27500E+01
         0.27500E+01
         0.27500E+01
         0.27500E+01
         0.27500E+01
         0.27500E+01
         0.27500E+01
         0.27500E+01
         0.27500E+01
         0.27500E+01
         0.27500E+01
         0.27500E+01
         0.27500E+01
         0.27500E+01
         0.27500E+01
         0.27500E+01
         0.27500E+01
         0.27500E+01
         0.27500E+01
         0.27500E+01
         0.27500E+01
         0.27500E+01
         0.27500E+01
         0.27500E+01
         0.27500E+01
         0.27500E+01
         0.27500E+01
         0.27500E+01
         0.27500E+01
         0.27500E+01
         0.27500E+01
         0.27500E+01
         0.27500E+01
         0.27500E+01
         0.27500E+01
         0.27500E+01
         0.27500E+01
         0.27500E+01
         0.27500E+01
         0.27500E+01
         0.27500E+01
         0.27500E+01
         0.27500E+01
         0.27500E+01
         0.27500E+01
         0.27500E+01
         0.27500E+01
         0.27500E+01
         0.27500E+01
         0.27500E+01
         0.27500E+01
         0.27500E+01
         0.27500E+01
         0.27500E+01
         0.27500E+01
         0.27500E+01
         0.27500E+01
         0.27500E+01
         0.27500E+01
         0.27500E+01
         0.27500E+01
         0.27500E+01
         0.27500E+01
         0.27500E+01
         0.27500E+01
         0.27500E+01
         0.27500E+01
         0.27500E+01
         0.27500E+01
         0.27500E+01
         0.27500E+01
         0.27500E+01
         0.27500E+01
         0.27500E+01
         0.27500E+01
         0.27500E+01
         0.27500E+01
         0.27500E+01
         0.27500E+01
         0.27500E+01
         0.27500E+01
         0.27500E+01
         0.27500E+01
         0.27500E+01
         0.27500E+01
         0.27500E+01
         0.27500E+01
         0.27500E+01
         0.27500E+01
         0.27500E+01
         0.27500E+01
         0.27500E+01
         0.27500E+01
         0.27500E+01
         0.27500E+01
         0.27500E+01
         0.27500E+01
         0.27500E+01
         0.27500E+01
         0.27500E+01
         0.27500E+01
         0.27500E+01
         0.27500E+01
         0.27500E+01
         0.27500E+01
         0.27500E+01
         0.27500E+01
         0.27500E+01
         0.27500E+01
         0.27500E+01
         0.27500E+01
         0.27500E+01
         0.27500E+01
         0.27500E+01
         0.27500E+01
         0.27500E+01
         0.27500E+01
         0.27500E+01
         0.27500E+01
         0.27500E+01
         0.27500E+01
         0.27500E+01
         0.27500E+01
         0.27500E+01
         0.27500E+01
         0.27500E+01
         0.27500E+01
         0.27500E+01
         0.27500E+01
         0.27500E+01
         0.27500E+01
         0.27500E+01
         0.27500E+01
         0.27500E+01
         0.27500E+01
         0.27500E+01
         0.27500E+01
         0.27500E+01
         0.27500E+01
         0.27500E+01
         0.27500E+01
         0.27500E+01
         0.27500E+01
         0.27500E+01
         0.27500E+01
         0.27500E+01
         0.27500E+01
         0.27500E+01
         0.27500E+01
         0.27500E+01
         0.27500E+01
         0.27500E+01
         0.27500E+01
         0.27500E+01
         0.27500E+01
         0.27500E+01
         0.27500E+01
         0.27500E+01
         0.27500E+01
         0.27500E+01
         0.27500E+01
         0.27500E+01
         0.27500E+01
         0.27500E+01
         0.27500E+01
         0.27500E+01
         0.27500E+01
         0.27500E+01
         0.27500E+01
         0.27500E+01
         0.27500E+01
         0.27500E+01
         0.27500E+01
         0.27500E+01
         0.27500E+01
         0.27500E+01
         0.27500E+01
         0.27500E+01
         0.27500E+01
         0.27500E+01
         0.27500E+01
         0.27500E+01
         0.27500E+01
         0.27500E+01
         0.27500E+01
         0.27500E+01
         0.27500E+01
         0.27500E+01
         0.27500E+01
         0.27500E+01
         0.27500E+01
         0.27500E+01
         0.27500E+01
         0.27500E+01
         0.27500E+01
         0.27500E+01
         0.27500E+01
         0.27500E+01
         0.27500E+01
         0.27500E+01
         0.27500E+01
         0.27500E+01
         0.27500E+01
         0.27500E+01
         0.27500E+01
         0.27500E+01
         0.27500E+01
         0.27500E+01
         0.27500E+01
         0.27500E+01
         0.27500E+01
         0.27500E+01
         0.27500E+01
         0.27500E+01
         0.27500E+01
         0.27500E+01
         0.27500E+01
         0.27500E+01
         0.27500E+01
         0.27500E+01
         0.27500E+01
         0.27500E+01
         0.27500E+01
         0.27500E+01
         0.27500E+01
         0.27500E+01
         0.27500E+01
         0.27500E+01
         0.27500E+01
         0.27500E+01
         0.27500E+01
         0.27500E+01
         0.27500E+01
         0.27500E+01
         0.27500E+01
         0.27500E+01
         0.27500E+01
         0.27500E+01
         0.27500E+01
         0.27500E+01
         0.27500E+01
         0.27500E+01
         0.27500E+01
         0.27500E+01
         0.27500E+01
         0.27500E+01
         0.27500E+01
         0.27500E+01
         0.27500E+01
         0.27500E+01
         0.27500E+01
         0.27500E+01
         0.27500E+01
         0.27500E+01
         0.27500E+01
         0.27500E+01
         0.27500E+01
         0.27500E+01
         0.27500E+01
         0.27500E+01
         0.27500E+01
         0.27500E+01
         0.27500E+01
         0.27500E+01
         0.27500E+01
         0.27500E+01
         0.27500E+01
         0.27500E+01
         0.27500E+01
         0.27500E+01
         0.27500E+01
         0.27500E+01
         0.27500E+01
         0.27500E+01
         0.27500E+01
         0.27500E+01
         0.27500E+01
         0.27500E+01
         0.27500E+01
         0.27500E+01
         0.27500E+01
         0.27500E+01
         0.27500E+01
         0.27500E+01
         0.27500E+01
         0.27500E+01
         0.27500E+01
         0.27500E+01
         0.27500E+01
         0.27500E+01
         0.27500E+01
         0.27500E+01
         0.27500E+01
         0.27500E+01
         0.27500E+01
         0.27500E+01
         0.27500E+01
         0.27500E+01
         0.27500E+01
         0.27500E+01
         0.27500E+01
         0.27500E+01
         0.27500E+01
         0.27500E+01
         0.27500E+01
         0.27500E+01
         0.27500E+01
         0.27500E+01
         0.27500E+01
         0.27500E+01
         0.27500E+01
         0.27500E+01
         0.27500E+01
         0.27500E+01
         0.27500E+01
         0.27500E+01
         0.27500E+01
         0.27500E+01
         0.27500E+01
         0.27500E+01
         0.27500E+01
         0.27500E+01
         0.27500E+01
         0.27500E+01
         0.27500E+01
         0.27500E+01
         0.27500E+01
         0.27500E+01
         0.27500E+01
         0.27500E+01
         0.27500E+01
         0.27500E+01
         0.27500E+01
         0.27500E+01
         0.27500E+01
         0.27500E+01
         0.27500E+01
         0.27500E+01
         0.27500E+01
         0.27500E+01
         0.27500E+01
         0.27500E+01
         0.27500E+01
         0.27500E+01
         0.27500E+01
         0.27500E+01
         0.27500E+01
         0.27500E+01
         0.27500E+01
         0.27500E+01
         0.27500E+01
         0.27500E+01
         0.27500E+01
         0.27500E+01
         0.27500E+01
         0.27500E+01
         0.27500E+01
         0.27500E+01
         0.27500E+01
         0.27500E+01
         0.27500E+01
         0.27500E+01
         0.27500E+01
         0.27500E+01
         0.27500E+01
         0.27500E+01
         0.27500E+01
         0.27500E+01
         0.27500E+01
         0.27500E+01
         0.27500E+01
         0.27500E+01
         0.27500E+01
         0.27500E+01
         0.27500E+01
         0.27500E+01
         0.27500E+01
         0.27500E+01
         0.27500E+01
         0.27500E+01
         0.27500E+01
         0.27500E+01
         0.27500E+01
         0.27500E+01
         0.27500E+01
         0.27500E+01
         0.27500E+01
         0.27500E+01
         0.27500E+01
         0.27500E+01
         0.27500E+01
         0.27500E+01
         0.27500E+01
         0.27500E+01
         0.27500E+01
         0.27500E+01
         0.27500E+01
         0.27500E+01
         0.27500E+01
         0.27500E+01
         0.27500E+01
         0.27500E+01
         0.27500E+01
         0.27500E+01
         0.27500E+01
         0.27500E+01
         0.27500E+01
         0.27500E+01
         0.27500E+01
         0.27500E+01
         0.27500E+01
         0.27500E+01
         0.27500E+01
         0.27500E+01
         0.27500E+01
         0.27500E+01
         0.27500E+01
         0.27500E+01
         0.27500E+01
         0.27500E+01
         0.27500E+01
         0.27500E+01
         0.27500E+01
         0.27500E+01
         0.27500E+01
         0.27500E+01
         0.27500E+01
         0.27500E+01
         0.27500E+01
         0.27500E+01
         0.27500E+01
         0.27500E+01
         0.27500E+01
         0.27500E+01
         0.27500E+01
         0.27500E+01
         0.27500E+01
         0.27500E+01
         0.27500E+01
         0.27500E+01
         0.27500E+01
         0.27500E+01
         0.27500E+01
         0.27500E+01
         0.27500E+01
         0.27500E+01
         0.27500E+01
         0.27500E+01
         0.27500E+01
         0.27500E+01
         0.27500E+01
         0.27500E+01
         0.27500E+01
         0.27500E+01
         0.27500E+01
         0.27500E+01
         0.27500E+01
         0.27500E+01
         0.27500E+01
         0.27500E+01
         0.27500E+01
         0.27500E+01
         0.27500E+01
         0.27500E+01
         0.27500E+01
         0.27500E+01
         0.27500E+01
         0.27500E+01
         0.27500E+01
         0.27500E+01
         0.27500E+01
         0.27500E+01
         0.27500E+01
         0.27500E+01
         0.27500E+01
         0.27500E+01
         0.27500E+01
         0.27500E+01
         0.27500E+01
         0.27500E+01
         0.27500E+01
         0.27500E+01
         0.27500E+01
         0.27500E+01
         0.27500E+01
         0.27500E+01
         0.27500E+01
         0.27500E+01
         0.27500E+01
         0.27500E+01
         0.27500E+01
         0.27500E+01
         0.27500E+01
         0.27500E+01
         0.27500E+01
         0.27500E+01
         0.27500E+01
         0.27500E+01
         0.27500E+01
         0.27500E+01
         0.27500E+01
         0.27500E+01
         0.27500E+01
         0.27500E+01
         0.27500E+01
         0.27500E+01
         0.27500E+01
         0.27500E+01
         0.27500E+01
         0.27500E+01
         0.27500E+01
         0.27500E+01
         0.27500E+01
         0.27500E+01
         0.27500E+01
         0.27500E+01
         0.27500E+01
         0.27500E+01
         0.27500E+01
         0.27500E+01
         0.27500E+01
         0.27500E+01
         0.27500E+01
         0.27500E+01
         0.27500E+01
         0.27500E+01
         0.27500E+01
         0.27500E+01
         0.27500E+01
         0.27500E+01
         0.27500E+01
         0.27500E+01
         0.27500E+01
         0.27500E+01
         0.27500E+01
         0.27500E+01
         0.27500E+01
         0.27500E+01
         0.27500E+01
         0.27500E+01
         0.27500E+01
         0.27500E+01
         0.27500E+01
         0.27500E+01
         0.27500E+01
         0.27500E+01
         0.27500E+01
         0.27500E+01
         0.27500E+01
         0.27500E+01
         0.27500E+01
         0.27500E+01
         0.27500E+01
         0.27500E+01
         0.27500E+01
         0.27500E+01
         0.27500E+01
         0.27500E+01
         0.27500E+01
         0.27500E+01
         0.27500E+01
         0.27500E+01
         0.27500E+01
         0.27500E+01
         0.27500E+01
         0.27500E+01
         0.27500E+01
         0.27500E+01
         0.27500E+01
         0.27500E+01
         0.27500E+01
         0.27500E+01
         0.27500E+01
         0.27500E+01
         0.27500E+01
         0.27500E+01
         0.27500E+01
         0.27500E+01
         0.27500E+01
         0.27500E+01
         0.27500E+01
         0.27500E+01
         0.27500E+01
         0.27500E+01
         0.27500E+01
         0.27500E+01
         0.27500E+01
         0.27500E+01
         0.27500E+01
         0.27500E+01
         0.27500E+01
         0.27500E+01
         0.27500E+01
         0.27500E+01
         0.27500E+01
         0.27500E+01
         0.27500E+01
         0.27500E+01
         0.27500E+01
         0.27500E+01
         0.27500E+01
         0.27500E+01
         0.27500E+01
         0.27500E+01
         0.27500E+01
         0.27500E+01
         0.27500E+01
         0.27500E+01
         0.27500E+01
         0.27500E+01
         0.27500E+01
         0.27500E+01
         0.27500E+01
         0.27500E+01
         0.27500E+01
         0.27500E+01
         0.27500E+01
         0.27500E+01
         0.27500E+01
         0.27500E+01
         0.27500E+01
         0.27500E+01
         0.27500E+01
         0.27500E+01
         0.27500E+01
         0.27500E+01
         0.27500E+01
         0.27500E+01
         0.27500E+01
         0.27500E+01
         0.27500E+01
         0.27500E+01
         0.27500E+01
         0.27500E+01
         0.27500E+01
         0.27500E+01
         0.27500E+01
         0.27500E+01
         0.27500E+01
  
SCALARS              physical_window_x  double 1
LOOKUP_TABLE default
         0.42419E-02
         0.35201E-02
         0.37624E-02
         0.42419E-02
         0.42417E-02
         0.35201E-02
         0.37618E-02
         0.42417E-02
         0.37624E-02
         0.37624E-02
         0.37618E-02
         0.37618E-02
         0.30086E-02
         0.32069E-02
         0.30084E-02
         0.32067E-02
         0.42419E-02
         0.32069E-02
         0.42417E-02
         0.32067E-02
         0.24180E-02
         0.29942E-02
         0.32396E-02
         0.24180E-02
         0.29933E-02
         0.32385E-02
         0.26608E-02
         0.27190E-02
         0.26608E-02
         0.27190E-02
         0.42687E-02
         0.36511E-02
         0.42687E-02
         0.42687E-02
         0.36511E-02
         0.42687E-02
         0.32069E-02
         0.29739E-02
         0.32066E-02
         0.29739E-02
         0.34652E-02
         0.32621E-02
         0.34652E-02
         0.32621E-02
         0.37123E-02
         0.32069E-02
         0.37123E-02
         0.32066E-02
         0.30844E-02
         0.30844E-02
         0.35191E-02
         0.35189E-02
         0.26925E-02
         0.26925E-02
         0.26925E-02
         0.26925E-02
         0.24643E-02
         0.27651E-02
         0.24643E-02
         0.27651E-02
         0.42687E-02
         0.35191E-02
         0.42687E-02
         0.35189E-02
         0.42687E-02
         0.42687E-02
         0.34658E-02
         0.34648E-02
         0.27274E-02
         0.31799E-02
         0.27273E-02
         0.31796E-02
         0.32396E-02
         0.32385E-02
         0.26964E-02
         0.26960E-02
         0.27828E-02
         0.27828E-02
         0.27828E-02
         0.27828E-02
         0.27004E-02
         0.31883E-02
         0.27003E-02
         0.31880E-02
         0.31883E-02
         0.31880E-02
         0.37123E-02
         0.37123E-02
         0.36245E-02
         0.36245E-02
         0.28253E-02
         0.31642E-02
         0.28253E-02
         0.31636E-02
         0.33485E-02
         0.33485E-02
         0.33485E-02
         0.33485E-02
         0.31978E-02
         0.31969E-02
         0.29849E-02
         0.32843E-02
         0.29849E-02
         0.32843E-02
         0.27274E-02
         0.31109E-02
         0.27273E-02
         0.31109E-02
         0.31799E-02
         0.31796E-02
         0.32396E-02
         0.32385E-02
         0.32396E-02
         0.32385E-02
         0.29942E-02
         0.29933E-02
         0.27190E-02
         0.27190E-02
         0.26964E-02
         0.26960E-02
         0.27828E-02
         0.27828E-02
         0.27828E-02
         0.27828E-02
         0.27004E-02
         0.27003E-02
         0.31883E-02
         0.31880E-02
         0.31883E-02
         0.31880E-02
         0.32621E-02
         0.32621E-02
         0.34652E-02
         0.34652E-02
         0.37123E-02
         0.37123E-02
         0.37123E-02
         0.37123E-02
         0.36245E-02
         0.36245E-02
         0.28253E-02
         0.28253E-02
         0.29097E-02
         0.29087E-02
         0.32389E-02
         0.32378E-02
         0.32389E-02
         0.32378E-02
         0.31978E-02
         0.31969E-02
         0.29849E-02
         0.29849E-02
         0.32843E-02
         0.32843E-02
         0.32843E-02
         0.32843E-02
         0.42420E-02
         0.35201E-02
         0.37629E-02
         0.42420E-02
         0.37629E-02
         0.37629E-02
         0.30087E-02
         0.32071E-02
         0.42420E-02
         0.32071E-02
         0.24178E-02
         0.29952E-02
         0.32407E-02
         0.26596E-02
         0.27191E-02
         0.42679E-02
         0.36502E-02
         0.42679E-02
         0.32071E-02
         0.29727E-02
         0.34648E-02
         0.32622E-02
         0.37119E-02
         0.32071E-02
         0.30833E-02
         0.35193E-02
         0.26910E-02
         0.26910E-02
         0.24638E-02
         0.27644E-02
         0.42679E-02
         0.35193E-02
         0.42679E-02
         0.34670E-02
         0.27274E-02
         0.31802E-02
         0.32407E-02
         0.26968E-02
         0.27828E-02
         0.27828E-02
         0.27005E-02
         0.31885E-02
         0.31885E-02
         0.37119E-02
         0.36244E-02
         0.28250E-02
         0.31647E-02
         0.33484E-02
         0.33484E-02
         0.31986E-02
         0.29848E-02
         0.32841E-02
         0.27274E-02
         0.31099E-02
         0.31802E-02
         0.32407E-02
         0.32407E-02
         0.29952E-02
         0.27191E-02
         0.26968E-02
         0.27828E-02
         0.27828E-02
         0.27005E-02
         0.31885E-02
         0.31885E-02
         0.32622E-02
         0.34648E-02
         0.37119E-02
         0.37119E-02
         0.36244E-02
         0.28250E-02
         0.29106E-02
         0.32401E-02
         0.32401E-02
         0.31986E-02
         0.29848E-02
         0.32841E-02
         0.32841E-02
         0.42421E-02
         0.35201E-02
         0.37634E-02
         0.42421E-02
         0.37634E-02
         0.37634E-02
         0.30089E-02
         0.32073E-02
         0.42421E-02
         0.32073E-02
         0.24177E-02
         0.29961E-02
         0.32418E-02
         0.26584E-02
         0.27191E-02
         0.42670E-02
         0.36493E-02
         0.42670E-02
         0.32073E-02
         0.29714E-02
         0.34644E-02
         0.32623E-02
         0.37115E-02
         0.32073E-02
         0.30822E-02
         0.35195E-02
         0.26896E-02
         0.26896E-02
         0.24633E-02
         0.27638E-02
         0.42670E-02
         0.35195E-02
         0.42670E-02
         0.34681E-02
         0.27275E-02
         0.31805E-02
         0.32418E-02
         0.26972E-02
         0.27828E-02
         0.27828E-02
         0.27006E-02
         0.31888E-02
         0.31888E-02
         0.37115E-02
         0.36243E-02
         0.28247E-02
         0.31652E-02
         0.33483E-02
         0.33483E-02
         0.31995E-02
         0.29847E-02
         0.32839E-02
         0.27275E-02
         0.31090E-02
         0.31805E-02
         0.32418E-02
         0.32418E-02
         0.29961E-02
         0.27191E-02
         0.26972E-02
         0.27828E-02
         0.27828E-02
         0.27006E-02
         0.31888E-02
         0.31888E-02
         0.32623E-02
         0.34644E-02
         0.37115E-02
         0.37115E-02
         0.36243E-02
         0.28247E-02
         0.29116E-02
         0.32412E-02
         0.32412E-02
         0.31995E-02
         0.29847E-02
         0.32839E-02
         0.32839E-02
         0.42423E-02
         0.35200E-02
         0.37639E-02
         0.42423E-02
         0.37639E-02
         0.37639E-02
         0.30091E-02
         0.32075E-02
         0.42423E-02
         0.32075E-02
         0.24176E-02
         0.29970E-02
         0.32428E-02
         0.26572E-02
         0.27192E-02
         0.42662E-02
         0.36483E-02
         0.42662E-02
         0.32075E-02
         0.29702E-02
         0.34639E-02
         0.32624E-02
         0.37111E-02
         0.32075E-02
         0.30811E-02
         0.35197E-02
         0.26881E-02
         0.26881E-02
         0.24628E-02
         0.27631E-02
         0.42662E-02
         0.35197E-02
         0.42662E-02
         0.34692E-02
         0.27276E-02
         0.31808E-02
         0.32428E-02
         0.26975E-02
         0.27828E-02
         0.27828E-02
         0.27007E-02
         0.31890E-02
         0.31890E-02
         0.37111E-02
         0.36242E-02
         0.28243E-02
         0.31658E-02
         0.33482E-02
         0.33482E-02
         0.32003E-02
         0.29846E-02
         0.32837E-02
         0.27276E-02
         0.31081E-02
         0.31808E-02
         0.32428E-02
         0.32428E-02
         0.29970E-02
         0.27192E-02
         0.26975E-02
         0.27828E-02
         0.27828E-02
         0.27007E-02
         0.31890E-02
         0.31890E-02
         0.32624E-02
         0.34639E-02
         0.37111E-02
         0.37111E-02
         0.36242E-02
         0.28243E-02
         0.29125E-02
         0.32423E-02
         0.32423E-02
         0.32003E-02
         0.29846E-02
         0.32837E-02
         0.32837E-02
         0.42424E-02
         0.35200E-02
         0.37644E-02
         0.42424E-02
         0.37644E-02
         0.37644E-02
         0.30093E-02
         0.32077E-02
         0.42424E-02
         0.32077E-02
         0.24174E-02
         0.29979E-02
         0.32439E-02
         0.26559E-02
         0.27192E-02
         0.42653E-02
         0.36474E-02
         0.42653E-02
         0.32077E-02
         0.29690E-02
         0.34635E-02
         0.32624E-02
         0.37108E-02
         0.32077E-02
         0.30799E-02
         0.35199E-02
         0.26867E-02
         0.26867E-02
         0.24623E-02
         0.27625E-02
         0.42653E-02
         0.35199E-02
         0.42653E-02
         0.34703E-02
         0.27276E-02
         0.31812E-02
         0.32439E-02
         0.26979E-02
         0.27828E-02
         0.27828E-02
         0.27008E-02
         0.31893E-02
         0.31893E-02
         0.37108E-02
         0.36241E-02
         0.28240E-02
         0.31663E-02
         0.33481E-02
         0.33481E-02
         0.32012E-02
         0.29844E-02
         0.32835E-02
         0.27276E-02
         0.31071E-02
         0.31812E-02
         0.32439E-02
         0.32439E-02
         0.29979E-02
         0.27192E-02
         0.26979E-02
         0.27828E-02
         0.27828E-02
         0.27008E-02
         0.31893E-02
         0.31893E-02
         0.32624E-02
         0.34635E-02
         0.37108E-02
         0.37108E-02
         0.36241E-02
         0.28240E-02
         0.29135E-02
         0.32434E-02
         0.32434E-02
         0.32012E-02
         0.29844E-02
         0.32835E-02
         0.32835E-02
         0.42425E-02
         0.35200E-02
         0.37649E-02
         0.42425E-02
         0.37649E-02
         0.37649E-02
         0.30095E-02
         0.32079E-02
         0.42425E-02
         0.32079E-02
         0.24173E-02
         0.29989E-02
         0.32450E-02
         0.26547E-02
         0.27193E-02
         0.42645E-02
         0.36465E-02
         0.42645E-02
         0.32079E-02
         0.29677E-02
         0.34631E-02
         0.32625E-02
         0.37104E-02
         0.32079E-02
         0.30788E-02
         0.35201E-02
         0.26852E-02
         0.26852E-02
         0.24618E-02
         0.27618E-02
         0.42645E-02
         0.35201E-02
         0.42645E-02
         0.34715E-02
         0.27277E-02
         0.31815E-02
         0.32450E-02
         0.26983E-02
         0.27828E-02
         0.27828E-02
         0.27009E-02
         0.31895E-02
         0.31895E-02
         0.37104E-02
         0.36239E-02
         0.28237E-02
         0.31668E-02
         0.33480E-02
         0.33480E-02
         0.32020E-02
         0.29843E-02
         0.32833E-02
         0.27277E-02
         0.31062E-02
         0.31815E-02
         0.32450E-02
         0.32450E-02
         0.29989E-02
         0.27193E-02
         0.26983E-02
         0.27828E-02
         0.27828E-02
         0.27009E-02
         0.31895E-02
         0.31895E-02
         0.32625E-02
         0.34631E-02
         0.37104E-02
         0.37104E-02
         0.36239E-02
         0.28237E-02
         0.29145E-02
         0.32445E-02
         0.32445E-02
         0.32020E-02
         0.29843E-02
         0.32833E-02
         0.32833E-02
         0.42427E-02
         0.35200E-02
         0.37654E-02
         0.42427E-02
         0.37654E-02
         0.37654E-02
         0.30097E-02
         0.32081E-02
         0.42427E-02
         0.32081E-02
         0.24171E-02
         0.29998E-02
         0.32461E-02
         0.26535E-02
         0.27193E-02
         0.42636E-02
         0.36455E-02
         0.42636E-02
         0.32081E-02
         0.29665E-02
         0.34626E-02
         0.32626E-02
         0.37100E-02
         0.32081E-02
         0.30777E-02
         0.35203E-02
         0.26838E-02
         0.26838E-02
         0.24613E-02
         0.27611E-02
         0.42636E-02
         0.35203E-02
         0.42636E-02
         0.34726E-02
         0.27278E-02
         0.31818E-02
         0.32461E-02
         0.26987E-02
         0.27827E-02
         0.27827E-02
         0.27010E-02
         0.31898E-02
         0.31898E-02
         0.37100E-02
         0.36238E-02
         0.28234E-02
         0.31673E-02
         0.33479E-02
         0.33479E-02
         0.32029E-02
         0.29842E-02
         0.32831E-02
         0.27278E-02
         0.31052E-02
         0.31818E-02
         0.32461E-02
         0.32461E-02
         0.29998E-02
         0.27193E-02
         0.26987E-02
         0.27827E-02
         0.27827E-02
         0.27010E-02
         0.31898E-02
         0.31898E-02
         0.32626E-02
         0.34626E-02
         0.37100E-02
         0.37100E-02
         0.36238E-02
         0.28234E-02
         0.29154E-02
         0.32457E-02
         0.32457E-02
         0.32029E-02
         0.29842E-02
         0.32831E-02
         0.32831E-02
         0.42428E-02
         0.35199E-02
         0.37660E-02
         0.42428E-02
         0.37660E-02
         0.37660E-02
         0.30099E-02
         0.32083E-02
         0.42428E-02
         0.32083E-02
         0.24170E-02
         0.30007E-02
         0.32471E-02
         0.26523E-02
         0.27194E-02
         0.42628E-02
         0.36446E-02
         0.42628E-02
         0.32083E-02
         0.29652E-02
         0.34622E-02
         0.32627E-02
         0.37096E-02
         0.32083E-02
         0.30766E-02
         0.35205E-02
         0.26823E-02
         0.26823E-02
         0.24608E-02
         0.27605E-02
         0.42628E-02
         0.35205E-02
         0.42628E-02
         0.34737E-02
         0.27279E-02
         0.31821E-02
         0.32471E-02
         0.26991E-02
         0.27827E-02
         0.27827E-02
         0.27011E-02
         0.31900E-02
         0.31900E-02
         0.37096E-02
         0.36237E-02
         0.28231E-02
         0.31679E-02
         0.33478E-02
         0.33478E-02
         0.32038E-02
         0.29841E-02
         0.32829E-02
         0.27279E-02
         0.31043E-02
         0.31821E-02
         0.32471E-02
         0.32471E-02
         0.30007E-02
         0.27194E-02
         0.26991E-02
         0.27827E-02
         0.27827E-02
         0.27011E-02
         0.31900E-02
         0.31900E-02
         0.32627E-02
         0.34622E-02
         0.37096E-02
         0.37096E-02
         0.36237E-02
         0.28231E-02
         0.29164E-02
         0.32468E-02
         0.32468E-02
         0.32038E-02
         0.29841E-02
         0.32829E-02
         0.32829E-02
         0.42429E-02
         0.35199E-02
         0.37665E-02
         0.42429E-02
         0.37665E-02
         0.37665E-02
         0.30101E-02
         0.32085E-02
         0.42429E-02
         0.32085E-02
         0.24168E-02
         0.30017E-02
         0.32482E-02
         0.26510E-02
         0.27194E-02
         0.42619E-02
         0.36437E-02
         0.42619E-02
         0.32085E-02
         0.29640E-02
         0.34618E-02
         0.32627E-02
         0.37092E-02
         0.32085E-02
         0.30755E-02
         0.35207E-02
         0.26808E-02
         0.26808E-02
         0.24603E-02
         0.27599E-02
         0.42619E-02
         0.35207E-02
         0.42619E-02
         0.34748E-02
         0.27279E-02
         0.31824E-02
         0.32482E-02
         0.26994E-02
         0.27827E-02
         0.27827E-02
         0.27012E-02
         0.31902E-02
         0.31902E-02
         0.37092E-02
         0.36236E-02
         0.28227E-02
         0.31684E-02
         0.33477E-02
         0.33477E-02
         0.32046E-02
         0.29840E-02
         0.32827E-02
         0.27279E-02
         0.31034E-02
         0.31824E-02
         0.32482E-02
         0.32482E-02
         0.30017E-02
         0.27194E-02
         0.26994E-02
         0.27827E-02
         0.27827E-02
         0.27012E-02
         0.31902E-02
         0.31902E-02
         0.32627E-02
         0.34618E-02
         0.37092E-02
         0.37092E-02
         0.36236E-02
         0.28227E-02
         0.29173E-02
         0.32479E-02
         0.32479E-02
         0.32046E-02
         0.29840E-02
         0.32827E-02
         0.32827E-02
         0.42431E-02
         0.35199E-02
         0.37670E-02
         0.42431E-02
         0.37670E-02
         0.37670E-02
         0.30102E-02
         0.32087E-02
         0.42431E-02
         0.32087E-02
         0.24167E-02
         0.30026E-02
         0.32493E-02
         0.26498E-02
         0.27194E-02
         0.42611E-02
         0.36427E-02
         0.42611E-02
         0.32087E-02
         0.29628E-02
         0.34613E-02
         0.32628E-02
         0.37089E-02
         0.32087E-02
         0.30744E-02
         0.35209E-02
         0.26794E-02
         0.26794E-02
         0.24598E-02
         0.27592E-02
         0.42611E-02
         0.35209E-02
         0.42611E-02
         0.34759E-02
         0.27280E-02
         0.31827E-02
         0.32493E-02
         0.26998E-02
         0.27827E-02
         0.27827E-02
         0.27013E-02
         0.31905E-02
         0.31905E-02
         0.37089E-02
         0.36235E-02
         0.28224E-02
         0.31689E-02
         0.33476E-02
         0.33476E-02
         0.32055E-02
         0.29839E-02
         0.32825E-02
         0.27280E-02
         0.31024E-02
         0.31827E-02
         0.32493E-02
         0.32493E-02
         0.30026E-02
         0.27194E-02
         0.26998E-02
         0.27827E-02
         0.27827E-02
         0.27013E-02
         0.31905E-02
         0.31905E-02
         0.32628E-02
         0.34613E-02
         0.37089E-02
         0.37089E-02
         0.36235E-02
         0.28224E-02
         0.29183E-02
         0.32490E-02
         0.32490E-02
         0.32055E-02
         0.29839E-02
         0.32825E-02
         0.32825E-02
         0.42432E-02
         0.35199E-02
         0.37675E-02
         0.42432E-02
         0.37675E-02
         0.37675E-02
         0.30104E-02
         0.32089E-02
         0.42432E-02
         0.32089E-02
         0.24166E-02
         0.30035E-02
         0.32504E-02
         0.26486E-02
         0.27195E-02
         0.42603E-02
         0.36418E-02
         0.42603E-02
         0.32089E-02
         0.29615E-02
         0.34609E-02
         0.32629E-02
         0.37085E-02
         0.32089E-02
         0.30732E-02
         0.35211E-02
         0.26779E-02
         0.26779E-02
         0.24593E-02
         0.27585E-02
         0.42603E-02
         0.35211E-02
         0.42603E-02
         0.34771E-02
         0.27281E-02
         0.31830E-02
         0.32504E-02
         0.27002E-02
         0.27827E-02
         0.27827E-02
         0.27014E-02
         0.31907E-02
         0.31907E-02
         0.37085E-02
         0.36233E-02
         0.28221E-02
         0.31694E-02
         0.33475E-02
         0.33475E-02
         0.32063E-02
         0.29838E-02
         0.32823E-02
         0.27281E-02
         0.31015E-02
         0.31830E-02
         0.32504E-02
         0.32504E-02
         0.30035E-02
         0.27195E-02
         0.27002E-02
         0.27827E-02
         0.27827E-02
         0.27014E-02
         0.31907E-02
         0.31907E-02
         0.32629E-02
         0.34609E-02
         0.37085E-02
         0.37085E-02
         0.36233E-02
         0.28221E-02
         0.29193E-02
         0.32501E-02
         0.32501E-02
         0.32063E-02
         0.29838E-02
         0.32823E-02
         0.32823E-02
         0.42433E-02
         0.35199E-02
         0.37680E-02
         0.42433E-02
         0.37680E-02
         0.37680E-02
         0.30106E-02
         0.32091E-02
         0.42433E-02
         0.32091E-02
         0.24164E-02
         0.30045E-02
         0.32514E-02
         0.26474E-02
         0.27195E-02
         0.42594E-02
         0.36409E-02
         0.42594E-02
         0.32091E-02
         0.29603E-02
         0.34605E-02
         0.32630E-02
         0.37081E-02
         0.32091E-02
         0.30721E-02
         0.35213E-02
         0.26765E-02
         0.26765E-02
         0.24588E-02
         0.27579E-02
         0.42594E-02
         0.35213E-02
         0.42594E-02
         0.34782E-02
         0.27281E-02
         0.31833E-02
         0.32514E-02
         0.27006E-02
         0.27826E-02
         0.27826E-02
         0.27015E-02
         0.31910E-02
         0.31910E-02
         0.37081E-02
         0.36232E-02
         0.28218E-02
         0.31700E-02
         0.33474E-02
         0.33474E-02
         0.32072E-02
         0.29836E-02
         0.32821E-02
         0.27281E-02
         0.31005E-02
         0.31833E-02
         0.32514E-02
         0.32514E-02
         0.30045E-02
         0.27195E-02
         0.27006E-02
         0.27826E-02
         0.27826E-02
         0.27015E-02
         0.31910E-02
         0.31910E-02
         0.32630E-02
         0.34605E-02
         0.37081E-02
         0.37081E-02
         0.36232E-02
         0.28218E-02
         0.29202E-02
         0.32512E-02
         0.32512E-02
         0.32072E-02
         0.29836E-02
         0.32821E-02
         0.32821E-02
         0.42435E-02
         0.35199E-02
         0.37685E-02
         0.42435E-02
         0.37685E-02
         0.37685E-02
         0.30108E-02
         0.32093E-02
         0.42435E-02
         0.32093E-02
         0.24163E-02
         0.30054E-02
         0.32525E-02
         0.26461E-02
         0.27196E-02
         0.42586E-02
         0.36399E-02
         0.42586E-02
         0.32093E-02
         0.29591E-02
         0.34601E-02
         0.32630E-02
         0.37077E-02
         0.32093E-02
         0.30710E-02
         0.35215E-02
         0.26750E-02
         0.26750E-02
         0.24583E-02
         0.27572E-02
         0.42586E-02
         0.35215E-02
         0.42586E-02
         0.34793E-02
         0.27282E-02
         0.31836E-02
         0.32525E-02
         0.27010E-02
         0.27826E-02
         0.27826E-02
         0.27016E-02
         0.31912E-02
         0.31912E-02
         0.37077E-02
         0.36231E-02
         0.28215E-02
         0.31705E-02
         0.33473E-02
         0.33473E-02
         0.32080E-02
         0.29835E-02
         0.32819E-02
         0.27282E-02
         0.30996E-02
         0.31836E-02
         0.32525E-02
         0.32525E-02
         0.30054E-02
         0.27196E-02
         0.27010E-02
         0.27826E-02
         0.27826E-02
         0.27016E-02
         0.31912E-02
         0.31912E-02
         0.32630E-02
         0.34601E-02
         0.37077E-02
         0.37077E-02
         0.36231E-02
         0.28215E-02
         0.29212E-02
         0.32524E-02
         0.32524E-02
         0.32080E-02
         0.29835E-02
         0.32819E-02
         0.32819E-02
         0.42436E-02
         0.35198E-02
         0.37690E-02
         0.42436E-02
         0.37690E-02
         0.37690E-02
         0.30110E-02
         0.32095E-02
         0.42436E-02
         0.32095E-02
         0.24162E-02
         0.30064E-02
         0.32536E-02
         0.26449E-02
         0.27196E-02
         0.42577E-02
         0.36390E-02
         0.42577E-02
         0.32096E-02
         0.29578E-02
         0.34596E-02
         0.32631E-02
         0.37074E-02
         0.32096E-02
         0.30699E-02
         0.35217E-02
         0.26735E-02
         0.26735E-02
         0.24578E-02
         0.27566E-02
         0.42577E-02
         0.35217E-02
         0.42577E-02
         0.34804E-02
         0.27283E-02
         0.31839E-02
         0.32536E-02
         0.27013E-02
         0.27826E-02
         0.27826E-02
         0.27017E-02
         0.31915E-02
         0.31915E-02
         0.37074E-02
         0.36230E-02
         0.28211E-02
         0.31710E-02
         0.33472E-02
         0.33472E-02
         0.32089E-02
         0.29834E-02
         0.32817E-02
         0.27283E-02
         0.30986E-02
         0.31839E-02
         0.32536E-02
         0.32536E-02
         0.30064E-02
         0.27196E-02
         0.27013E-02
         0.27826E-02
         0.27826E-02
         0.27017E-02
         0.31915E-02
         0.31915E-02
         0.32631E-02
         0.34596E-02
         0.37074E-02
         0.37074E-02
         0.36230E-02
         0.28211E-02
         0.29221E-02
         0.32535E-02
         0.32535E-02
         0.32089E-02
         0.29834E-02
         0.32817E-02
         0.32817E-02
         0.42437E-02
         0.35198E-02
         0.37695E-02
         0.42437E-02
         0.37695E-02
         0.37695E-02
         0.30112E-02
         0.32097E-02
         0.42437E-02
         0.32097E-02
         0.24160E-02
         0.30073E-02
         0.32547E-02
         0.26437E-02
         0.27197E-02
         0.42569E-02
         0.36381E-02
         0.42569E-02
         0.32098E-02
         0.29566E-02
         0.34592E-02
         0.32632E-02
         0.37070E-02
         0.32098E-02
         0.30688E-02
         0.35219E-02
         0.26721E-02
         0.26721E-02
         0.24573E-02
         0.27560E-02
         0.42569E-02
         0.35219E-02
         0.42569E-02
         0.34815E-02
         0.27284E-02
         0.31843E-02
         0.32547E-02
         0.27017E-02
         0.27826E-02
         0.27826E-02
         0.27018E-02
         0.31917E-02
         0.31917E-02
         0.37070E-02
         0.36229E-02
         0.28208E-02
         0.31716E-02
         0.33471E-02
         0.33471E-02
         0.32097E-02
         0.29833E-02
         0.32815E-02
         0.27284E-02
         0.30977E-02
         0.31843E-02
         0.32547E-02
         0.32547E-02
         0.30073E-02
         0.27197E-02
         0.27017E-02
         0.27826E-02
         0.27826E-02
         0.27018E-02
         0.31917E-02
         0.31917E-02
         0.32632E-02
         0.34592E-02
         0.37070E-02
         0.37070E-02
         0.36229E-02
         0.28208E-02
         0.29231E-02
         0.32546E-02
         0.32546E-02
         0.32097E-02
         0.29833E-02
         0.32815E-02
         0.32815E-02
         0.42439E-02
         0.35198E-02
         0.37701E-02
         0.42439E-02
         0.37701E-02
         0.37701E-02
         0.30113E-02
         0.32099E-02
         0.42439E-02
         0.32099E-02
         0.24159E-02
         0.30082E-02
         0.32558E-02
         0.26425E-02
         0.27197E-02
         0.42560E-02
         0.36371E-02
         0.42560E-02
         0.32100E-02
         0.29554E-02
         0.34588E-02
         0.32633E-02
         0.37066E-02
         0.32100E-02
         0.30677E-02
         0.35221E-02
         0.26706E-02
         0.26706E-02
         0.24568E-02
         0.27553E-02
         0.42560E-02
         0.35221E-02
         0.42560E-02
         0.34827E-02
         0.27284E-02
         0.31846E-02
         0.32558E-02
         0.27021E-02
         0.27826E-02
         0.27826E-02
         0.27019E-02
         0.31920E-02
         0.31920E-02
         0.37066E-02
         0.36227E-02
         0.28205E-02
         0.31721E-02
         0.33470E-02
         0.33470E-02
         0.32106E-02
         0.29831E-02
         0.32813E-02
         0.27284E-02
         0.30968E-02
         0.31846E-02
         0.32558E-02
         0.32558E-02
         0.30082E-02
         0.27197E-02
         0.27021E-02
         0.27826E-02
         0.27826E-02
         0.27019E-02
         0.31920E-02
         0.31920E-02
         0.32633E-02
         0.34588E-02
         0.37066E-02
         0.37066E-02
         0.36227E-02
         0.28205E-02
         0.29241E-02
         0.32557E-02
         0.32557E-02
         0.32106E-02
         0.29831E-02
         0.32813E-02
         0.32813E-02
         0.42440E-02
         0.35198E-02
         0.37706E-02
         0.42440E-02
         0.37706E-02
         0.37706E-02
         0.30115E-02
         0.32101E-02
         0.42440E-02
         0.32101E-02
         0.24158E-02
         0.30091E-02
         0.32568E-02
         0.26412E-02
         0.27198E-02
         0.42552E-02
         0.36362E-02
         0.42552E-02
         0.32102E-02
         0.29541E-02
         0.34583E-02
         0.32633E-02
         0.37062E-02
         0.32102E-02
         0.30665E-02
         0.35223E-02
         0.26692E-02
         0.26692E-02
         0.24563E-02
         0.27546E-02
         0.42552E-02
         0.35223E-02
         0.42552E-02
         0.34838E-02
         0.27285E-02
         0.31849E-02
         0.32568E-02
         0.27025E-02
         0.27826E-02
         0.27826E-02
         0.27020E-02
         0.31922E-02
         0.31922E-02
         0.37062E-02
         0.36226E-02
         0.28202E-02
         0.31726E-02
         0.33469E-02
         0.33469E-02
         0.32114E-02
         0.29830E-02
         0.32811E-02
         0.27285E-02
         0.30958E-02
         0.31849E-02
         0.32568E-02
         0.32568E-02
         0.30091E-02
         0.27198E-02
         0.27025E-02
         0.27826E-02
         0.27826E-02
         0.27020E-02
         0.31922E-02
         0.31922E-02
         0.32633E-02
         0.34583E-02
         0.37062E-02
         0.37062E-02
         0.36226E-02
         0.28202E-02
         0.29250E-02
         0.32568E-02
         0.32568E-02
         0.32114E-02
         0.29830E-02
         0.32811E-02
         0.32811E-02
         0.42441E-02
         0.35198E-02
         0.37711E-02
         0.42441E-02
         0.37711E-02
         0.37711E-02
         0.30117E-02
         0.32103E-02
         0.42441E-02
         0.32103E-02
         0.24156E-02
         0.30101E-02
         0.32579E-02
         0.26400E-02
         0.27198E-02
         0.42543E-02
         0.36353E-02
         0.42543E-02
         0.32104E-02
         0.29529E-02
         0.34579E-02
         0.32634E-02
         0.37058E-02
         0.32104E-02
         0.30654E-02
         0.35225E-02
         0.26677E-02
         0.26677E-02
         0.24558E-02
         0.27540E-02
         0.42543E-02
         0.35225E-02
         0.42543E-02
         0.34849E-02
         0.27286E-02
         0.31852E-02
         0.32579E-02
         0.27029E-02
         0.27826E-02
         0.27826E-02
         0.27021E-02
         0.31924E-02
         0.31924E-02
         0.37058E-02
         0.36225E-02
         0.28198E-02
         0.31731E-02
         0.33468E-02
         0.33468E-02
         0.32123E-02
         0.29829E-02
         0.32809E-02
         0.27286E-02
         0.30949E-02
         0.31852E-02
         0.32579E-02
         0.32579E-02
         0.30101E-02
         0.27198E-02
         0.27029E-02
         0.27826E-02
         0.27826E-02
         0.27021E-02
         0.31924E-02
         0.31924E-02
         0.32634E-02
         0.34579E-02
         0.37058E-02
         0.37058E-02
         0.36225E-02
         0.28198E-02
         0.29260E-02
         0.32579E-02
         0.32579E-02
         0.32123E-02
         0.29829E-02
         0.32809E-02
         0.32809E-02
         0.42443E-02
         0.35197E-02
         0.37716E-02
         0.42443E-02
         0.37716E-02
         0.37716E-02
         0.30119E-02
         0.32105E-02
         0.42443E-02
         0.32105E-02
         0.24155E-02
         0.30110E-02
         0.32590E-02
         0.26388E-02
         0.27199E-02
         0.42535E-02
         0.36343E-02
         0.42535E-02
         0.32106E-02
         0.29517E-02
         0.34575E-02
         0.32635E-02
         0.37055E-02
         0.32106E-02
         0.30643E-02
         0.35227E-02
         0.26663E-02
         0.26663E-02
         0.24553E-02
         0.27533E-02
         0.42535E-02
         0.35227E-02
         0.42535E-02
         0.34860E-02
         0.27286E-02
         0.31855E-02
         0.32590E-02
         0.27032E-02
         0.27826E-02
         0.27826E-02
         0.27022E-02
         0.31927E-02
         0.31927E-02
         0.37055E-02
         0.36224E-02
         0.28195E-02
         0.31737E-02
         0.33467E-02
         0.33467E-02
         0.32132E-02
         0.29828E-02
         0.32807E-02
         0.27286E-02
         0.30939E-02
         0.31855E-02
         0.32590E-02
         0.32590E-02
         0.30110E-02
         0.27199E-02
         0.27032E-02
         0.27826E-02
         0.27826E-02
         0.27022E-02
         0.31927E-02
         0.31927E-02
         0.32635E-02
         0.34575E-02
         0.37055E-02
         0.37055E-02
         0.36224E-02
         0.28195E-02
         0.29269E-02
         0.32591E-02
         0.32591E-02
         0.32132E-02
         0.29828E-02
         0.32807E-02
         0.32807E-02
         0.42444E-02
         0.35197E-02
         0.37721E-02
         0.42444E-02
         0.37721E-02
         0.37721E-02
         0.30121E-02
         0.32107E-02
         0.42444E-02
         0.32107E-02
         0.24154E-02
         0.30119E-02
         0.32601E-02
         0.26376E-02
         0.27199E-02
         0.42527E-02
         0.36334E-02
         0.42527E-02
         0.32108E-02
         0.29504E-02
         0.34571E-02
         0.32636E-02
         0.37051E-02
         0.32108E-02
         0.30632E-02
         0.35229E-02
         0.26648E-02
         0.26648E-02
         0.24552E-02
         0.27527E-02
         0.42527E-02
         0.35229E-02
         0.42527E-02
         0.34871E-02
         0.27287E-02
         0.31858E-02
         0.32601E-02
         0.27036E-02
         0.27825E-02
         0.27825E-02
         0.27023E-02
         0.31929E-02
         0.31929E-02
         0.37051E-02
         0.36223E-02
         0.28192E-02
         0.31742E-02
         0.33466E-02
         0.33466E-02
         0.32140E-02
         0.29827E-02
         0.32805E-02
         0.27287E-02
         0.30930E-02
         0.31858E-02
         0.32601E-02
         0.32601E-02
         0.30119E-02
         0.27199E-02
         0.27036E-02
         0.27825E-02
         0.27825E-02
         0.27023E-02
         0.31929E-02
         0.31929E-02
         0.32636E-02
         0.34571E-02
         0.37051E-02
         0.37051E-02
         0.36223E-02
         0.28192E-02
         0.29279E-02
         0.32602E-02
         0.32602E-02
         0.32140E-02
         0.29827E-02
         0.32805E-02
         0.32805E-02
         0.42445E-02
         0.35197E-02
         0.37726E-02
         0.42445E-02
         0.37726E-02
         0.37726E-02
         0.30123E-02
         0.32108E-02
         0.42445E-02
         0.32108E-02
         0.24152E-02
         0.30129E-02
         0.32611E-02
         0.26363E-02
         0.27200E-02
         0.42518E-02
         0.36325E-02
         0.42518E-02
         0.32110E-02
         0.29492E-02
         0.34566E-02
         0.32636E-02
         0.37047E-02
         0.32110E-02
         0.30621E-02
         0.35231E-02
         0.26633E-02
         0.26633E-02
         0.24554E-02
         0.27520E-02
         0.42518E-02
         0.35231E-02
         0.42518E-02
         0.34882E-02
         0.27288E-02
         0.31861E-02
         0.32611E-02
         0.27040E-02
         0.27825E-02
         0.27825E-02
         0.27024E-02
         0.31932E-02
         0.31932E-02
         0.37047E-02
         0.36222E-02
         0.28189E-02
         0.31747E-02
         0.33465E-02
         0.33465E-02
         0.32149E-02
         0.29826E-02
         0.32803E-02
         0.27288E-02
         0.30921E-02
         0.31861E-02
         0.32611E-02
         0.32611E-02
         0.30129E-02
         0.27200E-02
         0.27040E-02
         0.27825E-02
         0.27825E-02
         0.27024E-02
         0.31932E-02
         0.31932E-02
         0.32636E-02
         0.34566E-02
         0.37047E-02
         0.37047E-02
         0.36222E-02
         0.28189E-02
         0.29289E-02
         0.32613E-02
         0.32613E-02
         0.32149E-02
         0.29826E-02
         0.32803E-02
         0.32803E-02
         0.42447E-02
         0.35196E-02
         0.37732E-02
         0.42447E-02
         0.37732E-02
         0.37732E-02
         0.30125E-02
         0.32111E-02
         0.42447E-02
         0.32111E-02
         0.24151E-02
         0.30138E-02
         0.32622E-02
         0.26351E-02
         0.27200E-02
         0.42510E-02
         0.36315E-02
         0.42510E-02
         0.32112E-02
         0.29480E-02
         0.34562E-02
         0.32637E-02
         0.37043E-02
         0.32112E-02
         0.30610E-02
         0.35233E-02
         0.26619E-02
         0.26619E-02
         0.24557E-02
         0.27514E-02
         0.42510E-02
         0.35233E-02
         0.42510E-02
         0.34894E-02
         0.27289E-02
         0.31864E-02
         0.32622E-02
         0.27044E-02
         0.27825E-02
         0.27825E-02
         0.27025E-02
         0.31934E-02
         0.31934E-02
         0.37043E-02
         0.36220E-02
         0.28186E-02
         0.31753E-02
         0.33464E-02
         0.33464E-02
         0.32157E-02
         0.29824E-02
         0.32801E-02
         0.27289E-02
         0.30911E-02
         0.31864E-02
         0.32622E-02
         0.32622E-02
         0.30138E-02
         0.27200E-02
         0.27044E-02
         0.27825E-02
         0.27825E-02
         0.27025E-02
         0.31934E-02
         0.31934E-02
         0.32637E-02
         0.34562E-02
         0.37043E-02
         0.37043E-02
         0.36220E-02
         0.28186E-02
         0.29298E-02
         0.32624E-02
         0.32624E-02
         0.32157E-02
         0.29824E-02
         0.32801E-02
         0.32801E-02
         0.42448E-02
         0.35196E-02
         0.37737E-02
         0.42448E-02
         0.37737E-02
         0.37737E-02
         0.30126E-02
         0.32112E-02
         0.42448E-02
         0.32112E-02
         0.24150E-02
         0.30147E-02
         0.32633E-02
         0.26339E-02
         0.27200E-02
         0.42501E-02
         0.36306E-02
         0.42501E-02
         0.32114E-02
         0.29467E-02
         0.34558E-02
         0.32638E-02
         0.37039E-02
         0.32114E-02
         0.30598E-02
         0.35235E-02
         0.26604E-02
         0.26604E-02
         0.24559E-02
         0.27507E-02
         0.42501E-02
         0.35235E-02
         0.42501E-02
         0.34905E-02
         0.27289E-02
         0.31867E-02
         0.32633E-02
         0.27048E-02
         0.27825E-02
         0.27825E-02
         0.27026E-02
         0.31937E-02
         0.31937E-02
         0.37039E-02
         0.36219E-02
         0.28183E-02
         0.31758E-02
         0.33463E-02
         0.33463E-02
         0.32166E-02
         0.29823E-02
         0.32799E-02
         0.27289E-02
         0.30902E-02
         0.31867E-02
         0.32633E-02
         0.32633E-02
         0.30147E-02
         0.27200E-02
         0.27048E-02
         0.27825E-02
         0.27825E-02
         0.27026E-02
         0.31937E-02
         0.31937E-02
         0.32638E-02
         0.34558E-02
         0.37039E-02
         0.37039E-02
         0.36219E-02
         0.28183E-02
         0.29308E-02
         0.32635E-02
         0.32635E-02
         0.32166E-02
         0.29823E-02
         0.32799E-02
         0.32799E-02
         0.42448E-02
         0.35196E-02
         0.37737E-02
         0.42448E-02
         0.37737E-02
         0.37737E-02
         0.30126E-02
         0.32112E-02
         0.42448E-02
         0.32112E-02
         0.24148E-02
         0.30147E-02
         0.32633E-02
         0.26327E-02
         0.27200E-02
         0.42493E-02
         0.36297E-02
         0.42493E-02
         0.32114E-02
         0.29455E-02
         0.34553E-02
         0.32638E-02
         0.37036E-02
         0.32114E-02
         0.30587E-02
         0.35235E-02
         0.26590E-02
         0.26590E-02
         0.24559E-02
         0.27501E-02
         0.42493E-02
         0.35235E-02
         0.42493E-02
         0.34905E-02
         0.27289E-02
         0.31867E-02
         0.32633E-02
         0.27048E-02
         0.27825E-02
         0.27825E-02
         0.27026E-02
         0.31937E-02
         0.31937E-02
         0.37036E-02
         0.36218E-02
         0.28180E-02
         0.31758E-02
         0.33462E-02
         0.33462E-02
         0.32166E-02
         0.29822E-02
         0.32797E-02
         0.27289E-02
         0.30892E-02
         0.31867E-02
         0.32633E-02
         0.32633E-02
         0.30147E-02
         0.27200E-02
         0.27048E-02
         0.27825E-02
         0.27825E-02
         0.27026E-02
         0.31937E-02
         0.31937E-02
         0.32638E-02
         0.34553E-02
         0.37036E-02
         0.37036E-02
         0.36218E-02
         0.28180E-02
         0.29308E-02
         0.32635E-02
         0.32635E-02
         0.32166E-02
         0.29822E-02
         0.32797E-02
         0.32797E-02
  
SCALARS              physical_window_y  double 1
LOOKUP_TABLE default
         0.43155E-02
         0.43155E-02
         0.43155E-02
         0.43155E-02
         0.43155E-02
         0.43155E-02
         0.43155E-02
         0.43155E-02
         0.34883E-02
         0.34883E-02
         0.34882E-02
         0.34882E-02
         0.32826E-02
         0.32142E-02
         0.32826E-02
         0.32142E-02
         0.37863E-02
         0.31884E-02
         0.37863E-02
         0.31884E-02
         0.27172E-02
         0.33887E-02
         0.37164E-02
         0.27172E-02
         0.33887E-02
         0.37164E-02
         0.27582E-02
         0.28966E-02
         0.27582E-02
         0.28954E-02
         0.37007E-02
         0.35859E-02
         0.37863E-02
         0.37007E-02
         0.35824E-02
         0.37863E-02
         0.29875E-02
         0.29875E-02
         0.29867E-02
         0.29867E-02
         0.28561E-02
         0.26860E-02
         0.28556E-02
         0.26852E-02
         0.29518E-02
         0.28068E-02
         0.29517E-02
         0.28066E-02
         0.29975E-02
         0.29949E-02
         0.37007E-02
         0.37007E-02
         0.28693E-02
         0.28693E-02
         0.28693E-02
         0.28693E-02
         0.27602E-02
         0.26193E-02
         0.27602E-02
         0.26193E-02
         0.37007E-02
         0.37007E-02
         0.37007E-02
         0.37007E-02
         0.37685E-02
         0.37665E-02
         0.37685E-02
         0.37665E-02
         0.30230E-02
         0.37003E-02
         0.30229E-02
         0.37003E-02
         0.37164E-02
         0.37164E-02
         0.31934E-02
         0.31921E-02
         0.32777E-02
         0.32771E-02
         0.32777E-02
         0.32771E-02
         0.27006E-02
         0.25920E-02
         0.27006E-02
         0.25920E-02
         0.25916E-02
         0.25916E-02
         0.29715E-02
         0.29715E-02
         0.29715E-02
         0.29715E-02
         0.26477E-02
         0.29102E-02
         0.26477E-02
         0.29102E-02
         0.34085E-02
         0.34085E-02
         0.35350E-02
         0.35350E-02
         0.35350E-02
         0.35350E-02
         0.29766E-02
         0.32272E-02
         0.29763E-02
         0.32254E-02
         0.29087E-02
         0.29835E-02
         0.29087E-02
         0.29825E-02
         0.37003E-02
         0.37003E-02
         0.37164E-02
         0.37164E-02
         0.37164E-02
         0.37164E-02
         0.33887E-02
         0.33887E-02
         0.28966E-02
         0.28954E-02
         0.31934E-02
         0.31921E-02
         0.32777E-02
         0.32771E-02
         0.32777E-02
         0.32771E-02
         0.27006E-02
         0.27006E-02
         0.25920E-02
         0.25920E-02
         0.25916E-02
         0.25916E-02
         0.26860E-02
         0.26852E-02
         0.28561E-02
         0.28556E-02
         0.29518E-02
         0.29517E-02
         0.29715E-02
         0.29715E-02
         0.29715E-02
         0.29715E-02
         0.26477E-02
         0.26477E-02
         0.27685E-02
         0.27685E-02
         0.34085E-02
         0.34085E-02
         0.35350E-02
         0.35350E-02
         0.35350E-02
         0.35350E-02
         0.29766E-02
         0.29763E-02
         0.31381E-02
         0.31368E-02
         0.31381E-02
         0.31368E-02
         0.43153E-02
         0.43153E-02
         0.43153E-02
         0.43153E-02
         0.34883E-02
         0.34883E-02
         0.32812E-02
         0.32132E-02
         0.37858E-02
         0.31880E-02
         0.27155E-02
         0.33883E-02
         0.37163E-02
         0.27535E-02
         0.28978E-02
         0.37004E-02
         0.35894E-02
         0.37858E-02
         0.29882E-02
         0.29882E-02
         0.28566E-02
         0.26867E-02
         0.29519E-02
         0.28071E-02
         0.30001E-02
         0.37004E-02
         0.28667E-02
         0.28667E-02
         0.27589E-02
         0.26183E-02
         0.37004E-02
         0.37004E-02
         0.37706E-02
         0.37706E-02
         0.30232E-02
         0.36991E-02
         0.37163E-02
         0.31947E-02
         0.32784E-02
         0.32784E-02
         0.27006E-02
         0.25920E-02
         0.25909E-02
         0.29715E-02
         0.29715E-02
         0.26476E-02
         0.29101E-02
         0.34078E-02
         0.35344E-02
         0.35344E-02
         0.29769E-02
         0.32290E-02
         0.29059E-02
         0.29845E-02
         0.36991E-02
         0.37163E-02
         0.37163E-02
         0.33883E-02
         0.28978E-02
         0.31947E-02
         0.32784E-02
         0.32784E-02
         0.27006E-02
         0.25920E-02
         0.25909E-02
         0.26867E-02
         0.28566E-02
         0.29519E-02
         0.29715E-02
         0.29715E-02
         0.26476E-02
         0.27685E-02
         0.34078E-02
         0.35344E-02
         0.35344E-02
         0.29769E-02
         0.31395E-02
         0.31395E-02
         0.43150E-02
         0.43150E-02
         0.43150E-02
         0.43150E-02
         0.34884E-02
         0.34884E-02
         0.32798E-02
         0.32122E-02
         0.37853E-02
         0.31876E-02
         0.27137E-02
         0.33879E-02
         0.37162E-02
         0.27488E-02
         0.28990E-02
         0.37001E-02
         0.35930E-02
         0.37853E-02
         0.29889E-02
         0.29889E-02
         0.28571E-02
         0.26875E-02
         0.29521E-02
         0.28074E-02
         0.30027E-02
         0.37001E-02
         0.28641E-02
         0.28641E-02
         0.27576E-02
         0.26173E-02
         0.37001E-02
         0.37001E-02
         0.37727E-02
         0.37727E-02
         0.30234E-02
         0.36979E-02
         0.37162E-02
         0.31960E-02
         0.32790E-02
         0.32790E-02
         0.27006E-02
         0.25920E-02
         0.25902E-02
         0.29715E-02
         0.29715E-02
         0.26476E-02
         0.29100E-02
         0.34071E-02
         0.35339E-02
         0.35339E-02
         0.29772E-02
         0.32307E-02
         0.29032E-02
         0.29855E-02
         0.36979E-02
         0.37162E-02
         0.37162E-02
         0.33879E-02
         0.28990E-02
         0.31960E-02
         0.32790E-02
         0.32790E-02
         0.27006E-02
         0.25920E-02
         0.25902E-02
         0.26875E-02
         0.28571E-02
         0.29521E-02
         0.29715E-02
         0.29715E-02
         0.26476E-02
         0.27684E-02
         0.34071E-02
         0.35339E-02
         0.35339E-02
         0.29772E-02
         0.31408E-02
         0.31408E-02
         0.43148E-02
         0.43148E-02
         0.43148E-02
         0.43148E-02
         0.34885E-02
         0.34885E-02
         0.32783E-02
         0.32112E-02
         0.37849E-02
         0.31872E-02
         0.27120E-02
         0.33875E-02
         0.37161E-02
         0.27441E-02
         0.29003E-02
         0.36998E-02
         0.35965E-02
         0.37849E-02
         0.29896E-02
         0.29896E-02
         0.28575E-02
         0.26882E-02
         0.29522E-02
         0.28077E-02
         0.30053E-02
         0.36998E-02
         0.28615E-02
         0.28615E-02
         0.27563E-02
         0.26163E-02
         0.36998E-02
         0.36998E-02
         0.37747E-02
         0.37747E-02
         0.30236E-02
         0.36967E-02
         0.37161E-02
         0.31973E-02
         0.32796E-02
         0.32796E-02
         0.27006E-02
         0.25920E-02
         0.25895E-02
         0.29714E-02
         0.29714E-02
         0.26475E-02
         0.29099E-02
         0.34063E-02
         0.35333E-02
         0.35333E-02
         0.29775E-02
         0.32325E-02
         0.29004E-02
         0.29865E-02
         0.36967E-02
         0.37161E-02
         0.37161E-02
         0.33875E-02
         0.29003E-02
         0.31973E-02
         0.32796E-02
         0.32796E-02
         0.27006E-02
         0.25920E-02
         0.25895E-02
         0.26882E-02
         0.28575E-02
         0.29522E-02
         0.29714E-02
         0.29714E-02
         0.26475E-02
         0.27684E-02
         0.34063E-02
         0.35333E-02
         0.35333E-02
         0.29775E-02
         0.31422E-02
         0.31422E-02
         0.43145E-02
         0.43145E-02
         0.43145E-02
         0.43145E-02
         0.34886E-02
         0.34886E-02
         0.32769E-02
         0.32102E-02
         0.37844E-02
         0.31868E-02
         0.27103E-02
         0.33871E-02
         0.37160E-02
         0.27394E-02
         0.29015E-02
         0.36995E-02
         0.36000E-02
         0.37844E-02
         0.29903E-02
         0.29903E-02
         0.28580E-02
         0.26890E-02
         0.29523E-02
         0.28079E-02
         0.30079E-02
         0.36995E-02
         0.28589E-02
         0.28589E-02
         0.27550E-02
         0.26152E-02
         0.36995E-02
         0.36995E-02
         0.37768E-02
         0.37768E-02
         0.30238E-02
         0.36956E-02
         0.37160E-02
         0.31986E-02
         0.32802E-02
         0.32802E-02
         0.27006E-02
         0.25920E-02
         0.25887E-02
         0.29714E-02
         0.29714E-02
         0.26475E-02
         0.29098E-02
         0.34056E-02
         0.35327E-02
         0.35327E-02
         0.29778E-02
         0.32342E-02
         0.28977E-02
         0.29875E-02
         0.36956E-02
         0.37160E-02
         0.37160E-02
         0.33871E-02
         0.29015E-02
         0.31986E-02
         0.32802E-02
         0.32802E-02
         0.27006E-02
         0.25920E-02
         0.25887E-02
         0.26890E-02
         0.28580E-02
         0.29523E-02
         0.29714E-02
         0.29714E-02
         0.26475E-02
         0.27683E-02
         0.34056E-02
         0.35327E-02
         0.35327E-02
         0.29778E-02
         0.31435E-02
         0.31435E-02
         0.43143E-02
         0.43143E-02
         0.43143E-02
         0.43143E-02
         0.34887E-02
         0.34887E-02
         0.32755E-02
         0.32091E-02
         0.37839E-02
         0.31864E-02
         0.27086E-02
         0.33867E-02
         0.37159E-02
         0.27347E-02
         0.29027E-02
         0.36991E-02
         0.36036E-02
         0.37839E-02
         0.29920E-02
         0.29920E-02
         0.28585E-02
         0.26897E-02
         0.29525E-02
         0.28082E-02
         0.30105E-02
         0.36991E-02
         0.28563E-02
         0.28563E-02
         0.27537E-02
         0.26142E-02
         0.36991E-02
         0.36991E-02
         0.37789E-02
         0.37789E-02
         0.30240E-02
         0.36944E-02
         0.37159E-02
         0.31999E-02
         0.32808E-02
         0.32808E-02
         0.27006E-02
         0.25920E-02
         0.25880E-02
         0.29714E-02
         0.29714E-02
         0.26474E-02
         0.29097E-02
         0.34049E-02
         0.35322E-02
         0.35322E-02
         0.29781E-02
         0.32360E-02
         0.28949E-02
         0.29885E-02
         0.36944E-02
         0.37159E-02
         0.37159E-02
         0.33867E-02
         0.29027E-02
         0.31999E-02
         0.32808E-02
         0.32808E-02
         0.27006E-02
         0.25920E-02
         0.25880E-02
         0.26897E-02
         0.28585E-02
         0.29525E-02
         0.29714E-02
         0.29714E-02
         0.26474E-02
         0.27683E-02
         0.34049E-02
         0.35322E-02
         0.35322E-02
         0.29781E-02
         0.31449E-02
         0.31449E-02
         0.43140E-02
         0.43140E-02
         0.43140E-02
         0.43140E-02
         0.34888E-02
         0.34888E-02
         0.32740E-02
         0.32081E-02
         0.37834E-02
         0.31860E-02
         0.27069E-02
         0.33863E-02
         0.37158E-02
         0.27299E-02
         0.29039E-02
         0.36988E-02
         0.36071E-02
         0.37834E-02
         0.29946E-02
         0.29946E-02
         0.28589E-02
         0.26905E-02
         0.29526E-02
         0.28085E-02
         0.30131E-02
         0.36988E-02
         0.28538E-02
         0.28538E-02
         0.27524E-02
         0.26132E-02
         0.36988E-02
         0.36988E-02
         0.37809E-02
         0.37809E-02
         0.30241E-02
         0.36932E-02
         0.37158E-02
         0.32012E-02
         0.32814E-02
         0.32814E-02
         0.27006E-02
         0.25920E-02
         0.25873E-02
         0.29714E-02
         0.29714E-02
         0.26473E-02
         0.29097E-02
         0.34041E-02
         0.35316E-02
         0.35316E-02
         0.29784E-02
         0.32378E-02
         0.28921E-02
         0.29895E-02
         0.36932E-02
         0.37158E-02
         0.37158E-02
         0.33863E-02
         0.29039E-02
         0.32012E-02
         0.32814E-02
         0.32814E-02
         0.27006E-02
         0.25920E-02
         0.25873E-02
         0.26905E-02
         0.28589E-02
         0.29526E-02
         0.29714E-02
         0.29714E-02
         0.26473E-02
         0.27683E-02
         0.34041E-02
         0.35316E-02
         0.35316E-02
         0.29784E-02
         0.31463E-02
         0.31463E-02
         0.43138E-02
         0.43138E-02
         0.43138E-02
         0.43138E-02
         0.34888E-02
         0.34888E-02
         0.32726E-02
         0.32071E-02
         0.37830E-02
         0.31856E-02
         0.27051E-02
         0.33859E-02
         0.37157E-02
         0.27252E-02
         0.29051E-02
         0.36985E-02
         0.36106E-02
         0.37830E-02
         0.29972E-02
         0.29972E-02
         0.28594E-02
         0.26912E-02
         0.29528E-02
         0.28087E-02
         0.30156E-02
         0.36985E-02
         0.28512E-02
         0.28512E-02
         0.27512E-02
         0.26122E-02
         0.36985E-02
         0.36985E-02
         0.37830E-02
         0.37830E-02
         0.30243E-02
         0.36920E-02
         0.37157E-02
         0.32025E-02
         0.32821E-02
         0.32821E-02
         0.27006E-02
         0.25920E-02
         0.25866E-02
         0.29714E-02
         0.29714E-02
         0.26473E-02
         0.29096E-02
         0.34034E-02
         0.35310E-02
         0.35310E-02
         0.29787E-02
         0.32396E-02
         0.28894E-02
         0.29905E-02
         0.36920E-02
         0.37157E-02
         0.37157E-02
         0.33859E-02
         0.29051E-02
         0.32025E-02
         0.32821E-02
         0.32821E-02
         0.27006E-02
         0.25920E-02
         0.25866E-02
         0.26912E-02
         0.28594E-02
         0.29528E-02
         0.29714E-02
         0.29714E-02
         0.26473E-02
         0.27682E-02
         0.34034E-02
         0.35310E-02
         0.35310E-02
         0.29787E-02
         0.31476E-02
         0.31476E-02
         0.43135E-02
         0.43135E-02
         0.43135E-02
         0.43135E-02
         0.34889E-02
         0.34889E-02
         0.32712E-02
         0.32061E-02
         0.37825E-02
         0.31852E-02
         0.27034E-02
         0.33856E-02
         0.37156E-02
         0.27205E-02
         0.29063E-02
         0.36982E-02
         0.36142E-02
         0.37851E-02
         0.29998E-02
         0.29998E-02
         0.28599E-02
         0.26920E-02
         0.29529E-02
         0.28090E-02
         0.30182E-02
         0.36982E-02
         0.28486E-02
         0.28486E-02
         0.27499E-02
         0.26112E-02
         0.36982E-02
         0.36982E-02
         0.37851E-02
         0.37851E-02
         0.30245E-02
         0.36908E-02
         0.37156E-02
         0.32038E-02
         0.32827E-02
         0.32827E-02
         0.27006E-02
         0.25920E-02
         0.25859E-02
         0.29714E-02
         0.29714E-02
         0.26472E-02
         0.29095E-02
         0.34027E-02
         0.35304E-02
         0.35304E-02
         0.29790E-02
         0.32413E-02
         0.28866E-02
         0.29915E-02
         0.36908E-02
         0.37156E-02
         0.37156E-02
         0.33856E-02
         0.29063E-02
         0.32038E-02
         0.32827E-02
         0.32827E-02
         0.27006E-02
         0.25920E-02
         0.25859E-02
         0.26920E-02
         0.28599E-02
         0.29529E-02
         0.29714E-02
         0.29714E-02
         0.26472E-02
         0.27682E-02
         0.34027E-02
         0.35304E-02
         0.35304E-02
         0.29790E-02
         0.31490E-02
         0.31490E-02
         0.43133E-02
         0.43133E-02
         0.43133E-02
         0.43133E-02
         0.34890E-02
         0.34890E-02
         0.32698E-02
         0.32051E-02
         0.37820E-02
         0.31848E-02
         0.27017E-02
         0.33851E-02
         0.37155E-02
         0.27158E-02
         0.29075E-02
         0.36979E-02
         0.36177E-02
         0.37871E-02
         0.30024E-02
         0.30024E-02
         0.28603E-02
         0.26927E-02
         0.29530E-02
         0.28093E-02
         0.30208E-02
         0.36979E-02
         0.28460E-02
         0.28460E-02
         0.27486E-02
         0.26101E-02
         0.36979E-02
         0.36979E-02
         0.37871E-02
         0.37871E-02
         0.30247E-02
         0.36896E-02
         0.37155E-02
         0.32051E-02
         0.32833E-02
         0.32833E-02
         0.27006E-02
         0.25920E-02
         0.25851E-02
         0.29714E-02
         0.29714E-02
         0.26472E-02
         0.29094E-02
         0.34019E-02
         0.35299E-02
         0.35299E-02
         0.29793E-02
         0.32431E-02
         0.28838E-02
         0.29925E-02
         0.36896E-02
         0.37155E-02
         0.37155E-02
         0.33851E-02
         0.29075E-02
         0.32051E-02
         0.32833E-02
         0.32833E-02
         0.27006E-02
         0.25920E-02
         0.25851E-02
         0.26927E-02
         0.28603E-02
         0.29530E-02
         0.29714E-02
         0.29714E-02
         0.26472E-02
         0.27681E-02
         0.34019E-02
         0.35299E-02
         0.35299E-02
         0.29793E-02
         0.31503E-02
         0.31503E-02
         0.43130E-02
         0.43130E-02
         0.43130E-02
         0.43130E-02
         0.34891E-02
         0.34891E-02
         0.32683E-02
         0.32041E-02
         0.37816E-02
         0.31844E-02
         0.27000E-02
         0.33848E-02
         0.37154E-02
         0.27111E-02
         0.29087E-02
         0.36976E-02
         0.36213E-02
         0.37892E-02
         0.30050E-02
         0.30050E-02
         0.28608E-02
         0.26935E-02
         0.29532E-02
         0.28096E-02
         0.30234E-02
         0.36976E-02
         0.28434E-02
         0.28434E-02
         0.27472E-02
         0.26091E-02
         0.36976E-02
         0.36976E-02
         0.37892E-02
         0.37892E-02
         0.30249E-02
         0.36885E-02
         0.37154E-02
         0.32064E-02
         0.32839E-02
         0.32839E-02
         0.27006E-02
         0.25920E-02
         0.25844E-02
         0.29714E-02
         0.29714E-02
         0.26471E-02
         0.29094E-02
         0.34012E-02
         0.35293E-02
         0.35293E-02
         0.29797E-02
         0.32449E-02
         0.28811E-02
         0.29935E-02
         0.36885E-02
         0.37154E-02
         0.37154E-02
         0.33848E-02
         0.29087E-02
         0.32064E-02
         0.32839E-02
         0.32839E-02
         0.27006E-02
         0.25920E-02
         0.25844E-02
         0.26935E-02
         0.28608E-02
         0.29532E-02
         0.29714E-02
         0.29714E-02
         0.26471E-02
         0.27681E-02
         0.34012E-02
         0.35293E-02
         0.35293E-02
         0.29797E-02
         0.31517E-02
         0.31517E-02
         0.43128E-02
         0.43128E-02
         0.43128E-02
         0.43128E-02
         0.34892E-02
         0.34892E-02
         0.32669E-02
         0.32031E-02
         0.37811E-02
         0.31840E-02
         0.26982E-02
         0.33844E-02
         0.37152E-02
         0.27063E-02
         0.29099E-02
         0.36973E-02
         0.36248E-02
         0.37913E-02
         0.30076E-02
         0.30076E-02
         0.28613E-02
         0.26942E-02
         0.29533E-02
         0.28099E-02
         0.30260E-02
         0.36973E-02
         0.28408E-02
         0.28408E-02
         0.27460E-02
         0.26081E-02
         0.36973E-02
         0.36973E-02
         0.37913E-02
         0.37913E-02
         0.30250E-02
         0.36873E-02
         0.37152E-02
         0.32077E-02
         0.32845E-02
         0.32845E-02
         0.27006E-02
         0.25920E-02
         0.25837E-02
         0.29714E-02
         0.29714E-02
         0.26471E-02
         0.29093E-02
         0.34005E-02
         0.35287E-02
         0.35287E-02
         0.29800E-02
         0.32467E-02
         0.28783E-02
         0.29945E-02
         0.36873E-02
         0.37152E-02
         0.37152E-02
         0.33844E-02
         0.29099E-02
         0.32077E-02
         0.32845E-02
         0.32845E-02
         0.27006E-02
         0.25920E-02
         0.25837E-02
         0.26942E-02
         0.28613E-02
         0.29533E-02
         0.29714E-02
         0.29714E-02
         0.26471E-02
         0.27681E-02
         0.34005E-02
         0.35287E-02
         0.35287E-02
         0.29800E-02
         0.31530E-02
         0.31530E-02
         0.43125E-02
         0.43125E-02
         0.43125E-02
         0.43125E-02
         0.34893E-02
         0.34893E-02
         0.32655E-02
         0.32021E-02
         0.37806E-02
         0.31836E-02
         0.26965E-02
         0.33840E-02
         0.37151E-02
         0.27016E-02
         0.29111E-02
         0.36969E-02
         0.36283E-02
         0.37933E-02
         0.30102E-02
         0.30102E-02
         0.28617E-02
         0.26950E-02
         0.29535E-02
         0.28101E-02
         0.30286E-02
         0.36969E-02
         0.28382E-02
         0.28382E-02
         0.27447E-02
         0.26071E-02
         0.36969E-02
         0.36969E-02
         0.37933E-02
         0.37933E-02
         0.30252E-02
         0.36861E-02
         0.37151E-02
         0.32090E-02
         0.32852E-02
         0.32852E-02
         0.27006E-02
         0.25920E-02
         0.25830E-02
         0.29714E-02
         0.29714E-02
         0.26470E-02
         0.29092E-02
         0.33997E-02
         0.35282E-02
         0.35282E-02
         0.29803E-02
         0.32484E-02
         0.28755E-02
         0.29955E-02
         0.36861E-02
         0.37151E-02
         0.37151E-02
         0.33840E-02
         0.29111E-02
         0.32090E-02
         0.32852E-02
         0.32852E-02
         0.27006E-02
         0.25920E-02
         0.25830E-02
         0.26950E-02
         0.28617E-02
         0.29535E-02
         0.29714E-02
         0.29714E-02
         0.26470E-02
         0.27680E-02
         0.33997E-02
         0.35282E-02
         0.35282E-02
         0.29803E-02
         0.31544E-02
         0.31544E-02
         0.43123E-02
         0.43123E-02
         0.43123E-02
         0.43123E-02
         0.34893E-02
         0.34893E-02
         0.32640E-02
         0.32011E-02
         0.37801E-02
         0.31832E-02
         0.26948E-02
         0.33836E-02
         0.37150E-02
         0.26969E-02
         0.29123E-02
         0.36966E-02
         0.36319E-02
         0.37954E-02
         0.30128E-02
         0.30128E-02
         0.28622E-02
         0.26957E-02
         0.29536E-02
         0.28104E-02
         0.30312E-02
         0.36966E-02
         0.28357E-02
         0.28357E-02
         0.27434E-02
         0.26061E-02
         0.36966E-02
         0.36966E-02
         0.37954E-02
         0.37954E-02
         0.30254E-02
         0.36849E-02
         0.37150E-02
         0.32103E-02
         0.32858E-02
         0.32858E-02
         0.27006E-02
         0.25920E-02
         0.25823E-02
         0.29714E-02
         0.29714E-02
         0.26470E-02
         0.29091E-02
         0.33990E-02
         0.35276E-02
         0.35276E-02
         0.29806E-02
         0.32502E-02
         0.28728E-02
         0.29965E-02
         0.36849E-02
         0.37150E-02
         0.37150E-02
         0.33836E-02
         0.29123E-02
         0.32103E-02
         0.32858E-02
         0.32858E-02
         0.27006E-02
         0.25920E-02
         0.25823E-02
         0.26957E-02
         0.28622E-02
         0.29536E-02
         0.29714E-02
         0.29714E-02
         0.26470E-02
         0.27680E-02
         0.33990E-02
         0.35276E-02
         0.35276E-02
         0.29806E-02
         0.31557E-02
         0.31557E-02
         0.43120E-02
         0.43120E-02
         0.43120E-02
         0.43120E-02
         0.34894E-02
         0.34894E-02
         0.32626E-02
         0.32001E-02
         0.37797E-02
         0.31828E-02
         0.26931E-02
         0.33832E-02
         0.37149E-02
         0.26922E-02
         0.29135E-02
         0.36963E-02
         0.36354E-02
         0.37975E-02
         0.30154E-02
         0.30154E-02
         0.28627E-02
         0.26965E-02
         0.29537E-02
         0.28107E-02
         0.30338E-02
         0.36963E-02
         0.28331E-02
         0.28331E-02
         0.27421E-02
         0.26051E-02
         0.36963E-02
         0.36963E-02
         0.37975E-02
         0.37975E-02
         0.30256E-02
         0.36838E-02
         0.37149E-02
         0.32116E-02
         0.32864E-02
         0.32864E-02
         0.27006E-02
         0.25920E-02
         0.25815E-02
         0.29714E-02
         0.29714E-02
         0.26469E-02
         0.29090E-02
         0.33983E-02
         0.35270E-02
         0.35270E-02
         0.29809E-02
         0.32519E-02
         0.28700E-02
         0.29975E-02
         0.36838E-02
         0.37149E-02
         0.37149E-02
         0.33832E-02
         0.29135E-02
         0.32116E-02
         0.32864E-02
         0.32864E-02
         0.27006E-02
         0.25920E-02
         0.25815E-02
         0.26965E-02
         0.28627E-02
         0.29537E-02
         0.29714E-02
         0.29714E-02
         0.26469E-02
         0.27680E-02
         0.33983E-02
         0.35270E-02
         0.35270E-02
         0.29809E-02
         0.31571E-02
         0.31571E-02
         0.43118E-02
         0.43118E-02
         0.43118E-02
         0.43118E-02
         0.34895E-02
         0.34895E-02
         0.32612E-02
         0.31990E-02
         0.37792E-02
         0.31824E-02
         0.26913E-02
         0.33828E-02
         0.37148E-02
         0.26875E-02
         0.29148E-02
         0.36960E-02
         0.36390E-02
         0.37995E-02
         0.30180E-02
         0.30180E-02
         0.28631E-02
         0.26972E-02
         0.29539E-02
         0.28110E-02
         0.30364E-02
         0.36960E-02
         0.28305E-02
         0.28305E-02
         0.27408E-02
         0.26040E-02
         0.36960E-02
         0.36960E-02
         0.37995E-02
         0.37995E-02
         0.30258E-02
         0.36826E-02
         0.37148E-02
         0.32129E-02
         0.32870E-02
         0.32870E-02
         0.27006E-02
         0.25920E-02
         0.25808E-02
         0.29713E-02
         0.29713E-02
         0.26468E-02
         0.29089E-02
         0.33975E-02
         0.35264E-02
         0.35264E-02
         0.29812E-02
         0.32537E-02
         0.28672E-02
         0.29985E-02
         0.36826E-02
         0.37148E-02
         0.37148E-02
         0.33828E-02
         0.29148E-02
         0.32129E-02
         0.32870E-02
         0.32870E-02
         0.27006E-02
         0.25920E-02
         0.25808E-02
         0.26972E-02
         0.28631E-02
         0.29539E-02
         0.29713E-02
         0.29713E-02
         0.26468E-02
         0.27679E-02
         0.33975E-02
         0.35264E-02
         0.35264E-02
         0.29812E-02
         0.31585E-02
         0.31585E-02
         0.43115E-02
         0.43115E-02
         0.43115E-02
         0.43115E-02
         0.34896E-02
         0.34896E-02
         0.32597E-02
         0.31980E-02
         0.37787E-02
         0.31820E-02
         0.26896E-02
         0.33824E-02
         0.37147E-02
         0.26827E-02
         0.29160E-02
         0.36957E-02
         0.36425E-02
         0.38016E-02
         0.30206E-02
         0.30206E-02
         0.28636E-02
         0.26980E-02
         0.29540E-02
         0.28112E-02
         0.30390E-02
         0.36957E-02
         0.28279E-02
         0.28279E-02
         0.27395E-02
         0.26030E-02
         0.36957E-02
         0.36957E-02
         0.38016E-02
         0.38016E-02
         0.30260E-02
         0.36814E-02
         0.37147E-02
         0.32141E-02
         0.32876E-02
         0.32876E-02
         0.27006E-02
         0.25920E-02
         0.25801E-02
         0.29713E-02
         0.29713E-02
         0.26468E-02
         0.29089E-02
         0.33968E-02
         0.35259E-02
         0.35259E-02
         0.29815E-02
         0.32555E-02
         0.28645E-02
         0.29995E-02
         0.36814E-02
         0.37147E-02
         0.37147E-02
         0.33824E-02
         0.29160E-02
         0.32141E-02
         0.32876E-02
         0.32876E-02
         0.27006E-02
         0.25920E-02
         0.25801E-02
         0.26980E-02
         0.28636E-02
         0.29540E-02
         0.29713E-02
         0.29713E-02
         0.26468E-02
         0.27679E-02
         0.33968E-02
         0.35259E-02
         0.35259E-02
         0.29815E-02
         0.31598E-02
         0.31598E-02
         0.43113E-02
         0.43113E-02
         0.43113E-02
         0.43113E-02
         0.34897E-02
         0.34897E-02
         0.32583E-02
         0.31970E-02
         0.37783E-02
         0.31816E-02
         0.26879E-02
         0.33820E-02
         0.37146E-02
         0.26780E-02
         0.29172E-02
         0.36954E-02
         0.36460E-02
         0.38037E-02
         0.30232E-02
         0.30232E-02
         0.28641E-02
         0.26987E-02
         0.29542E-02
         0.28115E-02
         0.30416E-02
         0.36954E-02
         0.28253E-02
         0.28253E-02
         0.27382E-02
         0.26020E-02
         0.36954E-02
         0.36954E-02
         0.38037E-02
         0.38037E-02
         0.30261E-02
         0.36802E-02
         0.37146E-02
         0.32154E-02
         0.32882E-02
         0.32882E-02
         0.27006E-02
         0.25921E-02
         0.25794E-02
         0.29713E-02
         0.29713E-02
         0.26467E-02
         0.29088E-02
         0.33961E-02
         0.35253E-02
         0.35253E-02
         0.29818E-02
         0.32573E-02
         0.28617E-02
         0.30005E-02
         0.36802E-02
         0.37146E-02
         0.37146E-02
         0.33820E-02
         0.29172E-02
         0.32154E-02
         0.32882E-02
         0.32882E-02
         0.27006E-02
         0.25921E-02
         0.25794E-02
         0.26987E-02
         0.28641E-02
         0.29542E-02
         0.29713E-02
         0.29713E-02
         0.26467E-02
         0.27678E-02
         0.33961E-02
         0.35253E-02
         0.35253E-02
         0.29818E-02
         0.31612E-02
         0.31612E-02
         0.43110E-02
         0.43110E-02
         0.43110E-02
         0.43110E-02
         0.34898E-02
         0.34898E-02
         0.32569E-02
         0.31960E-02
         0.37778E-02
         0.31812E-02
         0.26862E-02
         0.33816E-02
         0.37145E-02
         0.26733E-02
         0.29184E-02
         0.36950E-02
         0.36495E-02
         0.38057E-02
         0.30258E-02
         0.30258E-02
         0.28645E-02
         0.26995E-02
         0.29543E-02
         0.28118E-02
         0.30442E-02
         0.36950E-02
         0.28227E-02
         0.28227E-02
         0.27369E-02
         0.26010E-02
         0.36950E-02
         0.36950E-02
         0.38057E-02
         0.38057E-02
         0.30263E-02
         0.36790E-02
         0.37145E-02
         0.32167E-02
         0.32889E-02
         0.32889E-02
         0.27006E-02
         0.25921E-02
         0.25787E-02
         0.29713E-02
         0.29713E-02
         0.26467E-02
         0.29087E-02
         0.33953E-02
         0.35247E-02
         0.35247E-02
         0.29821E-02
         0.32590E-02
         0.28589E-02
         0.30015E-02
         0.36790E-02
         0.37145E-02
         0.37145E-02
         0.33816E-02
         0.29184E-02
         0.32167E-02
         0.32889E-02
         0.32889E-02
         0.27006E-02
         0.25921E-02
         0.25787E-02
         0.26995E-02
         0.28645E-02
         0.29543E-02
         0.29713E-02
         0.29713E-02
         0.26467E-02
         0.27678E-02
         0.33953E-02
         0.35247E-02
         0.35247E-02
         0.29821E-02
         0.31625E-02
         0.31625E-02
         0.43108E-02
         0.43108E-02
         0.43108E-02
         0.43108E-02
         0.34898E-02
         0.34898E-02
         0.32555E-02
         0.31950E-02
         0.37773E-02
         0.31808E-02
         0.26845E-02
         0.33812E-02
         0.37144E-02
         0.26686E-02
         0.29196E-02
         0.36948E-02
         0.36531E-02
         0.38078E-02
         0.30285E-02
         0.30285E-02
         0.28650E-02
         0.27002E-02
         0.29544E-02
         0.28120E-02
         0.30467E-02
         0.36948E-02
         0.28201E-02
         0.28201E-02
         0.27356E-02
         0.26000E-02
         0.36948E-02
         0.36948E-02
         0.38078E-02
         0.38078E-02
         0.30265E-02
         0.36779E-02
         0.37144E-02
         0.32181E-02
         0.32895E-02
         0.32895E-02
         0.27006E-02
         0.25921E-02
         0.25779E-02
         0.29713E-02
         0.29713E-02
         0.26466E-02
         0.29086E-02
         0.33946E-02
         0.35242E-02
         0.35242E-02
         0.29824E-02
         0.32608E-02
         0.28562E-02
         0.30025E-02
         0.36779E-02
         0.37144E-02
         0.37144E-02
         0.33812E-02
         0.29196E-02
         0.32181E-02
         0.32895E-02
         0.32895E-02
         0.27006E-02
         0.25921E-02
         0.25779E-02
         0.27002E-02
         0.28650E-02
         0.29544E-02
         0.29713E-02
         0.29713E-02
         0.26466E-02
         0.27678E-02
         0.33946E-02
         0.35242E-02
         0.35242E-02
         0.29824E-02
         0.31639E-02
         0.31639E-02
         0.43105E-02
         0.43105E-02
         0.43105E-02
         0.43105E-02
         0.34899E-02
         0.34899E-02
         0.32540E-02
         0.31940E-02
         0.37768E-02
         0.31804E-02
         0.26827E-02
         0.33808E-02
         0.37143E-02
         0.26639E-02
         0.29208E-02
         0.36944E-02
         0.36566E-02
         0.38099E-02
         0.30311E-02
         0.30311E-02
         0.28655E-02
         0.27010E-02
         0.29546E-02
         0.28123E-02
         0.30493E-02
         0.36944E-02
         0.28175E-02
         0.28175E-02
         0.27343E-02
         0.25990E-02
         0.36944E-02
         0.36944E-02
         0.38099E-02
         0.38099E-02
         0.30267E-02
         0.36767E-02
         0.37143E-02
         0.32193E-02
         0.32901E-02
         0.32901E-02
         0.27006E-02
         0.25921E-02
         0.25772E-02
         0.29713E-02
         0.29713E-02
         0.26466E-02
         0.29085E-02
         0.33939E-02
         0.35236E-02
         0.35236E-02
         0.29827E-02
         0.32626E-02
         0.28534E-02
         0.30035E-02
         0.36767E-02
         0.37143E-02
         0.37143E-02
         0.33808E-02
         0.29208E-02
         0.32193E-02
         0.32901E-02
         0.32901E-02
         0.27006E-02
         0.25921E-02
         0.25772E-02
         0.27010E-02
         0.28655E-02
         0.29546E-02
         0.29713E-02
         0.29713E-02
         0.26466E-02
         0.27677E-02
         0.33939E-02
         0.35236E-02
         0.35236E-02
         0.29827E-02
         0.31652E-02
         0.31652E-02
         0.43103E-02
         0.43103E-02
         0.43103E-02
         0.43103E-02
         0.34900E-02
         0.34900E-02
         0.32526E-02
         0.31930E-02
         0.37764E-02
         0.31800E-02
         0.26810E-02
         0.33804E-02
         0.37142E-02
         0.26591E-02
         0.29220E-02
         0.36941E-02
         0.36602E-02
         0.38119E-02
         0.30337E-02
         0.30337E-02
         0.28660E-02
         0.27017E-02
         0.29547E-02
         0.28126E-02
         0.30519E-02
         0.36941E-02
         0.28150E-02
         0.28150E-02
         0.27330E-02
         0.25979E-02
         0.36941E-02
         0.36941E-02
         0.38119E-02
         0.38119E-02
         0.30269E-02
         0.36755E-02
         0.37142E-02
         0.32206E-02
         0.32907E-02
         0.32907E-02
         0.27006E-02
         0.25921E-02
         0.25765E-02
         0.29713E-02
         0.29713E-02
         0.26465E-02
         0.29085E-02
         0.33931E-02
         0.35230E-02
         0.35230E-02
         0.29830E-02
         0.32643E-02
         0.28507E-02
         0.30045E-02
         0.36755E-02
         0.37142E-02
         0.37142E-02
         0.33804E-02
         0.29220E-02
         0.32206E-02
         0.32907E-02
         0.32907E-02
         0.27006E-02
         0.25921E-02
         0.25765E-02
         0.27017E-02
         0.28660E-02
         0.29547E-02
         0.29713E-02
         0.29713E-02
         0.26465E-02
         0.27677E-02
         0.33931E-02
         0.35230E-02
         0.35230E-02
         0.29830E-02
         0.31666E-02
         0.31666E-02
         0.43100E-02
         0.43100E-02
         0.43100E-02
         0.43100E-02
         0.34901E-02
         0.34901E-02
         0.32512E-02
         0.31920E-02
         0.37759E-02
         0.31796E-02
         0.26793E-02
         0.33800E-02
         0.37141E-02
         0.26544E-02
         0.29232E-02
         0.36938E-02
         0.36637E-02
         0.38140E-02
         0.30363E-02
         0.30363E-02
         0.28664E-02
         0.27025E-02
         0.29548E-02
         0.28129E-02
         0.30545E-02
         0.36938E-02
         0.28124E-02
         0.28124E-02
         0.27317E-02
         0.25969E-02
         0.36938E-02
         0.36938E-02
         0.38140E-02
         0.38140E-02
         0.30271E-02
         0.36743E-02
         0.37141E-02
         0.32219E-02
         0.32913E-02
         0.32913E-02
         0.27006E-02
         0.25921E-02
         0.25758E-02
         0.29713E-02
         0.29713E-02
         0.26465E-02
         0.29084E-02
         0.33924E-02
         0.35224E-02
         0.35224E-02
         0.29833E-02
         0.32661E-02
         0.28479E-02
         0.30055E-02
         0.36743E-02
         0.37141E-02
         0.37141E-02
         0.33800E-02
         0.29232E-02
         0.32219E-02
         0.32913E-02
         0.32913E-02
         0.27006E-02
         0.25921E-02
         0.25758E-02
         0.27025E-02
         0.28664E-02
         0.29548E-02
         0.29713E-02
         0.29713E-02
         0.26465E-02
         0.27677E-02
         0.33924E-02
         0.35224E-02
         0.35224E-02
         0.29833E-02
         0.31680E-02
         0.31680E-02
         0.43098E-02
         0.43098E-02
         0.43098E-02
         0.43098E-02
         0.34901E-02
         0.34901E-02
         0.32498E-02
         0.31910E-02
         0.37754E-02
         0.31792E-02
         0.26776E-02
         0.33796E-02
         0.37140E-02
         0.26497E-02
         0.29232E-02
         0.36935E-02
         0.36637E-02
         0.38140E-02
         0.30363E-02
         0.30363E-02
         0.28664E-02
         0.27025E-02
         0.29548E-02
         0.28129E-02
         0.30545E-02
         0.36935E-02
         0.28098E-02
         0.28098E-02
         0.27304E-02
         0.25959E-02
         0.36935E-02
         0.36935E-02
         0.38140E-02
         0.38140E-02
         0.30271E-02
         0.36731E-02
         0.37140E-02
         0.32219E-02
         0.32913E-02
         0.32913E-02
         0.27006E-02
         0.25921E-02
         0.25751E-02
         0.29713E-02
         0.29713E-02
         0.26464E-02
         0.29083E-02
         0.33916E-02
         0.35219E-02
         0.35219E-02
         0.29833E-02
         0.32661E-02
         0.28451E-02
         0.30055E-02
         0.36731E-02
         0.37140E-02
         0.37140E-02
         0.33796E-02
         0.29232E-02
         0.32219E-02
         0.32913E-02
         0.32913E-02
         0.27006E-02
         0.25921E-02
         0.25751E-02
         0.27025E-02
         0.28664E-02
         0.29548E-02
         0.29713E-02
         0.29713E-02
         0.26464E-02
         0.27676E-02
         0.33916E-02
         0.35219E-02
         0.35219E-02
         0.29833E-02
         0.31680E-02
         0.31680E-02
  
SCALARS              physical_window_z  double 1
LOOKUP_TABLE default
         0.26928E-02
         0.26928E-02
         0.26928E-02
         0.26928E-02
         0.26928E-02
         0.26928E-02
         0.26928E-02
         0.26928E-02
         0.26928E-02
         0.26928E-02
         0.26928E-02
         0.26928E-02
         0.26928E-02
         0.26928E-02
         0.26928E-02
         0.26928E-02
         0.26928E-02
         0.26928E-02
         0.26928E-02
         0.26928E-02
         0.26928E-02
         0.26928E-02
         0.26928E-02
         0.26928E-02
         0.26928E-02
         0.26928E-02
         0.26928E-02
         0.26928E-02
         0.26928E-02
         0.26928E-02
         0.26928E-02
         0.26928E-02
         0.26928E-02
         0.26928E-02
         0.26928E-02
         0.26928E-02
         0.26928E-02
         0.26928E-02
         0.26928E-02
         0.26928E-02
         0.26928E-02
         0.26928E-02
         0.26928E-02
         0.26928E-02
         0.26928E-02
         0.26928E-02
         0.26928E-02
         0.26928E-02
         0.26928E-02
         0.26928E-02
         0.26928E-02
         0.26928E-02
         0.26928E-02
         0.26928E-02
         0.26928E-02
         0.26928E-02
         0.26928E-02
         0.26928E-02
         0.26928E-02
         0.26928E-02
         0.26928E-02
         0.26928E-02
         0.26928E-02
         0.26928E-02
         0.26928E-02
         0.26928E-02
         0.26928E-02
         0.26928E-02
         0.26928E-02
         0.26928E-02
         0.26928E-02
         0.26928E-02
         0.26928E-02
         0.26928E-02
         0.26928E-02
         0.26928E-02
         0.26928E-02
         0.26928E-02
         0.26928E-02
         0.26928E-02
         0.26928E-02
         0.26928E-02
         0.26928E-02
         0.26928E-02
         0.26928E-02
         0.26928E-02
         0.26928E-02
         0.26928E-02
         0.26928E-02
         0.26928E-02
         0.26928E-02
         0.26928E-02
         0.26928E-02
         0.26928E-02
         0.26928E-02
         0.26928E-02
         0.26928E-02
         0.26928E-02
         0.26928E-02
         0.26928E-02
         0.26928E-02
         0.26928E-02
         0.26928E-02
         0.26928E-02
         0.26928E-02
         0.26928E-02
         0.26928E-02
         0.26928E-02
         0.26928E-02
         0.26928E-02
         0.26928E-02
         0.26928E-02
         0.26928E-02
         0.26928E-02
         0.26928E-02
         0.26928E-02
         0.26928E-02
         0.26928E-02
         0.26928E-02
         0.26928E-02
         0.26928E-02
         0.26928E-02
         0.26928E-02
         0.26928E-02
         0.26928E-02
         0.26928E-02
         0.26928E-02
         0.26928E-02
         0.26928E-02
         0.26928E-02
         0.26928E-02
         0.26928E-02
         0.26928E-02
         0.26928E-02
         0.26928E-02
         0.26928E-02
         0.26928E-02
         0.26928E-02
         0.26928E-02
         0.26928E-02
         0.26928E-02
         0.26928E-02
         0.26928E-02
         0.26928E-02
         0.26928E-02
         0.26928E-02
         0.26928E-02
         0.26928E-02
         0.26928E-02
         0.26928E-02
         0.26928E-02
         0.26928E-02
         0.26928E-02
         0.26928E-02
         0.26928E-02
         0.26928E-02
         0.26927E-02
         0.26927E-02
         0.26927E-02
         0.26927E-02
         0.26927E-02
         0.26927E-02
         0.26927E-02
         0.26927E-02
         0.26927E-02
         0.26927E-02
         0.26927E-02
         0.26927E-02
         0.26927E-02
         0.26927E-02
         0.26927E-02
         0.26927E-02
         0.26927E-02
         0.26927E-02
         0.26927E-02
         0.26927E-02
         0.26927E-02
         0.26927E-02
         0.26927E-02
         0.26927E-02
         0.26927E-02
         0.26927E-02
         0.26927E-02
         0.26927E-02
         0.26927E-02
         0.26927E-02
         0.26927E-02
         0.26927E-02
         0.26927E-02
         0.26927E-02
         0.26927E-02
         0.26927E-02
         0.26927E-02
         0.26927E-02
         0.26927E-02
         0.26927E-02
         0.26927E-02
         0.26927E-02
         0.26927E-02
         0.26927E-02
         0.26927E-02
         0.26927E-02
         0.26927E-02
         0.26927E-02
         0.26927E-02
         0.26927E-02
         0.26927E-02
         0.26927E-02
         0.26927E-02
         0.26927E-02
         0.26927E-02
         0.26927E-02
         0.26927E-02
         0.26927E-02
         0.26927E-02
         0.26927E-02
         0.26927E-02
         0.26927E-02
         0.26927E-02
         0.26927E-02
         0.26927E-02
         0.26927E-02
         0.26927E-02
         0.26927E-02
         0.26927E-02
         0.26927E-02
         0.26927E-02
         0.26927E-02
         0.26927E-02
         0.26927E-02
         0.26927E-02
         0.26927E-02
         0.26927E-02
         0.26927E-02
         0.26927E-02
         0.26927E-02
         0.26927E-02
         0.26927E-02
         0.26927E-02
         0.26927E-02
         0.26927E-02
         0.26927E-02
         0.26927E-02
         0.26927E-02
         0.26927E-02
         0.26927E-02
         0.26927E-02
         0.26927E-02
         0.26927E-02
         0.26927E-02
         0.26927E-02
         0.26927E-02
         0.26927E-02
         0.26927E-02
         0.26927E-02
         0.26927E-02
         0.26927E-02
         0.26927E-02
         0.26927E-02
         0.26927E-02
         0.26927E-02
         0.26927E-02
         0.26927E-02
         0.26927E-02
         0.26927E-02
         0.26927E-02
         0.26927E-02
         0.26927E-02
         0.26927E-02
         0.26927E-02
         0.26927E-02
         0.26927E-02
         0.26927E-02
         0.26927E-02
         0.26927E-02
         0.26927E-02
         0.26927E-02
         0.26927E-02
         0.26927E-02
         0.26927E-02
         0.26927E-02
         0.26927E-02
         0.26927E-02
         0.26927E-02
         0.26927E-02
         0.26927E-02
         0.26927E-02
         0.26927E-02
         0.26927E-02
         0.26927E-02
         0.26927E-02
         0.26927E-02
         0.26927E-02
         0.26927E-02
         0.26927E-02
         0.26927E-02
         0.26927E-02
         0.26927E-02
         0.26927E-02
         0.26927E-02
         0.26927E-02
         0.26927E-02
         0.26927E-02
         0.26927E-02
         0.26927E-02
         0.26927E-02
         0.26927E-02
         0.26927E-02
         0.26927E-02
         0.26927E-02
         0.26927E-02
         0.26927E-02
         0.26927E-02
         0.26927E-02
         0.26927E-02
         0.26927E-02
         0.26927E-02
         0.26927E-02
         0.26927E-02
         0.26927E-02
         0.26927E-02
         0.26927E-02
         0.26927E-02
         0.26927E-02
         0.26927E-02
         0.26927E-02
         0.26927E-02
         0.26927E-02
         0.26927E-02
         0.26927E-02
         0.26927E-02
         0.26927E-02
         0.26927E-02
         0.26927E-02
         0.26927E-02
         0.26927E-02
         0.26927E-02
         0.26927E-02
         0.26927E-02
         0.26927E-02
         0.26927E-02
         0.26927E-02
         0.26927E-02
         0.26927E-02
         0.26927E-02
         0.26927E-02
         0.26927E-02
         0.26927E-02
         0.26927E-02
         0.26927E-02
         0.26927E-02
         0.26927E-02
         0.26927E-02
         0.26927E-02
         0.26927E-02
         0.26927E-02
         0.26927E-02
         0.26927E-02
         0.26927E-02
         0.26927E-02
         0.26927E-02
         0.26927E-02
         0.26927E-02
         0.26927E-02
         0.26927E-02
         0.26927E-02
         0.26927E-02
         0.26927E-02
         0.26927E-02
         0.26927E-02
         0.26927E-02
         0.26927E-02
         0.26927E-02
         0.26927E-02
         0.26927E-02
         0.26927E-02
         0.26927E-02
         0.26927E-02
         0.26927E-02
         0.26927E-02
         0.26927E-02
         0.26927E-02
         0.26927E-02
         0.26927E-02
         0.26927E-02
         0.26927E-02
         0.26927E-02
         0.26927E-02
         0.26927E-02
         0.26927E-02
         0.26927E-02
         0.26927E-02
         0.26927E-02
         0.26927E-02
         0.26927E-02
         0.26927E-02
         0.26927E-02
         0.26927E-02
         0.26927E-02
         0.26927E-02
         0.26927E-02
         0.26927E-02
         0.26927E-02
         0.26927E-02
         0.26927E-02
         0.26927E-02
         0.26927E-02
         0.26927E-02
         0.26927E-02
         0.26927E-02
         0.26927E-02
         0.26927E-02
         0.26927E-02
         0.26927E-02
         0.26927E-02
         0.26927E-02
         0.26927E-02
         0.26927E-02
         0.26927E-02
         0.26927E-02
         0.26927E-02
         0.26927E-02
         0.26927E-02
         0.26927E-02
         0.26927E-02
         0.26927E-02
         0.26927E-02
         0.26927E-02
         0.26927E-02
         0.26927E-02
         0.26927E-02
         0.26927E-02
         0.26927E-02
         0.26927E-02
         0.26927E-02
         0.26927E-02
         0.26927E-02
         0.26927E-02
         0.26927E-02
         0.26927E-02
         0.26927E-02
         0.26927E-02
         0.26927E-02
         0.26927E-02
         0.26927E-02
         0.26927E-02
         0.26927E-02
         0.26927E-02
         0.26927E-02
         0.26927E-02
         0.26927E-02
         0.26927E-02
         0.26927E-02
         0.26927E-02
         0.26927E-02
         0.26927E-02
         0.26927E-02
         0.26927E-02
         0.26927E-02
         0.26927E-02
         0.26927E-02
         0.26927E-02
         0.26927E-02
         0.26927E-02
         0.26927E-02
         0.26927E-02
         0.26927E-02
         0.26927E-02
         0.26927E-02
         0.26927E-02
         0.26927E-02
         0.26927E-02
         0.26927E-02
         0.26927E-02
         0.26927E-02
         0.26927E-02
         0.26927E-02
         0.26927E-02
         0.26927E-02
         0.26927E-02
         0.26927E-02
         0.26927E-02
         0.26927E-02
         0.26927E-02
         0.26927E-02
         0.26927E-02
         0.26927E-02
         0.26927E-02
         0.26927E-02
         0.26927E-02
         0.26927E-02
         0.26927E-02
         0.26927E-02
         0.26927E-02
         0.26927E-02
         0.26927E-02
         0.26927E-02
         0.26927E-02
         0.26927E-02
         0.26927E-02
         0.26927E-02
         0.26927E-02
         0.26927E-02
         0.26927E-02
         0.26927E-02
         0.26927E-02
         0.26927E-02
         0.26927E-02
         0.26927E-02
         0.26927E-02
         0.26927E-02
         0.26927E-02
         0.26927E-02
         0.26927E-02
         0.26927E-02
         0.26927E-02
         0.26927E-02
         0.26927E-02
         0.26927E-02
         0.26927E-02
         0.26927E-02
         0.26927E-02
         0.26927E-02
         0.26927E-02
         0.26927E-02
         0.26927E-02
         0.26927E-02
         0.26927E-02
         0.26927E-02
         0.26927E-02
         0.26927E-02
         0.26927E-02
         0.26927E-02
         0.26927E-02
         0.26927E-02
         0.26927E-02
         0.26927E-02
         0.26927E-02
         0.26927E-02
         0.26927E-02
         0.26927E-02
         0.26927E-02
         0.26927E-02
         0.26927E-02
         0.26927E-02
         0.26927E-02
         0.26927E-02
         0.26927E-02
         0.26927E-02
         0.26927E-02
         0.26927E-02
         0.26927E-02
         0.26927E-02
         0.26927E-02
         0.26927E-02
         0.26927E-02
         0.26927E-02
         0.26927E-02
         0.26927E-02
         0.26927E-02
         0.26927E-02
         0.26927E-02
         0.26927E-02
         0.26927E-02
         0.26927E-02
         0.26927E-02
         0.26927E-02
         0.26927E-02
         0.26927E-02
         0.26927E-02
         0.26927E-02
         0.26927E-02
         0.26927E-02
         0.26927E-02
         0.26927E-02
         0.26927E-02
         0.26927E-02
         0.26927E-02
         0.26927E-02
         0.26927E-02
         0.26927E-02
         0.26927E-02
         0.26927E-02
         0.26927E-02
         0.26927E-02
         0.26927E-02
         0.26927E-02
         0.26927E-02
         0.26927E-02
         0.26927E-02
         0.26927E-02
         0.26927E-02
         0.26927E-02
         0.26927E-02
         0.26927E-02
         0.26927E-02
         0.26927E-02
         0.26927E-02
         0.26927E-02
         0.26927E-02
         0.26927E-02
         0.26927E-02
         0.26927E-02
         0.26927E-02
         0.26927E-02
         0.26927E-02
         0.26927E-02
         0.26927E-02
         0.26927E-02
         0.26927E-02
         0.26927E-02
         0.26927E-02
         0.26927E-02
         0.26927E-02
         0.26927E-02
         0.26927E-02
         0.26927E-02
         0.26927E-02
         0.26927E-02
         0.26927E-02
         0.26927E-02
         0.26927E-02
         0.26927E-02
         0.26927E-02
         0.26927E-02
         0.26927E-02
         0.26927E-02
         0.26927E-02
         0.26927E-02
         0.26927E-02
         0.26927E-02
         0.26927E-02
         0.26927E-02
         0.26927E-02
         0.26927E-02
         0.26927E-02
         0.26927E-02
         0.26927E-02
         0.26927E-02
         0.26927E-02
         0.26927E-02
         0.26927E-02
         0.26927E-02
         0.26927E-02
         0.26927E-02
         0.26927E-02
         0.26927E-02
         0.26927E-02
         0.26927E-02
         0.26927E-02
         0.26927E-02
         0.26927E-02
         0.26927E-02
         0.26927E-02
         0.26927E-02
         0.26927E-02
         0.26927E-02
         0.26927E-02
         0.26927E-02
         0.26927E-02
         0.26927E-02
         0.26927E-02
         0.26927E-02
         0.26927E-02
         0.26927E-02
         0.26927E-02
         0.26927E-02
         0.26927E-02
         0.26927E-02
         0.26927E-02
         0.26927E-02
         0.26927E-02
         0.26927E-02
         0.26927E-02
         0.26927E-02
         0.26927E-02
         0.26927E-02
         0.26927E-02
         0.26927E-02
         0.26927E-02
         0.26927E-02
         0.26927E-02
         0.26927E-02
         0.26927E-02
         0.26927E-02
         0.26927E-02
         0.26927E-02
         0.26927E-02
         0.26927E-02
         0.26927E-02
         0.26927E-02
         0.26927E-02
         0.26927E-02
         0.26927E-02
         0.26927E-02
         0.26927E-02
         0.26927E-02
         0.26927E-02
         0.26927E-02
         0.26927E-02
         0.26927E-02
         0.26927E-02
         0.26927E-02
         0.26927E-02
         0.26927E-02
         0.26927E-02
         0.26927E-02
         0.26927E-02
         0.26927E-02
         0.26927E-02
         0.26927E-02
         0.26927E-02
         0.26927E-02
         0.26927E-02
         0.26927E-02
         0.26927E-02
         0.26927E-02
         0.26927E-02
         0.26927E-02
         0.26927E-02
         0.26927E-02
         0.26927E-02
         0.26927E-02
         0.26927E-02
         0.26927E-02
         0.26927E-02
         0.26927E-02
         0.26927E-02
         0.26927E-02
         0.26927E-02
         0.26927E-02
         0.26927E-02
         0.26927E-02
         0.26927E-02
         0.26927E-02
         0.26927E-02
         0.26927E-02
         0.26927E-02
         0.26927E-02
         0.26927E-02
         0.26927E-02
         0.26927E-02
         0.26927E-02
         0.26927E-02
         0.26927E-02
         0.26927E-02
         0.26927E-02
         0.26927E-02
         0.26927E-02
         0.26927E-02
         0.26927E-02
         0.26927E-02
         0.26927E-02
         0.26927E-02
         0.26927E-02
         0.26927E-02
         0.26927E-02
         0.26927E-02
         0.26927E-02
         0.26927E-02
         0.26927E-02
         0.26927E-02
         0.26927E-02
         0.26927E-02
         0.26927E-02
         0.26927E-02
         0.26927E-02
         0.26927E-02
         0.26927E-02
         0.26927E-02
         0.26927E-02
         0.26927E-02
         0.26927E-02
         0.26927E-02
         0.26927E-02
         0.26927E-02
         0.26927E-02
         0.26927E-02
         0.26927E-02
         0.26927E-02
         0.26927E-02
         0.26927E-02
         0.26927E-02
         0.26927E-02
         0.26927E-02
         0.26927E-02
         0.26927E-02
         0.26927E-02
         0.26927E-02
         0.26927E-02
         0.26927E-02
         0.26927E-02
         0.26927E-02
         0.26927E-02
         0.26927E-02
         0.26927E-02
         0.26927E-02
         0.26927E-02
         0.26927E-02
         0.26927E-02
         0.26927E-02
         0.26927E-02
         0.26927E-02
         0.26927E-02
         0.26927E-02
         0.26927E-02
         0.26927E-02
         0.26927E-02
         0.26927E-02
         0.26927E-02
         0.26927E-02
         0.26927E-02
         0.26927E-02
         0.26927E-02
         0.26927E-02
         0.26927E-02
         0.26927E-02
         0.26927E-02
         0.26927E-02
         0.26927E-02
         0.26927E-02
         0.26927E-02
         0.26927E-02
         0.26927E-02
         0.26927E-02
         0.26927E-02
         0.26927E-02
         0.26927E-02
         0.26927E-02
         0.26927E-02
         0.26927E-02
         0.26927E-02
         0.26927E-02
         0.26927E-02
         0.26927E-02
         0.26927E-02
         0.26927E-02
         0.26927E-02
         0.26927E-02
         0.26927E-02
         0.26927E-02
         0.26927E-02
         0.26927E-02
         0.26927E-02
         0.26927E-02
         0.26927E-02
         0.26927E-02
         0.26927E-02
         0.26927E-02
         0.26927E-02
         0.26927E-02
         0.26927E-02
         0.26927E-02
         0.26927E-02
         0.26927E-02
         0.26927E-02
         0.26927E-02
         0.26927E-02
         0.26927E-02
         0.26927E-02
         0.26927E-02
         0.26927E-02
         0.26927E-02
         0.26927E-02
         0.26927E-02
         0.26927E-02
         0.26927E-02
         0.26927E-02
         0.26927E-02
         0.26927E-02
         0.26927E-02
         0.26927E-02
         0.26927E-02
         0.26927E-02
         0.26927E-02
         0.26927E-02
         0.26927E-02
         0.26927E-02
         0.26927E-02
         0.26927E-02
         0.26927E-02
         0.26927E-02
         0.26927E-02
         0.26927E-02
         0.26927E-02
         0.26927E-02
         0.26927E-02
         0.26927E-02
         0.26927E-02
         0.26927E-02
         0.26927E-02
         0.26927E-02
         0.26927E-02
         0.26927E-02
         0.26927E-02
         0.26927E-02
         0.26927E-02
         0.26927E-02
         0.26927E-02
         0.26927E-02
         0.26927E-02
         0.26927E-02
         0.26927E-02
         0.26927E-02
         0.26927E-02
         0.26927E-02
         0.26927E-02
         0.26927E-02
         0.26927E-02
         0.26927E-02
         0.26927E-02
         0.26927E-02
         0.26927E-02
         0.26927E-02
         0.26927E-02
         0.26927E-02
         0.26927E-02
         0.26927E-02
         0.26927E-02
         0.26927E-02
         0.26927E-02
         0.26927E-02
         0.26927E-02
         0.26927E-02
         0.26927E-02
         0.26927E-02
         0.26927E-02
         0.26927E-02
         0.26927E-02
         0.26927E-02
         0.26927E-02
         0.26927E-02
         0.26927E-02
         0.26927E-02
         0.26927E-02
         0.26927E-02
         0.26927E-02
         0.26927E-02
         0.26927E-02
         0.26927E-02
         0.26927E-02
         0.26927E-02
         0.26927E-02
         0.26927E-02
         0.26927E-02
         0.26927E-02
         0.26927E-02
         0.26927E-02
         0.26927E-02
         0.26927E-02
         0.26927E-02
         0.26927E-02
         0.26927E-02
         0.26927E-02
         0.26927E-02
         0.26927E-02
         0.26927E-02
         0.26927E-02
         0.26927E-02
         0.26927E-02
         0.26927E-02
         0.26927E-02
         0.26927E-02
         0.26927E-02
         0.26927E-02
         0.26927E-02
         0.26927E-02
         0.26927E-02
         0.26927E-02
         0.26927E-02
         0.26927E-02
         0.26927E-02
         0.26927E-02
         0.26927E-02
         0.26927E-02
         0.26927E-02
         0.26927E-02
         0.26927E-02
         0.26927E-02
         0.26927E-02
         0.26927E-02
         0.26927E-02
         0.26927E-02
         0.26927E-02
         0.26927E-02
         0.26927E-02
         0.26927E-02
         0.26927E-02
         0.26927E-02
         0.26927E-02
         0.26927E-02
         0.26927E-02
         0.26927E-02
         0.26927E-02
         0.26927E-02
         0.26927E-02
         0.26927E-02
         0.26927E-02
         0.26927E-02
         0.26927E-02
         0.26927E-02
         0.26927E-02
         0.26927E-02
         0.26927E-02
         0.26927E-02
         0.26927E-02
         0.26927E-02
         0.26927E-02
         0.26927E-02
         0.26927E-02
         0.26927E-02
         0.26927E-02
         0.26927E-02
         0.26927E-02
         0.26927E-02
         0.26927E-02
         0.26927E-02
         0.26927E-02
         0.26927E-02
         0.26927E-02
         0.26927E-02
         0.26927E-02
         0.26927E-02
         0.26927E-02
         0.26927E-02
         0.26927E-02
         0.26927E-02
         0.26927E-02
         0.26927E-02
         0.26927E-02
         0.26927E-02
         0.26927E-02
         0.26927E-02
         0.26927E-02
         0.26927E-02
         0.26927E-02
         0.26927E-02
         0.26927E-02
         0.26927E-02
         0.26927E-02
         0.26927E-02
         0.26927E-02
         0.26927E-02
         0.26927E-02
         0.26927E-02
         0.26927E-02
         0.26927E-02
         0.26927E-02
         0.26927E-02
         0.26927E-02
         0.26927E-02
         0.26927E-02
         0.26927E-02
         0.26927E-02
         0.26927E-02
         0.26927E-02
         0.26927E-02
         0.26927E-02
         0.26927E-02
         0.26927E-02
         0.26927E-02
         0.26927E-02
         0.26927E-02
         0.26927E-02
         0.26927E-02
         0.26927E-02
         0.26927E-02
         0.26927E-02
         0.26927E-02
         0.26927E-02
         0.26927E-02
         0.26927E-02
         0.26927E-02
         0.26927E-02
         0.26927E-02
         0.26927E-02
         0.26927E-02
         0.26927E-02
         0.26927E-02
         0.26927E-02
         0.26927E-02
         0.26927E-02
         0.26927E-02
         0.26927E-02
         0.26927E-02
         0.26927E-02
         0.26927E-02
         0.26927E-02
         0.26927E-02
         0.26927E-02
         0.26927E-02
         0.26927E-02
         0.26927E-02
         0.26927E-02
         0.26927E-02
         0.26927E-02
         0.26927E-02
         0.26927E-02
         0.26927E-02
         0.26927E-02
         0.26927E-02
         0.26927E-02
         0.26927E-02
         0.26927E-02
         0.26927E-02
         0.26927E-02
         0.26927E-02
         0.26927E-02
         0.26927E-02
         0.26927E-02
         0.26927E-02
         0.26927E-02
         0.26927E-02
         0.26927E-02
         0.26927E-02
         0.26927E-02
         0.26927E-02
         0.26927E-02
         0.26927E-02
         0.26927E-02
         0.26927E-02
         0.26927E-02
         0.26927E-02
         0.26927E-02
         0.26927E-02
         0.26927E-02
         0.26927E-02
         0.26927E-02
         0.26927E-02
         0.26927E-02
         0.26927E-02
         0.26927E-02
         0.26927E-02
         0.26927E-02
         0.26927E-02
         0.26927E-02
         0.26927E-02
         0.26927E-02
         0.26927E-02
         0.26927E-02
         0.26927E-02
         0.26927E-02
         0.26927E-02
         0.26927E-02
         0.26927E-02
         0.26927E-02
         0.26927E-02
         0.26927E-02
         0.26927E-02
         0.26927E-02
         0.26927E-02
         0.26927E-02
         0.26927E-02
         0.26927E-02
         0.26927E-02
         0.26927E-02
         0.26927E-02
         0.26927E-02
         0.26927E-02
         0.26927E-02
         0.26927E-02
         0.26927E-02
         0.26927E-02
         0.26927E-02
         0.26927E-02
         0.26927E-02
         0.26927E-02
         0.26927E-02
         0.26927E-02
         0.26927E-02
         0.26927E-02
         0.26927E-02
         0.26927E-02
         0.26927E-02
         0.26927E-02
         0.26927E-02
         0.26927E-02
         0.26927E-02
         0.26927E-02
         0.26927E-02
         0.26927E-02
         0.26927E-02
         0.26927E-02
         0.26927E-02
         0.26927E-02
         0.26927E-02
         0.26927E-02
         0.26927E-02
         0.26927E-02
         0.26927E-02
         0.26927E-02
         0.26927E-02
         0.26927E-02
         0.26927E-02
         0.26927E-02
         0.26927E-02
         0.26927E-02
         0.26927E-02
         0.26927E-02
         0.26927E-02
         0.26927E-02
         0.26927E-02
         0.26927E-02
         0.26927E-02
         0.26927E-02
         0.26927E-02
         0.26927E-02
         0.26927E-02
         0.26927E-02
         0.26927E-02
         0.26927E-02
         0.26927E-02
         0.26927E-02
         0.26927E-02
         0.26927E-02
         0.26927E-02
         0.26927E-02
         0.26927E-02
         0.26927E-02
         0.26927E-02
         0.26927E-02
         0.26927E-02
         0.26927E-02
         0.26927E-02
         0.26927E-02
         0.26927E-02
         0.26927E-02
         0.26927E-02
         0.26927E-02
         0.26927E-02
         0.26927E-02
         0.26927E-02
         0.26927E-02
         0.26927E-02
         0.26927E-02
         0.26927E-02
         0.26927E-02
         0.26927E-02
         0.26927E-02
         0.26927E-02
         0.26927E-02
         0.26927E-02
         0.26927E-02
         0.26927E-02
         0.26927E-02
         0.26927E-02
         0.26927E-02
         0.26927E-02
         0.26927E-02
         0.26927E-02
         0.26927E-02
         0.26927E-02
         0.26927E-02
         0.26927E-02
         0.26927E-02
         0.26927E-02
         0.26927E-02
         0.26927E-02
         0.26927E-02
         0.26927E-02
         0.26927E-02
         0.26927E-02
         0.26927E-02
         0.26927E-02
         0.26927E-02
         0.26927E-02
         0.26927E-02
         0.26927E-02
         0.26927E-02
         0.26927E-02
         0.26927E-02
         0.26927E-02
         0.26927E-02
         0.26927E-02
         0.26927E-02
         0.26927E-02
         0.26927E-02
         0.26927E-02
         0.26927E-02
         0.26927E-02
         0.26927E-02
         0.26927E-02
         0.26927E-02
         0.26927E-02
         0.26927E-02
         0.26927E-02
         0.26927E-02
         0.26927E-02
         0.26927E-02
         0.26927E-02
         0.26927E-02
         0.26927E-02
         0.26927E-02
         0.26927E-02
         0.26927E-02
         0.26927E-02
         0.26927E-02
         0.26927E-02
         0.26927E-02
         0.26927E-02
         0.26927E-02
         0.26927E-02
         0.26927E-02
         0.26927E-02
         0.26927E-02
         0.26927E-02
         0.26927E-02
         0.26927E-02
         0.26927E-02
         0.26927E-02
         0.26927E-02
         0.26927E-02
         0.26927E-02
         0.26927E-02
         0.26927E-02
         0.26927E-02
         0.26927E-02
         0.26927E-02
         0.26927E-02
         0.26927E-02
         0.26927E-02
         0.26927E-02
         0.26927E-02
         0.26927E-02
         0.26927E-02
         0.26927E-02
         0.26927E-02
         0.26927E-02
         0.26927E-02
         0.26927E-02
         0.26927E-02
         0.26927E-02
         0.26927E-02
         0.26927E-02
         0.26927E-02
         0.26927E-02
         0.26927E-02
         0.26927E-02
         0.26927E-02
         0.26927E-02
         0.26927E-02
         0.26927E-02
         0.26927E-02
         0.26927E-02
         0.26927E-02
         0.26927E-02
         0.26927E-02
         0.26927E-02
         0.26927E-02
         0.26927E-02
         0.26927E-02
         0.26927E-02
         0.26927E-02
         0.26927E-02
         0.26927E-02
         0.26927E-02
         0.26927E-02
         0.26927E-02
         0.26927E-02
         0.26927E-02
         0.26927E-02
         0.26927E-02
         0.26927E-02
         0.26927E-02
         0.26927E-02
         0.26927E-02
         0.26927E-02
         0.26927E-02
         0.26927E-02
         0.26927E-02
         0.26927E-02
         0.26927E-02
         0.26927E-02
         0.26927E-02
         0.26927E-02
         0.26927E-02
         0.26927E-02
         0.26927E-02
         0.26927E-02
         0.26927E-02
         0.26927E-02
         0.26927E-02
         0.26927E-02
         0.26927E-02
         0.26927E-02
         0.26927E-02
         0.26927E-02
         0.26927E-02
         0.26927E-02
         0.26927E-02
         0.26927E-02
         0.26927E-02
         0.26927E-02
         0.26927E-02
         0.26927E-02
         0.26927E-02
         0.26927E-02
         0.26927E-02
         0.26927E-02
         0.26927E-02
         0.26927E-02
         0.26927E-02
         0.26927E-02
         0.26927E-02
         0.26927E-02
         0.26927E-02
         0.26927E-02
         0.26927E-02
         0.26927E-02
         0.26927E-02
         0.26927E-02
         0.26927E-02
         0.26927E-02
         0.26927E-02
         0.26927E-02
         0.26927E-02
         0.26927E-02
         0.26927E-02
         0.26927E-02
         0.26927E-02
         0.26927E-02
         0.26927E-02
         0.26927E-02
         0.26927E-02
         0.26927E-02
         0.26927E-02
         0.26927E-02
         0.26927E-02
         0.26927E-02
         0.26927E-02
         0.26927E-02
         0.26927E-02
         0.26927E-02
         0.26927E-02
         0.26927E-02
         0.26927E-02
         0.26927E-02
         0.26927E-02
         0.26927E-02
         0.26927E-02
         0.26927E-02
         0.26927E-02
         0.26927E-02
         0.26927E-02
         0.26927E-02
         0.26927E-02
         0.26927E-02
         0.26927E-02
         0.26927E-02
         0.26927E-02
         0.26927E-02
         0.26927E-02
         0.26927E-02
         0.26927E-02
         0.26927E-02
         0.26927E-02
         0.26927E-02
         0.26927E-02
         0.26927E-02
         0.26927E-02
         0.26927E-02
         0.26927E-02
         0.26927E-02
         0.26927E-02
         0.26927E-02
         0.26927E-02
         0.26927E-02
         0.26927E-02
         0.26927E-02
         0.26927E-02
         0.26927E-02
         0.26927E-02
         0.26927E-02
         0.26927E-02
         0.26927E-02
         0.26927E-02
         0.26927E-02
         0.26927E-02
         0.26927E-02
         0.26927E-02
         0.26927E-02
         0.26927E-02
         0.26927E-02
         0.26927E-02
         0.26927E-02
         0.26927E-02
         0.26927E-02
         0.26927E-02
         0.26927E-02
         0.26927E-02
         0.26927E-02
         0.26927E-02
         0.26927E-02
         0.26927E-02
         0.26927E-02
         0.26927E-02
         0.26927E-02
         0.26927E-02
         0.26927E-02
         0.26927E-02
         0.26927E-02
         0.26927E-02
         0.26927E-02
         0.26927E-02
         0.26927E-02
         0.26927E-02
         0.26927E-02
         0.26927E-02
         0.26927E-02
         0.26927E-02
         0.26927E-02
         0.26927E-02
         0.26927E-02
         0.26927E-02
         0.26927E-02
         0.26927E-02
         0.26927E-02
         0.26927E-02
         0.26927E-02
         0.26927E-02
         0.26927E-02
         0.26927E-02
         0.26927E-02
         0.26927E-02
         0.26927E-02
         0.26927E-02
         0.26927E-02
         0.26927E-02
         0.26927E-02
         0.26927E-02
         0.26927E-02
         0.26927E-02
         0.26927E-02
         0.26927E-02
         0.26927E-02
         0.26927E-02
         0.26927E-02
         0.26927E-02
         0.26927E-02
         0.26927E-02
         0.26927E-02
         0.26927E-02
         0.26927E-02
         0.26927E-02
         0.26927E-02
         0.26927E-02
         0.26927E-02
         0.26927E-02
         0.26927E-02
         0.26927E-02
         0.26927E-02
         0.26927E-02
         0.26927E-02
         0.26927E-02
         0.26927E-02
         0.26927E-02
         0.26927E-02
         0.26927E-02
         0.26927E-02
         0.26927E-02
         0.26927E-02
         0.26927E-02
         0.26927E-02
         0.26927E-02
         0.26927E-02
         0.26927E-02
         0.26927E-02
         0.26927E-02
         0.26927E-02
         0.26927E-02
         0.26927E-02
         0.26927E-02
         0.26927E-02
         0.26927E-02
         0.26927E-02
         0.26927E-02
         0.26927E-02
         0.26927E-02
         0.26927E-02
         0.26927E-02
         0.26927E-02
         0.26927E-02
         0.26927E-02
         0.26927E-02
         0.26927E-02
         0.26927E-02
         0.26927E-02
         0.26927E-02
         0.26927E-02
         0.26927E-02
         0.26927E-02
         0.26927E-02
         0.26927E-02
         0.26927E-02
         0.26927E-02
         0.26927E-02
         0.26927E-02
         0.26927E-02
         0.26927E-02
         0.26927E-02
         0.26927E-02
         0.26927E-02
         0.26927E-02
         0.26927E-02
         0.26927E-02
         0.26927E-02
         0.26927E-02
         0.26927E-02
         0.26927E-02
         0.26927E-02
         0.26927E-02
         0.26927E-02
         0.26927E-02
         0.26927E-02
         0.26927E-02
         0.26927E-02
         0.26927E-02
         0.26927E-02
         0.26927E-02
         0.26927E-02
         0.26927E-02
         0.26927E-02
         0.26927E-02
         0.26927E-02
         0.26927E-02
         0.26927E-02
         0.26927E-02
         0.26927E-02
         0.26927E-02
         0.26927E-02
         0.26927E-02
         0.26927E-02
         0.26927E-02
         0.26927E-02
         0.26927E-02
         0.26927E-02
         0.26927E-02
         0.26927E-02
         0.26927E-02
         0.26927E-02
         0.26927E-02
         0.26927E-02
         0.26927E-02
         0.26927E-02
         0.26927E-02
         0.26927E-02
         0.26927E-02
         0.26927E-02
         0.26927E-02
         0.26927E-02
         0.26927E-02
         0.26927E-02
         0.26927E-02
         0.26927E-02
         0.26927E-02
         0.26927E-02
         0.26927E-02
         0.26927E-02
         0.26927E-02
         0.26927E-02
         0.26927E-02
         0.26927E-02
         0.26927E-02
         0.26927E-02
         0.26927E-02
         0.26927E-02
         0.26927E-02
         0.26927E-02
         0.26927E-02
         0.26927E-02
         0.26927E-02
         0.26927E-02
         0.26927E-02
         0.26927E-02
         0.26927E-02
         0.26927E-02
         0.26927E-02
         0.26927E-02
         0.26927E-02
         0.26927E-02
         0.26927E-02
         0.26927E-02
         0.26927E-02
         0.26927E-02
         0.26927E-02
         0.26927E-02
         0.26927E-02
         0.26927E-02
         0.26927E-02
         0.26927E-02
         0.26927E-02
         0.26927E-02
         0.26927E-02
         0.26927E-02
         0.26927E-02
         0.26927E-02
         0.26927E-02
         0.26927E-02
         0.26927E-02
         0.26927E-02
         0.26927E-02
         0.26927E-02
         0.26927E-02
         0.26927E-02
         0.26927E-02
         0.26927E-02
         0.26927E-02
         0.26927E-02
         0.26927E-02
         0.26927E-02
         0.26927E-02
         0.26927E-02
         0.26927E-02
         0.26927E-02
         0.26927E-02
         0.26927E-02
         0.26927E-02
         0.26927E-02
         0.26927E-02
         0.26927E-02
         0.26927E-02
         0.26927E-02
         0.26927E-02
         0.26927E-02
         0.26927E-02
         0.26927E-02
         0.26927E-02
         0.26927E-02
         0.26927E-02
         0.26927E-02
         0.26927E-02
         0.26927E-02
         0.26927E-02
         0.26927E-02
         0.26927E-02
         0.26927E-02
         0.26927E-02
         0.26927E-02
         0.26927E-02
         0.26927E-02
         0.26927E-02
         0.26927E-02
         0.26927E-02
         0.26927E-02
         0.26927E-02
         0.26927E-02
         0.26927E-02
         0.26927E-02
         0.26927E-02
         0.26927E-02
         0.26927E-02
         0.26927E-02
         0.26927E-02
         0.26927E-02
         0.26927E-02
         0.26927E-02
         0.26927E-02
         0.26927E-02
         0.26927E-02
         0.26927E-02
         0.26927E-02
         0.26927E-02
         0.26927E-02
         0.26927E-02
         0.26927E-02
         0.26927E-02
         0.26927E-02
         0.26927E-02
         0.26927E-02
         0.26927E-02
         0.26927E-02
         0.26927E-02
         0.26927E-02
         0.26927E-02
         0.26927E-02
         0.26927E-02
         0.26927E-02
         0.26927E-02
         0.26927E-02
         0.26927E-02
         0.26927E-02
         0.26927E-02
         0.26927E-02
         0.26927E-02
         0.26927E-02
         0.26927E-02
         0.26927E-02
         0.26927E-02
         0.26927E-02
         0.26927E-02
         0.26927E-02
         0.26927E-02
         0.26927E-02
         0.26927E-02
         0.26928E-02
         0.26928E-02
         0.26928E-02
         0.26928E-02
         0.26928E-02
         0.26928E-02
         0.26928E-02
         0.26928E-02
         0.26928E-02
         0.26928E-02
         0.26928E-02
         0.26928E-02
         0.26928E-02
         0.26928E-02
         0.26928E-02
         0.26928E-02
         0.26928E-02
         0.26928E-02
         0.26928E-02
         0.26928E-02
         0.26928E-02
         0.26928E-02
         0.26928E-02
         0.26928E-02
         0.26928E-02
         0.26928E-02
         0.26928E-02
         0.26928E-02
         0.26928E-02
         0.26928E-02
         0.26928E-02
         0.26928E-02
         0.26928E-02
         0.26928E-02
         0.26928E-02
         0.26928E-02
         0.26928E-02
         0.26928E-02
         0.26928E-02
         0.26928E-02
         0.26928E-02
         0.26928E-02
         0.26928E-02
         0.26928E-02
         0.26928E-02
         0.26928E-02
         0.26928E-02
         0.26928E-02
         0.26928E-02
         0.26928E-02
         0.26928E-02
         0.26928E-02
         0.26928E-02
         0.26928E-02
         0.26928E-02
         0.26928E-02
         0.26928E-02
         0.26928E-02
         0.26928E-02
         0.26928E-02
         0.26928E-02
         0.26928E-02
         0.26928E-02
         0.26928E-02
         0.26928E-02
         0.26928E-02
         0.26928E-02
         0.26928E-02
         0.26928E-02
         0.26928E-02
         0.26928E-02
         0.26928E-02
         0.26928E-02
         0.26928E-02
         0.26928E-02
         0.26928E-02
         0.26928E-02
         0.26928E-02
         0.26928E-02
         0.26928E-02
         0.26928E-02
         0.26928E-02
         0.26928E-02
         0.26928E-02
         0.26928E-02
         0.26928E-02
         0.26928E-02
         0.26928E-02
         0.26928E-02
         0.26928E-02
         0.26928E-02
         0.26928E-02
         0.26928E-02
         0.26928E-02
         0.26928E-02
         0.26928E-02
         0.26928E-02
         0.26928E-02
         0.26928E-02
         0.26928E-02
         0.26928E-02
         0.26928E-02
         0.26928E-02
         0.26928E-02
         0.26928E-02
         0.26928E-02
         0.26928E-02
         0.26928E-02
         0.26928E-02
         0.26928E-02
         0.26928E-02
         0.26928E-02
         0.26928E-02
         0.26928E-02
         0.26928E-02
         0.26928E-02
         0.26928E-02
         0.26928E-02
         0.26928E-02
         0.26928E-02
         0.26928E-02
         0.26928E-02
         0.26928E-02
         0.26928E-02
         0.26928E-02
         0.26928E-02
         0.26928E-02
         0.26928E-02
         0.26928E-02
         0.26928E-02
         0.26928E-02
         0.26928E-02
         0.26928E-02
         0.26928E-02
         0.26928E-02
         0.26928E-02
         0.26928E-02
         0.26928E-02
         0.26928E-02
         0.26928E-02
         0.26928E-02
         0.26928E-02
         0.26928E-02
         0.26928E-02
         0.26928E-02
         0.26928E-02
         0.26928E-02
         0.26928E-02
         0.26928E-02
         0.26928E-02
         0.26928E-02
         0.26928E-02
         0.26928E-02
         0.26928E-02
         0.26928E-02
         0.26928E-02
  
SCALARS                   nodal_volume  double 1
LOOKUP_TABLE default
         0.91140E-09
         0.72412E-09
         0.77574E-09
         0.13316E-08
         0.45570E-09
         0.36211E-09
         0.38787E-09
         0.66566E-09
         0.71537E-09
         0.91211E-09
         0.35767E-09
         0.45600E-09
         0.51195E-09
         0.61532E-09
         0.25605E-09
         0.30776E-09
         0.10101E-08
         0.74536E-09
         0.50500E-09
         0.37281E-09
         0.30273E-09
         0.57012E-09
         0.62699E-09
         0.15144E-09
         0.28509E-09
         0.31352E-09
         0.51329E-09
         0.64933E-09
         0.25683E-09
         0.32471E-09
         0.12026E-08
         0.93909E-09
         0.11935E-08
         0.60122E-09
         0.46945E-09
         0.59663E-09
         0.70296E-09
         0.80270E-09
         0.35149E-09
         0.40134E-09
         0.75859E-09
         0.84013E-09
         0.37932E-09
         0.42007E-09
         0.64542E-09
         0.40086E-09
         0.32274E-09
         0.20045E-09
         0.76288E-09
         0.38153E-09
         0.63346E-09
         0.31675E-09
         0.66583E-09
         0.33318E-09
         0.68008E-09
         0.34022E-09
         0.58930E-09
         0.71738E-09
         0.29472E-09
         0.35874E-09
         0.90938E-09
         0.64302E-09
         0.45469E-09
         0.32154E-09
         0.10152E-08
         0.50747E-09
         0.88120E-09
         0.44042E-09
         0.40077E-09
         0.61872E-09
         0.20039E-09
         0.30940E-09
         0.70206E-09
         0.35106E-09
         0.74172E-09
         0.37089E-09
         0.71539E-09
         0.35770E-09
         0.56226E-09
         0.28113E-09
         0.35349E-09
         0.58452E-09
         0.17675E-09
         0.29229E-09
         0.77354E-09
         0.38679E-09
         0.62469E-09
         0.31238E-09
         0.54957E-09
         0.27483E-09
         0.36009E-09
         0.61365E-09
         0.18007E-09
         0.30685E-09
         0.83268E-09
         0.41635E-09
         0.87287E-09
         0.43642E-09
         0.70438E-09
         0.35217E-09
         0.43365E-09
         0.74413E-09
         0.21683E-09
         0.37198E-09
         0.27660E-09
         0.35144E-09
         0.13833E-09
         0.17573E-09
         0.32921E-09
         0.16465E-09
         0.38764E-09
         0.19382E-09
         0.37797E-09
         0.18897E-09
         0.36707E-09
         0.18352E-09
         0.39112E-09
         0.19552E-09
         0.41268E-09
         0.20627E-09
         0.38876E-09
         0.19433E-09
         0.30402E-09
         0.15200E-09
         0.24796E-09
         0.12398E-09
         0.31999E-09
         0.16000E-09
         0.42608E-09
         0.21303E-09
         0.46805E-09
         0.23401E-09
         0.44933E-09
         0.22466E-09
         0.40550E-09
         0.20276E-09
         0.36826E-09
         0.18414E-09
         0.29911E-09
         0.14956E-09
         0.25178E-09
         0.12591E-09
         0.32888E-09
         0.16445E-09
         0.43529E-09
         0.21765E-09
         0.44963E-09
         0.22482E-09
         0.36384E-09
         0.18194E-09
         0.29543E-09
         0.14774E-09
         0.36126E-09
         0.18063E-09
         0.42771E-09
         0.21386E-09
         0.91143E-09
         0.72396E-09
         0.77579E-09
         0.13322E-08
         0.71547E-09
         0.91237E-09
         0.51167E-09
         0.61494E-09
         0.10105E-08
         0.74486E-09
         0.30244E-09
         0.57001E-09
         0.62694E-09
         0.51257E-09
         0.64918E-09
         0.12029E-08
         0.93950E-09
         0.11941E-08
         0.70298E-09
         0.80279E-09
         0.75855E-09
         0.84015E-09
         0.64535E-09
         0.40081E-09
         0.76254E-09
         0.63339E-09
         0.66483E-09
         0.67941E-09
         0.58904E-09
         0.71721E-09
         0.90946E-09
         0.64293E-09
         0.10157E-08
         0.88199E-09
         0.40076E-09
         0.61859E-09
         0.70195E-09
         0.74166E-09
         0.71543E-09
         0.56228E-09
         0.35349E-09
         0.58443E-09
         0.77349E-09
         0.62459E-09
         0.54943E-09
         0.35999E-09
         0.61359E-09
         0.83268E-09
         0.87299E-09
         0.70451E-09
         0.43366E-09
         0.74449E-09
         0.27651E-09
         0.35143E-09
         0.32904E-09
         0.38765E-09
         0.37805E-09
         0.36714E-09
         0.39129E-09
         0.41297E-09
         0.38899E-09
         0.30408E-09
         0.24798E-09
         0.31999E-09
         0.42613E-09
         0.46815E-09
         0.44938E-09
         0.40548E-09
         0.36823E-09
         0.29908E-09
         0.25174E-09
         0.32885E-09
         0.43527E-09
         0.44962E-09
         0.36376E-09
         0.29536E-09
         0.36130E-09
         0.42769E-09
         0.91151E-09
         0.72383E-09
         0.77587E-09
         0.13329E-08
         0.71560E-09
         0.91267E-09
         0.51142E-09
         0.61459E-09
         0.10109E-08
         0.74439E-09
         0.30216E-09
         0.56992E-09
         0.62691E-09
         0.51187E-09
         0.64906E-09
         0.12033E-08
         0.93995E-09
         0.11947E-08
         0.70302E-09
         0.80291E-09
         0.75853E-09
         0.84020E-09
         0.64530E-09
         0.40078E-09
         0.76223E-09
         0.63335E-09
         0.66385E-09
         0.67875E-09
         0.58880E-09
         0.71706E-09
         0.90957E-09
         0.64286E-09
         0.10162E-08
         0.88281E-09
         0.40076E-09
         0.61849E-09
         0.70188E-09
         0.74162E-09
         0.71550E-09
         0.56232E-09
         0.35350E-09
         0.58436E-09
         0.77347E-09
         0.62452E-09
         0.54931E-09
         0.35990E-09
         0.61355E-09
         0.83270E-09
         0.87315E-09
         0.70467E-09
         0.43368E-09
         0.74487E-09
         0.27643E-09
         0.35143E-09
         0.32889E-09
         0.38767E-09
         0.37814E-09
         0.36723E-09
         0.39147E-09
         0.41328E-09
         0.38923E-09
         0.30416E-09
         0.24800E-09
         0.32001E-09
         0.42620E-09
         0.46826E-09
         0.44944E-09
         0.40548E-09
         0.36821E-09
         0.29906E-09
         0.25171E-09
         0.32883E-09
         0.43527E-09
         0.44963E-09
         0.36369E-09
         0.29530E-09
         0.36135E-09
         0.42769E-09
         0.91156E-09
         0.72368E-09
         0.77594E-09
         0.13335E-08
         0.71571E-09
         0.91295E-09
         0.51115E-09
         0.61422E-09
         0.10112E-08
         0.74389E-09
         0.30187E-09
         0.56982E-09
         0.62686E-09
         0.51116E-09
         0.64892E-09
         0.12036E-08
         0.94038E-09
         0.11953E-08
         0.70304E-09
         0.80300E-09
         0.75850E-09
         0.84023E-09
         0.64523E-09
         0.40073E-09
         0.76190E-09
         0.63330E-09
         0.66285E-09
         0.67809E-09
         0.58855E-09
         0.71689E-09
         0.90966E-09
         0.64278E-09
         0.10168E-08
         0.88361E-09
         0.40076E-09
         0.61837E-09
         0.70178E-09
         0.74156E-09
         0.71554E-09
         0.56234E-09
         0.35350E-09
         0.58428E-09
         0.77343E-09
         0.62442E-09
         0.54918E-09
         0.35981E-09
         0.61349E-09
         0.83271E-09
         0.87328E-09
         0.70481E-09
         0.43369E-09
         0.74524E-09
         0.27634E-09
         0.35142E-09
         0.32873E-09
         0.38768E-09
         0.37823E-09
         0.36731E-09
         0.39163E-09
         0.41358E-09
         0.38945E-09
         0.30422E-09
         0.24802E-09
         0.32001E-09
         0.42625E-09
         0.46837E-09
         0.44949E-09
         0.40546E-09
         0.36819E-09
         0.29904E-09
         0.25167E-09
         0.32881E-09
         0.43526E-09
         0.44963E-09
         0.36362E-09
         0.29523E-09
         0.36139E-09
         0.42768E-09
         0.91161E-09
         0.72353E-09
         0.77600E-09
         0.13341E-08
         0.71583E-09
         0.91323E-09
         0.51088E-09
         0.61386E-09
         0.10116E-08
         0.74341E-09
         0.30158E-09
         0.56972E-09
         0.62682E-09
         0.51045E-09
         0.64879E-09
         0.12040E-08
         0.94081E-09
         0.11959E-08
         0.70307E-09
         0.80310E-09
         0.75847E-09
         0.84027E-09
         0.64517E-09
         0.40069E-09
         0.76158E-09
         0.63325E-09
         0.66186E-09
         0.67742E-09
         0.58831E-09
         0.71673E-09
         0.90975E-09
         0.64270E-09
         0.10173E-08
         0.88441E-09
         0.40075E-09
         0.61825E-09
         0.70169E-09
         0.74151E-09
         0.71559E-09
         0.56237E-09
         0.35350E-09
         0.58420E-09
         0.77339E-09
         0.62433E-09
         0.54905E-09
         0.35972E-09
         0.61344E-09
         0.83272E-09
         0.87341E-09
         0.70496E-09
         0.43370E-09
         0.74562E-09
         0.27626E-09
         0.35142E-09
         0.32857E-09
         0.38770E-09
         0.37832E-09
         0.36739E-09
         0.39181E-09
         0.41387E-09
         0.38968E-09
         0.30429E-09
         0.24804E-09
         0.32002E-09
         0.42631E-09
         0.46847E-09
         0.44954E-09
         0.40545E-09
         0.36816E-09
         0.29901E-09
         0.25163E-09
         0.32878E-09
         0.43525E-09
         0.44963E-09
         0.36354E-09
         0.29517E-09
         0.36144E-09
         0.42766E-09
         0.91167E-09
         0.72338E-09
         0.77607E-09
         0.13348E-08
         0.71594E-09
         0.91351E-09
         0.51062E-09
         0.61349E-09
         0.10119E-08
         0.74292E-09
         0.30129E-09
         0.56962E-09
         0.62678E-09
         0.50974E-09
         0.64865E-09
         0.12044E-08
         0.94125E-09
         0.11965E-08
         0.70310E-09
         0.80321E-09
         0.75844E-09
         0.84031E-09
         0.64511E-09
         0.40065E-09
         0.76125E-09
         0.63320E-09
         0.66087E-09
         0.67676E-09
         0.58806E-09
         0.71657E-09
         0.90984E-09
         0.64263E-09
         0.10179E-08
         0.88522E-09
         0.40075E-09
         0.61813E-09
         0.70160E-09
         0.74146E-09
         0.71564E-09
         0.56240E-09
         0.35350E-09
         0.58412E-09
         0.77336E-09
         0.62425E-09
         0.54892E-09
         0.35963E-09
         0.61339E-09
         0.83274E-09
         0.87355E-09
         0.70511E-09
         0.43371E-09
         0.74599E-09
         0.27618E-09
         0.35141E-09
         0.32841E-09
         0.38771E-09
         0.37841E-09
         0.36747E-09
         0.39198E-09
         0.41417E-09
         0.38992E-09
         0.30436E-09
         0.24806E-09
         0.32003E-09
         0.42637E-09
         0.46858E-09
         0.44960E-09
         0.40544E-09
         0.36814E-09
         0.29899E-09
         0.25159E-09
         0.32876E-09
         0.43525E-09
         0.44963E-09
         0.36347E-09
         0.29511E-09
         0.36148E-09
         0.42766E-09
         0.91171E-09
         0.72323E-09
         0.77613E-09
         0.13354E-08
         0.71606E-09
         0.91379E-09
         0.51035E-09
         0.61313E-09
         0.10123E-08
         0.74243E-09
         0.30101E-09
         0.56952E-09
         0.62674E-09
         0.50903E-09
         0.64851E-09
         0.12047E-08
         0.94167E-09
         0.11971E-08
         0.70312E-09
         0.80331E-09
         0.75840E-09
         0.84034E-09
         0.64504E-09
         0.40061E-09
         0.76092E-09
         0.63314E-09
         0.65988E-09
         0.67609E-09
         0.58781E-09
         0.71641E-09
         0.90993E-09
         0.64255E-09
         0.10184E-08
         0.88601E-09
         0.40075E-09
         0.61801E-09
         0.70151E-09
         0.74140E-09
         0.71569E-09
         0.56243E-09
         0.35350E-09
         0.58404E-09
         0.77332E-09
         0.62416E-09
         0.54879E-09
         0.35953E-09
         0.61334E-09
         0.83274E-09
         0.87368E-09
         0.70525E-09
         0.43372E-09
         0.74636E-09
         0.27609E-09
         0.35141E-09
         0.32825E-09
         0.38772E-09
         0.37849E-09
         0.36754E-09
         0.39215E-09
         0.41447E-09
         0.39014E-09
         0.30443E-09
         0.24808E-09
         0.32004E-09
         0.42642E-09
         0.46868E-09
         0.44965E-09
         0.40543E-09
         0.36812E-09
         0.29897E-09
         0.25155E-09
         0.32874E-09
         0.43524E-09
         0.44963E-09
         0.36340E-09
         0.29504E-09
         0.36153E-09
         0.42764E-09
         0.91176E-09
         0.72308E-09
         0.77620E-09
         0.13360E-08
         0.71617E-09
         0.91407E-09
         0.51008E-09
         0.61276E-09
         0.10126E-08
         0.74195E-09
         0.30072E-09
         0.56942E-09
         0.62670E-09
         0.50832E-09
         0.64838E-09
         0.12051E-08
         0.94210E-09
         0.11977E-08
         0.70314E-09
         0.80341E-09
         0.75837E-09
         0.84038E-09
         0.64498E-09
         0.40056E-09
         0.76060E-09
         0.63309E-09
         0.65888E-09
         0.67542E-09
         0.58756E-09
         0.71624E-09
         0.91002E-09
         0.64247E-09
         0.10189E-08
         0.88682E-09
         0.40074E-09
         0.61790E-09
         0.70142E-09
         0.74135E-09
         0.71574E-09
         0.56245E-09
         0.35351E-09
         0.58396E-09
         0.77328E-09
         0.62407E-09
         0.54866E-09
         0.35944E-09
         0.61329E-09
         0.83275E-09
         0.87382E-09
         0.70539E-09
         0.43373E-09
         0.74673E-09
         0.27601E-09
         0.35140E-09
         0.32809E-09
         0.38774E-09
         0.37858E-09
         0.36762E-09
         0.39232E-09
         0.41477E-09
         0.39037E-09
         0.30450E-09
         0.24810E-09
         0.32005E-09
         0.42648E-09
         0.46879E-09
         0.44970E-09
         0.40541E-09
         0.36809E-09
         0.29894E-09
         0.25151E-09
         0.32871E-09
         0.43523E-09
         0.44963E-09
         0.36333E-09
         0.29497E-09
         0.36157E-09
         0.42763E-09
         0.91182E-09
         0.72293E-09
         0.77627E-09
         0.13367E-08
         0.71629E-09
         0.91436E-09
         0.50982E-09
         0.61240E-09
         0.10130E-08
         0.74146E-09
         0.30043E-09
         0.56932E-09
         0.62666E-09
         0.50762E-09
         0.64825E-09
         0.12054E-08
         0.94253E-09
         0.11983E-08
         0.70317E-09
         0.80351E-09
         0.75834E-09
         0.84041E-09
         0.64491E-09
         0.40053E-09
         0.76028E-09
         0.63304E-09
         0.65790E-09
         0.67476E-09
         0.58731E-09
         0.71609E-09
         0.91012E-09
         0.64239E-09
         0.10195E-08
         0.88762E-09
         0.40074E-09
         0.61778E-09
         0.70133E-09
         0.74130E-09
         0.71579E-09
         0.56249E-09
         0.35351E-09
         0.58388E-09
         0.77324E-09
         0.62398E-09
         0.54853E-09
         0.35935E-09
         0.61324E-09
         0.83277E-09
         0.87396E-09
         0.70554E-09
         0.43375E-09
         0.74711E-09
         0.27592E-09
         0.35140E-09
         0.32793E-09
         0.38775E-09
         0.37867E-09
         0.36770E-09
         0.39249E-09
         0.41507E-09
         0.39061E-09
         0.30457E-09
         0.24812E-09
         0.32006E-09
         0.42654E-09
         0.46890E-09
         0.44975E-09
         0.40540E-09
         0.36807E-09
         0.29892E-09
         0.25148E-09
         0.32869E-09
         0.43522E-09
         0.44963E-09
         0.36325E-09
         0.29491E-09
         0.36162E-09
         0.42762E-09
         0.91187E-09
         0.72278E-09
         0.77633E-09
         0.13373E-08
         0.71640E-09
         0.91463E-09
         0.50955E-09
         0.61204E-09
         0.10134E-08
         0.74098E-09
         0.30015E-09
         0.56922E-09
         0.62662E-09
         0.50691E-09
         0.64811E-09
         0.12058E-08
         0.94296E-09
         0.11989E-08
         0.70320E-09
         0.80361E-09
         0.75831E-09
         0.84045E-09
         0.64485E-09
         0.40048E-09
         0.75995E-09
         0.63298E-09
         0.65690E-09
         0.67409E-09
         0.58706E-09
         0.71592E-09
         0.91020E-09
         0.64231E-09
         0.10200E-08
         0.88843E-09
         0.40074E-09
         0.61766E-09
         0.70124E-09
         0.74124E-09
         0.71584E-09
         0.56251E-09
         0.35351E-09
         0.58380E-09
         0.77320E-09
         0.62389E-09
         0.54840E-09
         0.35926E-09
         0.61318E-09
         0.83277E-09
         0.87409E-09
         0.70568E-09
         0.43376E-09
         0.74748E-09
         0.27584E-09
         0.35139E-09
         0.32777E-09
         0.38777E-09
         0.37876E-09
         0.36778E-09
         0.39266E-09
         0.41536E-09
         0.39084E-09
         0.30464E-09
         0.24814E-09
         0.32006E-09
         0.42659E-09
         0.46900E-09
         0.44980E-09
         0.40539E-09
         0.36805E-09
         0.29890E-09
         0.25144E-09
         0.32867E-09
         0.43521E-09
         0.44963E-09
         0.36318E-09
         0.29485E-09
         0.36166E-09
         0.42761E-09
         0.91192E-09
         0.72263E-09
         0.77640E-09
         0.13380E-08
         0.71652E-09
         0.91491E-09
         0.50928E-09
         0.61167E-09
         0.10137E-08
         0.74049E-09
         0.29986E-09
         0.56912E-09
         0.62657E-09
         0.50620E-09
         0.64797E-09
         0.12061E-08
         0.94339E-09
         0.11995E-08
         0.70322E-09
         0.80371E-09
         0.75827E-09
         0.84048E-09
         0.64478E-09
         0.40044E-09
         0.75962E-09
         0.63293E-09
         0.65591E-09
         0.67343E-09
         0.58681E-09
         0.71576E-09
         0.91029E-09
         0.64223E-09
         0.10205E-08
         0.88923E-09
         0.40073E-09
         0.61754E-09
         0.70114E-09
         0.74119E-09
         0.71588E-09
         0.56254E-09
         0.35351E-09
         0.58372E-09
         0.77316E-09
         0.62380E-09
         0.54827E-09
         0.35917E-09
         0.61313E-09
         0.83278E-09
         0.87422E-09
         0.70582E-09
         0.43377E-09
         0.74785E-09
         0.27575E-09
         0.35138E-09
         0.32761E-09
         0.38778E-09
         0.37885E-09
         0.36786E-09
         0.39283E-09
         0.41566E-09
         0.39107E-09
         0.30470E-09
         0.24816E-09
         0.32007E-09
         0.42665E-09
         0.46911E-09
         0.44985E-09
         0.40538E-09
         0.36802E-09
         0.29887E-09
         0.25140E-09
         0.32864E-09
         0.43520E-09
         0.44963E-09
         0.36310E-09
         0.29478E-09
         0.36170E-09
         0.42760E-09
         0.91198E-09
         0.72248E-09
         0.77646E-09
         0.13386E-08
         0.71663E-09
         0.91520E-09
         0.50901E-09
         0.61131E-09
         0.10141E-08
         0.74000E-09
         0.29957E-09
         0.56902E-09
         0.62653E-09
         0.50549E-09
         0.64784E-09
         0.12065E-08
         0.94382E-09
         0.12002E-08
         0.70325E-09
         0.80381E-09
         0.75824E-09
         0.84052E-09
         0.64472E-09
         0.40040E-09
         0.75929E-09
         0.63288E-09
         0.65492E-09
         0.67276E-09
         0.58657E-09
         0.71560E-09
         0.91038E-09
         0.64216E-09
         0.10211E-08
         0.89003E-09
         0.40073E-09
         0.61742E-09
         0.70105E-09
         0.74114E-09
         0.71593E-09
         0.56257E-09
         0.35351E-09
         0.58364E-09
         0.77313E-09
         0.62371E-09
         0.54814E-09
         0.35908E-09
         0.61308E-09
         0.83280E-09
         0.87436E-09
         0.70597E-09
         0.43378E-09
         0.74823E-09
         0.27567E-09
         0.35138E-09
         0.32745E-09
         0.38779E-09
         0.37893E-09
         0.36794E-09
         0.39300E-09
         0.41596E-09
         0.39130E-09
         0.30477E-09
         0.24818E-09
         0.32008E-09
         0.42671E-09
         0.46921E-09
         0.44991E-09
         0.40537E-09
         0.36800E-09
         0.29885E-09
         0.25136E-09
         0.32862E-09
         0.43520E-09
         0.44963E-09
         0.36303E-09
         0.29472E-09
         0.36175E-09
         0.42759E-09
         0.91203E-09
         0.72233E-09
         0.77653E-09
         0.13392E-08
         0.71675E-09
         0.91547E-09
         0.50875E-09
         0.61094E-09
         0.10144E-08
         0.73952E-09
         0.29928E-09
         0.56892E-09
         0.62649E-09
         0.50478E-09
         0.64770E-09
         0.12068E-08
         0.94424E-09
         0.12008E-08
         0.70327E-09
         0.80391E-09
         0.75821E-09
         0.84055E-09
         0.64465E-09
         0.40035E-09
         0.75896E-09
         0.63282E-09
         0.65393E-09
         0.67210E-09
         0.58632E-09
         0.71543E-09
         0.91047E-09
         0.64208E-09
         0.10216E-08
         0.89084E-09
         0.40073E-09
         0.61730E-09
         0.70096E-09
         0.74108E-09
         0.71598E-09
         0.56259E-09
         0.35351E-09
         0.58356E-09
         0.77309E-09
         0.62362E-09
         0.54801E-09
         0.35898E-09
         0.61303E-09
         0.83281E-09
         0.87449E-09
         0.70611E-09
         0.43379E-09
         0.74860E-09
         0.27558E-09
         0.35137E-09
         0.32729E-09
         0.38781E-09
         0.37902E-09
         0.36802E-09
         0.39317E-09
         0.41625E-09
         0.39153E-09
         0.30484E-09
         0.24820E-09
         0.32009E-09
         0.42677E-09
         0.46932E-09
         0.44996E-09
         0.40536E-09
         0.36798E-09
         0.29883E-09
         0.25132E-09
         0.32859E-09
         0.43519E-09
         0.44963E-09
         0.36296E-09
         0.29465E-09
         0.36179E-09
         0.42758E-09
         0.91208E-09
         0.72218E-09
         0.77659E-09
         0.13399E-08
         0.71686E-09
         0.91576E-09
         0.50848E-09
         0.61058E-09
         0.10148E-08
         0.73903E-09
         0.29900E-09
         0.56882E-09
         0.62645E-09
         0.50408E-09
         0.64757E-09
         0.12072E-08
         0.94467E-09
         0.12014E-08
         0.70330E-09
         0.80401E-09
         0.75818E-09
         0.84059E-09
         0.64459E-09
         0.40031E-09
         0.75864E-09
         0.63277E-09
         0.65294E-09
         0.67143E-09
         0.58607E-09
         0.71527E-09
         0.91057E-09
         0.64200E-09
         0.10221E-08
         0.89164E-09
         0.40072E-09
         0.61719E-09
         0.70087E-09
         0.74103E-09
         0.71603E-09
         0.56262E-09
         0.35352E-09
         0.58348E-09
         0.77305E-09
         0.62354E-09
         0.54788E-09
         0.35889E-09
         0.61298E-09
         0.83282E-09
         0.87463E-09
         0.70626E-09
         0.43380E-09
         0.74897E-09
         0.27550E-09
         0.35137E-09
         0.32713E-09
         0.38782E-09
         0.37911E-09
         0.36810E-09
         0.39334E-09
         0.41655E-09
         0.39176E-09
         0.30491E-09
         0.24822E-09
         0.32010E-09
         0.42682E-09
         0.46942E-09
         0.45001E-09
         0.40534E-09
         0.36796E-09
         0.29881E-09
         0.25128E-09
         0.32857E-09
         0.43518E-09
         0.44963E-09
         0.36288E-09
         0.29459E-09
         0.36184E-09
         0.42757E-09
         0.91214E-09
         0.72204E-09
         0.77666E-09
         0.13405E-08
         0.71698E-09
         0.91604E-09
         0.50822E-09
         0.61022E-09
         0.10151E-08
         0.73855E-09
         0.29871E-09
         0.56872E-09
         0.62641E-09
         0.50337E-09
         0.64743E-09
         0.12075E-08
         0.94510E-09
         0.12020E-08
         0.70333E-09
         0.80411E-09
         0.75815E-09
         0.84063E-09
         0.64453E-09
         0.40027E-09
         0.75831E-09
         0.63272E-09
         0.65196E-09
         0.67077E-09
         0.58582E-09
         0.71511E-09
         0.91066E-09
         0.64192E-09
         0.10227E-08
         0.89245E-09
         0.40072E-09
         0.61707E-09
         0.70078E-09
         0.74098E-09
         0.71608E-09
         0.56265E-09
         0.35352E-09
         0.58340E-09
         0.77301E-09
         0.62345E-09
         0.54775E-09
         0.35880E-09
         0.61293E-09
         0.83283E-09
         0.87476E-09
         0.70641E-09
         0.43382E-09
         0.74935E-09
         0.27541E-09
         0.35136E-09
         0.32697E-09
         0.38784E-09
         0.37920E-09
         0.36818E-09
         0.39352E-09
         0.41685E-09
         0.39199E-09
         0.30498E-09
         0.24824E-09
         0.32011E-09
         0.42688E-09
         0.46953E-09
         0.45007E-09
         0.40533E-09
         0.36793E-09
         0.29878E-09
         0.25124E-09
         0.32855E-09
         0.43517E-09
         0.44963E-09
         0.36281E-09
         0.29452E-09
         0.36188E-09
         0.42756E-09
         0.91219E-09
         0.72188E-09
         0.77672E-09
         0.13412E-08
         0.71709E-09
         0.91632E-09
         0.50795E-09
         0.60986E-09
         0.10155E-08
         0.73806E-09
         0.29842E-09
         0.56862E-09
         0.62636E-09
         0.50266E-09
         0.64730E-09
         0.12079E-08
         0.94552E-09
         0.12026E-08
         0.70335E-09
         0.80421E-09
         0.75811E-09
         0.84066E-09
         0.64446E-09
         0.40023E-09
         0.75798E-09
         0.63267E-09
         0.65096E-09
         0.67010E-09
         0.58557E-09
         0.71494E-09
         0.91074E-09
         0.64184E-09
         0.10232E-08
         0.89325E-09
         0.40072E-09
         0.61695E-09
         0.70069E-09
         0.74092E-09
         0.71612E-09
         0.56268E-09
         0.35352E-09
         0.58332E-09
         0.77297E-09
         0.62336E-09
         0.54762E-09
         0.35871E-09
         0.61287E-09
         0.83284E-09
         0.87489E-09
         0.70655E-09
         0.43383E-09
         0.74972E-09
         0.27533E-09
         0.35136E-09
         0.32681E-09
         0.38785E-09
         0.37929E-09
         0.36825E-09
         0.39369E-09
         0.41715E-09
         0.39222E-09
         0.30505E-09
         0.24826E-09
         0.32011E-09
         0.42694E-09
         0.46963E-09
         0.45011E-09
         0.40532E-09
         0.36791E-09
         0.29876E-09
         0.25120E-09
         0.32853E-09
         0.43516E-09
         0.44962E-09
         0.36274E-09
         0.29445E-09
         0.36192E-09
         0.42755E-09
         0.91224E-09
         0.72173E-09
         0.77679E-09
         0.13418E-08
         0.71720E-09
         0.91660E-09
         0.50768E-09
         0.60949E-09
         0.10158E-08
         0.73758E-09
         0.29814E-09
         0.56852E-09
         0.62632E-09
         0.50195E-09
         0.64716E-09
         0.12082E-08
         0.94595E-09
         0.12032E-08
         0.70337E-09
         0.80431E-09
         0.75808E-09
         0.84069E-09
         0.64440E-09
         0.40018E-09
         0.75766E-09
         0.63262E-09
         0.64998E-09
         0.66943E-09
         0.58532E-09
         0.71478E-09
         0.91083E-09
         0.64176E-09
         0.10238E-08
         0.89406E-09
         0.40071E-09
         0.61683E-09
         0.70059E-09
         0.74087E-09
         0.71617E-09
         0.56270E-09
         0.35352E-09
         0.58324E-09
         0.77294E-09
         0.62327E-09
         0.54749E-09
         0.35861E-09
         0.61282E-09
         0.83284E-09
         0.87503E-09
         0.70669E-09
         0.43384E-09
         0.75009E-09
         0.27524E-09
         0.35135E-09
         0.32665E-09
         0.38786E-09
         0.37937E-09
         0.36833E-09
         0.39386E-09
         0.41745E-09
         0.39245E-09
         0.30512E-09
         0.24828E-09
         0.32012E-09
         0.42699E-09
         0.46974E-09
         0.45017E-09
         0.40531E-09
         0.36788E-09
         0.29873E-09
         0.25117E-09
         0.32850E-09
         0.43515E-09
         0.44962E-09
         0.36266E-09
         0.29439E-09
         0.36197E-09
         0.42754E-09
         0.91230E-09
         0.72159E-09
         0.77686E-09
         0.13425E-08
         0.71732E-09
         0.91688E-09
         0.50742E-09
         0.60913E-09
         0.10162E-08
         0.73710E-09
         0.29785E-09
         0.56842E-09
         0.62628E-09
         0.50125E-09
         0.64703E-09
         0.12086E-08
         0.94638E-09
         0.12038E-08
         0.70340E-09
         0.80441E-09
         0.75805E-09
         0.84073E-09
         0.64433E-09
         0.40014E-09
         0.75733E-09
         0.63257E-09
         0.64899E-09
         0.66877E-09
         0.58508E-09
         0.71462E-09
         0.91093E-09
         0.64169E-09
         0.10243E-08
         0.89487E-09
         0.40071E-09
         0.61671E-09
         0.70051E-09
         0.74082E-09
         0.71622E-09
         0.56273E-09
         0.35352E-09
         0.58316E-09
         0.77290E-09
         0.62318E-09
         0.54737E-09
         0.35852E-09
         0.61277E-09
         0.83286E-09
         0.87517E-09
         0.70684E-09
         0.43385E-09
         0.75047E-09
         0.27516E-09
         0.35135E-09
         0.32649E-09
         0.38788E-09
         0.37946E-09
         0.36841E-09
         0.39403E-09
         0.41775E-09
         0.39268E-09
         0.30519E-09
         0.24830E-09
         0.32013E-09
         0.42705E-09
         0.46985E-09
         0.45022E-09
         0.40530E-09
         0.36786E-09
         0.29871E-09
         0.25113E-09
         0.32848E-09
         0.43515E-09
         0.44962E-09
         0.36259E-09
         0.29433E-09
         0.36201E-09
         0.42753E-09
         0.91235E-09
         0.72143E-09
         0.77692E-09
         0.13431E-08
         0.71743E-09
         0.91716E-09
         0.50715E-09
         0.60877E-09
         0.10165E-08
         0.73661E-09
         0.29757E-09
         0.56832E-09
         0.62624E-09
         0.50054E-09
         0.64689E-09
         0.12089E-08
         0.94680E-09
         0.12044E-08
         0.70342E-09
         0.80450E-09
         0.75802E-09
         0.84076E-09
         0.64427E-09
         0.40010E-09
         0.75700E-09
         0.63251E-09
         0.64800E-09
         0.66810E-09
         0.58482E-09
         0.71445E-09
         0.91101E-09
         0.64161E-09
         0.10248E-08
         0.89567E-09
         0.40071E-09
         0.61659E-09
         0.70041E-09
         0.74077E-09
         0.71627E-09
         0.56276E-09
         0.35352E-09
         0.58308E-09
         0.77286E-09
         0.62309E-09
         0.54723E-09
         0.35843E-09
         0.61272E-09
         0.83287E-09
         0.87530E-09
         0.70698E-09
         0.43386E-09
         0.75084E-09
         0.27507E-09
         0.35134E-09
         0.32633E-09
         0.38789E-09
         0.37955E-09
         0.36849E-09
         0.39420E-09
         0.41804E-09
         0.39291E-09
         0.30525E-09
         0.24832E-09
         0.32014E-09
         0.42711E-09
         0.46995E-09
         0.45027E-09
         0.40528E-09
         0.36784E-09
         0.29869E-09
         0.25109E-09
         0.32845E-09
         0.43514E-09
         0.44962E-09
         0.36252E-09
         0.29426E-09
         0.36206E-09
         0.42751E-09
         0.91240E-09
         0.72128E-09
         0.77698E-09
         0.13437E-08
         0.71755E-09
         0.91744E-09
         0.50688E-09
         0.60841E-09
         0.10169E-08
         0.73612E-09
         0.29728E-09
         0.56822E-09
         0.62619E-09
         0.49984E-09
         0.64676E-09
         0.12093E-08
         0.94723E-09
         0.12050E-08
         0.70345E-09
         0.80460E-09
         0.75798E-09
         0.84080E-09
         0.64420E-09
         0.40006E-09
         0.75667E-09
         0.63246E-09
         0.64701E-09
         0.66744E-09
         0.58457E-09
         0.71429E-09
         0.91110E-09
         0.64153E-09
         0.10254E-08
         0.89648E-09
         0.40070E-09
         0.61647E-09
         0.70032E-09
         0.74071E-09
         0.71632E-09
         0.56279E-09
         0.35353E-09
         0.58300E-09
         0.77282E-09
         0.62300E-09
         0.54710E-09
         0.35834E-09
         0.61266E-09
         0.83288E-09
         0.87543E-09
         0.70713E-09
         0.43387E-09
         0.75122E-09
         0.27499E-09
         0.35133E-09
         0.32617E-09
         0.38790E-09
         0.37964E-09
         0.36857E-09
         0.39437E-09
         0.41834E-09
         0.39314E-09
         0.30532E-09
         0.24834E-09
         0.32014E-09
         0.42716E-09
         0.47005E-09
         0.45032E-09
         0.40527E-09
         0.36781E-09
         0.29866E-09
         0.25105E-09
         0.32843E-09
         0.43513E-09
         0.44962E-09
         0.36244E-09
         0.29419E-09
         0.36210E-09
         0.42750E-09
         0.91246E-09
         0.72114E-09
         0.77705E-09
         0.13444E-08
         0.71767E-09
         0.91773E-09
         0.50662E-09
         0.60805E-09
         0.10173E-08
         0.73564E-09
         0.29700E-09
         0.56812E-09
         0.62616E-09
         0.49914E-09
         0.64663E-09
         0.12097E-08
         0.94766E-09
         0.12056E-08
         0.70348E-09
         0.80471E-09
         0.75796E-09
         0.84084E-09
         0.64414E-09
         0.40002E-09
         0.75635E-09
         0.63241E-09
         0.64603E-09
         0.66678E-09
         0.58433E-09
         0.71413E-09
         0.91120E-09
         0.64146E-09
         0.10259E-08
         0.89729E-09
         0.40070E-09
         0.61636E-09
         0.70023E-09
         0.74067E-09
         0.71637E-09
         0.56282E-09
         0.35353E-09
         0.58293E-09
         0.77279E-09
         0.62291E-09
         0.54698E-09
         0.35825E-09
         0.61261E-09
         0.83289E-09
         0.87557E-09
         0.70728E-09
         0.43389E-09
         0.75160E-09
         0.27491E-09
         0.35133E-09
         0.32601E-09
         0.38792E-09
         0.37972E-09
         0.36865E-09
         0.39454E-09
         0.41864E-09
         0.39337E-09
         0.30539E-09
         0.24836E-09
         0.32015E-09
         0.42722E-09
         0.47016E-09
         0.45038E-09
         0.40526E-09
         0.36779E-09
         0.29864E-09
         0.25101E-09
         0.32841E-09
         0.43512E-09
         0.44962E-09
         0.36237E-09
         0.29413E-09
         0.36215E-09
         0.42750E-09
         0.91249E-09
         0.72097E-09
         0.77710E-09
         0.13450E-08
         0.71777E-09
         0.91799E-09
         0.50634E-09
         0.60767E-09
         0.10176E-08
         0.73514E-09
         0.29670E-09
         0.56801E-09
         0.62610E-09
         0.49842E-09
         0.64648E-09
         0.12100E-08
         0.94806E-09
         0.12062E-08
         0.70349E-09
         0.80479E-09
         0.75791E-09
         0.84086E-09
         0.64406E-09
         0.39997E-09
         0.75600E-09
         0.63234E-09
         0.64503E-09
         0.66610E-09
         0.58407E-09
         0.71395E-09
         0.91127E-09
         0.64136E-09
         0.10264E-08
         0.89808E-09
         0.40069E-09
         0.61622E-09
         0.70012E-09
         0.74060E-09
         0.71641E-09
         0.56283E-09
         0.35352E-09
         0.58283E-09
         0.77273E-09
         0.62281E-09
         0.54684E-09
         0.35815E-09
         0.61255E-09
         0.83288E-09
         0.87569E-09
         0.70741E-09
         0.43389E-09
         0.75195E-09
         0.27482E-09
         0.35132E-09
         0.32584E-09
         0.38793E-09
         0.37980E-09
         0.36872E-09
         0.39470E-09
         0.41893E-09
         0.39360E-09
         0.30545E-09
         0.24837E-09
         0.32016E-09
         0.42727E-09
         0.47026E-09
         0.45042E-09
         0.40524E-09
         0.36776E-09
         0.29861E-09
         0.25097E-09
         0.32838E-09
         0.43510E-09
         0.44961E-09
         0.36229E-09
         0.29406E-09
         0.36218E-09
         0.42748E-09
         0.91256E-09
         0.72083E-09
         0.77718E-09
         0.13457E-08
         0.71789E-09
         0.91829E-09
         0.50608E-09
         0.60732E-09
         0.10180E-08
         0.73467E-09
         0.29642E-09
         0.56792E-09
         0.62607E-09
         0.49772E-09
         0.64636E-09
         0.12103E-08
         0.94850E-09
         0.12068E-08
         0.70352E-09
         0.80490E-09
         0.75789E-09
         0.84091E-09
         0.64401E-09
         0.39993E-09
         0.75569E-09
         0.63230E-09
         0.64405E-09
         0.66544E-09
         0.58382E-09
         0.71379E-09
         0.91137E-09
         0.64129E-09
         0.10270E-08
         0.89890E-09
         0.40069E-09
         0.61611E-09
         0.70004E-09
         0.74056E-09
         0.71646E-09
         0.56287E-09
         0.35353E-09
         0.58276E-09
         0.77271E-09
         0.62273E-09
         0.54672E-09
         0.35806E-09
         0.61251E-09
         0.83291E-09
         0.87583E-09
         0.70756E-09
         0.43391E-09
         0.75234E-09
         0.27474E-09
         0.35132E-09
         0.32569E-09
         0.38794E-09
         0.37990E-09
         0.36881E-09
         0.39488E-09
         0.41923E-09
         0.39383E-09
         0.30553E-09
         0.24840E-09
         0.32017E-09
         0.42734E-09
         0.47037E-09
         0.45048E-09
         0.40524E-09
         0.36774E-09
         0.29859E-09
         0.25093E-09
         0.32836E-09
         0.43510E-09
         0.44962E-09
         0.36222E-09
         0.29400E-09
         0.36223E-09
         0.42747E-09
         0.45631E-09
         0.36039E-09
         0.38862E-09
         0.67302E-09
         0.35899E-09
         0.45923E-09
         0.25298E-09
         0.30358E-09
         0.50909E-09
         0.36723E-09
         0.14815E-09
         0.28394E-09
         0.31303E-09
         0.24869E-09
         0.32316E-09
         0.60528E-09
         0.47437E-09
         0.60357E-09
         0.35178E-09
         0.40249E-09
         0.37895E-09
         0.42048E-09
         0.32200E-09
         0.19996E-09
         0.37777E-09
         0.31615E-09
         0.32179E-09
         0.33257E-09
         0.29186E-09
         0.35687E-09
         0.45572E-09
         0.32064E-09
         0.51365E-09
         0.44967E-09
         0.20035E-09
         0.30804E-09
         0.35001E-09
         0.37028E-09
         0.35826E-09
         0.28145E-09
         0.17677E-09
         0.29137E-09
         0.38636E-09
         0.31135E-09
         0.27333E-09
         0.17901E-09
         0.30625E-09
         0.41647E-09
         0.43797E-09
         0.35383E-09
         0.21697E-09
         0.37628E-09
         0.13735E-09
         0.17566E-09
         0.16281E-09
         0.19398E-09
         0.18998E-09
         0.18443E-09
         0.19749E-09
         0.20970E-09
         0.19698E-09
         0.15279E-09
         0.12421E-09
         0.16009E-09
         0.21369E-09
         0.23522E-09
         0.22526E-09
         0.20262E-09
         0.18387E-09
         0.14930E-09
         0.12546E-09
         0.16418E-09
         0.21756E-09
         0.22482E-09
         0.18110E-09
         0.14699E-09
         0.18113E-09
         0.21374E-09
  
SCALARS               pre_disp_force_x  double 1
LOOKUP_TABLE default
         0.00000E+00
         0.00000E+00
         0.00000E+00
         0.00000E+00
         0.00000E+00
         0.00000E+00
         0.00000E+00
         0.00000E+00
         0.00000E+00
         0.00000E+00
         0.00000E+00
         0.00000E+00
         0.00000E+00
         0.00000E+00
         0.00000E+00
         0.00000E+00
         0.00000E+00
         0.00000E+00
         0.00000E+00
         0.00000E+00
         0.00000E+00
         0.00000E+00
         0.00000E+00
         0.00000E+00
         0.00000E+00
         0.00000E+00
         0.00000E+00
         0.00000E+00
         0.00000E+00
         0.00000E+00
         0.00000E+00
         0.00000E+00
         0.00000E+00
         0.00000E+00
         0.00000E+00
         0.00000E+00
         0.00000E+00
         0.00000E+00
         0.00000E+00
         0.00000E+00
         0.00000E+00
         0.00000E+00
         0.00000E+00
         0.00000E+00
         0.00000E+00
         0.00000E+00
         0.00000E+00
         0.00000E+00
         0.00000E+00
         0.00000E+00
         0.00000E+00
         0.00000E+00
         0.00000E+00
         0.00000E+00
         0.00000E+00
         0.00000E+00
         0.00000E+00
         0.00000E+00
         0.00000E+00
         0.00000E+00
         0.00000E+00
         0.00000E+00
         0.00000E+00
         0.00000E+00
         0.00000E+00
         0.00000E+00
         0.00000E+00
         0.00000E+00
         0.00000E+00
         0.00000E+00
         0.00000E+00
         0.00000E+00
         0.00000E+00
         0.00000E+00
         0.00000E+00
         0.00000E+00
         0.00000E+00
         0.00000E+00
         0.00000E+00
         0.00000E+00
         0.00000E+00
         0.00000E+00
         0.00000E+00
         0.00000E+00
         0.00000E+00
         0.00000E+00
         0.00000E+00
         0.00000E+00
         0.00000E+00
         0.00000E+00
         0.00000E+00
         0.00000E+00
         0.00000E+00
         0.00000E+00
         0.00000E+00
         0.00000E+00
         0.00000E+00
         0.00000E+00
         0.00000E+00
         0.00000E+00
         0.00000E+00
         0.00000E+00
         0.00000E+00
         0.00000E+00
         0.00000E+00
         0.00000E+00
         0.00000E+00
         0.00000E+00
         0.00000E+00
         0.00000E+00
         0.00000E+00
         0.00000E+00
         0.00000E+00
         0.00000E+00
         0.00000E+00
         0.00000E+00
         0.00000E+00
         0.00000E+00
         0.00000E+00
         0.00000E+00
         0.00000E+00
         0.00000E+00
         0.00000E+00
         0.00000E+00
         0.00000E+00
         0.00000E+00
         0.00000E+00
         0.00000E+00
         0.00000E+00
         0.00000E+00
         0.00000E+00
         0.00000E+00
         0.00000E+00
         0.00000E+00
         0.00000E+00
         0.00000E+00
         0.00000E+00
         0.00000E+00
         0.00000E+00
         0.00000E+00
         0.00000E+00
         0.00000E+00
         0.00000E+00
         0.00000E+00
         0.00000E+00
         0.00000E+00
         0.00000E+00
         0.00000E+00
         0.00000E+00
         0.00000E+00
         0.00000E+00
         0.00000E+00
         0.00000E+00
         0.00000E+00
         0.00000E+00
         0.00000E+00
         0.00000E+00
         0.00000E+00
         0.00000E+00
         0.00000E+00
         0.00000E+00
         0.00000E+00
         0.00000E+00
         0.00000E+00
         0.00000E+00
         0.00000E+00
         0.00000E+00
         0.00000E+00
         0.00000E+00
         0.00000E+00
         0.00000E+00
         0.00000E+00
         0.00000E+00
         0.00000E+00
         0.00000E+00
         0.00000E+00
         0.00000E+00
         0.00000E+00
         0.00000E+00
         0.00000E+00
         0.00000E+00
         0.00000E+00
         0.00000E+00
         0.00000E+00
         0.00000E+00
         0.00000E+00
         0.00000E+00
         0.00000E+00
         0.00000E+00
         0.00000E+00
         0.00000E+00
         0.00000E+00
         0.00000E+00
         0.00000E+00
         0.00000E+00
         0.00000E+00
         0.00000E+00
         0.00000E+00
         0.00000E+00
         0.00000E+00
         0.00000E+00
         0.00000E+00
         0.00000E+00
         0.00000E+00
         0.00000E+00
         0.00000E+00
         0.00000E+00
         0.00000E+00
         0.00000E+00
         0.00000E+00
         0.00000E+00
         0.00000E+00
         0.00000E+00
         0.00000E+00
         0.00000E+00
         0.00000E+00
         0.00000E+00
         0.00000E+00
         0.00000E+00
         0.00000E+00
         0.00000E+00
         0.00000E+00
         0.00000E+00
         0.00000E+00
         0.00000E+00
         0.00000E+00
         0.00000E+00
         0.00000E+00
         0.00000E+00
         0.00000E+00
         0.00000E+00
         0.00000E+00
         0.00000E+00
         0.00000E+00
         0.00000E+00
         0.00000E+00
         0.00000E+00
         0.00000E+00
         0.00000E+00
         0.00000E+00
         0.00000E+00
         0.00000E+00
         0.00000E+00
         0.00000E+00
         0.00000E+00
         0.00000E+00
         0.00000E+00
         0.00000E+00
         0.00000E+00
         0.00000E+00
         0.00000E+00
         0.00000E+00
         0.00000E+00
         0.00000E+00
         0.00000E+00
         0.00000E+00
         0.00000E+00
         0.00000E+00
         0.00000E+00
         0.00000E+00
         0.00000E+00
         0.00000E+00
         0.00000E+00
         0.00000E+00
         0.00000E+00
         0.00000E+00
         0.00000E+00
         0.00000E+00
         0.00000E+00
         0.00000E+00
         0.00000E+00
         0.00000E+00
         0.00000E+00
         0.00000E+00
         0.00000E+00
         0.00000E+00
         0.00000E+00
         0.00000E+00
         0.00000E+00
         0.00000E+00
         0.00000E+00
         0.00000E+00
         0.00000E+00
         0.00000E+00
         0.00000E+00
         0.00000E+00
         0.00000E+00
         0.00000E+00
         0.00000E+00
         0.00000E+00
         0.00000E+00
         0.00000E+00
         0.00000E+00
         0.00000E+00
         0.00000E+00
         0.00000E+00
         0.00000E+00
         0.00000E+00
         0.00000E+00
         0.00000E+00
         0.00000E+00
         0.00000E+00
         0.00000E+00
         0.00000E+00
         0.00000E+00
         0.00000E+00
         0.00000E+00
         0.00000E+00
         0.00000E+00
         0.00000E+00
         0.00000E+00
         0.00000E+00
         0.00000E+00
         0.00000E+00
         0.00000E+00
         0.00000E+00
         0.00000E+00
         0.00000E+00
         0.00000E+00
         0.00000E+00
         0.00000E+00
         0.00000E+00
         0.00000E+00
         0.00000E+00
         0.00000E+00
         0.00000E+00
         0.00000E+00
         0.00000E+00
         0.00000E+00
         0.00000E+00
         0.00000E+00
         0.00000E+00
         0.00000E+00
         0.00000E+00
         0.00000E+00
         0.00000E+00
         0.00000E+00
         0.00000E+00
         0.00000E+00
         0.00000E+00
         0.00000E+00
         0.00000E+00
         0.00000E+00
         0.00000E+00
         0.00000E+00
         0.00000E+00
         0.00000E+00
         0.00000E+00
         0.00000E+00
         0.00000E+00
         0.00000E+00
         0.00000E+00
         0.00000E+00
         0.00000E+00
         0.00000E+00
         0.00000E+00
         0.00000E+00
         0.00000E+00
         0.00000E+00
         0.00000E+00
         0.00000E+00
         0.00000E+00
         0.00000E+00
         0.00000E+00
         0.00000E+00
         0.00000E+00
         0.00000E+00
         0.00000E+00
         0.00000E+00
         0.00000E+00
         0.00000E+00
         0.00000E+00
         0.00000E+00
         0.00000E+00
         0.00000E+00
         0.00000E+00
         0.00000E+00
         0.00000E+00
         0.00000E+00
         0.00000E+00
         0.00000E+00
         0.00000E+00
         0.00000E+00
         0.00000E+00
         0.00000E+00
         0.00000E+00
         0.00000E+00
         0.00000E+00
         0.00000E+00
         0.00000E+00
         0.00000E+00
         0.00000E+00
         0.00000E+00
         0.00000E+00
         0.00000E+00
         0.00000E+00
         0.00000E+00
         0.00000E+00
         0.00000E+00
         0.00000E+00
         0.00000E+00
         0.00000E+00
         0.00000E+00
         0.00000E+00
         0.00000E+00
         0.00000E+00
         0.00000E+00
         0.00000E+00
         0.00000E+00
         0.00000E+00
         0.00000E+00
         0.00000E+00
         0.00000E+00
         0.00000E+00
         0.00000E+00
         0.00000E+00
         0.00000E+00
         0.00000E+00
         0.00000E+00
         0.00000E+00
         0.00000E+00
         0.00000E+00
         0.00000E+00
         0.00000E+00
         0.00000E+00
         0.00000E+00
         0.00000E+00
         0.00000E+00
         0.00000E+00
         0.00000E+00
         0.00000E+00
         0.00000E+00
         0.00000E+00
         0.00000E+00
         0.00000E+00
         0.00000E+00
         0.00000E+00
         0.00000E+00
         0.00000E+00
         0.00000E+00
         0.00000E+00
         0.00000E+00
         0.00000E+00
         0.00000E+00
         0.00000E+00
         0.00000E+00
         0.00000E+00
         0.00000E+00
         0.00000E+00
         0.00000E+00
         0.00000E+00
         0.00000E+00
         0.00000E+00
         0.00000E+00
         0.00000E+00
         0.00000E+00
         0.00000E+00
         0.00000E+00
         0.00000E+00
         0.00000E+00
         0.00000E+00
         0.00000E+00
         0.00000E+00
         0.00000E+00
         0.00000E+00
         0.00000E+00
         0.00000E+00
         0.00000E+00
         0.00000E+00
         0.00000E+00
         0.00000E+00
         0.00000E+00
         0.00000E+00
         0.00000E+00
         0.00000E+00
         0.00000E+00
         0.00000E+00
         0.00000E+00
         0.00000E+00
         0.00000E+00
         0.00000E+00
         0.00000E+00
         0.00000E+00
         0.00000E+00
         0.00000E+00
         0.00000E+00
         0.00000E+00
         0.00000E+00
         0.00000E+00
         0.00000E+00
         0.00000E+00
         0.00000E+00
         0.00000E+00
         0.00000E+00
         0.00000E+00
         0.00000E+00
         0.00000E+00
         0.00000E+00
         0.00000E+00
         0.00000E+00
         0.00000E+00
         0.00000E+00
         0.00000E+00
         0.00000E+00
         0.00000E+00
         0.00000E+00
         0.00000E+00
         0.00000E+00
         0.00000E+00
         0.00000E+00
         0.00000E+00
         0.00000E+00
         0.00000E+00
         0.00000E+00
         0.00000E+00
         0.00000E+00
         0.00000E+00
         0.00000E+00
         0.00000E+00
         0.00000E+00
         0.00000E+00
         0.00000E+00
         0.00000E+00
         0.00000E+00
         0.00000E+00
         0.00000E+00
         0.00000E+00
         0.00000E+00
         0.00000E+00
         0.00000E+00
         0.00000E+00
         0.00000E+00
         0.00000E+00
         0.00000E+00
         0.00000E+00
         0.00000E+00
         0.00000E+00
         0.00000E+00
         0.00000E+00
         0.00000E+00
         0.00000E+00
         0.00000E+00
         0.00000E+00
         0.00000E+00
         0.00000E+00
         0.00000E+00
         0.00000E+00
         0.00000E+00
         0.00000E+00
         0.00000E+00
         0.00000E+00
         0.00000E+00
         0.00000E+00
         0.00000E+00
         0.00000E+00
         0.00000E+00
         0.00000E+00
         0.00000E+00
         0.00000E+00
         0.00000E+00
         0.00000E+00
         0.00000E+00
         0.00000E+00
         0.00000E+00
         0.00000E+00
         0.00000E+00
         0.00000E+00
         0.00000E+00
         0.00000E+00
         0.00000E+00
         0.00000E+00
         0.00000E+00
         0.00000E+00
         0.00000E+00
         0.00000E+00
         0.00000E+00
         0.00000E+00
         0.00000E+00
         0.00000E+00
         0.00000E+00
         0.00000E+00
         0.00000E+00
         0.00000E+00
         0.00000E+00
         0.00000E+00
         0.00000E+00
         0.00000E+00
         0.00000E+00
         0.00000E+00
         0.00000E+00
         0.00000E+00
         0.00000E+00
         0.00000E+00
         0.00000E+00
         0.00000E+00
         0.00000E+00
         0.00000E+00
         0.00000E+00
         0.00000E+00
         0.00000E+00
         0.00000E+00
         0.00000E+00
         0.00000E+00
         0.00000E+00
         0.00000E+00
         0.00000E+00
         0.00000E+00
         0.00000E+00
         0.00000E+00
         0.00000E+00
         0.00000E+00
         0.00000E+00
         0.00000E+00
         0.00000E+00
         0.00000E+00
         0.00000E+00
         0.00000E+00
         0.00000E+00
         0.00000E+00
         0.00000E+00
         0.00000E+00
         0.00000E+00
         0.00000E+00
         0.00000E+00
         0.00000E+00
         0.00000E+00
         0.00000E+00
         0.00000E+00
         0.00000E+00
         0.00000E+00
         0.00000E+00
         0.00000E+00
         0.00000E+00
         0.00000E+00
         0.00000E+00
         0.00000E+00
         0.00000E+00
         0.00000E+00
         0.00000E+00
         0.00000E+00
         0.00000E+00
         0.00000E+00
         0.00000E+00
         0.00000E+00
         0.00000E+00
         0.00000E+00
         0.00000E+00
         0.00000E+00
         0.00000E+00
         0.00000E+00
         0.00000E+00
         0.00000E+00
         0.00000E+00
         0.00000E+00
         0.00000E+00
         0.00000E+00
         0.00000E+00
         0.00000E+00
         0.00000E+00
         0.00000E+00
         0.00000E+00
         0.00000E+00
         0.00000E+00
         0.00000E+00
         0.00000E+00
         0.00000E+00
         0.00000E+00
         0.00000E+00
         0.00000E+00
         0.00000E+00
         0.00000E+00
         0.00000E+00
         0.00000E+00
         0.00000E+00
         0.00000E+00
         0.00000E+00
         0.00000E+00
         0.00000E+00
         0.00000E+00
         0.00000E+00
         0.00000E+00
         0.00000E+00
         0.00000E+00
         0.00000E+00
         0.00000E+00
         0.00000E+00
         0.00000E+00
         0.00000E+00
         0.00000E+00
         0.00000E+00
         0.00000E+00
         0.00000E+00
         0.00000E+00
         0.00000E+00
         0.00000E+00
         0.00000E+00
         0.00000E+00
         0.00000E+00
         0.00000E+00
         0.00000E+00
         0.00000E+00
         0.00000E+00
         0.00000E+00
         0.00000E+00
         0.00000E+00
         0.00000E+00
         0.00000E+00
         0.00000E+00
         0.00000E+00
         0.00000E+00
         0.00000E+00
         0.00000E+00
         0.00000E+00
         0.00000E+00
         0.00000E+00
         0.00000E+00
         0.00000E+00
         0.00000E+00
         0.00000E+00
         0.00000E+00
         0.00000E+00
         0.00000E+00
         0.00000E+00
         0.00000E+00
         0.00000E+00
         0.00000E+00
         0.00000E+00
         0.00000E+00
         0.00000E+00
         0.00000E+00
         0.00000E+00
         0.00000E+00
         0.00000E+00
         0.00000E+00
         0.00000E+00
         0.00000E+00
         0.00000E+00
         0.00000E+00
         0.00000E+00
         0.00000E+00
         0.00000E+00
         0.00000E+00
         0.00000E+00
         0.00000E+00
         0.00000E+00
         0.00000E+00
         0.00000E+00
         0.00000E+00
         0.00000E+00
         0.00000E+00
         0.00000E+00
         0.00000E+00
         0.00000E+00
         0.00000E+00
         0.00000E+00
         0.00000E+00
         0.00000E+00
         0.00000E+00
         0.00000E+00
         0.00000E+00
         0.00000E+00
         0.00000E+00
         0.00000E+00
         0.00000E+00
         0.00000E+00
         0.00000E+00
         0.00000E+00
         0.00000E+00
         0.00000E+00
         0.00000E+00
         0.00000E+00
         0.00000E+00
         0.00000E+00
         0.00000E+00
         0.00000E+00
         0.00000E+00
         0.00000E+00
         0.00000E+00
         0.00000E+00
         0.00000E+00
         0.00000E+00
         0.00000E+00
         0.00000E+00
         0.00000E+00
         0.00000E+00
         0.00000E+00
         0.00000E+00
         0.00000E+00
         0.00000E+00
         0.00000E+00
         0.00000E+00
         0.00000E+00
         0.00000E+00
         0.00000E+00
         0.00000E+00
         0.00000E+00
         0.00000E+00
         0.00000E+00
         0.00000E+00
         0.00000E+00
         0.00000E+00
         0.00000E+00
         0.00000E+00
         0.00000E+00
         0.00000E+00
         0.00000E+00
         0.00000E+00
         0.00000E+00
         0.00000E+00
         0.00000E+00
         0.00000E+00
         0.00000E+00
         0.00000E+00
         0.00000E+00
         0.00000E+00
         0.00000E+00
         0.00000E+00
         0.00000E+00
         0.00000E+00
         0.00000E+00
         0.00000E+00
         0.00000E+00
         0.00000E+00
         0.00000E+00
         0.00000E+00
         0.00000E+00
         0.00000E+00
         0.00000E+00
         0.00000E+00
         0.00000E+00
         0.00000E+00
         0.00000E+00
         0.00000E+00
         0.00000E+00
         0.00000E+00
         0.00000E+00
         0.00000E+00
         0.00000E+00
         0.00000E+00
         0.00000E+00
         0.00000E+00
         0.00000E+00
         0.00000E+00
         0.00000E+00
         0.00000E+00
         0.00000E+00
         0.00000E+00
         0.00000E+00
         0.00000E+00
         0.00000E+00
         0.00000E+00
         0.00000E+00
         0.00000E+00
         0.00000E+00
         0.00000E+00
         0.00000E+00
         0.00000E+00
         0.00000E+00
         0.00000E+00
         0.00000E+00
         0.00000E+00
         0.00000E+00
         0.00000E+00
         0.00000E+00
         0.00000E+00
         0.00000E+00
         0.00000E+00
         0.00000E+00
         0.00000E+00
         0.00000E+00
         0.00000E+00
         0.00000E+00
         0.00000E+00
         0.00000E+00
         0.00000E+00
         0.00000E+00
         0.00000E+00
         0.00000E+00
         0.00000E+00
         0.00000E+00
         0.00000E+00
         0.00000E+00
         0.00000E+00
         0.00000E+00
         0.00000E+00
         0.00000E+00
         0.00000E+00
         0.00000E+00
         0.00000E+00
         0.00000E+00
         0.00000E+00
         0.00000E+00
         0.00000E+00
         0.00000E+00
         0.00000E+00
         0.00000E+00
         0.00000E+00
         0.00000E+00
         0.00000E+00
         0.00000E+00
         0.00000E+00
         0.00000E+00
         0.00000E+00
         0.00000E+00
         0.00000E+00
         0.00000E+00
         0.00000E+00
         0.00000E+00
         0.00000E+00
         0.00000E+00
         0.00000E+00
         0.00000E+00
         0.00000E+00
         0.00000E+00
         0.00000E+00
         0.00000E+00
         0.00000E+00
         0.00000E+00
         0.00000E+00
         0.00000E+00
         0.00000E+00
         0.00000E+00
         0.00000E+00
         0.00000E+00
         0.00000E+00
         0.00000E+00
         0.00000E+00
         0.00000E+00
         0.00000E+00
         0.00000E+00
         0.00000E+00
         0.00000E+00
         0.00000E+00
         0.00000E+00
         0.00000E+00
         0.00000E+00
         0.00000E+00
         0.00000E+00
         0.00000E+00
         0.00000E+00
         0.00000E+00
         0.00000E+00
         0.00000E+00
         0.00000E+00
         0.00000E+00
         0.00000E+00
         0.00000E+00
         0.00000E+00
         0.00000E+00
         0.00000E+00
         0.00000E+00
         0.00000E+00
         0.00000E+00
         0.00000E+00
         0.00000E+00
         0.00000E+00
         0.00000E+00
         0.00000E+00
         0.00000E+00
         0.00000E+00
         0.00000E+00
         0.00000E+00
         0.00000E+00
         0.00000E+00
         0.00000E+00
         0.00000E+00
         0.00000E+00
         0.00000E+00
         0.00000E+00
         0.00000E+00
         0.00000E+00
         0.00000E+00
         0.00000E+00
         0.00000E+00
         0.00000E+00
         0.00000E+00
         0.00000E+00
         0.00000E+00
         0.00000E+00
         0.00000E+00
         0.00000E+00
         0.00000E+00
         0.00000E+00
         0.00000E+00
         0.00000E+00
         0.00000E+00
         0.00000E+00
         0.00000E+00
         0.00000E+00
         0.00000E+00
         0.00000E+00
         0.00000E+00
         0.00000E+00
         0.00000E+00
         0.00000E+00
         0.00000E+00
         0.00000E+00
         0.00000E+00
         0.00000E+00
         0.00000E+00
         0.00000E+00
         0.00000E+00
         0.00000E+00
         0.00000E+00
         0.00000E+00
         0.00000E+00
         0.00000E+00
         0.00000E+00
         0.00000E+00
         0.00000E+00
         0.00000E+00
         0.00000E+00
         0.00000E+00
         0.00000E+00
         0.00000E+00
         0.00000E+00
         0.00000E+00
         0.00000E+00
         0.00000E+00
         0.00000E+00
         0.00000E+00
         0.00000E+00
         0.00000E+00
         0.00000E+00
         0.00000E+00
         0.00000E+00
         0.00000E+00
         0.00000E+00
         0.00000E+00
         0.00000E+00
         0.00000E+00
         0.00000E+00
         0.00000E+00
         0.00000E+00
         0.00000E+00
         0.00000E+00
         0.00000E+00
         0.00000E+00
         0.00000E+00
         0.00000E+00
         0.00000E+00
         0.00000E+00
         0.00000E+00
         0.00000E+00
         0.00000E+00
         0.00000E+00
         0.00000E+00
         0.00000E+00
         0.00000E+00
         0.00000E+00
         0.00000E+00
         0.00000E+00
         0.00000E+00
         0.00000E+00
         0.00000E+00
         0.00000E+00
         0.00000E+00
         0.00000E+00
         0.00000E+00
         0.00000E+00
         0.00000E+00
         0.00000E+00
         0.00000E+00
         0.00000E+00
         0.00000E+00
         0.00000E+00
         0.00000E+00
         0.00000E+00
         0.00000E+00
         0.00000E+00
         0.00000E+00
         0.00000E+00
         0.00000E+00
         0.00000E+00
         0.00000E+00
         0.00000E+00
         0.00000E+00
         0.00000E+00
         0.00000E+00
         0.00000E+00
         0.00000E+00
         0.00000E+00
         0.00000E+00
         0.00000E+00
         0.00000E+00
         0.00000E+00
         0.00000E+00
         0.00000E+00
         0.00000E+00
         0.00000E+00
         0.00000E+00
         0.00000E+00
         0.00000E+00
         0.00000E+00
         0.00000E+00
         0.00000E+00
         0.00000E+00
         0.00000E+00
         0.00000E+00
         0.00000E+00
         0.00000E+00
         0.00000E+00
         0.00000E+00
         0.00000E+00
         0.00000E+00
         0.00000E+00
         0.00000E+00
         0.00000E+00
         0.00000E+00
         0.00000E+00
         0.00000E+00
         0.00000E+00
         0.00000E+00
         0.00000E+00
         0.00000E+00
         0.00000E+00
         0.00000E+00
         0.00000E+00
         0.00000E+00
         0.00000E+00
         0.00000E+00
         0.00000E+00
         0.00000E+00
         0.00000E+00
         0.00000E+00
         0.00000E+00
         0.00000E+00
         0.00000E+00
         0.00000E+00
         0.00000E+00
         0.00000E+00
         0.00000E+00
         0.00000E+00
         0.00000E+00
         0.00000E+00
         0.00000E+00
         0.00000E+00
         0.00000E+00
         0.00000E+00
         0.00000E+00
         0.00000E+00
         0.00000E+00
         0.00000E+00
         0.00000E+00
         0.00000E+00
         0.00000E+00
         0.00000E+00
         0.00000E+00
         0.00000E+00
         0.00000E+00
         0.00000E+00
         0.00000E+00
         0.00000E+00
         0.00000E+00
         0.00000E+00
         0.00000E+00
         0.00000E+00
         0.00000E+00
         0.00000E+00
         0.00000E+00
         0.00000E+00
         0.00000E+00
         0.00000E+00
         0.00000E+00
         0.00000E+00
         0.00000E+00
         0.00000E+00
         0.00000E+00
         0.00000E+00
         0.00000E+00
         0.00000E+00
         0.00000E+00
         0.00000E+00
         0.00000E+00
         0.00000E+00
         0.00000E+00
         0.00000E+00
         0.00000E+00
         0.00000E+00
         0.00000E+00
         0.00000E+00
         0.00000E+00
         0.00000E+00
         0.00000E+00
         0.00000E+00
         0.00000E+00
         0.00000E+00
         0.00000E+00
         0.00000E+00
         0.00000E+00
         0.00000E+00
         0.00000E+00
         0.00000E+00
         0.00000E+00
         0.00000E+00
         0.00000E+00
         0.00000E+00
         0.00000E+00
         0.00000E+00
         0.00000E+00
         0.00000E+00
         0.00000E+00
         0.00000E+00
         0.00000E+00
         0.00000E+00
         0.00000E+00
         0.00000E+00
         0.00000E+00
         0.00000E+00
         0.00000E+00
         0.00000E+00
         0.00000E+00
         0.00000E+00
         0.00000E+00
         0.00000E+00
         0.00000E+00
         0.00000E+00
         0.00000E+00
         0.00000E+00
         0.00000E+00
         0.00000E+00
         0.00000E+00
         0.00000E+00
         0.00000E+00
         0.00000E+00
         0.00000E+00
         0.00000E+00
         0.00000E+00
         0.00000E+00
         0.00000E+00
         0.00000E+00
         0.00000E+00
         0.00000E+00
         0.00000E+00
         0.00000E+00
         0.00000E+00
         0.00000E+00
         0.00000E+00
         0.00000E+00
         0.00000E+00
         0.00000E+00
         0.00000E+00
         0.00000E+00
         0.00000E+00
         0.00000E+00
         0.00000E+00
         0.00000E+00
         0.00000E+00
         0.00000E+00
         0.00000E+00
         0.00000E+00
         0.00000E+00
         0.00000E+00
         0.00000E+00
         0.00000E+00
         0.00000E+00
         0.00000E+00
         0.00000E+00
         0.00000E+00
         0.00000E+00
         0.00000E+00
         0.00000E+00
         0.00000E+00
         0.00000E+00
         0.00000E+00
         0.00000E+00
         0.00000E+00
         0.00000E+00
         0.00000E+00
         0.00000E+00
         0.00000E+00
         0.00000E+00
         0.00000E+00
         0.00000E+00
         0.00000E+00
         0.00000E+00
         0.00000E+00
         0.00000E+00
         0.00000E+00
         0.00000E+00
         0.00000E+00
         0.00000E+00
         0.00000E+00
         0.00000E+00
         0.00000E+00
         0.00000E+00
         0.00000E+00
         0.00000E+00
         0.00000E+00
         0.00000E+00
         0.00000E+00
         0.00000E+00
         0.00000E+00
         0.00000E+00
         0.00000E+00
         0.00000E+00
         0.00000E+00
         0.00000E+00
         0.00000E+00
         0.00000E+00
         0.00000E+00
         0.00000E+00
         0.00000E+00
         0.00000E+00
         0.00000E+00
         0.00000E+00
         0.00000E+00
         0.00000E+00
         0.00000E+00
         0.00000E+00
         0.00000E+00
         0.00000E+00
         0.00000E+00
         0.00000E+00
         0.00000E+00
         0.00000E+00
         0.00000E+00
         0.00000E+00
         0.00000E+00
         0.00000E+00
         0.00000E+00
         0.00000E+00
         0.00000E+00
         0.00000E+00
         0.00000E+00
         0.00000E+00
         0.00000E+00
         0.00000E+00
         0.00000E+00
         0.00000E+00
         0.00000E+00
         0.00000E+00
         0.00000E+00
         0.00000E+00
         0.00000E+00
         0.00000E+00
         0.00000E+00
         0.00000E+00
         0.00000E+00
         0.00000E+00
         0.00000E+00
         0.00000E+00
         0.00000E+00
         0.00000E+00
         0.00000E+00
         0.00000E+00
         0.00000E+00
         0.00000E+00
         0.00000E+00
         0.00000E+00
         0.00000E+00
         0.00000E+00
         0.00000E+00
         0.00000E+00
         0.00000E+00
         0.00000E+00
         0.00000E+00
         0.00000E+00
         0.00000E+00
         0.00000E+00
         0.00000E+00
         0.00000E+00
         0.00000E+00
         0.00000E+00
         0.00000E+00
         0.00000E+00
         0.00000E+00
         0.00000E+00
         0.00000E+00
         0.00000E+00
         0.00000E+00
         0.00000E+00
         0.00000E+00
         0.00000E+00
         0.00000E+00
         0.00000E+00
         0.00000E+00
         0.00000E+00
         0.00000E+00
         0.00000E+00
         0.00000E+00
         0.00000E+00
         0.00000E+00
         0.00000E+00
         0.00000E+00
         0.00000E+00
         0.00000E+00
         0.00000E+00
         0.00000E+00
         0.00000E+00
         0.00000E+00
         0.00000E+00
         0.00000E+00
         0.00000E+00
         0.00000E+00
         0.00000E+00
         0.00000E+00
         0.00000E+00
         0.00000E+00
         0.00000E+00
         0.00000E+00
         0.00000E+00
         0.00000E+00
         0.00000E+00
         0.00000E+00
         0.00000E+00
         0.00000E+00
         0.00000E+00
         0.00000E+00
         0.00000E+00
         0.00000E+00
         0.00000E+00
         0.00000E+00
         0.00000E+00
         0.00000E+00
         0.00000E+00
         0.00000E+00
         0.00000E+00
         0.00000E+00
         0.00000E+00
         0.00000E+00
         0.00000E+00
         0.00000E+00
         0.00000E+00
         0.00000E+00
         0.00000E+00
         0.00000E+00
         0.00000E+00
         0.00000E+00
         0.00000E+00
         0.00000E+00
         0.00000E+00
         0.00000E+00
         0.00000E+00
         0.00000E+00
         0.00000E+00
         0.00000E+00
         0.00000E+00
         0.00000E+00
         0.00000E+00
         0.00000E+00
         0.00000E+00
         0.00000E+00
         0.00000E+00
         0.00000E+00
         0.00000E+00
         0.00000E+00
         0.00000E+00
         0.00000E+00
         0.00000E+00
         0.00000E+00
         0.00000E+00
         0.00000E+00
         0.00000E+00
         0.00000E+00
         0.00000E+00
         0.00000E+00
         0.00000E+00
         0.00000E+00
         0.00000E+00
         0.00000E+00
         0.00000E+00
         0.00000E+00
         0.00000E+00
         0.00000E+00
         0.00000E+00
         0.00000E+00
         0.00000E+00
         0.00000E+00
         0.00000E+00
         0.00000E+00
         0.00000E+00
         0.00000E+00
         0.00000E+00
         0.00000E+00
         0.00000E+00
         0.00000E+00
         0.00000E+00
         0.00000E+00
         0.00000E+00
         0.00000E+00
         0.00000E+00
         0.00000E+00
         0.00000E+00
         0.00000E+00
         0.00000E+00
         0.00000E+00
         0.00000E+00
         0.00000E+00
         0.00000E+00
         0.00000E+00
         0.00000E+00
         0.00000E+00
         0.00000E+00
         0.00000E+00
         0.00000E+00
         0.00000E+00
         0.00000E+00
         0.00000E+00
         0.00000E+00
         0.00000E+00
         0.00000E+00
         0.00000E+00
         0.00000E+00
         0.00000E+00
         0.00000E+00
         0.00000E+00
         0.00000E+00
         0.00000E+00
         0.00000E+00
         0.00000E+00
         0.00000E+00
         0.00000E+00
         0.00000E+00
         0.00000E+00
         0.00000E+00
         0.00000E+00
         0.00000E+00
         0.00000E+00
         0.00000E+00
         0.00000E+00
         0.00000E+00
         0.00000E+00
         0.00000E+00
         0.00000E+00
         0.00000E+00
         0.00000E+00
         0.00000E+00
         0.00000E+00
         0.00000E+00
         0.00000E+00
         0.00000E+00
         0.00000E+00
         0.00000E+00
         0.00000E+00
         0.00000E+00
         0.00000E+00
         0.00000E+00
         0.00000E+00
         0.00000E+00
         0.00000E+00
         0.00000E+00
         0.00000E+00
         0.00000E+00
         0.00000E+00
         0.00000E+00
         0.00000E+00
         0.00000E+00
         0.00000E+00
         0.00000E+00
         0.00000E+00
         0.00000E+00
         0.00000E+00
         0.00000E+00
         0.00000E+00
         0.00000E+00
         0.00000E+00
         0.00000E+00
         0.00000E+00
         0.00000E+00
         0.00000E+00
         0.00000E+00
         0.00000E+00
         0.00000E+00
         0.00000E+00
         0.00000E+00
         0.00000E+00
         0.00000E+00
         0.00000E+00
         0.00000E+00
         0.00000E+00
         0.00000E+00
         0.00000E+00
         0.00000E+00
         0.00000E+00
         0.00000E+00
         0.00000E+00
         0.00000E+00
         0.00000E+00
         0.00000E+00
         0.00000E+00
         0.00000E+00
         0.00000E+00
         0.00000E+00
         0.00000E+00
         0.00000E+00
         0.00000E+00
         0.00000E+00
         0.00000E+00
         0.00000E+00
         0.00000E+00
         0.00000E+00
         0.00000E+00
         0.00000E+00
         0.00000E+00
         0.00000E+00
         0.00000E+00
         0.00000E+00
         0.00000E+00
         0.00000E+00
         0.00000E+00
         0.00000E+00
         0.00000E+00
         0.00000E+00
         0.00000E+00
         0.00000E+00
         0.00000E+00
         0.00000E+00
         0.00000E+00
         0.00000E+00
         0.00000E+00
         0.00000E+00
         0.00000E+00
         0.00000E+00
         0.00000E+00
         0.00000E+00
         0.00000E+00
         0.00000E+00
         0.00000E+00
         0.00000E+00
         0.00000E+00
         0.00000E+00
         0.00000E+00
         0.00000E+00
         0.00000E+00
         0.00000E+00
         0.00000E+00
         0.00000E+00
         0.00000E+00
         0.00000E+00
         0.00000E+00
         0.00000E+00
         0.00000E+00
         0.00000E+00
         0.00000E+00
         0.00000E+00
         0.00000E+00
         0.00000E+00
         0.00000E+00
         0.00000E+00
         0.00000E+00
         0.00000E+00
         0.00000E+00
         0.00000E+00
         0.00000E+00
         0.00000E+00
         0.00000E+00
         0.00000E+00
         0.00000E+00
         0.00000E+00
         0.00000E+00
         0.00000E+00
         0.00000E+00
         0.00000E+00
         0.00000E+00
         0.00000E+00
         0.00000E+00
         0.00000E+00
         0.00000E+00
         0.00000E+00
         0.00000E+00
         0.00000E+00
         0.00000E+00
         0.00000E+00
         0.00000E+00
         0.00000E+00
         0.00000E+00
         0.00000E+00
         0.00000E+00
         0.00000E+00
         0.00000E+00
         0.00000E+00
         0.00000E+00
         0.00000E+00
         0.00000E+00
         0.00000E+00
         0.00000E+00
         0.00000E+00
         0.00000E+00
         0.00000E+00
         0.00000E+00
         0.00000E+00
         0.00000E+00
         0.00000E+00
         0.00000E+00
         0.00000E+00
         0.00000E+00
         0.00000E+00
         0.00000E+00
         0.00000E+00
         0.00000E+00
         0.00000E+00
         0.00000E+00
         0.00000E+00
         0.00000E+00
         0.00000E+00
         0.00000E+00
         0.00000E+00
         0.00000E+00
         0.00000E+00
         0.00000E+00
         0.00000E+00
         0.00000E+00
         0.00000E+00
         0.00000E+00
         0.00000E+00
         0.00000E+00
         0.00000E+00
         0.00000E+00
         0.00000E+00
         0.00000E+00
         0.00000E+00
         0.00000E+00
         0.00000E+00
         0.00000E+00
         0.00000E+00
         0.00000E+00
         0.00000E+00
         0.00000E+00
         0.00000E+00
         0.00000E+00
         0.00000E+00
         0.00000E+00
         0.00000E+00
         0.00000E+00
         0.00000E+00
         0.00000E+00
         0.00000E+00
         0.00000E+00
         0.00000E+00
         0.00000E+00
         0.00000E+00
         0.00000E+00
         0.00000E+00
         0.00000E+00
         0.00000E+00
         0.00000E+00
         0.00000E+00
         0.00000E+00
         0.00000E+00
         0.00000E+00
         0.00000E+00
         0.00000E+00
         0.00000E+00
         0.00000E+00
         0.00000E+00
         0.00000E+00
         0.00000E+00
         0.00000E+00
         0.00000E+00
         0.00000E+00
         0.00000E+00
         0.00000E+00
         0.00000E+00
         0.00000E+00
         0.00000E+00
         0.00000E+00
         0.00000E+00
         0.00000E+00
         0.00000E+00
         0.00000E+00
         0.00000E+00
         0.00000E+00
         0.00000E+00
         0.00000E+00
         0.00000E+00
         0.00000E+00
         0.00000E+00
         0.00000E+00
         0.00000E+00
         0.00000E+00
         0.00000E+00
         0.00000E+00
         0.00000E+00
         0.00000E+00
         0.00000E+00
         0.00000E+00
         0.00000E+00
         0.00000E+00
         0.00000E+00
         0.00000E+00
         0.00000E+00
         0.00000E+00
         0.00000E+00
         0.00000E+00
         0.00000E+00
         0.00000E+00
         0.00000E+00
         0.00000E+00
         0.00000E+00
         0.00000E+00
         0.00000E+00
         0.00000E+00
         0.00000E+00
         0.00000E+00
         0.00000E+00
         0.00000E+00
         0.00000E+00
         0.00000E+00
         0.00000E+00
         0.00000E+00
         0.00000E+00
         0.00000E+00
         0.00000E+00
         0.00000E+00
         0.00000E+00
         0.00000E+00
         0.00000E+00
         0.00000E+00
         0.00000E+00
         0.00000E+00
         0.00000E+00
         0.00000E+00
         0.00000E+00
         0.00000E+00
         0.00000E+00
         0.00000E+00
         0.00000E+00
         0.00000E+00
         0.00000E+00
         0.00000E+00
         0.00000E+00
         0.00000E+00
         0.00000E+00
         0.00000E+00
         0.00000E+00
         0.00000E+00
         0.00000E+00
         0.00000E+00
         0.00000E+00
         0.00000E+00
         0.00000E+00
         0.00000E+00
         0.00000E+00
         0.00000E+00
         0.00000E+00
         0.00000E+00
         0.00000E+00
         0.00000E+00
         0.00000E+00
         0.00000E+00
         0.00000E+00
         0.00000E+00
         0.00000E+00
         0.00000E+00
         0.00000E+00
         0.00000E+00
         0.00000E+00
         0.00000E+00
         0.00000E+00
         0.00000E+00
         0.00000E+00
         0.00000E+00
         0.00000E+00
         0.00000E+00
         0.00000E+00
         0.00000E+00
         0.00000E+00
         0.00000E+00
         0.00000E+00
         0.00000E+00
         0.00000E+00
         0.00000E+00
         0.00000E+00
         0.00000E+00
         0.00000E+00
         0.00000E+00
         0.00000E+00
         0.00000E+00
         0.00000E+00
         0.00000E+00
         0.00000E+00
         0.00000E+00
         0.00000E+00
         0.00000E+00
         0.00000E+00
         0.00000E+00
         0.00000E+00
         0.00000E+00
         0.00000E+00
         0.00000E+00
         0.00000E+00
         0.00000E+00
         0.00000E+00
         0.00000E+00
         0.00000E+00
         0.00000E+00
         0.00000E+00
         0.00000E+00
         0.00000E+00
         0.00000E+00
         0.00000E+00
         0.00000E+00
         0.00000E+00
         0.00000E+00
         0.00000E+00
         0.00000E+00
         0.00000E+00
         0.00000E+00
         0.00000E+00
         0.00000E+00
         0.00000E+00
         0.00000E+00
         0.00000E+00
         0.00000E+00
         0.00000E+00
         0.00000E+00
         0.00000E+00
         0.00000E+00
         0.00000E+00
         0.00000E+00
         0.00000E+00
         0.00000E+00
         0.00000E+00
         0.00000E+00
         0.00000E+00
         0.00000E+00
         0.00000E+00
         0.00000E+00
         0.00000E+00
         0.00000E+00
         0.00000E+00
         0.00000E+00
         0.00000E+00
         0.00000E+00
         0.00000E+00
         0.00000E+00
         0.00000E+00
         0.00000E+00
         0.00000E+00
         0.00000E+00
         0.00000E+00
         0.00000E+00
         0.00000E+00
         0.00000E+00
         0.00000E+00
         0.00000E+00
         0.00000E+00
         0.00000E+00
         0.00000E+00
         0.00000E+00
         0.00000E+00
         0.00000E+00
         0.00000E+00
         0.00000E+00
         0.00000E+00
         0.00000E+00
         0.00000E+00
         0.00000E+00
         0.00000E+00
  
SCALARS               pre_disp_force_y  double 1
LOOKUP_TABLE default
         0.00000E+00
         0.00000E+00
         0.00000E+00
         0.00000E+00
         0.00000E+00
         0.00000E+00
         0.00000E+00
         0.00000E+00
         0.00000E+00
         0.00000E+00
         0.00000E+00
         0.00000E+00
         0.00000E+00
         0.00000E+00
         0.00000E+00
         0.00000E+00
         0.00000E+00
         0.00000E+00
         0.00000E+00
         0.00000E+00
         0.00000E+00
         0.00000E+00
         0.00000E+00
         0.00000E+00
         0.00000E+00
         0.00000E+00
         0.00000E+00
         0.00000E+00
         0.00000E+00
         0.00000E+00
         0.00000E+00
         0.00000E+00
         0.00000E+00
         0.00000E+00
         0.00000E+00
         0.00000E+00
         0.00000E+00
         0.00000E+00
         0.00000E+00
         0.00000E+00
         0.00000E+00
         0.00000E+00
         0.00000E+00
         0.00000E+00
         0.00000E+00
         0.00000E+00
         0.00000E+00
         0.00000E+00
         0.00000E+00
         0.00000E+00
         0.00000E+00
         0.00000E+00
         0.00000E+00
         0.00000E+00
         0.00000E+00
         0.00000E+00
         0.00000E+00
         0.00000E+00
         0.00000E+00
         0.00000E+00
         0.00000E+00
         0.00000E+00
         0.00000E+00
         0.00000E+00
         0.00000E+00
         0.00000E+00
         0.00000E+00
         0.00000E+00
         0.00000E+00
         0.00000E+00
         0.00000E+00
         0.00000E+00
         0.00000E+00
         0.00000E+00
         0.00000E+00
         0.00000E+00
         0.00000E+00
         0.00000E+00
         0.00000E+00
         0.00000E+00
         0.00000E+00
         0.00000E+00
         0.00000E+00
         0.00000E+00
         0.00000E+00
         0.00000E+00
         0.00000E+00
         0.00000E+00
         0.00000E+00
         0.00000E+00
         0.00000E+00
         0.00000E+00
         0.00000E+00
         0.00000E+00
         0.00000E+00
         0.00000E+00
         0.00000E+00
         0.00000E+00
         0.00000E+00
         0.00000E+00
         0.00000E+00
         0.00000E+00
         0.00000E+00
         0.00000E+00
         0.00000E+00
         0.00000E+00
         0.00000E+00
         0.00000E+00
         0.00000E+00
         0.00000E+00
         0.00000E+00
         0.00000E+00
         0.00000E+00
         0.00000E+00
         0.00000E+00
         0.00000E+00
         0.00000E+00
         0.00000E+00
         0.00000E+00
         0.00000E+00
         0.00000E+00
         0.00000E+00
         0.00000E+00
         0.00000E+00
         0.00000E+00
         0.00000E+00
         0.00000E+00
         0.00000E+00
         0.00000E+00
         0.00000E+00
         0.00000E+00
         0.00000E+00
         0.00000E+00
         0.00000E+00
         0.00000E+00
         0.00000E+00
         0.00000E+00
         0.00000E+00
         0.00000E+00
         0.00000E+00
         0.00000E+00
         0.00000E+00
         0.00000E+00
         0.00000E+00
         0.00000E+00
         0.00000E+00
         0.00000E+00
         0.00000E+00
         0.00000E+00
         0.00000E+00
         0.00000E+00
         0.00000E+00
         0.00000E+00
         0.00000E+00
         0.00000E+00
         0.00000E+00
         0.00000E+00
         0.00000E+00
         0.00000E+00
         0.00000E+00
         0.00000E+00
         0.00000E+00
         0.00000E+00
         0.00000E+00
         0.00000E+00
         0.00000E+00
         0.00000E+00
         0.00000E+00
         0.00000E+00
         0.00000E+00
         0.00000E+00
         0.00000E+00
         0.00000E+00
         0.00000E+00
         0.00000E+00
         0.00000E+00
         0.00000E+00
         0.00000E+00
         0.00000E+00
         0.00000E+00
         0.00000E+00
         0.00000E+00
         0.00000E+00
         0.00000E+00
         0.00000E+00
         0.00000E+00
         0.00000E+00
         0.00000E+00
         0.00000E+00
         0.00000E+00
         0.00000E+00
         0.00000E+00
         0.00000E+00
         0.00000E+00
         0.00000E+00
         0.00000E+00
         0.00000E+00
         0.00000E+00
         0.00000E+00
         0.00000E+00
         0.00000E+00
         0.00000E+00
         0.00000E+00
         0.00000E+00
         0.00000E+00
         0.00000E+00
         0.00000E+00
         0.00000E+00
         0.00000E+00
         0.00000E+00
         0.00000E+00
         0.00000E+00
         0.00000E+00
         0.00000E+00
         0.00000E+00
         0.00000E+00
         0.00000E+00
         0.00000E+00
         0.00000E+00
         0.00000E+00
         0.00000E+00
         0.00000E+00
         0.00000E+00
         0.00000E+00
         0.00000E+00
         0.00000E+00
         0.00000E+00
         0.00000E+00
         0.00000E+00
         0.00000E+00
         0.00000E+00
         0.00000E+00
         0.00000E+00
         0.00000E+00
         0.00000E+00
         0.00000E+00
         0.00000E+00
         0.00000E+00
         0.00000E+00
         0.00000E+00
         0.00000E+00
         0.00000E+00
         0.00000E+00
         0.00000E+00
         0.00000E+00
         0.00000E+00
         0.00000E+00
         0.00000E+00
         0.00000E+00
         0.00000E+00
         0.00000E+00
         0.00000E+00
         0.00000E+00
         0.00000E+00
         0.00000E+00
         0.00000E+00
         0.00000E+00
         0.00000E+00
         0.00000E+00
         0.00000E+00
         0.00000E+00
         0.00000E+00
         0.00000E+00
         0.00000E+00
         0.00000E+00
         0.00000E+00
         0.00000E+00
         0.00000E+00
         0.00000E+00
         0.00000E+00
         0.00000E+00
         0.00000E+00
         0.00000E+00
         0.00000E+00
         0.00000E+00
         0.00000E+00
         0.00000E+00
         0.00000E+00
         0.00000E+00
         0.00000E+00
         0.00000E+00
         0.00000E+00
         0.00000E+00
         0.00000E+00
         0.00000E+00
         0.00000E+00
         0.00000E+00
         0.00000E+00
         0.00000E+00
         0.00000E+00
         0.00000E+00
         0.00000E+00
         0.00000E+00
         0.00000E+00
         0.00000E+00
         0.00000E+00
         0.00000E+00
         0.00000E+00
         0.00000E+00
         0.00000E+00
         0.00000E+00
         0.00000E+00
         0.00000E+00
         0.00000E+00
         0.00000E+00
         0.00000E+00
         0.00000E+00
         0.00000E+00
         0.00000E+00
         0.00000E+00
         0.00000E+00
         0.00000E+00
         0.00000E+00
         0.00000E+00
         0.00000E+00
         0.00000E+00
         0.00000E+00
         0.00000E+00
         0.00000E+00
         0.00000E+00
         0.00000E+00
         0.00000E+00
         0.00000E+00
         0.00000E+00
         0.00000E+00
         0.00000E+00
         0.00000E+00
         0.00000E+00
         0.00000E+00
         0.00000E+00
         0.00000E+00
         0.00000E+00
         0.00000E+00
         0.00000E+00
         0.00000E+00
         0.00000E+00
         0.00000E+00
         0.00000E+00
         0.00000E+00
         0.00000E+00
         0.00000E+00
         0.00000E+00
         0.00000E+00
         0.00000E+00
         0.00000E+00
         0.00000E+00
         0.00000E+00
         0.00000E+00
         0.00000E+00
         0.00000E+00
         0.00000E+00
         0.00000E+00
         0.00000E+00
         0.00000E+00
         0.00000E+00
         0.00000E+00
         0.00000E+00
         0.00000E+00
         0.00000E+00
         0.00000E+00
         0.00000E+00
         0.00000E+00
         0.00000E+00
         0.00000E+00
         0.00000E+00
         0.00000E+00
         0.00000E+00
         0.00000E+00
         0.00000E+00
         0.00000E+00
         0.00000E+00
         0.00000E+00
         0.00000E+00
         0.00000E+00
         0.00000E+00
         0.00000E+00
         0.00000E+00
         0.00000E+00
         0.00000E+00
         0.00000E+00
         0.00000E+00
         0.00000E+00
         0.00000E+00
         0.00000E+00
         0.00000E+00
         0.00000E+00
         0.00000E+00
         0.00000E+00
         0.00000E+00
         0.00000E+00
         0.00000E+00
         0.00000E+00
         0.00000E+00
         0.00000E+00
         0.00000E+00
         0.00000E+00
         0.00000E+00
         0.00000E+00
         0.00000E+00
         0.00000E+00
         0.00000E+00
         0.00000E+00
         0.00000E+00
         0.00000E+00
         0.00000E+00
         0.00000E+00
         0.00000E+00
         0.00000E+00
         0.00000E+00
         0.00000E+00
         0.00000E+00
         0.00000E+00
         0.00000E+00
         0.00000E+00
         0.00000E+00
         0.00000E+00
         0.00000E+00
         0.00000E+00
         0.00000E+00
         0.00000E+00
         0.00000E+00
         0.00000E+00
         0.00000E+00
         0.00000E+00
         0.00000E+00
         0.00000E+00
         0.00000E+00
         0.00000E+00
         0.00000E+00
         0.00000E+00
         0.00000E+00
         0.00000E+00
         0.00000E+00
         0.00000E+00
         0.00000E+00
         0.00000E+00
         0.00000E+00
         0.00000E+00
         0.00000E+00
         0.00000E+00
         0.00000E+00
         0.00000E+00
         0.00000E+00
         0.00000E+00
         0.00000E+00
         0.00000E+00
         0.00000E+00
         0.00000E+00
         0.00000E+00
         0.00000E+00
         0.00000E+00
         0.00000E+00
         0.00000E+00
         0.00000E+00
         0.00000E+00
         0.00000E+00
         0.00000E+00
         0.00000E+00
         0.00000E+00
         0.00000E+00
         0.00000E+00
         0.00000E+00
         0.00000E+00
         0.00000E+00
         0.00000E+00
         0.00000E+00
         0.00000E+00
         0.00000E+00
         0.00000E+00
         0.00000E+00
         0.00000E+00
         0.00000E+00
         0.00000E+00
         0.00000E+00
         0.00000E+00
         0.00000E+00
         0.00000E+00
         0.00000E+00
         0.00000E+00
         0.00000E+00
         0.00000E+00
         0.00000E+00
         0.00000E+00
         0.00000E+00
         0.00000E+00
         0.00000E+00
         0.00000E+00
         0.00000E+00
         0.00000E+00
         0.00000E+00
         0.00000E+00
         0.00000E+00
         0.00000E+00
         0.00000E+00
         0.00000E+00
         0.00000E+00
         0.00000E+00
         0.00000E+00
         0.00000E+00
         0.00000E+00
         0.00000E+00
         0.00000E+00
         0.00000E+00
         0.00000E+00
         0.00000E+00
         0.00000E+00
         0.00000E+00
         0.00000E+00
         0.00000E+00
         0.00000E+00
         0.00000E+00
         0.00000E+00
         0.00000E+00
         0.00000E+00
         0.00000E+00
         0.00000E+00
         0.00000E+00
         0.00000E+00
         0.00000E+00
         0.00000E+00
         0.00000E+00
         0.00000E+00
         0.00000E+00
         0.00000E+00
         0.00000E+00
         0.00000E+00
         0.00000E+00
         0.00000E+00
         0.00000E+00
         0.00000E+00
         0.00000E+00
         0.00000E+00
         0.00000E+00
         0.00000E+00
         0.00000E+00
         0.00000E+00
         0.00000E+00
         0.00000E+00
         0.00000E+00
         0.00000E+00
         0.00000E+00
         0.00000E+00
         0.00000E+00
         0.00000E+00
         0.00000E+00
         0.00000E+00
         0.00000E+00
         0.00000E+00
         0.00000E+00
         0.00000E+00
         0.00000E+00
         0.00000E+00
         0.00000E+00
         0.00000E+00
         0.00000E+00
         0.00000E+00
         0.00000E+00
         0.00000E+00
         0.00000E+00
         0.00000E+00
         0.00000E+00
         0.00000E+00
         0.00000E+00
         0.00000E+00
         0.00000E+00
         0.00000E+00
         0.00000E+00
         0.00000E+00
         0.00000E+00
         0.00000E+00
         0.00000E+00
         0.00000E+00
         0.00000E+00
         0.00000E+00
         0.00000E+00
         0.00000E+00
         0.00000E+00
         0.00000E+00
         0.00000E+00
         0.00000E+00
         0.00000E+00
         0.00000E+00
         0.00000E+00
         0.00000E+00
         0.00000E+00
         0.00000E+00
         0.00000E+00
         0.00000E+00
         0.00000E+00
         0.00000E+00
         0.00000E+00
         0.00000E+00
         0.00000E+00
         0.00000E+00
         0.00000E+00
         0.00000E+00
         0.00000E+00
         0.00000E+00
         0.00000E+00
         0.00000E+00
         0.00000E+00
         0.00000E+00
         0.00000E+00
         0.00000E+00
         0.00000E+00
         0.00000E+00
         0.00000E+00
         0.00000E+00
         0.00000E+00
         0.00000E+00
         0.00000E+00
         0.00000E+00
         0.00000E+00
         0.00000E+00
         0.00000E+00
         0.00000E+00
         0.00000E+00
         0.00000E+00
         0.00000E+00
         0.00000E+00
         0.00000E+00
         0.00000E+00
         0.00000E+00
         0.00000E+00
         0.00000E+00
         0.00000E+00
         0.00000E+00
         0.00000E+00
         0.00000E+00
         0.00000E+00
         0.00000E+00
         0.00000E+00
         0.00000E+00
         0.00000E+00
         0.00000E+00
         0.00000E+00
         0.00000E+00
         0.00000E+00
         0.00000E+00
         0.00000E+00
         0.00000E+00
         0.00000E+00
         0.00000E+00
         0.00000E+00
         0.00000E+00
         0.00000E+00
         0.00000E+00
         0.00000E+00
         0.00000E+00
         0.00000E+00
         0.00000E+00
         0.00000E+00
         0.00000E+00
         0.00000E+00
         0.00000E+00
         0.00000E+00
         0.00000E+00
         0.00000E+00
         0.00000E+00
         0.00000E+00
         0.00000E+00
         0.00000E+00
         0.00000E+00
         0.00000E+00
         0.00000E+00
         0.00000E+00
         0.00000E+00
         0.00000E+00
         0.00000E+00
         0.00000E+00
         0.00000E+00
         0.00000E+00
         0.00000E+00
         0.00000E+00
         0.00000E+00
         0.00000E+00
         0.00000E+00
         0.00000E+00
         0.00000E+00
         0.00000E+00
         0.00000E+00
         0.00000E+00
         0.00000E+00
         0.00000E+00
         0.00000E+00
         0.00000E+00
         0.00000E+00
         0.00000E+00
         0.00000E+00
         0.00000E+00
         0.00000E+00
         0.00000E+00
         0.00000E+00
         0.00000E+00
         0.00000E+00
         0.00000E+00
         0.00000E+00
         0.00000E+00
         0.00000E+00
         0.00000E+00
         0.00000E+00
         0.00000E+00
         0.00000E+00
         0.00000E+00
         0.00000E+00
         0.00000E+00
         0.00000E+00
         0.00000E+00
         0.00000E+00
         0.00000E+00
         0.00000E+00
         0.00000E+00
         0.00000E+00
         0.00000E+00
         0.00000E+00
         0.00000E+00
         0.00000E+00
         0.00000E+00
         0.00000E+00
         0.00000E+00
         0.00000E+00
         0.00000E+00
         0.00000E+00
         0.00000E+00
         0.00000E+00
         0.00000E+00
         0.00000E+00
         0.00000E+00
         0.00000E+00
         0.00000E+00
         0.00000E+00
         0.00000E+00
         0.00000E+00
         0.00000E+00
         0.00000E+00
         0.00000E+00
         0.00000E+00
         0.00000E+00
         0.00000E+00
         0.00000E+00
         0.00000E+00
         0.00000E+00
         0.00000E+00
         0.00000E+00
         0.00000E+00
         0.00000E+00
         0.00000E+00
         0.00000E+00
         0.00000E+00
         0.00000E+00
         0.00000E+00
         0.00000E+00
         0.00000E+00
         0.00000E+00
         0.00000E+00
         0.00000E+00
         0.00000E+00
         0.00000E+00
         0.00000E+00
         0.00000E+00
         0.00000E+00
         0.00000E+00
         0.00000E+00
         0.00000E+00
         0.00000E+00
         0.00000E+00
         0.00000E+00
         0.00000E+00
         0.00000E+00
         0.00000E+00
         0.00000E+00
         0.00000E+00
         0.00000E+00
         0.00000E+00
         0.00000E+00
         0.00000E+00
         0.00000E+00
         0.00000E+00
         0.00000E+00
         0.00000E+00
         0.00000E+00
         0.00000E+00
         0.00000E+00
         0.00000E+00
         0.00000E+00
         0.00000E+00
         0.00000E+00
         0.00000E+00
         0.00000E+00
         0.00000E+00
         0.00000E+00
         0.00000E+00
         0.00000E+00
         0.00000E+00
         0.00000E+00
         0.00000E+00
         0.00000E+00
         0.00000E+00
         0.00000E+00
         0.00000E+00
         0.00000E+00
         0.00000E+00
         0.00000E+00
         0.00000E+00
         0.00000E+00
         0.00000E+00
         0.00000E+00
         0.00000E+00
         0.00000E+00
         0.00000E+00
         0.00000E+00
         0.00000E+00
         0.00000E+00
         0.00000E+00
         0.00000E+00
         0.00000E+00
         0.00000E+00
         0.00000E+00
         0.00000E+00
         0.00000E+00
         0.00000E+00
         0.00000E+00
         0.00000E+00
         0.00000E+00
         0.00000E+00
         0.00000E+00
         0.00000E+00
         0.00000E+00
         0.00000E+00
         0.00000E+00
         0.00000E+00
         0.00000E+00
         0.00000E+00
         0.00000E+00
         0.00000E+00
         0.00000E+00
         0.00000E+00
         0.00000E+00
         0.00000E+00
         0.00000E+00
         0.00000E+00
         0.00000E+00
         0.00000E+00
         0.00000E+00
         0.00000E+00
         0.00000E+00
         0.00000E+00
         0.00000E+00
         0.00000E+00
         0.00000E+00
         0.00000E+00
         0.00000E+00
         0.00000E+00
         0.00000E+00
         0.00000E+00
         0.00000E+00
         0.00000E+00
         0.00000E+00
         0.00000E+00
         0.00000E+00
         0.00000E+00
         0.00000E+00
         0.00000E+00
         0.00000E+00
         0.00000E+00
         0.00000E+00
         0.00000E+00
         0.00000E+00
         0.00000E+00
         0.00000E+00
         0.00000E+00
         0.00000E+00
         0.00000E+00
         0.00000E+00
         0.00000E+00
         0.00000E+00
         0.00000E+00
         0.00000E+00
         0.00000E+00
         0.00000E+00
         0.00000E+00
         0.00000E+00
         0.00000E+00
         0.00000E+00
         0.00000E+00
         0.00000E+00
         0.00000E+00
         0.00000E+00
         0.00000E+00
         0.00000E+00
         0.00000E+00
         0.00000E+00
         0.00000E+00
         0.00000E+00
         0.00000E+00
         0.00000E+00
         0.00000E+00
         0.00000E+00
         0.00000E+00
         0.00000E+00
         0.00000E+00
         0.00000E+00
         0.00000E+00
         0.00000E+00
         0.00000E+00
         0.00000E+00
         0.00000E+00
         0.00000E+00
         0.00000E+00
         0.00000E+00
         0.00000E+00
         0.00000E+00
         0.00000E+00
         0.00000E+00
         0.00000E+00
         0.00000E+00
         0.00000E+00
         0.00000E+00
         0.00000E+00
         0.00000E+00
         0.00000E+00
         0.00000E+00
         0.00000E+00
         0.00000E+00
         0.00000E+00
         0.00000E+00
         0.00000E+00
         0.00000E+00
         0.00000E+00
         0.00000E+00
         0.00000E+00
         0.00000E+00
         0.00000E+00
         0.00000E+00
         0.00000E+00
         0.00000E+00
         0.00000E+00
         0.00000E+00
         0.00000E+00
         0.00000E+00
         0.00000E+00
         0.00000E+00
         0.00000E+00
         0.00000E+00
         0.00000E+00
         0.00000E+00
         0.00000E+00
         0.00000E+00
         0.00000E+00
         0.00000E+00
         0.00000E+00
         0.00000E+00
         0.00000E+00
         0.00000E+00
         0.00000E+00
         0.00000E+00
         0.00000E+00
         0.00000E+00
         0.00000E+00
         0.00000E+00
         0.00000E+00
         0.00000E+00
         0.00000E+00
         0.00000E+00
         0.00000E+00
         0.00000E+00
         0.00000E+00
         0.00000E+00
         0.00000E+00
         0.00000E+00
         0.00000E+00
         0.00000E+00
         0.00000E+00
         0.00000E+00
         0.00000E+00
         0.00000E+00
         0.00000E+00
         0.00000E+00
         0.00000E+00
         0.00000E+00
         0.00000E+00
         0.00000E+00
         0.00000E+00
         0.00000E+00
         0.00000E+00
         0.00000E+00
         0.00000E+00
         0.00000E+00
         0.00000E+00
         0.00000E+00
         0.00000E+00
         0.00000E+00
         0.00000E+00
         0.00000E+00
         0.00000E+00
         0.00000E+00
         0.00000E+00
         0.00000E+00
         0.00000E+00
         0.00000E+00
         0.00000E+00
         0.00000E+00
         0.00000E+00
         0.00000E+00
         0.00000E+00
         0.00000E+00
         0.00000E+00
         0.00000E+00
         0.00000E+00
         0.00000E+00
         0.00000E+00
         0.00000E+00
         0.00000E+00
         0.00000E+00
         0.00000E+00
         0.00000E+00
         0.00000E+00
         0.00000E+00
         0.00000E+00
         0.00000E+00
         0.00000E+00
         0.00000E+00
         0.00000E+00
         0.00000E+00
         0.00000E+00
         0.00000E+00
         0.00000E+00
         0.00000E+00
         0.00000E+00
         0.00000E+00
         0.00000E+00
         0.00000E+00
         0.00000E+00
         0.00000E+00
         0.00000E+00
         0.00000E+00
         0.00000E+00
         0.00000E+00
         0.00000E+00
         0.00000E+00
         0.00000E+00
         0.00000E+00
         0.00000E+00
         0.00000E+00
         0.00000E+00
         0.00000E+00
         0.00000E+00
         0.00000E+00
         0.00000E+00
         0.00000E+00
         0.00000E+00
         0.00000E+00
         0.00000E+00
         0.00000E+00
         0.00000E+00
         0.00000E+00
         0.00000E+00
         0.00000E+00
         0.00000E+00
         0.00000E+00
         0.00000E+00
         0.00000E+00
         0.00000E+00
         0.00000E+00
         0.00000E+00
         0.00000E+00
         0.00000E+00
         0.00000E+00
         0.00000E+00
         0.00000E+00
         0.00000E+00
         0.00000E+00
         0.00000E+00
         0.00000E+00
         0.00000E+00
         0.00000E+00
         0.00000E+00
         0.00000E+00
         0.00000E+00
         0.00000E+00
         0.00000E+00
         0.00000E+00
         0.00000E+00
         0.00000E+00
         0.00000E+00
         0.00000E+00
         0.00000E+00
         0.00000E+00
         0.00000E+00
         0.00000E+00
         0.00000E+00
         0.00000E+00
         0.00000E+00
         0.00000E+00
         0.00000E+00
         0.00000E+00
         0.00000E+00
         0.00000E+00
         0.00000E+00
         0.00000E+00
         0.00000E+00
         0.00000E+00
         0.00000E+00
         0.00000E+00
         0.00000E+00
         0.00000E+00
         0.00000E+00
         0.00000E+00
         0.00000E+00
         0.00000E+00
         0.00000E+00
         0.00000E+00
         0.00000E+00
         0.00000E+00
         0.00000E+00
         0.00000E+00
         0.00000E+00
         0.00000E+00
         0.00000E+00
         0.00000E+00
         0.00000E+00
         0.00000E+00
         0.00000E+00
         0.00000E+00
         0.00000E+00
         0.00000E+00
         0.00000E+00
         0.00000E+00
         0.00000E+00
         0.00000E+00
         0.00000E+00
         0.00000E+00
         0.00000E+00
         0.00000E+00
         0.00000E+00
         0.00000E+00
         0.00000E+00
         0.00000E+00
         0.00000E+00
         0.00000E+00
         0.00000E+00
         0.00000E+00
         0.00000E+00
         0.00000E+00
         0.00000E+00
         0.00000E+00
         0.00000E+00
         0.00000E+00
         0.00000E+00
         0.00000E+00
         0.00000E+00
         0.00000E+00
         0.00000E+00
         0.00000E+00
         0.00000E+00
         0.00000E+00
         0.00000E+00
         0.00000E+00
         0.00000E+00
         0.00000E+00
         0.00000E+00
         0.00000E+00
         0.00000E+00
         0.00000E+00
         0.00000E+00
         0.00000E+00
         0.00000E+00
         0.00000E+00
         0.00000E+00
         0.00000E+00
         0.00000E+00
         0.00000E+00
         0.00000E+00
         0.00000E+00
         0.00000E+00
         0.00000E+00
         0.00000E+00
         0.00000E+00
         0.00000E+00
         0.00000E+00
         0.00000E+00
         0.00000E+00
         0.00000E+00
         0.00000E+00
         0.00000E+00
         0.00000E+00
         0.00000E+00
         0.00000E+00
         0.00000E+00
         0.00000E+00
         0.00000E+00
         0.00000E+00
         0.00000E+00
         0.00000E+00
         0.00000E+00
         0.00000E+00
         0.00000E+00
         0.00000E+00
         0.00000E+00
         0.00000E+00
         0.00000E+00
         0.00000E+00
         0.00000E+00
         0.00000E+00
         0.00000E+00
         0.00000E+00
         0.00000E+00
         0.00000E+00
         0.00000E+00
         0.00000E+00
         0.00000E+00
         0.00000E+00
         0.00000E+00
         0.00000E+00
         0.00000E+00
         0.00000E+00
         0.00000E+00
         0.00000E+00
         0.00000E+00
         0.00000E+00
         0.00000E+00
         0.00000E+00
         0.00000E+00
         0.00000E+00
         0.00000E+00
         0.00000E+00
         0.00000E+00
         0.00000E+00
         0.00000E+00
         0.00000E+00
         0.00000E+00
         0.00000E+00
         0.00000E+00
         0.00000E+00
         0.00000E+00
         0.00000E+00
         0.00000E+00
         0.00000E+00
         0.00000E+00
         0.00000E+00
         0.00000E+00
         0.00000E+00
         0.00000E+00
         0.00000E+00
         0.00000E+00
         0.00000E+00
         0.00000E+00
         0.00000E+00
         0.00000E+00
         0.00000E+00
         0.00000E+00
         0.00000E+00
         0.00000E+00
         0.00000E+00
         0.00000E+00
         0.00000E+00
         0.00000E+00
         0.00000E+00
         0.00000E+00
         0.00000E+00
         0.00000E+00
         0.00000E+00
         0.00000E+00
         0.00000E+00
         0.00000E+00
         0.00000E+00
         0.00000E+00
         0.00000E+00
         0.00000E+00
         0.00000E+00
         0.00000E+00
         0.00000E+00
         0.00000E+00
         0.00000E+00
         0.00000E+00
         0.00000E+00
         0.00000E+00
         0.00000E+00
         0.00000E+00
         0.00000E+00
         0.00000E+00
         0.00000E+00
         0.00000E+00
         0.00000E+00
         0.00000E+00
         0.00000E+00
         0.00000E+00
         0.00000E+00
         0.00000E+00
         0.00000E+00
         0.00000E+00
         0.00000E+00
         0.00000E+00
         0.00000E+00
         0.00000E+00
         0.00000E+00
         0.00000E+00
         0.00000E+00
         0.00000E+00
         0.00000E+00
         0.00000E+00
         0.00000E+00
         0.00000E+00
         0.00000E+00
         0.00000E+00
         0.00000E+00
         0.00000E+00
         0.00000E+00
         0.00000E+00
         0.00000E+00
         0.00000E+00
         0.00000E+00
         0.00000E+00
         0.00000E+00
         0.00000E+00
         0.00000E+00
         0.00000E+00
         0.00000E+00
         0.00000E+00
         0.00000E+00
         0.00000E+00
         0.00000E+00
         0.00000E+00
         0.00000E+00
         0.00000E+00
         0.00000E+00
         0.00000E+00
         0.00000E+00
         0.00000E+00
         0.00000E+00
         0.00000E+00
         0.00000E+00
         0.00000E+00
         0.00000E+00
         0.00000E+00
         0.00000E+00
         0.00000E+00
         0.00000E+00
         0.00000E+00
         0.00000E+00
         0.00000E+00
         0.00000E+00
         0.00000E+00
         0.00000E+00
         0.00000E+00
         0.00000E+00
         0.00000E+00
         0.00000E+00
         0.00000E+00
         0.00000E+00
         0.00000E+00
         0.00000E+00
         0.00000E+00
         0.00000E+00
         0.00000E+00
         0.00000E+00
         0.00000E+00
         0.00000E+00
         0.00000E+00
         0.00000E+00
         0.00000E+00
         0.00000E+00
         0.00000E+00
         0.00000E+00
         0.00000E+00
         0.00000E+00
         0.00000E+00
         0.00000E+00
         0.00000E+00
         0.00000E+00
         0.00000E+00
         0.00000E+00
         0.00000E+00
         0.00000E+00
         0.00000E+00
         0.00000E+00
         0.00000E+00
         0.00000E+00
         0.00000E+00
         0.00000E+00
         0.00000E+00
         0.00000E+00
         0.00000E+00
         0.00000E+00
         0.00000E+00
         0.00000E+00
         0.00000E+00
         0.00000E+00
         0.00000E+00
         0.00000E+00
         0.00000E+00
         0.00000E+00
         0.00000E+00
         0.00000E+00
         0.00000E+00
         0.00000E+00
         0.00000E+00
         0.00000E+00
         0.00000E+00
         0.00000E+00
         0.00000E+00
         0.00000E+00
         0.00000E+00
         0.00000E+00
         0.00000E+00
         0.00000E+00
         0.00000E+00
         0.00000E+00
         0.00000E+00
         0.00000E+00
         0.00000E+00
         0.00000E+00
         0.00000E+00
         0.00000E+00
         0.00000E+00
         0.00000E+00
         0.00000E+00
         0.00000E+00
         0.00000E+00
         0.00000E+00
         0.00000E+00
         0.00000E+00
         0.00000E+00
         0.00000E+00
         0.00000E+00
         0.00000E+00
         0.00000E+00
         0.00000E+00
         0.00000E+00
         0.00000E+00
         0.00000E+00
         0.00000E+00
         0.00000E+00
         0.00000E+00
         0.00000E+00
         0.00000E+00
         0.00000E+00
         0.00000E+00
         0.00000E+00
         0.00000E+00
         0.00000E+00
         0.00000E+00
         0.00000E+00
         0.00000E+00
         0.00000E+00
         0.00000E+00
         0.00000E+00
         0.00000E+00
         0.00000E+00
         0.00000E+00
         0.00000E+00
         0.00000E+00
         0.00000E+00
         0.00000E+00
         0.00000E+00
         0.00000E+00
         0.00000E+00
         0.00000E+00
         0.00000E+00
         0.00000E+00
         0.00000E+00
         0.00000E+00
         0.00000E+00
         0.00000E+00
         0.00000E+00
         0.00000E+00
         0.00000E+00
         0.00000E+00
         0.00000E+00
         0.00000E+00
         0.00000E+00
         0.00000E+00
         0.00000E+00
         0.00000E+00
         0.00000E+00
         0.00000E+00
         0.00000E+00
         0.00000E+00
         0.00000E+00
         0.00000E+00
         0.00000E+00
         0.00000E+00
         0.00000E+00
         0.00000E+00
         0.00000E+00
         0.00000E+00
         0.00000E+00
         0.00000E+00
         0.00000E+00
         0.00000E+00
         0.00000E+00
         0.00000E+00
         0.00000E+00
         0.00000E+00
         0.00000E+00
         0.00000E+00
         0.00000E+00
         0.00000E+00
         0.00000E+00
         0.00000E+00
         0.00000E+00
         0.00000E+00
         0.00000E+00
         0.00000E+00
         0.00000E+00
         0.00000E+00
         0.00000E+00
         0.00000E+00
         0.00000E+00
         0.00000E+00
         0.00000E+00
         0.00000E+00
         0.00000E+00
         0.00000E+00
         0.00000E+00
         0.00000E+00
         0.00000E+00
         0.00000E+00
         0.00000E+00
         0.00000E+00
         0.00000E+00
         0.00000E+00
         0.00000E+00
         0.00000E+00
         0.00000E+00
         0.00000E+00
         0.00000E+00
         0.00000E+00
         0.00000E+00
         0.00000E+00
         0.00000E+00
         0.00000E+00
         0.00000E+00
         0.00000E+00
         0.00000E+00
         0.00000E+00
         0.00000E+00
         0.00000E+00
         0.00000E+00
         0.00000E+00
         0.00000E+00
         0.00000E+00
         0.00000E+00
         0.00000E+00
         0.00000E+00
         0.00000E+00
         0.00000E+00
         0.00000E+00
         0.00000E+00
         0.00000E+00
         0.00000E+00
         0.00000E+00
         0.00000E+00
         0.00000E+00
         0.00000E+00
         0.00000E+00
         0.00000E+00
         0.00000E+00
         0.00000E+00
         0.00000E+00
         0.00000E+00
         0.00000E+00
         0.00000E+00
         0.00000E+00
         0.00000E+00
         0.00000E+00
         0.00000E+00
         0.00000E+00
         0.00000E+00
         0.00000E+00
         0.00000E+00
         0.00000E+00
         0.00000E+00
         0.00000E+00
         0.00000E+00
         0.00000E+00
         0.00000E+00
         0.00000E+00
         0.00000E+00
         0.00000E+00
         0.00000E+00
         0.00000E+00
         0.00000E+00
         0.00000E+00
         0.00000E+00
         0.00000E+00
         0.00000E+00
         0.00000E+00
         0.00000E+00
         0.00000E+00
         0.00000E+00
         0.00000E+00
         0.00000E+00
         0.00000E+00
         0.00000E+00
         0.00000E+00
         0.00000E+00
         0.00000E+00
         0.00000E+00
         0.00000E+00
         0.00000E+00
         0.00000E+00
         0.00000E+00
         0.00000E+00
         0.00000E+00
         0.00000E+00
         0.00000E+00
         0.00000E+00
         0.00000E+00
         0.00000E+00
         0.00000E+00
         0.00000E+00
         0.00000E+00
         0.00000E+00
         0.00000E+00
         0.00000E+00
         0.00000E+00
         0.00000E+00
         0.00000E+00
         0.00000E+00
         0.00000E+00
         0.00000E+00
         0.00000E+00
         0.00000E+00
         0.00000E+00
         0.00000E+00
         0.00000E+00
         0.00000E+00
         0.00000E+00
         0.00000E+00
         0.00000E+00
         0.00000E+00
         0.00000E+00
         0.00000E+00
         0.00000E+00
         0.00000E+00
         0.00000E+00
         0.00000E+00
         0.00000E+00
         0.00000E+00
         0.00000E+00
         0.00000E+00
         0.00000E+00
         0.00000E+00
         0.00000E+00
         0.00000E+00
         0.00000E+00
         0.00000E+00
         0.00000E+00
         0.00000E+00
         0.00000E+00
         0.00000E+00
         0.00000E+00
         0.00000E+00
         0.00000E+00
         0.00000E+00
         0.00000E+00
         0.00000E+00
         0.00000E+00
         0.00000E+00
         0.00000E+00
         0.00000E+00
         0.00000E+00
         0.00000E+00
         0.00000E+00
         0.00000E+00
         0.00000E+00
         0.00000E+00
         0.00000E+00
         0.00000E+00
         0.00000E+00
         0.00000E+00
         0.00000E+00
         0.00000E+00
         0.00000E+00
         0.00000E+00
         0.00000E+00
         0.00000E+00
         0.00000E+00
         0.00000E+00
         0.00000E+00
         0.00000E+00
         0.00000E+00
         0.00000E+00
         0.00000E+00
         0.00000E+00
         0.00000E+00
         0.00000E+00
         0.00000E+00
         0.00000E+00
         0.00000E+00
         0.00000E+00
         0.00000E+00
         0.00000E+00
         0.00000E+00
         0.00000E+00
         0.00000E+00
         0.00000E+00
         0.00000E+00
         0.00000E+00
         0.00000E+00
         0.00000E+00
         0.00000E+00
         0.00000E+00
         0.00000E+00
         0.00000E+00
         0.00000E+00
         0.00000E+00
         0.00000E+00
         0.00000E+00
         0.00000E+00
         0.00000E+00
         0.00000E+00
         0.00000E+00
         0.00000E+00
         0.00000E+00
         0.00000E+00
         0.00000E+00
         0.00000E+00
         0.00000E+00
         0.00000E+00
         0.00000E+00
         0.00000E+00
         0.00000E+00
         0.00000E+00
         0.00000E+00
         0.00000E+00
         0.00000E+00
         0.00000E+00
         0.00000E+00
         0.00000E+00
         0.00000E+00
         0.00000E+00
         0.00000E+00
         0.00000E+00
         0.00000E+00
         0.00000E+00
         0.00000E+00
         0.00000E+00
         0.00000E+00
         0.00000E+00
         0.00000E+00
         0.00000E+00
         0.00000E+00
         0.00000E+00
         0.00000E+00
         0.00000E+00
         0.00000E+00
         0.00000E+00
         0.00000E+00
         0.00000E+00
         0.00000E+00
         0.00000E+00
         0.00000E+00
         0.00000E+00
         0.00000E+00
         0.00000E+00
         0.00000E+00
         0.00000E+00
         0.00000E+00
         0.00000E+00
         0.00000E+00
         0.00000E+00
         0.00000E+00
         0.00000E+00
         0.00000E+00
         0.00000E+00
         0.00000E+00
         0.00000E+00
         0.00000E+00
         0.00000E+00
         0.00000E+00
         0.00000E+00
         0.00000E+00
         0.00000E+00
         0.00000E+00
         0.00000E+00
         0.00000E+00
         0.00000E+00
         0.00000E+00
         0.00000E+00
         0.00000E+00
         0.00000E+00
         0.00000E+00
         0.00000E+00
         0.00000E+00
         0.00000E+00
         0.00000E+00
         0.00000E+00
         0.00000E+00
         0.00000E+00
         0.00000E+00
         0.00000E+00
         0.00000E+00
         0.00000E+00
         0.00000E+00
         0.00000E+00
         0.00000E+00
         0.00000E+00
         0.00000E+00
         0.00000E+00
         0.00000E+00
         0.00000E+00
         0.00000E+00
         0.00000E+00
         0.00000E+00
         0.00000E+00
         0.00000E+00
         0.00000E+00
         0.00000E+00
         0.00000E+00
         0.00000E+00
         0.00000E+00
         0.00000E+00
         0.00000E+00
         0.00000E+00
         0.00000E+00
         0.00000E+00
         0.00000E+00
         0.00000E+00
         0.00000E+00
         0.00000E+00
         0.00000E+00
         0.00000E+00
         0.00000E+00
         0.00000E+00
         0.00000E+00
         0.00000E+00
         0.00000E+00
         0.00000E+00
         0.00000E+00
         0.00000E+00
         0.00000E+00
         0.00000E+00
         0.00000E+00
         0.00000E+00
         0.00000E+00
         0.00000E+00
         0.00000E+00
         0.00000E+00
         0.00000E+00
         0.00000E+00
         0.00000E+00
         0.00000E+00
         0.00000E+00
         0.00000E+00
         0.00000E+00
         0.00000E+00
         0.00000E+00
         0.00000E+00
         0.00000E+00
         0.00000E+00
         0.00000E+00
         0.00000E+00
         0.00000E+00
         0.00000E+00
         0.00000E+00
         0.00000E+00
         0.00000E+00
         0.00000E+00
         0.00000E+00
         0.00000E+00
         0.00000E+00
         0.00000E+00
         0.00000E+00
         0.00000E+00
         0.00000E+00
         0.00000E+00
         0.00000E+00
         0.00000E+00
         0.00000E+00
         0.00000E+00
         0.00000E+00
         0.00000E+00
         0.00000E+00
         0.00000E+00
         0.00000E+00
         0.00000E+00
         0.00000E+00
         0.00000E+00
         0.00000E+00
         0.00000E+00
         0.00000E+00
         0.00000E+00
         0.00000E+00
         0.00000E+00
         0.00000E+00
         0.00000E+00
         0.00000E+00
         0.00000E+00
         0.00000E+00
         0.00000E+00
         0.00000E+00
         0.00000E+00
         0.00000E+00
         0.00000E+00
         0.00000E+00
         0.00000E+00
         0.00000E+00
         0.00000E+00
         0.00000E+00
         0.00000E+00
         0.00000E+00
         0.00000E+00
         0.00000E+00
         0.00000E+00
         0.00000E+00
         0.00000E+00
         0.00000E+00
         0.00000E+00
         0.00000E+00
         0.00000E+00
         0.00000E+00
         0.00000E+00
         0.00000E+00
         0.00000E+00
         0.00000E+00
         0.00000E+00
         0.00000E+00
         0.00000E+00
         0.00000E+00
         0.00000E+00
         0.00000E+00
         0.00000E+00
         0.00000E+00
         0.00000E+00
         0.00000E+00
         0.00000E+00
         0.00000E+00
         0.00000E+00
         0.00000E+00
         0.00000E+00
         0.00000E+00
         0.00000E+00
         0.00000E+00
         0.00000E+00
         0.00000E+00
         0.00000E+00
         0.00000E+00
         0.00000E+00
         0.00000E+00
         0.00000E+00
         0.00000E+00
         0.00000E+00
         0.00000E+00
         0.00000E+00
         0.00000E+00
         0.00000E+00
         0.00000E+00
         0.00000E+00
  
SCALARS               pre_disp_force_z  double 1
LOOKUP_TABLE default
         0.00000E+00
         0.00000E+00
         0.00000E+00
         0.00000E+00
        -0.00000E+00
        -0.00000E+00
        -0.00000E+00
        -0.00000E+00
         0.00000E+00
         0.00000E+00
        -0.00000E+00
        -0.00000E+00
         0.00000E+00
         0.00000E+00
        -0.00000E+00
        -0.00000E+00
         0.00000E+00
         0.00000E+00
        -0.00000E+00
        -0.00000E+00
         0.00000E+00
         0.00000E+00
         0.00000E+00
        -0.00000E+00
        -0.00000E+00
        -0.00000E+00
         0.00000E+00
         0.00000E+00
        -0.00000E+00
        -0.00000E+00
         0.00000E+00
         0.00000E+00
         0.00000E+00
        -0.00000E+00
        -0.00000E+00
        -0.00000E+00
         0.00000E+00
         0.00000E+00
        -0.00000E+00
        -0.00000E+00
         0.00000E+00
         0.00000E+00
        -0.00000E+00
        -0.00000E+00
         0.00000E+00
         0.00000E+00
        -0.00000E+00
        -0.00000E+00
         0.00000E+00
        -0.00000E+00
         0.00000E+00
        -0.00000E+00
         0.00000E+00
        -0.00000E+00
         0.00000E+00
        -0.00000E+00
         0.00000E+00
         0.00000E+00
        -0.00000E+00
        -0.00000E+00
         0.00000E+00
         0.00000E+00
        -0.00000E+00
        -0.00000E+00
         0.00000E+00
        -0.00000E+00
         0.00000E+00
        -0.00000E+00
         0.00000E+00
         0.00000E+00
        -0.00000E+00
        -0.00000E+00
         0.00000E+00
        -0.00000E+00
         0.00000E+00
        -0.00000E+00
         0.00000E+00
        -0.00000E+00
         0.00000E+00
        -0.00000E+00
         0.00000E+00
         0.00000E+00
        -0.00000E+00
        -0.00000E+00
         0.00000E+00
        -0.00000E+00
         0.00000E+00
        -0.00000E+00
         0.00000E+00
        -0.00000E+00
         0.00000E+00
         0.00000E+00
        -0.00000E+00
        -0.00000E+00
         0.00000E+00
        -0.00000E+00
         0.00000E+00
        -0.00000E+00
         0.00000E+00
        -0.00000E+00
         0.00000E+00
         0.00000E+00
        -0.00000E+00
        -0.00000E+00
         0.00000E+00
         0.00000E+00
        -0.00000E+00
        -0.00000E+00
         0.00000E+00
        -0.00000E+00
         0.00000E+00
        -0.00000E+00
         0.00000E+00
        -0.00000E+00
         0.00000E+00
        -0.00000E+00
         0.00000E+00
        -0.00000E+00
         0.00000E+00
        -0.00000E+00
         0.00000E+00
        -0.00000E+00
         0.00000E+00
        -0.00000E+00
         0.00000E+00
        -0.00000E+00
         0.00000E+00
        -0.00000E+00
         0.00000E+00
        -0.00000E+00
         0.00000E+00
        -0.00000E+00
         0.00000E+00
        -0.00000E+00
         0.00000E+00
        -0.00000E+00
         0.00000E+00
        -0.00000E+00
         0.00000E+00
        -0.00000E+00
         0.00000E+00
        -0.00000E+00
         0.00000E+00
        -0.00000E+00
         0.00000E+00
        -0.00000E+00
         0.00000E+00
        -0.00000E+00
         0.00000E+00
        -0.00000E+00
         0.00000E+00
        -0.00000E+00
         0.00000E+00
        -0.00000E+00
         0.00000E+00
        -0.00000E+00
         0.00000E+00
         0.00000E+00
         0.00000E+00
         0.00000E+00
         0.00000E+00
         0.00000E+00
         0.00000E+00
         0.00000E+00
         0.00000E+00
         0.00000E+00
         0.00000E+00
         0.00000E+00
         0.00000E+00
         0.00000E+00
         0.00000E+00
         0.00000E+00
         0.00000E+00
         0.00000E+00
         0.00000E+00
         0.00000E+00
         0.00000E+00
         0.00000E+00
         0.00000E+00
         0.00000E+00
         0.00000E+00
         0.00000E+00
         0.00000E+00
         0.00000E+00
         0.00000E+00
         0.00000E+00
         0.00000E+00
         0.00000E+00
         0.00000E+00
         0.00000E+00
         0.00000E+00
         0.00000E+00
         0.00000E+00
         0.00000E+00
         0.00000E+00
         0.00000E+00
         0.00000E+00
         0.00000E+00
         0.00000E+00
         0.00000E+00
         0.00000E+00
         0.00000E+00
         0.00000E+00
         0.00000E+00
         0.00000E+00
         0.00000E+00
         0.00000E+00
         0.00000E+00
         0.00000E+00
         0.00000E+00
         0.00000E+00
         0.00000E+00
         0.00000E+00
         0.00000E+00
         0.00000E+00
         0.00000E+00
         0.00000E+00
         0.00000E+00
         0.00000E+00
         0.00000E+00
         0.00000E+00
         0.00000E+00
         0.00000E+00
         0.00000E+00
         0.00000E+00
         0.00000E+00
         0.00000E+00
         0.00000E+00
         0.00000E+00
         0.00000E+00
         0.00000E+00
         0.00000E+00
         0.00000E+00
         0.00000E+00
         0.00000E+00
         0.00000E+00
         0.00000E+00
         0.00000E+00
         0.00000E+00
         0.00000E+00
         0.00000E+00
         0.00000E+00
         0.00000E+00
         0.00000E+00
         0.00000E+00
         0.00000E+00
         0.00000E+00
         0.00000E+00
         0.00000E+00
         0.00000E+00
         0.00000E+00
         0.00000E+00
         0.00000E+00
         0.00000E+00
         0.00000E+00
         0.00000E+00
         0.00000E+00
         0.00000E+00
         0.00000E+00
         0.00000E+00
         0.00000E+00
         0.00000E+00
         0.00000E+00
         0.00000E+00
         0.00000E+00
         0.00000E+00
         0.00000E+00
         0.00000E+00
         0.00000E+00
         0.00000E+00
         0.00000E+00
         0.00000E+00
         0.00000E+00
         0.00000E+00
         0.00000E+00
         0.00000E+00
         0.00000E+00
         0.00000E+00
         0.00000E+00
         0.00000E+00
         0.00000E+00
         0.00000E+00
         0.00000E+00
         0.00000E+00
         0.00000E+00
         0.00000E+00
         0.00000E+00
         0.00000E+00
         0.00000E+00
         0.00000E+00
         0.00000E+00
         0.00000E+00
         0.00000E+00
         0.00000E+00
         0.00000E+00
         0.00000E+00
         0.00000E+00
         0.00000E+00
         0.00000E+00
         0.00000E+00
         0.00000E+00
         0.00000E+00
         0.00000E+00
         0.00000E+00
         0.00000E+00
         0.00000E+00
         0.00000E+00
         0.00000E+00
         0.00000E+00
         0.00000E+00
         0.00000E+00
         0.00000E+00
         0.00000E+00
         0.00000E+00
         0.00000E+00
         0.00000E+00
         0.00000E+00
         0.00000E+00
         0.00000E+00
         0.00000E+00
         0.00000E+00
         0.00000E+00
         0.00000E+00
         0.00000E+00
         0.00000E+00
         0.00000E+00
         0.00000E+00
         0.00000E+00
         0.00000E+00
         0.00000E+00
         0.00000E+00
         0.00000E+00
         0.00000E+00
         0.00000E+00
         0.00000E+00
         0.00000E+00
         0.00000E+00
         0.00000E+00
         0.00000E+00
         0.00000E+00
         0.00000E+00
         0.00000E+00
         0.00000E+00
         0.00000E+00
         0.00000E+00
         0.00000E+00
         0.00000E+00
         0.00000E+00
         0.00000E+00
         0.00000E+00
         0.00000E+00
         0.00000E+00
         0.00000E+00
         0.00000E+00
         0.00000E+00
         0.00000E+00
         0.00000E+00
         0.00000E+00
         0.00000E+00
         0.00000E+00
         0.00000E+00
         0.00000E+00
         0.00000E+00
         0.00000E+00
         0.00000E+00
         0.00000E+00
         0.00000E+00
         0.00000E+00
         0.00000E+00
         0.00000E+00
         0.00000E+00
         0.00000E+00
         0.00000E+00
         0.00000E+00
         0.00000E+00
         0.00000E+00
         0.00000E+00
         0.00000E+00
         0.00000E+00
         0.00000E+00
         0.00000E+00
         0.00000E+00
         0.00000E+00
         0.00000E+00
         0.00000E+00
         0.00000E+00
         0.00000E+00
         0.00000E+00
         0.00000E+00
         0.00000E+00
         0.00000E+00
         0.00000E+00
         0.00000E+00
         0.00000E+00
         0.00000E+00
         0.00000E+00
         0.00000E+00
         0.00000E+00
         0.00000E+00
         0.00000E+00
         0.00000E+00
         0.00000E+00
         0.00000E+00
         0.00000E+00
         0.00000E+00
         0.00000E+00
         0.00000E+00
         0.00000E+00
         0.00000E+00
         0.00000E+00
         0.00000E+00
         0.00000E+00
         0.00000E+00
         0.00000E+00
         0.00000E+00
         0.00000E+00
         0.00000E+00
         0.00000E+00
         0.00000E+00
         0.00000E+00
         0.00000E+00
         0.00000E+00
         0.00000E+00
         0.00000E+00
         0.00000E+00
         0.00000E+00
         0.00000E+00
         0.00000E+00
         0.00000E+00
         0.00000E+00
         0.00000E+00
         0.00000E+00
         0.00000E+00
         0.00000E+00
         0.00000E+00
         0.00000E+00
         0.00000E+00
         0.00000E+00
         0.00000E+00
         0.00000E+00
         0.00000E+00
         0.00000E+00
         0.00000E+00
         0.00000E+00
         0.00000E+00
         0.00000E+00
         0.00000E+00
         0.00000E+00
         0.00000E+00
         0.00000E+00
         0.00000E+00
         0.00000E+00
         0.00000E+00
         0.00000E+00
         0.00000E+00
         0.00000E+00
         0.00000E+00
         0.00000E+00
         0.00000E+00
         0.00000E+00
         0.00000E+00
         0.00000E+00
         0.00000E+00
         0.00000E+00
         0.00000E+00
         0.00000E+00
         0.00000E+00
         0.00000E+00
         0.00000E+00
         0.00000E+00
         0.00000E+00
         0.00000E+00
         0.00000E+00
         0.00000E+00
         0.00000E+00
         0.00000E+00
         0.00000E+00
         0.00000E+00
         0.00000E+00
         0.00000E+00
         0.00000E+00
         0.00000E+00
         0.00000E+00
         0.00000E+00
         0.00000E+00
         0.00000E+00
         0.00000E+00
         0.00000E+00
         0.00000E+00
         0.00000E+00
         0.00000E+00
         0.00000E+00
         0.00000E+00
         0.00000E+00
         0.00000E+00
         0.00000E+00
         0.00000E+00
         0.00000E+00
         0.00000E+00
         0.00000E+00
         0.00000E+00
         0.00000E+00
         0.00000E+00
         0.00000E+00
         0.00000E+00
         0.00000E+00
         0.00000E+00
         0.00000E+00
         0.00000E+00
         0.00000E+00
         0.00000E+00
         0.00000E+00
         0.00000E+00
         0.00000E+00
         0.00000E+00
         0.00000E+00
         0.00000E+00
         0.00000E+00
         0.00000E+00
         0.00000E+00
         0.00000E+00
         0.00000E+00
         0.00000E+00
         0.00000E+00
         0.00000E+00
         0.00000E+00
         0.00000E+00
         0.00000E+00
         0.00000E+00
         0.00000E+00
         0.00000E+00
         0.00000E+00
         0.00000E+00
         0.00000E+00
         0.00000E+00
         0.00000E+00
         0.00000E+00
         0.00000E+00
         0.00000E+00
         0.00000E+00
         0.00000E+00
         0.00000E+00
         0.00000E+00
         0.00000E+00
         0.00000E+00
         0.00000E+00
         0.00000E+00
         0.00000E+00
         0.00000E+00
         0.00000E+00
         0.00000E+00
         0.00000E+00
         0.00000E+00
         0.00000E+00
         0.00000E+00
         0.00000E+00
         0.00000E+00
         0.00000E+00
         0.00000E+00
         0.00000E+00
         0.00000E+00
         0.00000E+00
         0.00000E+00
         0.00000E+00
         0.00000E+00
         0.00000E+00
         0.00000E+00
         0.00000E+00
         0.00000E+00
         0.00000E+00
         0.00000E+00
         0.00000E+00
         0.00000E+00
         0.00000E+00
         0.00000E+00
         0.00000E+00
         0.00000E+00
         0.00000E+00
         0.00000E+00
         0.00000E+00
         0.00000E+00
         0.00000E+00
         0.00000E+00
         0.00000E+00
         0.00000E+00
         0.00000E+00
         0.00000E+00
         0.00000E+00
         0.00000E+00
         0.00000E+00
         0.00000E+00
         0.00000E+00
         0.00000E+00
         0.00000E+00
         0.00000E+00
         0.00000E+00
         0.00000E+00
         0.00000E+00
         0.00000E+00
         0.00000E+00
         0.00000E+00
         0.00000E+00
         0.00000E+00
         0.00000E+00
         0.00000E+00
         0.00000E+00
         0.00000E+00
         0.00000E+00
         0.00000E+00
         0.00000E+00
         0.00000E+00
         0.00000E+00
         0.00000E+00
         0.00000E+00
         0.00000E+00
         0.00000E+00
         0.00000E+00
         0.00000E+00
         0.00000E+00
         0.00000E+00
         0.00000E+00
         0.00000E+00
         0.00000E+00
         0.00000E+00
         0.00000E+00
         0.00000E+00
         0.00000E+00
         0.00000E+00
         0.00000E+00
         0.00000E+00
         0.00000E+00
         0.00000E+00
         0.00000E+00
         0.00000E+00
         0.00000E+00
         0.00000E+00
         0.00000E+00
         0.00000E+00
         0.00000E+00
         0.00000E+00
         0.00000E+00
         0.00000E+00
         0.00000E+00
         0.00000E+00
         0.00000E+00
         0.00000E+00
         0.00000E+00
         0.00000E+00
         0.00000E+00
         0.00000E+00
         0.00000E+00
         0.00000E+00
         0.00000E+00
         0.00000E+00
         0.00000E+00
         0.00000E+00
         0.00000E+00
         0.00000E+00
         0.00000E+00
         0.00000E+00
         0.00000E+00
         0.00000E+00
         0.00000E+00
         0.00000E+00
         0.00000E+00
         0.00000E+00
         0.00000E+00
         0.00000E+00
         0.00000E+00
         0.00000E+00
         0.00000E+00
         0.00000E+00
         0.00000E+00
         0.00000E+00
         0.00000E+00
         0.00000E+00
         0.00000E+00
         0.00000E+00
         0.00000E+00
         0.00000E+00
         0.00000E+00
         0.00000E+00
         0.00000E+00
         0.00000E+00
         0.00000E+00
         0.00000E+00
         0.00000E+00
         0.00000E+00
         0.00000E+00
         0.00000E+00
         0.00000E+00
         0.00000E+00
         0.00000E+00
         0.00000E+00
         0.00000E+00
         0.00000E+00
         0.00000E+00
         0.00000E+00
         0.00000E+00
         0.00000E+00
         0.00000E+00
         0.00000E+00
         0.00000E+00
         0.00000E+00
         0.00000E+00
         0.00000E+00
         0.00000E+00
         0.00000E+00
         0.00000E+00
         0.00000E+00
         0.00000E+00
         0.00000E+00
         0.00000E+00
         0.00000E+00
         0.00000E+00
         0.00000E+00
         0.00000E+00
         0.00000E+00
         0.00000E+00
         0.00000E+00
         0.00000E+00
         0.00000E+00
         0.00000E+00
         0.00000E+00
         0.00000E+00
         0.00000E+00
         0.00000E+00
         0.00000E+00
         0.00000E+00
         0.00000E+00
         0.00000E+00
         0.00000E+00
         0.00000E+00
         0.00000E+00
         0.00000E+00
         0.00000E+00
         0.00000E+00
         0.00000E+00
         0.00000E+00
         0.00000E+00
         0.00000E+00
         0.00000E+00
         0.00000E+00
         0.00000E+00
         0.00000E+00
         0.00000E+00
         0.00000E+00
         0.00000E+00
         0.00000E+00
         0.00000E+00
         0.00000E+00
         0.00000E+00
         0.00000E+00
         0.00000E+00
         0.00000E+00
         0.00000E+00
         0.00000E+00
         0.00000E+00
         0.00000E+00
         0.00000E+00
         0.00000E+00
         0.00000E+00
         0.00000E+00
         0.00000E+00
         0.00000E+00
         0.00000E+00
         0.00000E+00
         0.00000E+00
         0.00000E+00
         0.00000E+00
         0.00000E+00
         0.00000E+00
         0.00000E+00
         0.00000E+00
         0.00000E+00
         0.00000E+00
         0.00000E+00
         0.00000E+00
         0.00000E+00
         0.00000E+00
         0.00000E+00
         0.00000E+00
         0.00000E+00
         0.00000E+00
         0.00000E+00
         0.00000E+00
         0.00000E+00
         0.00000E+00
         0.00000E+00
         0.00000E+00
         0.00000E+00
         0.00000E+00
         0.00000E+00
         0.00000E+00
         0.00000E+00
         0.00000E+00
         0.00000E+00
         0.00000E+00
         0.00000E+00
         0.00000E+00
         0.00000E+00
         0.00000E+00
         0.00000E+00
         0.00000E+00
         0.00000E+00
         0.00000E+00
         0.00000E+00
         0.00000E+00
         0.00000E+00
         0.00000E+00
         0.00000E+00
         0.00000E+00
         0.00000E+00
         0.00000E+00
         0.00000E+00
         0.00000E+00
         0.00000E+00
         0.00000E+00
         0.00000E+00
         0.00000E+00
         0.00000E+00
         0.00000E+00
         0.00000E+00
         0.00000E+00
         0.00000E+00
         0.00000E+00
         0.00000E+00
         0.00000E+00
         0.00000E+00
         0.00000E+00
         0.00000E+00
         0.00000E+00
         0.00000E+00
         0.00000E+00
         0.00000E+00
         0.00000E+00
         0.00000E+00
         0.00000E+00
         0.00000E+00
         0.00000E+00
         0.00000E+00
         0.00000E+00
         0.00000E+00
         0.00000E+00
         0.00000E+00
         0.00000E+00
         0.00000E+00
         0.00000E+00
         0.00000E+00
         0.00000E+00
         0.00000E+00
         0.00000E+00
         0.00000E+00
         0.00000E+00
         0.00000E+00
         0.00000E+00
         0.00000E+00
         0.00000E+00
         0.00000E+00
         0.00000E+00
         0.00000E+00
         0.00000E+00
         0.00000E+00
         0.00000E+00
         0.00000E+00
         0.00000E+00
         0.00000E+00
         0.00000E+00
         0.00000E+00
         0.00000E+00
         0.00000E+00
         0.00000E+00
         0.00000E+00
         0.00000E+00
         0.00000E+00
         0.00000E+00
         0.00000E+00
         0.00000E+00
         0.00000E+00
         0.00000E+00
         0.00000E+00
         0.00000E+00
         0.00000E+00
         0.00000E+00
         0.00000E+00
         0.00000E+00
         0.00000E+00
         0.00000E+00
         0.00000E+00
         0.00000E+00
         0.00000E+00
         0.00000E+00
         0.00000E+00
         0.00000E+00
         0.00000E+00
         0.00000E+00
         0.00000E+00
         0.00000E+00
         0.00000E+00
         0.00000E+00
         0.00000E+00
         0.00000E+00
         0.00000E+00
         0.00000E+00
         0.00000E+00
         0.00000E+00
         0.00000E+00
         0.00000E+00
         0.00000E+00
         0.00000E+00
         0.00000E+00
         0.00000E+00
         0.00000E+00
         0.00000E+00
         0.00000E+00
         0.00000E+00
         0.00000E+00
         0.00000E+00
         0.00000E+00
         0.00000E+00
         0.00000E+00
         0.00000E+00
         0.00000E+00
         0.00000E+00
         0.00000E+00
         0.00000E+00
         0.00000E+00
         0.00000E+00
         0.00000E+00
         0.00000E+00
         0.00000E+00
         0.00000E+00
         0.00000E+00
         0.00000E+00
         0.00000E+00
         0.00000E+00
         0.00000E+00
         0.00000E+00
         0.00000E+00
         0.00000E+00
         0.00000E+00
         0.00000E+00
         0.00000E+00
         0.00000E+00
         0.00000E+00
         0.00000E+00
         0.00000E+00
         0.00000E+00
         0.00000E+00
         0.00000E+00
         0.00000E+00
         0.00000E+00
         0.00000E+00
         0.00000E+00
         0.00000E+00
         0.00000E+00
         0.00000E+00
         0.00000E+00
         0.00000E+00
         0.00000E+00
         0.00000E+00
         0.00000E+00
         0.00000E+00
         0.00000E+00
         0.00000E+00
         0.00000E+00
         0.00000E+00
         0.00000E+00
         0.00000E+00
         0.00000E+00
         0.00000E+00
         0.00000E+00
         0.00000E+00
         0.00000E+00
         0.00000E+00
         0.00000E+00
         0.00000E+00
         0.00000E+00
         0.00000E+00
         0.00000E+00
         0.00000E+00
         0.00000E+00
         0.00000E+00
         0.00000E+00
         0.00000E+00
         0.00000E+00
         0.00000E+00
         0.00000E+00
         0.00000E+00
         0.00000E+00
         0.00000E+00
         0.00000E+00
         0.00000E+00
         0.00000E+00
         0.00000E+00
         0.00000E+00
         0.00000E+00
         0.00000E+00
         0.00000E+00
         0.00000E+00
         0.00000E+00
         0.00000E+00
         0.00000E+00
         0.00000E+00
         0.00000E+00
         0.00000E+00
         0.00000E+00
         0.00000E+00
         0.00000E+00
         0.00000E+00
         0.00000E+00
         0.00000E+00
         0.00000E+00
         0.00000E+00
         0.00000E+00
         0.00000E+00
         0.00000E+00
         0.00000E+00
         0.00000E+00
         0.00000E+00
         0.00000E+00
         0.00000E+00
         0.00000E+00
         0.00000E+00
         0.00000E+00
         0.00000E+00
         0.00000E+00
         0.00000E+00
         0.00000E+00
         0.00000E+00
         0.00000E+00
         0.00000E+00
         0.00000E+00
         0.00000E+00
         0.00000E+00
         0.00000E+00
         0.00000E+00
         0.00000E+00
         0.00000E+00
         0.00000E+00
         0.00000E+00
         0.00000E+00
         0.00000E+00
         0.00000E+00
         0.00000E+00
         0.00000E+00
         0.00000E+00
         0.00000E+00
         0.00000E+00
         0.00000E+00
         0.00000E+00
         0.00000E+00
         0.00000E+00
         0.00000E+00
         0.00000E+00
         0.00000E+00
         0.00000E+00
         0.00000E+00
         0.00000E+00
         0.00000E+00
         0.00000E+00
         0.00000E+00
         0.00000E+00
         0.00000E+00
         0.00000E+00
         0.00000E+00
         0.00000E+00
         0.00000E+00
         0.00000E+00
         0.00000E+00
         0.00000E+00
         0.00000E+00
         0.00000E+00
         0.00000E+00
         0.00000E+00
         0.00000E+00
         0.00000E+00
         0.00000E+00
         0.00000E+00
         0.00000E+00
         0.00000E+00
         0.00000E+00
         0.00000E+00
         0.00000E+00
         0.00000E+00
         0.00000E+00
         0.00000E+00
         0.00000E+00
         0.00000E+00
         0.00000E+00
         0.00000E+00
         0.00000E+00
         0.00000E+00
         0.00000E+00
         0.00000E+00
         0.00000E+00
         0.00000E+00
         0.00000E+00
         0.00000E+00
         0.00000E+00
         0.00000E+00
         0.00000E+00
         0.00000E+00
         0.00000E+00
         0.00000E+00
         0.00000E+00
         0.00000E+00
         0.00000E+00
         0.00000E+00
         0.00000E+00
         0.00000E+00
         0.00000E+00
         0.00000E+00
         0.00000E+00
         0.00000E+00
         0.00000E+00
         0.00000E+00
         0.00000E+00
         0.00000E+00
         0.00000E+00
         0.00000E+00
         0.00000E+00
         0.00000E+00
         0.00000E+00
         0.00000E+00
         0.00000E+00
         0.00000E+00
         0.00000E+00
         0.00000E+00
         0.00000E+00
         0.00000E+00
         0.00000E+00
         0.00000E+00
         0.00000E+00
         0.00000E+00
         0.00000E+00
         0.00000E+00
         0.00000E+00
         0.00000E+00
         0.00000E+00
         0.00000E+00
         0.00000E+00
         0.00000E+00
         0.00000E+00
         0.00000E+00
         0.00000E+00
         0.00000E+00
         0.00000E+00
         0.00000E+00
         0.00000E+00
         0.00000E+00
         0.00000E+00
         0.00000E+00
         0.00000E+00
         0.00000E+00
         0.00000E+00
         0.00000E+00
         0.00000E+00
         0.00000E+00
         0.00000E+00
         0.00000E+00
         0.00000E+00
         0.00000E+00
         0.00000E+00
         0.00000E+00
         0.00000E+00
         0.00000E+00
         0.00000E+00
         0.00000E+00
         0.00000E+00
         0.00000E+00
         0.00000E+00
         0.00000E+00
         0.00000E+00
         0.00000E+00
         0.00000E+00
         0.00000E+00
         0.00000E+00
         0.00000E+00
         0.00000E+00
         0.00000E+00
         0.00000E+00
         0.00000E+00
         0.00000E+00
         0.00000E+00
         0.00000E+00
         0.00000E+00
         0.00000E+00
         0.00000E+00
         0.00000E+00
         0.00000E+00
         0.00000E+00
         0.00000E+00
         0.00000E+00
         0.00000E+00
         0.00000E+00
         0.00000E+00
         0.00000E+00
         0.00000E+00
         0.00000E+00
         0.00000E+00
         0.00000E+00
         0.00000E+00
         0.00000E+00
         0.00000E+00
         0.00000E+00
         0.00000E+00
         0.00000E+00
         0.00000E+00
         0.00000E+00
         0.00000E+00
         0.00000E+00
         0.00000E+00
         0.00000E+00
         0.00000E+00
         0.00000E+00
         0.00000E+00
         0.00000E+00
         0.00000E+00
         0.00000E+00
         0.00000E+00
         0.00000E+00
         0.00000E+00
         0.00000E+00
         0.00000E+00
         0.00000E+00
         0.00000E+00
         0.00000E+00
         0.00000E+00
         0.00000E+00
         0.00000E+00
         0.00000E+00
         0.00000E+00
         0.00000E+00
         0.00000E+00
         0.00000E+00
         0.00000E+00
         0.00000E+00
         0.00000E+00
         0.00000E+00
         0.00000E+00
         0.00000E+00
         0.00000E+00
         0.00000E+00
         0.00000E+00
         0.00000E+00
         0.00000E+00
         0.00000E+00
         0.00000E+00
         0.00000E+00
         0.00000E+00
         0.00000E+00
         0.00000E+00
         0.00000E+00
         0.00000E+00
         0.00000E+00
         0.00000E+00
         0.00000E+00
         0.00000E+00
         0.00000E+00
         0.00000E+00
         0.00000E+00
         0.00000E+00
         0.00000E+00
         0.00000E+00
         0.00000E+00
         0.00000E+00
         0.00000E+00
         0.00000E+00
         0.00000E+00
         0.00000E+00
         0.00000E+00
         0.00000E+00
         0.00000E+00
         0.00000E+00
         0.00000E+00
         0.00000E+00
         0.00000E+00
         0.00000E+00
         0.00000E+00
         0.00000E+00
         0.00000E+00
         0.00000E+00
         0.00000E+00
         0.00000E+00
         0.00000E+00
         0.00000E+00
         0.00000E+00
         0.00000E+00
         0.00000E+00
         0.00000E+00
         0.00000E+00
         0.00000E+00
         0.00000E+00
         0.00000E+00
         0.00000E+00
         0.00000E+00
         0.00000E+00
         0.00000E+00
         0.00000E+00
         0.00000E+00
         0.00000E+00
         0.00000E+00
         0.00000E+00
         0.00000E+00
         0.00000E+00
         0.00000E+00
         0.00000E+00
         0.00000E+00
         0.00000E+00
         0.00000E+00
         0.00000E+00
         0.00000E+00
         0.00000E+00
         0.00000E+00
         0.00000E+00
         0.00000E+00
         0.00000E+00
         0.00000E+00
         0.00000E+00
         0.00000E+00
         0.00000E+00
         0.00000E+00
         0.00000E+00
         0.00000E+00
         0.00000E+00
         0.00000E+00
         0.00000E+00
         0.00000E+00
         0.00000E+00
         0.00000E+00
         0.00000E+00
         0.00000E+00
         0.00000E+00
         0.00000E+00
         0.00000E+00
         0.00000E+00
         0.00000E+00
         0.00000E+00
         0.00000E+00
         0.00000E+00
         0.00000E+00
         0.00000E+00
         0.00000E+00
         0.00000E+00
         0.00000E+00
         0.00000E+00
         0.00000E+00
         0.00000E+00
         0.00000E+00
         0.00000E+00
         0.00000E+00
         0.00000E+00
         0.00000E+00
         0.00000E+00
         0.00000E+00
         0.00000E+00
         0.00000E+00
         0.00000E+00
         0.00000E+00
         0.00000E+00
         0.00000E+00
         0.00000E+00
         0.00000E+00
         0.00000E+00
         0.00000E+00
         0.00000E+00
         0.00000E+00
         0.00000E+00
         0.00000E+00
         0.00000E+00
         0.00000E+00
         0.00000E+00
         0.00000E+00
         0.00000E+00
         0.00000E+00
         0.00000E+00
         0.00000E+00
         0.00000E+00
         0.00000E+00
         0.00000E+00
         0.00000E+00
         0.00000E+00
         0.00000E+00
         0.00000E+00
         0.00000E+00
         0.00000E+00
         0.00000E+00
         0.00000E+00
         0.00000E+00
         0.00000E+00
         0.00000E+00
         0.00000E+00
         0.00000E+00
         0.00000E+00
         0.00000E+00
         0.00000E+00
         0.00000E+00
         0.00000E+00
         0.00000E+00
         0.00000E+00
         0.00000E+00
         0.00000E+00
         0.00000E+00
         0.00000E+00
         0.00000E+00
         0.00000E+00
         0.00000E+00
         0.00000E+00
         0.00000E+00
         0.00000E+00
         0.00000E+00
         0.00000E+00
         0.00000E+00
         0.00000E+00
         0.00000E+00
         0.00000E+00
         0.00000E+00
         0.00000E+00
         0.00000E+00
         0.00000E+00
         0.00000E+00
         0.00000E+00
         0.00000E+00
         0.00000E+00
         0.00000E+00
         0.00000E+00
         0.00000E+00
         0.00000E+00
         0.00000E+00
         0.00000E+00
         0.00000E+00
         0.00000E+00
         0.00000E+00
         0.00000E+00
         0.00000E+00
         0.00000E+00
         0.00000E+00
         0.00000E+00
         0.00000E+00
         0.00000E+00
         0.00000E+00
         0.00000E+00
         0.00000E+00
         0.00000E+00
         0.00000E+00
         0.00000E+00
         0.00000E+00
         0.00000E+00
         0.00000E+00
         0.00000E+00
         0.00000E+00
         0.00000E+00
         0.00000E+00
         0.00000E+00
         0.00000E+00
         0.00000E+00
         0.00000E+00
         0.00000E+00
         0.00000E+00
         0.00000E+00
         0.00000E+00
         0.00000E+00
         0.00000E+00
         0.00000E+00
         0.00000E+00
         0.00000E+00
         0.00000E+00
         0.00000E+00
         0.00000E+00
         0.00000E+00
         0.00000E+00
         0.00000E+00
         0.00000E+00
         0.00000E+00
         0.00000E+00
         0.00000E+00
         0.00000E+00
         0.00000E+00
         0.00000E+00
         0.00000E+00
         0.00000E+00
         0.00000E+00
         0.00000E+00
         0.00000E+00
         0.00000E+00
         0.00000E+00
         0.00000E+00
         0.00000E+00
         0.00000E+00
         0.00000E+00
         0.00000E+00
         0.00000E+00
         0.00000E+00
         0.00000E+00
         0.00000E+00
         0.00000E+00
         0.00000E+00
         0.00000E+00
         0.00000E+00
         0.00000E+00
         0.00000E+00
         0.00000E+00
         0.00000E+00
         0.00000E+00
         0.00000E+00
         0.00000E+00
         0.00000E+00
         0.00000E+00
         0.00000E+00
         0.00000E+00
         0.00000E+00
         0.00000E+00
         0.00000E+00
         0.00000E+00
         0.00000E+00
         0.00000E+00
         0.00000E+00
         0.00000E+00
         0.00000E+00
         0.00000E+00
         0.00000E+00
         0.00000E+00
         0.00000E+00
         0.00000E+00
         0.00000E+00
         0.00000E+00
         0.00000E+00
         0.00000E+00
         0.00000E+00
         0.00000E+00
         0.00000E+00
         0.00000E+00
         0.00000E+00
         0.00000E+00
         0.00000E+00
         0.00000E+00
         0.00000E+00
         0.00000E+00
         0.00000E+00
         0.00000E+00
         0.00000E+00
         0.00000E+00
         0.00000E+00
         0.00000E+00
         0.00000E+00
         0.00000E+00
         0.00000E+00
         0.00000E+00
         0.00000E+00
         0.00000E+00
         0.00000E+00
         0.00000E+00
         0.00000E+00
         0.00000E+00
         0.00000E+00
         0.00000E+00
         0.00000E+00
         0.00000E+00
         0.00000E+00
         0.00000E+00
         0.00000E+00
         0.00000E+00
         0.00000E+00
         0.00000E+00
         0.00000E+00
         0.00000E+00
         0.00000E+00
         0.00000E+00
         0.00000E+00
         0.00000E+00
         0.00000E+00
         0.00000E+00
         0.00000E+00
         0.00000E+00
         0.00000E+00
         0.00000E+00
         0.00000E+00
         0.00000E+00
         0.00000E+00
         0.00000E+00
         0.00000E+00
         0.00000E+00
         0.00000E+00
         0.00000E+00
         0.00000E+00
         0.00000E+00
         0.00000E+00
         0.00000E+00
         0.00000E+00
         0.00000E+00
         0.00000E+00
         0.00000E+00
         0.00000E+00
         0.00000E+00
         0.00000E+00
         0.00000E+00
         0.00000E+00
         0.00000E+00
         0.00000E+00
         0.00000E+00
         0.00000E+00
         0.00000E+00
         0.00000E+00
         0.00000E+00
         0.00000E+00
         0.00000E+00
         0.00000E+00
         0.00000E+00
         0.00000E+00
         0.00000E+00
         0.00000E+00
         0.00000E+00
         0.00000E+00
         0.00000E+00
         0.00000E+00
         0.00000E+00
         0.00000E+00
         0.00000E+00
         0.00000E+00
         0.00000E+00
         0.00000E+00
         0.00000E+00
         0.00000E+00
         0.00000E+00
         0.00000E+00
         0.00000E+00
         0.00000E+00
         0.00000E+00
         0.00000E+00
         0.00000E+00
         0.00000E+00
         0.00000E+00
         0.00000E+00
         0.00000E+00
         0.00000E+00
         0.00000E+00
         0.00000E+00
         0.00000E+00
         0.00000E+00
         0.00000E+00
         0.00000E+00
         0.00000E+00
         0.00000E+00
         0.00000E+00
         0.00000E+00
         0.00000E+00
         0.00000E+00
         0.00000E+00
         0.00000E+00
         0.00000E+00
         0.00000E+00
         0.00000E+00
         0.00000E+00
         0.00000E+00
         0.00000E+00
         0.00000E+00
         0.00000E+00
         0.00000E+00
         0.00000E+00
         0.00000E+00
         0.00000E+00
         0.00000E+00
         0.00000E+00
         0.00000E+00
         0.00000E+00
         0.00000E+00
         0.00000E+00
         0.00000E+00
         0.00000E+00
         0.00000E+00
         0.00000E+00
         0.00000E+00
         0.00000E+00
         0.00000E+00
         0.00000E+00
         0.00000E+00
         0.00000E+00
         0.00000E+00
         0.00000E+00
         0.00000E+00
         0.00000E+00
         0.00000E+00
         0.00000E+00
         0.00000E+00
         0.00000E+00
         0.00000E+00
         0.00000E+00
         0.00000E+00
         0.00000E+00
         0.00000E+00
         0.00000E+00
         0.00000E+00
         0.00000E+00
         0.00000E+00
         0.00000E+00
         0.00000E+00
         0.00000E+00
         0.00000E+00
         0.00000E+00
         0.00000E+00
         0.00000E+00
         0.00000E+00
         0.00000E+00
         0.00000E+00
         0.00000E+00
         0.00000E+00
         0.00000E+00
         0.00000E+00
         0.00000E+00
         0.00000E+00
         0.00000E+00
         0.00000E+00
         0.00000E+00
         0.00000E+00
         0.00000E+00
         0.00000E+00
         0.00000E+00
         0.00000E+00
         0.00000E+00
         0.00000E+00
         0.00000E+00
         0.00000E+00
         0.00000E+00
         0.00000E+00
         0.00000E+00
         0.00000E+00
         0.00000E+00
         0.00000E+00
         0.00000E+00
         0.00000E+00
         0.00000E+00
         0.00000E+00
         0.00000E+00
         0.00000E+00
         0.00000E+00
         0.00000E+00
         0.00000E+00
         0.00000E+00
         0.00000E+00
         0.00000E+00
         0.00000E+00
         0.00000E+00
         0.00000E+00
         0.00000E+00
         0.00000E+00
         0.00000E+00
         0.00000E+00
         0.00000E+00
         0.00000E+00
         0.00000E+00
         0.00000E+00
         0.00000E+00
         0.00000E+00
         0.00000E+00
         0.00000E+00
         0.00000E+00
         0.00000E+00
         0.00000E+00
         0.00000E+00
         0.00000E+00
         0.00000E+00
         0.00000E+00
         0.00000E+00
         0.00000E+00
         0.00000E+00
         0.00000E+00
         0.00000E+00
         0.00000E+00
         0.00000E+00
         0.00000E+00
         0.00000E+00
         0.00000E+00
         0.00000E+00
         0.00000E+00
         0.00000E+00
         0.00000E+00
         0.00000E+00
         0.00000E+00
         0.00000E+00
         0.00000E+00
         0.00000E+00
         0.00000E+00
         0.00000E+00
         0.00000E+00
         0.00000E+00
         0.00000E+00
         0.00000E+00
         0.00000E+00
         0.00000E+00
         0.00000E+00
         0.00000E+00
         0.00000E+00
         0.00000E+00
         0.00000E+00
         0.00000E+00
         0.00000E+00
         0.00000E+00
         0.00000E+00
         0.00000E+00
         0.00000E+00
         0.00000E+00
         0.00000E+00
         0.00000E+00
         0.00000E+00
         0.00000E+00
         0.00000E+00
         0.00000E+00
         0.00000E+00
         0.00000E+00
         0.00000E+00
         0.00000E+00
         0.00000E+00
         0.00000E+00
         0.00000E+00
         0.00000E+00
         0.00000E+00
         0.00000E+00
         0.00000E+00
         0.00000E+00
         0.00000E+00
         0.00000E+00
         0.00000E+00
         0.00000E+00
         0.00000E+00
         0.00000E+00
         0.00000E+00
         0.00000E+00
         0.00000E+00
         0.00000E+00
         0.00000E+00
         0.00000E+00
         0.00000E+00
         0.00000E+00
         0.00000E+00
         0.00000E+00
         0.00000E+00
         0.00000E+00
         0.00000E+00
         0.00000E+00
         0.00000E+00
         0.00000E+00
         0.00000E+00
         0.00000E+00
         0.00000E+00
         0.00000E+00
         0.00000E+00
         0.00000E+00
         0.00000E+00
         0.00000E+00
         0.00000E+00
         0.00000E+00
         0.00000E+00
         0.00000E+00
         0.00000E+00
         0.00000E+00
         0.00000E+00
         0.00000E+00
         0.00000E+00
         0.00000E+00
         0.00000E+00
         0.00000E+00
         0.00000E+00
         0.00000E+00
         0.00000E+00
         0.00000E+00
         0.00000E+00
         0.00000E+00
         0.00000E+00
         0.00000E+00
         0.00000E+00
         0.00000E+00
         0.00000E+00
         0.00000E+00
         0.00000E+00
         0.00000E+00
         0.00000E+00
         0.00000E+00
         0.00000E+00
         0.00000E+00
         0.00000E+00
         0.00000E+00
         0.00000E+00
         0.00000E+00
         0.00000E+00
         0.00000E+00
         0.00000E+00
         0.00000E+00
         0.00000E+00
         0.00000E+00
         0.00000E+00
         0.00000E+00
         0.00000E+00
         0.00000E+00
         0.00000E+00
         0.00000E+00
         0.00000E+00
         0.00000E+00
         0.00000E+00
         0.00000E+00
         0.00000E+00
         0.00000E+00
         0.00000E+00
         0.00000E+00
         0.00000E+00
         0.00000E+00
         0.00000E+00
         0.00000E+00
         0.00000E+00
         0.00000E+00
         0.00000E+00
         0.00000E+00
         0.00000E+00
         0.00000E+00
         0.00000E+00
         0.00000E+00
         0.00000E+00
         0.00000E+00
         0.00000E+00
         0.00000E+00
         0.00000E+00
         0.00000E+00
         0.00000E+00
         0.00000E+00
         0.00000E+00
         0.00000E+00
         0.00000E+00
         0.00000E+00
         0.00000E+00
         0.00000E+00
         0.00000E+00
         0.00000E+00
         0.00000E+00
         0.00000E+00
         0.00000E+00
         0.00000E+00
         0.00000E+00
         0.00000E+00
         0.00000E+00
         0.00000E+00
         0.00000E+00
         0.00000E+00
         0.00000E+00
         0.00000E+00
         0.00000E+00
         0.00000E+00
         0.00000E+00
         0.00000E+00
         0.00000E+00
         0.00000E+00
  
SCALARS                      stress_xx  double 1
LOOKUP_TABLE default
         0.22496E+12
         0.22127E+12
         0.22361E+12
         0.22781E+12
        -0.97994E+02
        -0.10988E+03
        -0.10522E+03
        -0.95586E+02
         0.22115E+12
         0.22239E+12
        -0.98814E+02
        -0.95627E+02
         0.21593E+12
         0.21574E+12
        -0.11741E+03
        -0.11040E+03
         0.22719E+12
         0.21602E+12
        -0.86755E+02
        -0.96224E+02
         0.21192E+12
         0.20873E+12
         0.21380E+12
        -0.11637E+03
        -0.10163E+03
        -0.10494E+03
         0.20886E+12
         0.20420E+12
        -0.11164E+03
        -0.94148E+02
         0.22699E+12
         0.22213E+12
         0.23170E+12
        -0.95267E+02
        -0.88565E+02
        -0.86108E+02
         0.22418E+12
         0.21799E+12
        -0.10079E+03
        -0.91970E+02
         0.22173E+12
         0.21695E+12
        -0.87110E+02
        -0.77117E+02
         0.22577E+12
         0.22756E+12
        -0.95461E+02
        -0.10666E+03
         0.21312E+12
        -0.93257E+02
         0.22721E+12
        -0.10958E+03
         0.20752E+12
        -0.98482E+02
         0.20605E+12
        -0.94465E+02
         0.20608E+12
         0.21127E+12
        -0.96248E+02
        -0.93736E+02
         0.22689E+12
         0.22502E+12
        -0.96513E+02
        -0.10911E+03
         0.22806E+12
        -0.93128E+02
         0.22584E+12
        -0.10164E+03
         0.22000E+12
         0.21941E+12
        -0.97837E+02
        -0.10251E+03
         0.21809E+12
        -0.10338E+03
         0.20255E+12
        -0.81674E+02
         0.20173E+12
        -0.79277E+02
         0.20214E+12
        -0.83590E+02
         0.20439E+12
         0.20673E+12
        -0.79642E+02
        -0.83031E+02
         0.21144E+12
        -0.77332E+02
         0.22568E+12
        -0.10141E+03
         0.22346E+12
        -0.10379E+03
         0.22163E+12
         0.22063E+12
        -0.99674E+02
        -0.10084E+03
         0.22187E+12
        -0.91589E+02
         0.22274E+12
        -0.90283E+02
         0.22195E+12
        -0.96649E+02
         0.22167E+12
         0.22247E+12
        -0.94778E+02
        -0.97559E+02
         0.21727E+12
         0.21938E+12
        -0.73586E+02
        -0.69212E+02
         0.21687E+12
        -0.70265E+02
         0.21931E+12
        -0.67372E+02
         0.21691E+12
        -0.66434E+02
         0.21159E+12
        -0.62781E+02
         0.20643E+12
        -0.55774E+02
         0.20334E+12
        -0.50221E+02
         0.20303E+12
        -0.49872E+02
         0.20313E+12
        -0.54084E+02
         0.20648E+12
        -0.56840E+02
         0.21273E+12
        -0.51901E+02
         0.21961E+12
        -0.46784E+02
         0.22363E+12
        -0.46730E+02
         0.22761E+12
        -0.52233E+02
         0.23023E+12
        -0.59557E+02
         0.23014E+12
        -0.63983E+02
         0.22376E+12
        -0.69101E+02
         0.21931E+12
        -0.74031E+02
         0.21778E+12
        -0.67818E+02
         0.22016E+12
        -0.59495E+02
         0.22141E+12
        -0.59311E+02
         0.21932E+12
        -0.64893E+02
         0.21936E+12
        -0.69181E+02
         0.22093E+12
        -0.65652E+02
         0.22298E+12
        -0.63470E+02
        -0.29665E+11
        -0.29918E+11
        -0.29885E+11
        -0.29551E+11
        -0.30149E+11
        -0.29856E+11
        -0.30215E+11
        -0.30032E+11
        -0.29605E+11
        -0.29876E+11
        -0.30402E+11
        -0.30456E+11
        -0.30308E+11
        -0.30298E+11
        -0.30395E+11
        -0.29567E+11
        -0.29631E+11
        -0.29450E+11
        -0.29945E+11
        -0.29859E+11
        -0.29981E+11
        -0.29900E+11
        -0.30048E+11
        -0.30010E+11
        -0.29866E+11
        -0.29876E+11
        -0.30119E+11
        -0.30098E+11
        -0.30269E+11
        -0.30007E+11
        -0.29599E+11
        -0.29922E+11
        -0.29602E+11
        -0.29816E+11
        -0.30494E+11
        -0.30290E+11
        -0.30189E+11
        -0.30308E+11
        -0.30323E+11
        -0.30508E+11
        -0.30635E+11
        -0.30314E+11
        -0.29976E+11
        -0.30024E+11
        -0.30199E+11
        -0.30486E+11
        -0.30243E+11
        -0.29961E+11
        -0.29981E+11
        -0.30200E+11
        -0.30410E+11
        -0.30124E+11
        -0.30923E+11
        -0.30710E+11
        -0.30746E+11
        -0.30695E+11
        -0.30708E+11
        -0.30825E+11
        -0.30940E+11
        -0.30976E+11
        -0.30961E+11
        -0.30972E+11
        -0.31018E+11
        -0.30720E+11
        -0.30598E+11
        -0.30550E+11
        -0.30466E+11
        -0.30400E+11
        -0.30403E+11
        -0.30514E+11
        -0.30854E+11
        -0.30776E+11
        -0.30661E+11
        -0.30662E+11
        -0.30683E+11
        -0.30792E+11
        -0.30629E+11
        -0.30566E+11
         0.66039E+06
         0.28748E+06
         0.35668E+06
         0.42505E+06
         0.11514E+06
         0.32218E+06
        -0.23509E+06
        -0.57186E+06
         0.80790E+06
        -0.62154E+06
        -0.63215E+06
        -0.33394E+05
        -0.15632E+06
        -0.21155E+07
        -0.69804E+06
        -0.25001E+06
         0.20397E+06
         0.48121E+06
        -0.15575E+05
        -0.26390E+05
        -0.99031E+06
        -0.60462E+06
        -0.12976E+07
        -0.33071E+06
        -0.63463E+06
        -0.87788E+05
        -0.26418E+07
        -0.14682E+07
        -0.84019E+06
        -0.64761E+06
        -0.14604E+06
        -0.19358E+06
         0.38574E+06
         0.73969E+06
        -0.86077E+06
        -0.53550E+06
        -0.33026E+06
        -0.89576E+06
        -0.53416E+06
        -0.35881E+06
        -0.69743E+06
        -0.10980E+07
        -0.95778E+06
        -0.10301E+07
        -0.75640E+06
        -0.30929E+06
        -0.18039E+06
        -0.23208E+06
         0.35093E+06
         0.59200E+06
         0.82886E+05
         0.12606E+06
        -0.21643E+07
        -0.71847E+06
        -0.13110E+07
         0.66555E+05
         0.12624E+07
         0.21248E+07
         0.17693E+07
         0.19084E+07
         0.15005E+07
         0.73296E+06
        -0.60984E+05
        -0.65276E+06
        -0.10892E+07
        -0.51395E+06
        -0.15095E+07
        -0.21250E+07
        -0.17554E+07
        -0.15096E+07
        -0.75328E+06
         0.37367E+06
         0.35133E+06
         0.82823E+04
        -0.64423E+06
        -0.11407E+07
        -0.94299E+06
        -0.38884E+06
         0.61841E+06
         0.24917E+06
         0.31959E+06
         0.39292E+06
         0.65493E+05
         0.27939E+06
        -0.27503E+06
        -0.61913E+06
         0.76873E+06
        -0.67297E+06
        -0.67565E+06
        -0.10133E+06
        -0.21436E+06
        -0.21629E+07
        -0.76531E+06
        -0.29288E+06
         0.16186E+06
         0.45000E+06
        -0.57463E+05
        -0.69886E+05
        -0.10476E+07
        -0.66036E+06
        -0.13564E+07
        -0.37347E+06
        -0.68634E+06
        -0.12864E+06
        -0.26893E+07
        -0.15117E+07
        -0.88873E+06
        -0.70157E+06
        -0.18579E+06
        -0.23212E+06
         0.35447E+06
         0.70715E+06
        -0.91928E+06
        -0.58208E+06
        -0.37955E+06
        -0.96343E+06
        -0.59608E+06
        -0.41948E+06
        -0.76407E+06
        -0.11629E+07
        -0.10192E+07
        -0.10857E+07
        -0.80831E+06
        -0.36834E+06
        -0.23193E+06
        -0.27964E+06
         0.30971E+06
         0.54880E+06
         0.29436E+05
         0.79905E+05
        -0.22763E+07
        -0.82772E+06
        -0.14185E+07
        -0.36567E+05
         0.11533E+07
         0.20032E+07
         0.16478E+07
         0.17857E+07
         0.13766E+07
         0.60620E+06
        -0.18716E+06
        -0.76937E+06
        -0.11864E+07
        -0.60461E+06
        -0.16047E+07
        -0.22267E+07
        -0.18593E+07
        -0.16183E+07
        -0.86234E+06
         0.25825E+06
         0.24261E+06
        -0.89886E+05
        -0.74251E+06
        -0.12414E+07
        -0.10449E+07
        -0.49262E+06
         0.62812E+06
         0.25668E+06
         0.32748E+06
         0.40116E+06
         0.79180E+05
         0.29154E+06
        -0.26782E+06
        -0.60755E+06
         0.77577E+06
        -0.67052E+06
        -0.66629E+06
        -0.88469E+05
        -0.20357E+06
        -0.21485E+07
        -0.74845E+06
        -0.30193E+06
         0.15868E+06
         0.45899E+06
        -0.67757E+05
        -0.77837E+05
        -0.10568E+07
        -0.66387E+06
        -0.13949E+07
        -0.40434E+06
        -0.70914E+06
        -0.15729E+06
        -0.26802E+07
        -0.15169E+07
        -0.90909E+06
        -0.73937E+06
        -0.18636E+06
        -0.24084E+06
         0.36480E+06
         0.71772E+06
        -0.90440E+06
        -0.56993E+06
        -0.36842E+06
        -0.95216E+06
        -0.58663E+06
        -0.41666E+06
        -0.76586E+06
        -0.11867E+07
        -0.10522E+07
        -0.11229E+07
        -0.81700E+06
        -0.36011E+06
        -0.22249E+06
        -0.26927E+06
         0.32101E+06
         0.56200E+06
         0.44860E+05
         0.93473E+05
        -0.22428E+07
        -0.79768E+06
        -0.13852E+07
        -0.11014E+05
         0.11723E+07
         0.20220E+07
         0.16719E+07
         0.18097E+07
         0.14012E+07
         0.63163E+06
        -0.17223E+06
        -0.76990E+06
        -0.11848E+07
        -0.58787E+06
        -0.15937E+07
        -0.22473E+07
        -0.18816E+07
        -0.16126E+07
        -0.83228E+06
         0.29296E+06
         0.27369E+06
        -0.58526E+05
        -0.70715E+06
        -0.12117E+07
        -0.10208E+07
        -0.46945E+06
         0.62205E+06
         0.25341E+06
         0.32438E+06
         0.39584E+06
         0.74993E+05
         0.28834E+06
        -0.27199E+06
        -0.61310E+06
         0.76477E+06
        -0.69240E+06
        -0.67039E+06
        -0.95594E+05
        -0.20841E+06
        -0.21521E+07
        -0.75656E+06
        -0.33623E+06
         0.13339E+06
         0.45376E+06
        -0.10436E+06
        -0.11438E+06
        -0.11003E+07
        -0.70236E+06
        -0.14847E+07
        -0.47334E+06
        -0.77067E+06
        -0.22245E+06
        -0.26933E+07
        -0.15521E+07
        -0.96847E+06
        -0.82978E+06
        -0.20608E+06
        -0.27564E+06
         0.36127E+06
         0.71235E+06
        -0.91219E+06
        -0.57432E+06
        -0.37220E+06
        -0.96496E+06
        -0.60219E+06
        -0.44451E+06
        -0.80364E+06
        -0.12601E+07
        -0.11419E+07
        -0.12108E+07
        -0.85983E+06
        -0.38382E+06
        -0.23900E+06
        -0.27835E+06
         0.31402E+06
         0.55379E+06
         0.36978E+05
         0.88789E+05
        -0.22584E+07
        -0.80837E+06
        -0.14021E+07
        -0.25892E+05
         0.11624E+07
         0.20105E+07
         0.16525E+07
         0.17887E+07
         0.13810E+07
         0.60713E+06
        -0.21110E+06
        -0.83261E+06
        -0.12436E+07
        -0.61575E+06
        -0.16251E+07
        -0.23338E+07
        -0.19732E+07
        -0.16555E+07
        -0.85263E+06
         0.27350E+06
         0.25897E+06
        -0.75964E+05
        -0.72523E+06
        -0.12241E+07
        -0.10302E+07
        -0.47888E+06
         0.61110E+06
         0.24681E+06
         0.31898E+06
         0.39036E+06
         0.70073E+05
         0.28369E+06
        -0.27805E+06
        -0.62277E+06
         0.75150E+06
        -0.71520E+06
        -0.67481E+06
        -0.10007E+06
        -0.21380E+06
        -0.21563E+07
        -0.76030E+06
        -0.35967E+06
         0.11310E+06
         0.44894E+06
        -0.12844E+06
        -0.14059E+06
        -0.11281E+07
        -0.73001E+06
        -0.15398E+07
        -0.51609E+06
        -0.81541E+06
        -0.26422E+06
        -0.27047E+07
        -0.15773E+07
        -0.10099E+07
        -0.88994E+06
        -0.22671E+06
        -0.30097E+06
         0.35289E+06
         0.70490E+06
        -0.92024E+06
        -0.58003E+06
        -0.37797E+06
        -0.97457E+06
        -0.61517E+06
        -0.46576E+06
        -0.83029E+06
        -0.13097E+07
        -0.12009E+07
        -0.12665E+07
        -0.88790E+06
        -0.39942E+06
        -0.25365E+06
        -0.29273E+06
         0.30184E+06
         0.54166E+06
         0.24555E+05
         0.80936E+05
        -0.22725E+07
        -0.81768E+06
        -0.14165E+07
        -0.37466E+05
         0.11578E+07
         0.20071E+07
         0.16442E+07
         0.17748E+07
         0.13639E+07
         0.59199E+06
        -0.23475E+06
        -0.87599E+06
        -0.12838E+07
        -0.63730E+06
        -0.16474E+07
        -0.23899E+07
        -0.20374E+07
        -0.16862E+07
        -0.86183E+06
         0.25582E+06
         0.23943E+06
        -0.95977E+05
        -0.74857E+06
        -0.12442E+07
        -0.10427E+07
        -0.48829E+06
         0.58474E+06
         0.23414E+06
         0.31365E+06
         0.39451E+06
         0.77407E+05
         0.29231E+06
        -0.28253E+06
        -0.64023E+06
         0.73269E+06
        -0.74613E+06
        -0.67064E+06
        -0.85020E+05
        -0.20824E+06
        -0.21520E+07
        -0.74099E+06
        -0.35617E+06
         0.10749E+06
         0.45814E+06
        -0.12348E+06
        -0.13632E+06
        -0.11197E+07
        -0.72021E+06
        -0.15386E+07
        -0.51695E+06
        -0.83519E+06
        -0.27016E+06
        -0.27074E+07
        -0.15796E+07
        -0.10090E+07
        -0.89236E+06
        -0.25123E+06
        -0.31433E+06
         0.33786E+06
         0.70302E+06
        -0.91386E+06
        -0.57908E+06
        -0.37889E+06
        -0.96312E+06
        -0.60555E+06
        -0.45515E+06
        -0.81740E+06
        -0.13024E+07
        -0.11946E+07
        -0.12697E+07
        -0.89118E+06
        -0.40193E+06
        -0.26630E+06
        -0.32137E+06
         0.27199E+06
         0.52520E+06
         0.20602E+05
         0.85244E+05
        -0.22450E+07
        -0.78923E+06
        -0.13932E+07
        -0.21979E+05
         0.11741E+07
         0.20292E+07
         0.16693E+07
         0.17987E+07
         0.13916E+07
         0.62851E+06
        -0.20286E+06
        -0.85673E+06
        -0.12626E+07
        -0.61520E+06
        -0.16261E+07
        -0.23728E+07
        -0.20249E+07
        -0.16738E+07
        -0.84694E+06
         0.26604E+06
         0.23727E+06
        -0.10989E+06
        -0.75761E+06
        -0.12395E+07
        -0.10290E+07
        -0.46861E+06
         0.54467E+06
         0.21174E+06
         0.30087E+06
         0.39109E+06
         0.72547E+05
         0.29234E+06
        -0.29920E+06
        -0.67500E+06
         0.70061E+06
        -0.79199E+06
        -0.68077E+06
        -0.90926E+05
        -0.21780E+06
        -0.21655E+07
        -0.74482E+06
        -0.36366E+06
         0.90663E+05
         0.45699E+06
        -0.12768E+06
        -0.14210E+06
        -0.11234E+07
        -0.72288E+06
        -0.15430E+07
        -0.52216E+06
        -0.86271E+06
        -0.28077E+06
        -0.27267E+07
        -0.15922E+07
        -0.10147E+07
        -0.89984E+06
        -0.28520E+06
        -0.33615E+06
         0.31414E+06
         0.69311E+06
        -0.92324E+06
        -0.58858E+06
        -0.39037E+06
        -0.97318E+06
        -0.61509E+06
        -0.46057E+06
        -0.81976E+06
        -0.13039E+07
        -0.11953E+07
        -0.12780E+07
        -0.90656E+06
        -0.42406E+06
        -0.29552E+06
        -0.36423E+06
         0.22944E+06
         0.49651E+06
         0.39042E+04
         0.80043E+05
        -0.22564E+07
        -0.79807E+06
        -0.13999E+07
        -0.29789E+05
         0.11629E+07
         0.20157E+07
         0.16580E+07
         0.17890E+07
         0.13820E+07
         0.62134E+06
        -0.20860E+06
        -0.86369E+06
        -0.12638E+07
        -0.61690E+06
        -0.16309E+07
        -0.23755E+07
        -0.20303E+07
        -0.16933E+07
        -0.87576E+06
         0.23418E+06
         0.20158E+06
        -0.15400E+06
        -0.79624E+06
        -0.12599E+07
        -0.10400E+07
        -0.47735E+06
         0.53290E+06
         0.20339E+06
         0.29563E+06
         0.38657E+06
         0.67265E+05
         0.28786E+06
        -0.30811E+06
        -0.68651E+06
         0.69147E+06
        -0.80560E+06
        -0.68789E+06
        -0.99191E+05
        -0.22721E+06
        -0.21719E+07
        -0.75153E+06
        -0.37047E+06
         0.83215E+05
         0.45335E+06
        -0.13153E+06
        -0.14657E+06
        -0.11294E+07
        -0.72921E+06
        -0.15487E+07
        -0.52614E+06
        -0.87320E+06
        -0.28682E+06
        -0.27351E+07
        -0.15986E+07
        -0.10235E+07
        -0.90701E+06
        -0.29679E+06
        -0.34473E+06
         0.30758E+06
         0.68756E+06
        -0.93123E+06
        -0.59361E+06
        -0.39732E+06
        -0.98577E+06
        -0.62604E+06
        -0.47153E+06
        -0.83100E+06
        -0.13131E+07
        -0.12010E+07
        -0.12854E+07
        -0.91563E+06
        -0.43439E+06
        -0.30507E+06
        -0.37501E+06
         0.21897E+06
         0.48652E+06
        -0.63612E+04
         0.73436E+05
        -0.22721E+07
        -0.81347E+06
        -0.14103E+07
        -0.40584E+05
         0.11499E+07
         0.20042E+07
         0.16462E+07
         0.17726E+07
         0.13605E+07
         0.59872E+06
        -0.22910E+06
        -0.87294E+06
        -0.12711E+07
        -0.63257E+06
        -0.16474E+07
        -0.23913E+07
        -0.20506E+07
        -0.17129E+07
        -0.89214E+06
         0.22085E+06
         0.19076E+06
        -0.16868E+06
        -0.81557E+06
        -0.12780E+07
        -0.10553E+07
        -0.49256E+06
         0.54018E+06
         0.20893E+06
         0.29968E+06
         0.38771E+06
         0.74070E+05
         0.28990E+06
        -0.30358E+06
        -0.67678E+06
         0.69812E+06
        -0.79661E+06
        -0.68223E+06
        -0.91081E+05
        -0.22150E+06
        -0.21605E+07
        -0.73823E+06
        -0.36310E+06
         0.88178E+05
         0.45782E+06
        -0.12425E+06
        -0.13988E+06
        -0.11208E+07
        -0.72136E+06
        -0.15404E+07
        -0.51912E+06
        -0.86754E+06
        -0.28029E+06
        -0.27236E+07
        -0.15897E+07
        -0.10190E+07
        -0.90081E+06
        -0.29120E+06
        -0.33970E+06
         0.31322E+06
         0.68944E+06
        -0.92285E+06
        -0.58722E+06
        -0.39165E+06
        -0.97732E+06
        -0.61964E+06
        -0.46597E+06
        -0.82343E+06
        -0.13053E+07
        -0.11926E+07
        -0.12777E+07
        -0.90919E+06
        -0.42766E+06
        -0.29858E+06
        -0.36782E+06
         0.22601E+06
         0.49203E+06
        -0.17838E+04
         0.75546E+05
        -0.22486E+07
        -0.79032E+06
        -0.13964E+07
        -0.34930E+05
         0.11615E+07
         0.20221E+07
         0.16661E+07
         0.17868E+07
         0.13661E+07
         0.60718E+06
        -0.21394E+06
        -0.85143E+06
        -0.12524E+07
        -0.62040E+06
        -0.16360E+07
        -0.23781E+07
        -0.20371E+07
        -0.16962E+07
        -0.87626E+06
         0.23940E+06
         0.20995E+06
        -0.15159E+06
        -0.80114E+06
        -0.12653E+07
        -0.10426E+07
        -0.47887E+06
         0.53816E+06
         0.20838E+06
         0.29864E+06
         0.38463E+06
         0.73387E+05
         0.28773E+06
        -0.30550E+06
        -0.67930E+06
         0.69380E+06
        -0.80175E+06
        -0.68507E+06
        -0.96130E+05
        -0.22311E+06
        -0.21625E+07
        -0.74530E+06
        -0.36755E+06
         0.82971E+05
         0.45388E+06
        -0.12743E+06
        -0.14328E+06
        -0.11238E+07
        -0.72537E+06
        -0.15433E+07
        -0.52176E+06
        -0.87138E+06
        -0.28283E+06
        -0.27263E+07
        -0.15899E+07
        -0.10225E+07
        -0.90433E+06
        -0.29532E+06
        -0.34227E+06
         0.31035E+06
         0.68534E+06
        -0.92597E+06
        -0.58933E+06
        -0.39314E+06
        -0.98825E+06
        -0.62599E+06
        -0.47178E+06
        -0.82894E+06
        -0.13091E+07
        -0.11975E+07
        -0.12797E+07
        -0.91105E+06
        -0.43089E+06
        -0.30293E+06
        -0.37284E+06
         0.22194E+06
         0.48809E+06
        -0.57205E+04
         0.71918E+05
        -0.22553E+07
        -0.79562E+06
        -0.14073E+07
        -0.44284E+05
         0.11602E+07
         0.20155E+07
         0.16508E+07
         0.17696E+07
         0.13561E+07
         0.59215E+06
        -0.23037E+06
        -0.85959E+06
        -0.12620E+07
        -0.62568E+06
        -0.16411E+07
        -0.23828E+07
        -0.20377E+07
        -0.16995E+07
        -0.88090E+06
         0.22684E+06
         0.19451E+06
        -0.16351E+06
        -0.80705E+06
        -0.12682E+07
        -0.10495E+07
        -0.48861E+06
         0.53269E+06
         0.20408E+06
         0.29564E+06
         0.38277E+06
         0.69829E+05
         0.28652E+06
        -0.30971E+06
        -0.68340E+06
         0.68991E+06
        -0.80687E+06
        -0.68830E+06
        -0.10280E+06
        -0.22750E+06
        -0.21635E+07
        -0.75253E+06
        -0.37350E+06
         0.78622E+05
         0.45181E+06
        -0.13134E+06
        -0.14573E+06
        -0.11276E+07
        -0.72946E+06
        -0.15479E+07
        -0.52586E+06
        -0.87518E+06
        -0.28757E+06
        -0.27284E+07
        -0.15911E+07
        -0.10262E+07
        -0.90699E+06
        -0.30092E+06
        -0.34654E+06
         0.30940E+06
         0.68460E+06
        -0.93305E+06
        -0.59320E+06
        -0.39680E+06
        -0.99884E+06
        -0.63304E+06
        -0.47691E+06
        -0.83212E+06
        -0.13124E+07
        -0.12020E+07
        -0.12835E+07
        -0.91463E+06
        -0.43528E+06
        -0.30698E+06
        -0.37722E+06
         0.21806E+06
         0.48463E+06
        -0.94544E+04
         0.70530E+05
        -0.22689E+07
        -0.80686E+06
        -0.14156E+07
        -0.47121E+05
         0.11566E+07
         0.20021E+07
         0.16315E+07
         0.17540E+07
         0.13459E+07
         0.58135E+06
        -0.23709E+06
        -0.86765E+06
        -0.12736E+07
        -0.63354E+06
        -0.16494E+07
        -0.23925E+07
        -0.20440E+07
        -0.17070E+07
        -0.89011E+06
         0.21648E+06
         0.18280E+06
        -0.17571E+06
        -0.81567E+06
        -0.12765E+07
        -0.10599E+07
        -0.49968E+06
         0.53608E+06
         0.20577E+06
         0.29713E+06
         0.38501E+06
         0.74596E+05
         0.29078E+06
        -0.30714E+06
        -0.67640E+06
         0.69322E+06
        -0.80296E+06
        -0.68297E+06
        -0.97286E+05
        -0.22590E+06
        -0.21530E+07
        -0.74019E+06
        -0.36964E+06
         0.79935E+05
         0.45625E+06
        -0.12695E+06
        -0.14032E+06
        -0.11207E+07
        -0.72243E+06
        -0.15422E+07
        -0.52156E+06
        -0.87306E+06
        -0.28345E+06
        -0.27211E+07
        -0.15853E+07
        -0.10209E+07
        -0.90018E+06
        -0.29665E+06
        -0.34309E+06
         0.31588E+06
         0.68923E+06
        -0.92799E+06
        -0.58901E+06
        -0.39434E+06
        -0.99211E+06
        -0.62667E+06
        -0.46852E+06
        -0.82367E+06
        -0.13066E+07
        -0.11953E+07
        -0.12787E+07
        -0.91059E+06
        -0.43151E+06
        -0.30297E+06
        -0.37293E+06
         0.22273E+06
         0.48931E+06
        -0.46561E+04
         0.75679E+05
        -0.22517E+07
        -0.78820E+06
        -0.13980E+07
        -0.38550E+05
         0.11539E+07
         0.20030E+07
         0.16453E+07
         0.17692E+07
         0.13563E+07
         0.59705E+06
        -0.22220E+06
        -0.86056E+06
        -0.12611E+07
        -0.62080E+06
        -0.16379E+07
        -0.23836E+07
        -0.20379E+07
        -0.16994E+07
        -0.88286E+06
         0.22764E+06
         0.19606E+06
        -0.16299E+06
        -0.80451E+06
        -0.12671E+07
        -0.10461E+07
        -0.48361E+06
         0.53348E+06
         0.20232E+06
         0.29423E+06
         0.38156E+06
         0.70968E+05
         0.28748E+06
        -0.31223E+06
        -0.68005E+06
         0.69018E+06
        -0.80930E+06
        -0.68780E+06
        -0.10556E+06
        -0.23457E+06
        -0.21562E+07
        -0.74525E+06
        -0.37457E+06
         0.74650E+05
         0.45202E+06
        -0.13174E+06
        -0.14437E+06
        -0.11279E+07
        -0.72986E+06
        -0.15499E+07
        -0.52629E+06
        -0.87970E+06
        -0.28762E+06
        -0.27283E+07
        -0.15914E+07
        -0.10280E+07
        -0.90466E+06
        -0.30193E+06
        -0.34712E+06
         0.31208E+06
         0.68552E+06
        -0.93476E+06
        -0.59360E+06
        -0.40048E+06
        -0.10036E+07
        -0.63771E+06
        -0.47806E+06
        -0.83418E+06
        -0.13166E+07
        -0.12028E+07
        -0.12868E+07
        -0.91743E+06
        -0.43793E+06
        -0.30882E+06
        -0.37969E+06
         0.21770E+06
         0.48542E+06
        -0.96794E+04
         0.71497E+05
        -0.22650E+07
        -0.79972E+06
        -0.14111E+07
        -0.53830E+05
         0.11361E+07
         0.19859E+07
         0.16348E+07
         0.17558E+07
         0.13388E+07
         0.57967E+06
        -0.24340E+06
        -0.88149E+06
        -0.12749E+07
        -0.63515E+06
        -0.16504E+07
        -0.23979E+07
        -0.20598E+07
        -0.17191E+07
        -0.89264E+06
         0.21396E+06
         0.18208E+06
        -0.17017E+06
        -0.80927E+06
        -0.12773E+07
        -0.10602E+07
        -0.49771E+06
         0.53293E+06
         0.20113E+06
         0.29336E+06
         0.38036E+06
         0.70991E+05
         0.28691E+06
        -0.31388E+06
        -0.67961E+06
         0.69084E+06
        -0.80929E+06
        -0.68828E+06
        -0.10677E+06
        -0.23614E+06
        -0.21532E+07
        -0.74457E+06
        -0.37602E+06
         0.73724E+05
         0.45149E+06
        -0.13219E+06
        -0.14437E+06
        -0.11293E+07
        -0.73095E+06
        -0.15517E+07
        -0.52720E+06
        -0.88130E+06
        -0.28887E+06
        -0.27270E+07
        -0.15918E+07
        -0.10310E+07
        -0.90588E+06
        -0.30507E+06
        -0.34866E+06
         0.31147E+06
         0.68476E+06
        -0.93660E+06
        -0.59485E+06
        -0.40221E+06
        -0.10093E+07
        -0.64422E+06
        -0.48222E+06
        -0.83541E+06
        -0.13179E+07
        -0.12039E+07
        -0.12880E+07
        -0.91841E+06
        -0.43940E+06
        -0.31059E+06
        -0.38244E+06
         0.21579E+06
         0.48457E+06
        -0.10495E+05
         0.70802E+05
        -0.22653E+07
        -0.79939E+06
        -0.14146E+07
        -0.59720E+05
         0.11359E+07
         0.19856E+07
         0.16306E+07
         0.17445E+07
         0.13262E+07
         0.57272E+06
        -0.24408E+06
        -0.88352E+06
        -0.12784E+07
        -0.64072E+06
        -0.16569E+07
        -0.24025E+07
        -0.20627E+07
        -0.17217E+07
        -0.89535E+06
         0.20902E+06
         0.17596E+06
        -0.17410E+06
        -0.80952E+06
        -0.12786E+07
        -0.10665E+07
        -0.50346E+06
         0.54385E+06
         0.21174E+06
         0.30216E+06
         0.38652E+06
         0.83959E+05
         0.29607E+06
        -0.30317E+06
        -0.66574E+06
         0.69872E+06
        -0.79897E+06
        -0.67601E+06
        -0.89111E+05
        -0.22114E+06
        -0.21369E+07
        -0.72630E+06
        -0.36695E+06
         0.80896E+05
         0.45938E+06
        -0.12260E+06
        -0.13361E+06
        -0.11143E+07
        -0.71710E+06
        -0.15378E+07
        -0.51785E+06
        -0.87113E+06
        -0.27962E+06
        -0.27124E+07
        -0.15772E+07
        -0.10192E+07
        -0.89300E+06
        -0.29571E+06
        -0.33908E+06
         0.32060E+06
         0.69092E+06
        -0.92250E+06
        -0.58326E+06
        -0.38993E+06
        -0.99849E+06
        -0.63114E+06
        -0.46821E+06
        -0.82124E+06
        -0.13040E+07
        -0.11913E+07
        -0.12737E+07
        -0.90418E+06
        -0.42470E+06
        -0.29810E+06
        -0.37130E+06
         0.22512E+06
         0.49305E+06
        -0.65829E+03
         0.79457E+05
        -0.22341E+07
        -0.76826E+06
        -0.13883E+07
        -0.40772E+05
         0.11591E+07
         0.20150E+07
         0.16551E+07
         0.17630E+07
         0.13472E+07
         0.59570E+06
        -0.22338E+06
        -0.85926E+06
        -0.12593E+07
        -0.61941E+06
        -0.16327E+07
        -0.23772E+07
        -0.20340E+07
        -0.16908E+07
        -0.86885E+06
         0.23662E+06
         0.19954E+06
        -0.15658E+06
        -0.79004E+06
        -0.12555E+07
        -0.10416E+07
        -0.47835E+06
         0.53913E+06
         0.20862E+06
         0.29946E+06
         0.38233E+06
         0.79267E+05
         0.29264E+06
        -0.30781E+06
        -0.67071E+06
         0.69418E+06
        -0.80695E+06
        -0.68078E+06
        -0.95487E+05
        -0.22509E+06
        -0.21404E+07
        -0.73372E+06
        -0.37311E+06
         0.74515E+05
         0.45600E+06
        -0.12893E+06
        -0.13869E+06
        -0.11190E+07
        -0.72387E+06
        -0.15425E+07
        -0.52356E+06
        -0.87876E+06
        -0.28550E+06
        -0.27188E+07
        -0.15813E+07
        -0.10219E+07
        -0.89625E+06
        -0.29975E+06
        -0.34367E+06
         0.31844E+06
         0.68642E+06
        -0.93113E+06
        -0.58738E+06
        -0.39283E+06
        -0.10115E+07
        -0.64023E+06
        -0.47269E+06
        -0.82788E+06
        -0.13119E+07
        -0.12000E+07
        -0.12796E+07
        -0.91009E+06
        -0.43073E+06
        -0.30294E+06
        -0.37516E+06
         0.22091E+06
         0.48723E+06
        -0.67116E+04
         0.75156E+05
        -0.22539E+07
        -0.78491E+06
        -0.14035E+07
        -0.48843E+05
         0.11564E+07
         0.20074E+07
         0.16384E+07
         0.17428E+07
         0.13278E+07
         0.57839E+06
        -0.24382E+06
        -0.88265E+06
        -0.12758E+07
        -0.62759E+06
        -0.16366E+07
        -0.23797E+07
        -0.20419E+07
        -0.17047E+07
        -0.87910E+06
         0.22432E+06
         0.18836E+06
        -0.16921E+06
        -0.80344E+06
        -0.12641E+07
        -0.10496E+07
        -0.49169E+06
         0.53132E+06
         0.20076E+06
         0.29202E+06
         0.37678E+06
         0.71431E+05
         0.28572E+06
        -0.31490E+06
        -0.67676E+06
         0.68747E+06
        -0.82130E+06
        -0.68666E+06
        -0.10576E+06
        -0.23357E+06
        -0.21441E+07
        -0.74319E+06
        -0.38052E+06
         0.65376E+05
         0.45202E+06
        -0.13413E+06
        -0.14091E+06
        -0.11249E+07
        -0.73180E+06
        -0.15483E+07
        -0.52847E+06
        -0.89156E+06
        -0.29126E+06
        -0.27334E+07
        -0.15882E+07
        -0.10079E+07
        -0.88715E+06
        -0.30649E+06
        -0.35015E+06
         0.31631E+06
         0.68330E+06
        -0.94081E+06
        -0.59438E+06
        -0.40006E+06
        -0.10305E+07
        -0.64919E+06
        -0.45980E+06
        -0.82851E+06
        -0.13204E+07
        -0.12116E+07
        -0.12862E+07
        -0.91770E+06
        -0.44046E+06
        -0.31150E+06
        -0.38193E+06
         0.21604E+06
         0.48255E+06
        -0.12047E+05
         0.69778E+05
        -0.22671E+07
        -0.79700E+06
        -0.14138E+07
        -0.57928E+05
         0.11438E+07
         0.19867E+07
         0.16147E+07
         0.17203E+07
         0.13083E+07
         0.57388E+06
        -0.27951E+06
        -0.93874E+06
        -0.12990E+07
        -0.64045E+06
        -0.16482E+07
        -0.23901E+07
        -0.20546E+07
        -0.17193E+07
        -0.89600E+06
         0.20508E+06
         0.17552E+06
        -0.18126E+06
        -0.81711E+06
        -0.12742E+07
        -0.10654E+07
        -0.50943E+06
         0.54171E+06
         0.21050E+06
         0.30158E+06
         0.38432E+06
         0.85172E+05
         0.29557E+06
        -0.30563E+06
        -0.66310E+06
         0.69305E+06
        -0.82346E+06
        -0.67563E+06
        -0.92583E+05
        -0.22251E+06
        -0.21285E+07
        -0.72683E+06
        -0.37134E+06
         0.69944E+05
         0.45945E+06
        -0.12307E+06
        -0.12350E+06
        -0.11124E+07
        -0.71968E+06
        -0.15371E+07
        -0.51837E+06
        -0.88977E+06
        -0.28119E+06
        -0.27358E+07
        -0.15789E+07
        -0.96101E+06
        -0.84672E+06
        -0.29860E+06
        -0.34041E+06
         0.32525E+06
         0.69148E+06
        -0.92568E+06
        -0.58150E+06
        -0.38845E+06
        -0.10298E+07
        -0.63411E+06
        -0.40980E+06
        -0.80116E+06
        -0.13064E+07
        -0.12043E+07
        -0.12738E+07
        -0.90378E+06
        -0.42412E+06
        -0.29848E+06
        -0.37175E+06
         0.22625E+06
         0.49410E+06
         0.99452E+03
         0.79960E+05
        -0.22349E+07
        -0.76538E+06
        -0.13814E+07
        -0.35356E+05
         0.11583E+07
         0.20033E+07
         0.16378E+07
         0.17435E+07
         0.13340E+07
         0.62388E+06
        -0.29106E+06
        -0.98388E+06
        -0.12973E+07
        -0.62278E+06
        -0.16335E+07
        -0.23777E+07
        -0.20391E+07
        -0.16935E+07
        -0.86434E+06
         0.23461E+06
         0.20109E+06
        -0.15496E+06
        -0.78731E+06
        -0.12467E+07
        -0.10432E+07
        -0.48617E+06
         0.50244E+06
         0.17441E+06
         0.26722E+06
         0.35278E+06
         0.38679E+05
         0.25497E+06
        -0.34357E+06
        -0.70808E+06
         0.65487E+06
        -0.87971E+06
        -0.71686E+06
        -0.15575E+06
        -0.28047E+06
        -0.21745E+07
        -0.79096E+06
        -0.40891E+06
         0.30924E+05
         0.42835E+06
        -0.16013E+06
        -0.15818E+06
        -0.11663E+07
        -0.77242E+06
        -0.15892E+07
        -0.55414E+06
        -0.93935E+06
        -0.31514E+06
        -0.27931E+07
        -0.16209E+07
        -0.98173E+06
        -0.87461E+06
        -0.33453E+06
        -0.37550E+06
         0.29373E+06
         0.65664E+06
        -0.98272E+06
        -0.62743E+06
        -0.43893E+06
        -0.11035E+07
        -0.69117E+06
        -0.44331E+06
        -0.85486E+06
        -0.13642E+07
        -0.12621E+07
        -0.13234E+07
        -0.95483E+06
        -0.48502E+06
        -0.34830E+06
        -0.41579E+06
         0.18557E+06
         0.44802E+06
        -0.56492E+05
         0.32807E+05
        -0.23467E+07
        -0.87383E+06
        -0.14942E+07
        -0.15035E+06
         0.10437E+07
         0.18928E+07
         0.15254E+07
         0.16230E+07
         0.12211E+07
         0.52098E+06
        -0.43442E+06
        -0.11399E+07
        -0.14075E+07
        -0.71413E+06
        -0.17294E+07
        -0.24776E+07
        -0.21421E+07
        -0.18090E+07
        -0.98286E+06
         0.12088E+06
         0.95829E+05
        -0.25572E+06
        -0.89040E+06
        -0.13527E+07
        -0.11451E+07
        -0.58743E+06
         0.52475E+06
         0.17684E+06
         0.27365E+06
         0.36447E+06
         0.54953E+05
         0.26887E+06
        -0.33922E+06
        -0.67948E+06
         0.68049E+06
        -0.83878E+06
        -0.70521E+06
        -0.15465E+06
        -0.29542E+06
        -0.21408E+07
        -0.76157E+06
        -0.38077E+06
         0.54487E+05
         0.44589E+06
        -0.14010E+06
        -0.13700E+06
        -0.11415E+07
        -0.75424E+06
        -0.15518E+07
        -0.52740E+06
        -0.89781E+06
        -0.29028E+06
        -0.27442E+07
        -0.15716E+07
        -0.94288E+06
        -0.83371E+06
        -0.31357E+06
        -0.35993E+06
         0.30456E+06
         0.65154E+06
        -0.97443E+06
        -0.63066E+06
        -0.45314E+06
        -0.10698E+07
        -0.65129E+06
        -0.40879E+06
        -0.83065E+06
        -0.13319E+07
        -0.12276E+07
        -0.12893E+07
        -0.93581E+06
        -0.47560E+06
        -0.34062E+06
        -0.39723E+06
         0.19932E+06
         0.44877E+06
        -0.52635E+05
         0.34144E+05
        -0.23037E+07
        -0.81781E+06
        -0.14799E+07
        -0.17516E+06
         0.99223E+06
         0.18613E+07
         0.15767E+07
         0.16757E+07
         0.12632E+07
         0.54597E+06
        -0.42741E+06
        -0.11185E+07
        -0.13658E+07
        -0.69350E+06
        -0.16860E+07
        -0.24153E+07
        -0.20889E+07
        -0.17682E+07
        -0.96517E+06
         0.11882E+06
         0.11932E+06
        -0.22221E+06
        -0.83707E+06
        -0.12881E+07
        -0.10942E+07
        -0.53484E+06
         0.15459E+09
         0.14567E+09
         0.14295E+09
         0.11913E+09
         0.18549E+09
         0.16241E+09
         0.14163E+09
         0.17539E+09
         0.13925E+09
         0.17511E+09
         0.16669E+09
         0.24159E+09
         0.21120E+09
         0.18716E+09
         0.24933E+09
         0.13943E+09
         0.13005E+09
         0.11403E+09
         0.14370E+09
         0.14162E+09
         0.19384E+09
         0.19440E+09
         0.18371E+09
         0.12914E+09
         0.16281E+09
         0.12392E+09
         0.18435E+09
         0.15517E+09
         0.15593E+09
         0.17001E+09
         0.13622E+09
         0.12812E+09
         0.11986E+09
         0.12546E+09
         0.21299E+09
         0.17688E+09
         0.18486E+09
         0.23252E+09
         0.21858E+09
         0.21316E+09
         0.22706E+09
         0.21192E+09
         0.20085E+09
         0.17518E+09
         0.18035E+09
         0.21655E+09
         0.18553E+09
         0.16777E+09
         0.15736E+09
         0.16941E+09
         0.20246E+09
         0.17393E+09
         0.40708E+09
         0.39897E+09
         0.40672E+09
         0.39403E+09
         0.40711E+09
         0.42764E+09
         0.42928E+09
         0.42399E+09
         0.42712E+09
         0.43911E+09
         0.42514E+09
         0.40037E+09
         0.35411E+09
         0.33402E+09
         0.33938E+09
         0.34767E+09
         0.35262E+09
         0.38485E+09
         0.41246E+09
         0.41465E+09
         0.37978E+09
         0.36602E+09
         0.37921E+09
         0.37462E+09
         0.37189E+09
         0.37262E+09
         0.18569E+10
         0.19435E+10
         0.19151E+10
         0.17450E+10
         0.21552E+10
         0.20221E+10
         0.21032E+10
         0.21224E+10
         0.18132E+10
         0.21211E+10
         0.23115E+10
         0.25971E+10
         0.23523E+10
         0.23797E+10
         0.26883E+10
         0.17769E+10
         0.19097E+10
         0.16632E+10
         0.19733E+10
         0.20765E+10
         0.21541E+10
         0.22009E+10
         0.20667E+10
         0.18966E+10
         0.21446E+10
         0.18290E+10
         0.23710E+10
         0.23295E+10
         0.23403E+10
         0.22210E+10
         0.17957E+10
         0.18882E+10
         0.17590E+10
         0.18405E+10
         0.23619E+10
         0.21642E+10
         0.21725E+10
         0.26018E+10
         0.25337E+10
         0.25028E+10
         0.25489E+10
         0.24197E+10
         0.22882E+10
         0.20164E+10
         0.20994E+10
         0.23616E+10
         0.21812E+10
         0.20496E+10
         0.20080E+10
         0.20830E+10
         0.22647E+10
         0.20895E+10
         0.37536E+10
         0.36581E+10
         0.37346E+10
         0.36186E+10
         0.37263E+10
         0.39167E+10
         0.39791E+10
         0.39695E+10
         0.39971E+10
         0.40882E+10
         0.39704E+10
         0.37343E+10
         0.33484E+10
         0.31652E+10
         0.31746E+10
         0.32157E+10
         0.32472E+10
         0.35203E+10
         0.37702E+10
         0.37858E+10
         0.35049E+10
         0.33967E+10
         0.35087E+10
         0.34834E+10
         0.34441E+10
         0.34344E+10
  
SCALARS                      stress_yy  double 1
LOOKUP_TABLE default
         0.22496E+12
         0.22127E+12
         0.22361E+12
         0.22781E+12
        -0.97994E+02
        -0.10988E+03
        -0.10522E+03
        -0.95586E+02
         0.22115E+12
         0.22239E+12
        -0.98814E+02
        -0.95627E+02
         0.21593E+12
         0.21574E+12
        -0.11741E+03
        -0.11040E+03
         0.22719E+12
         0.21602E+12
        -0.86755E+02
        -0.96224E+02
         0.21192E+12
         0.20873E+12
         0.21380E+12
        -0.11637E+03
        -0.10163E+03
        -0.10494E+03
         0.20886E+12
         0.20420E+12
        -0.11164E+03
        -0.94148E+02
         0.22699E+12
         0.22213E+12
         0.23170E+12
        -0.95267E+02
        -0.88565E+02
        -0.86108E+02
         0.22418E+12
         0.21799E+12
        -0.10079E+03
        -0.91970E+02
         0.22173E+12
         0.21695E+12
        -0.87110E+02
        -0.77117E+02
         0.22577E+12
         0.22756E+12
        -0.95461E+02
        -0.10666E+03
         0.21312E+12
        -0.93257E+02
         0.22721E+12
        -0.10958E+03
         0.20752E+12
        -0.98482E+02
         0.20605E+12
        -0.94465E+02
         0.20608E+12
         0.21127E+12
        -0.96248E+02
        -0.93736E+02
         0.22689E+12
         0.22502E+12
        -0.96513E+02
        -0.10911E+03
         0.22806E+12
        -0.93128E+02
         0.22584E+12
        -0.10164E+03
         0.22000E+12
         0.21941E+12
        -0.97837E+02
        -0.10251E+03
         0.21809E+12
        -0.10338E+03
         0.20255E+12
        -0.81674E+02
         0.20173E+12
        -0.79277E+02
         0.20214E+12
        -0.83590E+02
         0.20439E+12
         0.20673E+12
        -0.79642E+02
        -0.83031E+02
         0.21144E+12
        -0.77332E+02
         0.22568E+12
        -0.10141E+03
         0.22346E+12
        -0.10379E+03
         0.22163E+12
         0.22063E+12
        -0.99674E+02
        -0.10084E+03
         0.22187E+12
        -0.91589E+02
         0.22274E+12
        -0.90283E+02
         0.22195E+12
        -0.96649E+02
         0.22167E+12
         0.22247E+12
        -0.94778E+02
        -0.97559E+02
         0.21727E+12
         0.21938E+12
        -0.73586E+02
        -0.69212E+02
         0.21687E+12
        -0.70265E+02
         0.21931E+12
        -0.67372E+02
         0.21691E+12
        -0.66434E+02
         0.21159E+12
        -0.62781E+02
         0.20643E+12
        -0.55774E+02
         0.20334E+12
        -0.50221E+02
         0.20303E+12
        -0.49872E+02
         0.20313E+12
        -0.54084E+02
         0.20648E+12
        -0.56840E+02
         0.21273E+12
        -0.51901E+02
         0.21961E+12
        -0.46784E+02
         0.22363E+12
        -0.46730E+02
         0.22761E+12
        -0.52233E+02
         0.23023E+12
        -0.59557E+02
         0.23014E+12
        -0.63983E+02
         0.22376E+12
        -0.69101E+02
         0.21931E+12
        -0.74031E+02
         0.21778E+12
        -0.67818E+02
         0.22016E+12
        -0.59495E+02
         0.22141E+12
        -0.59311E+02
         0.21932E+12
        -0.64893E+02
         0.21936E+12
        -0.69181E+02
         0.22093E+12
        -0.65652E+02
         0.22298E+12
        -0.63470E+02
        -0.29665E+11
        -0.29918E+11
        -0.29885E+11
        -0.29551E+11
        -0.30149E+11
        -0.29856E+11
        -0.30215E+11
        -0.30032E+11
        -0.29605E+11
        -0.29876E+11
        -0.30402E+11
        -0.30456E+11
        -0.30308E+11
        -0.30298E+11
        -0.30395E+11
        -0.29567E+11
        -0.29631E+11
        -0.29450E+11
        -0.29945E+11
        -0.29859E+11
        -0.29981E+11
        -0.29900E+11
        -0.30048E+11
        -0.30010E+11
        -0.29866E+11
        -0.29876E+11
        -0.30119E+11
        -0.30098E+11
        -0.30269E+11
        -0.30007E+11
        -0.29599E+11
        -0.29922E+11
        -0.29602E+11
        -0.29816E+11
        -0.30494E+11
        -0.30290E+11
        -0.30189E+11
        -0.30308E+11
        -0.30323E+11
        -0.30508E+11
        -0.30635E+11
        -0.30314E+11
        -0.29976E+11
        -0.30024E+11
        -0.30199E+11
        -0.30486E+11
        -0.30243E+11
        -0.29961E+11
        -0.29981E+11
        -0.30200E+11
        -0.30410E+11
        -0.30124E+11
        -0.30923E+11
        -0.30710E+11
        -0.30746E+11
        -0.30695E+11
        -0.30708E+11
        -0.30825E+11
        -0.30940E+11
        -0.30976E+11
        -0.30961E+11
        -0.30972E+11
        -0.31018E+11
        -0.30720E+11
        -0.30598E+11
        -0.30550E+11
        -0.30466E+11
        -0.30400E+11
        -0.30403E+11
        -0.30514E+11
        -0.30854E+11
        -0.30776E+11
        -0.30661E+11
        -0.30662E+11
        -0.30683E+11
        -0.30792E+11
        -0.30629E+11
        -0.30566E+11
         0.34173E+05
        -0.24911E+06
        -0.11338E+06
         0.63833E+06
         0.15101E+06
         0.70135E+06
        -0.29105E+06
        -0.10850E+07
         0.34985E+06
        -0.11127E+07
        -0.98293E+06
        -0.10149E+07
        -0.33621E+06
        -0.15288E+07
        -0.14578E+07
         0.78531E+05
         0.40837E+06
         0.54257E+06
        -0.37969E+06
         0.71894E+05
        -0.16966E+06
         0.25272E+06
        -0.40144E+06
        -0.16032E+06
        -0.10707E+07
        -0.93540E+05
        -0.20223E+07
        -0.14604E+07
        -0.76074E+06
        -0.95263E+06
        -0.20119E+05
        -0.32308E+05
         0.45247E+06
         0.78836E+06
         0.35821E+05
        -0.58567E+05
        -0.65779E+05
        -0.13894E+07
        -0.14028E+07
        -0.10241E+07
        -0.17955E+06
        -0.17810E+06
        -0.14303E+06
        -0.49834E+06
        -0.59160E+06
        -0.10403E+07
        -0.49033E+06
        -0.12645E+06
        -0.23485E+06
        -0.70458E+05
         0.26993E+06
         0.85630E+06
        -0.96996E+06
         0.40337E+06
        -0.81588E+06
         0.82092E+04
         0.56743E+06
         0.91531E+06
         0.46368E+06
         0.72222E+06
         0.40092E+06
        -0.30650E+05
         0.38696E+06
         0.53996E+06
         0.13135E+06
         0.69912E+06
        -0.26092E+06
        -0.10516E+07
        -0.12084E+07
        -0.14165E+07
        -0.16543E+07
        -0.89626E+06
        -0.77086E+06
        -0.10829E+07
        -0.14490E+07
        -0.94652E+06
         0.56142E+05
         0.63291E+06
        -0.76933E+04
        -0.28743E+06
        -0.15058E+06
         0.60606E+06
         0.10048E+06
         0.65770E+06
        -0.33049E+06
        -0.11344E+07
         0.30986E+06
        -0.11670E+07
        -0.10273E+07
        -0.10826E+07
        -0.39396E+06
        -0.15775E+07
        -0.15261E+07
         0.36314E+05
         0.36686E+06
         0.51097E+06
        -0.42216E+06
         0.28166E+05
        -0.22757E+06
         0.19681E+06
        -0.46025E+06
        -0.20303E+06
        -0.11246E+07
        -0.13416E+06
        -0.20697E+07
        -0.15046E+07
        -0.80761E+06
        -0.10077E+07
        -0.59072E+05
        -0.70813E+05
         0.41919E+06
         0.75566E+06
        -0.22322E+05
        -0.10564E+06
        -0.11530E+06
        -0.14572E+07
        -0.14652E+07
        -0.10845E+07
        -0.24618E+06
        -0.24258E+06
        -0.20464E+06
        -0.55433E+06
        -0.64383E+06
        -0.10995E+07
        -0.54207E+06
        -0.17339E+06
        -0.27561E+06
        -0.11312E+06
         0.21625E+06
         0.80964E+06
        -0.10820E+07
         0.29397E+06
        -0.92376E+06
        -0.94917E+05
         0.45820E+06
         0.79375E+06
         0.34234E+06
         0.59970E+06
         0.27689E+06
        -0.15747E+06
         0.26084E+06
         0.42327E+06
         0.34202E+05
         0.60839E+06
        -0.35603E+06
        -0.11534E+07
        -0.13126E+07
        -0.15253E+07
        -0.17635E+07
        -0.10116E+07
        -0.87974E+06
        -0.11811E+07
        -0.15476E+07
        -0.10471E+07
        -0.45560E+05
         0.52942E+06
         0.21195E+04
        -0.27995E+06
        -0.14281E+06
         0.61416E+06
         0.11327E+06
         0.66897E+06
        -0.32275E+06
        -0.11250E+07
         0.31606E+06
        -0.11673E+07
        -0.10188E+07
        -0.10695E+07
        -0.38287E+06
        -0.15644E+07
        -0.15103E+07
         0.27937E+05
         0.36429E+06
         0.51957E+06
        -0.43305E+06
         0.20000E+05
        -0.23742E+06
         0.19313E+06
        -0.49883E+06
        -0.23383E+06
        -0.11494E+07
        -0.16255E+06
        -0.20606E+07
        -0.15104E+07
        -0.82626E+06
        -0.10465E+07
        -0.58816E+05
        -0.79465E+05
         0.42750E+06
         0.76607E+06
        -0.70638E+04
        -0.93977E+05
        -0.10439E+06
        -0.14462E+07
        -0.14563E+07
        -0.10814E+07
        -0.24798E+06
        -0.26597E+06
        -0.23787E+06
        -0.59191E+06
        -0.65290E+06
        -0.10914E+07
        -0.53280E+06
        -0.16238E+06
        -0.26386E+06
        -0.99374E+05
         0.23146E+06
         0.82270E+06
        -0.10485E+07
         0.32387E+06
        -0.89072E+06
        -0.69367E+05
         0.47710E+06
         0.81271E+06
         0.36655E+06
         0.62400E+06
         0.30127E+06
        -0.13210E+06
         0.27581E+06
         0.42267E+06
         0.35777E+05
         0.62504E+06
        -0.34493E+06
        -0.11741E+07
        -0.13351E+07
        -0.15196E+07
        -0.17336E+07
        -0.97690E+06
        -0.84881E+06
        -0.11499E+07
        -0.15126E+07
        -0.10174E+07
        -0.21309E+05
         0.55288E+06
        -0.38397E+04
        -0.28323E+06
        -0.14604E+06
         0.60869E+06
         0.10819E+06
         0.66490E+06
        -0.32642E+06
        -0.11326E+07
         0.30421E+06
        -0.11920E+07
        -0.10238E+07
        -0.10764E+07
        -0.38743E+06
        -0.15693E+07
        -0.15195E+07
        -0.56280E+04
         0.33965E+06
         0.51395E+06
        -0.47028E+06
        -0.16766E+05
        -0.28145E+06
         0.15449E+06
        -0.58862E+06
        -0.30274E+06
        -0.12129E+07
        -0.22738E+06
        -0.20736E+07
        -0.15463E+07
        -0.88387E+06
        -0.11378E+07
        -0.77598E+05
        -0.11409E+06
         0.42195E+06
         0.76054E+06
        -0.14497E+05
        -0.98857E+05
        -0.10839E+06
        -0.14592E+07
        -0.14724E+07
        -0.11091E+07
        -0.28585E+06
        -0.33898E+06
        -0.32774E+06
        -0.68032E+06
        -0.69628E+06
        -0.11154E+07
        -0.54953E+06
        -0.17081E+06
        -0.27039E+06
        -0.10705E+06
         0.22335E+06
         0.81749E+06
        -0.10641E+07
         0.31304E+06
        -0.90791E+06
        -0.84245E+05
         0.46700E+06
         0.80126E+06
         0.34730E+06
         0.60320E+06
         0.28096E+06
        -0.15666E+06
         0.23697E+06
         0.35987E+06
        -0.23110E+05
         0.59709E+06
        -0.37631E+06
        -0.12606E+07
        -0.14270E+07
        -0.15626E+07
        -0.17541E+07
        -0.99632E+06
        -0.86370E+06
        -0.11674E+07
        -0.15310E+07
        -0.10297E+07
        -0.30545E+05
         0.54374E+06
        -0.14676E+05
        -0.28985E+06
        -0.15155E+06
         0.60305E+06
         0.10239E+06
         0.65938E+06
        -0.33195E+06
        -0.11444E+07
         0.29007E+06
        -0.12177E+07
        -0.10291E+07
        -0.10807E+07
        -0.39252E+06
        -0.15749E+07
        -0.15243E+07
        -0.28288E+05
         0.32004E+06
         0.50874E+06
        -0.49501E+06
        -0.43189E+05
        -0.30992E+06
         0.12672E+06
        -0.64381E+06
        -0.34537E+06
        -0.12593E+07
        -0.26875E+06
        -0.20850E+07
        -0.15721E+07
        -0.92341E+06
        -0.11988E+07
        -0.97193E+05
        -0.13916E+06
         0.41156E+06
         0.75293E+06
        -0.22180E+05
        -0.10506E+06
        -0.11438E+06
        -0.14690E+07
        -0.14859E+07
        -0.11301E+07
        -0.31265E+06
        -0.38801E+06
        -0.38670E+06
        -0.73672E+06
        -0.72506E+06
        -0.11312E+07
        -0.56442E+06
        -0.18457E+06
        -0.28212E+06
        -0.11862E+06
         0.21072E+06
         0.80912E+06
        -0.10781E+07
         0.30358E+06
        -0.92258E+06
        -0.95823E+05
         0.46225E+06
         0.79793E+06
         0.33914E+06
         0.58951E+06
         0.26371E+06
        -0.17186E+06
         0.21331E+06
         0.31638E+06
        -0.63258E+05
         0.57547E+06
        -0.39846E+06
        -0.13168E+07
        -0.14917E+07
        -0.15934E+07
        -0.17635E+07
        -0.10140E+07
        -0.88340E+06
        -0.11875E+07
        -0.15546E+07
        -0.10497E+07
        -0.42825E+05
         0.53462E+06
        -0.40921E+05
        -0.30248E+06
        -0.15701E+06
         0.60702E+06
         0.10884E+06
         0.66713E+06
        -0.33585E+06
        -0.11640E+07
         0.27037E+06
        -0.12514E+07
        -0.10258E+07
        -0.10654E+07
        -0.38668E+06
        -0.15719E+07
        -0.15061E+07
        -0.24009E+05
         0.31511E+06
         0.51754E+06
        -0.49071E+06
        -0.39118E+05
        -0.30212E+06
         0.13641E+06
        -0.64264E+06
        -0.34608E+06
        -0.12808E+07
        -0.27428E+06
        -0.20877E+07
        -0.15751E+07
        -0.92065E+06
        -0.12020E+07
        -0.12066E+06
        -0.15225E+06
         0.39448E+06
         0.75086E+06
        -0.15423E+05
        -0.10459E+06
        -0.11553E+06
        -0.14578E+07
        -0.14768E+07
        -0.11194E+07
        -0.29993E+06
        -0.38014E+06
        -0.38049E+06
        -0.74075E+06
        -0.72910E+06
        -0.11340E+07
        -0.57735E+06
        -0.21267E+06
        -0.31156E+06
        -0.13453E+06
         0.20656E+06
         0.81292E+06
        -0.10506E+07
         0.33189E+06
        -0.89962E+06
        -0.80343E+05
         0.47843E+06
         0.82014E+06
         0.36429E+06
         0.61368E+06
         0.29119E+06
        -0.13539E+06
         0.24519E+06
         0.33554E+06
        -0.42062E+05
         0.59750E+06
        -0.37710E+06
        -0.12998E+07
        -0.14796E+07
        -0.15813E+07
        -0.17488E+07
        -0.10037E+07
        -0.88573E+06
        -0.12015E+07
        -0.15640E+07
        -0.10448E+07
        -0.28878E+05
         0.55459E+06
        -0.80891E+05
        -0.32477E+06
        -0.16994E+06
         0.60341E+06
         0.10310E+06
         0.66629E+06
        -0.35187E+06
        -0.12008E+07
         0.23739E+06
        -0.12999E+07
        -0.10369E+07
        -0.10711E+07
        -0.39600E+06
        -0.15868E+07
        -0.15110E+07
        -0.30738E+05
         0.29890E+06
         0.51600E+06
        -0.49557E+06
        -0.45090E+05
        -0.30642E+06
         0.13364E+06
        -0.64705E+06
        -0.35114E+06
        -0.13100E+07
        -0.28448E+06
        -0.21070E+07
        -0.15884E+07
        -0.92445E+06
        -0.12101E+07
        -0.15361E+06
        -0.17384E+06
         0.36869E+06
         0.74072E+06
        -0.24437E+05
        -0.11456E+06
        -0.12725E+06
        -0.14681E+07
        -0.14869E+07
        -0.11246E+07
        -0.30247E+06
        -0.38109E+06
        -0.38113E+06
        -0.74977E+06
        -0.74525E+06
        -0.11564E+07
        -0.60703E+06
        -0.25518E+06
        -0.35382E+06
        -0.16268E+06
         0.18972E+06
         0.80722E+06
        -0.10620E+07
         0.32290E+06
        -0.90666E+06
        -0.88159E+05
         0.46705E+06
         0.80667E+06
         0.35318E+06
         0.60423E+06
         0.28148E+06
        -0.14262E+06
         0.23943E+06
         0.32846E+06
        -0.43297E+05
         0.59572E+06
        -0.38177E+06
        -0.13026E+07
        -0.14853E+07
        -0.16008E+07
        -0.17777E+07
        -0.10355E+07
        -0.92160E+06
        -0.12457E+07
        -0.16029E+07
        -0.10652E+07
        -0.39748E+05
         0.54614E+06
        -0.92560E+05
        -0.33298E+06
        -0.17535E+06
         0.59867E+06
         0.96966E+05
         0.66092E+06
        -0.36007E+06
        -0.12143E+07
         0.22736E+06
        -0.13161E+07
        -0.10451E+07
        -0.10792E+07
        -0.40518E+06
        -0.15946E+07
        -0.15188E+07
        -0.36793E+05
         0.29204E+06
         0.51197E+06
        -0.50009E+06
        -0.49721E+05
        -0.31297E+06
         0.12719E+06
        -0.65284E+06
        -0.35497E+06
        -0.13222E+07
        -0.29015E+06
        -0.21153E+07
        -0.15954E+07
        -0.93134E+06
        -0.12179E+07
        -0.16420E+06
        -0.18223E+06
         0.36003E+06
         0.73491E+06
        -0.32044E+05
        -0.12006E+06
        -0.13444E+06
        -0.14810E+07
        -0.14984E+07
        -0.11354E+07
        -0.31389E+06
        -0.38975E+06
        -0.38683E+06
        -0.75789E+06
        -0.75508E+06
        -0.11670E+07
        -0.61708E+06
        -0.26568E+06
        -0.36405E+06
        -0.17213E+06
         0.17932E+06
         0.80011E+06
        -0.10777E+07
         0.30736E+06
        -0.91736E+06
        -0.98958E+05
         0.45387E+06
         0.79525E+06
         0.34149E+06
         0.58806E+06
         0.25985E+06
        -0.16528E+06
         0.21892E+06
         0.31909E+06
        -0.50656E+05
         0.57998E+06
        -0.39825E+06
        -0.13184E+07
        -0.15061E+07
        -0.16206E+07
        -0.17943E+07
        -0.10488E+07
        -0.93260E+06
        -0.12605E+07
        -0.16225E+07
        -0.10832E+07
        -0.54849E+05
         0.53123E+06
        -0.85175E+05
        -0.32730E+06
        -0.17147E+06
         0.59959E+06
         0.10290E+06
         0.66208E+06
        -0.35483E+06
        -0.12065E+07
         0.23311E+06
        -0.13096E+07
        -0.10405E+07
        -0.10708E+07
        -0.39922E+06
        -0.15847E+07
        -0.15065E+07
        -0.28687E+05
         0.29759E+06
         0.51605E+06
        -0.49347E+06
        -0.43216E+05
        -0.30499E+06
         0.13494E+06
        -0.64449E+06
        -0.34779E+06
        -0.13182E+07
        -0.28322E+06
        -0.21038E+07
        -0.15873E+07
        -0.92487E+06
        -0.12124E+07
        -0.15760E+06
        -0.17701E+06
         0.36357E+06
         0.73653E+06
        -0.23283E+05
        -0.11413E+06
        -0.12901E+06
        -0.14728E+07
        -0.14926E+07
        -0.11297E+07
        -0.30651E+06
        -0.38137E+06
        -0.37845E+06
        -0.75092E+06
        -0.74940E+06
        -0.11605E+07
        -0.61108E+06
        -0.25823E+06
        -0.35676E+06
        -0.16607E+06
         0.18376E+06
         0.80172E+06
        -0.10542E+07
         0.33036E+06
        -0.90377E+06
        -0.93309E+05
         0.46528E+06
         0.81326E+06
         0.36156E+06
         0.60245E+06
         0.26525E+06
        -0.15687E+06
         0.23405E+06
         0.34050E+06
        -0.31921E+05
         0.59206E+06
        -0.38677E+06
        -0.13052E+07
        -0.14929E+07
        -0.16041E+07
        -0.17786E+07
        -0.10302E+07
        -0.91359E+06
        -0.12435E+07
        -0.16084E+07
        -0.10703E+07
        -0.41966E+05
         0.54521E+06
        -0.87092E+05
        -0.32769E+06
        -0.17267E+06
         0.59629E+06
         0.10136E+06
         0.65903E+06
        -0.35603E+06
        -0.12109E+07
         0.22789E+06
        -0.13173E+07
        -0.10443E+07
        -0.10757E+07
        -0.40061E+06
        -0.15882E+07
        -0.15147E+07
        -0.32392E+05
         0.29297E+06
         0.51172E+06
        -0.49730E+06
        -0.46776E+05
        -0.30856E+06
         0.13081E+06
        -0.64750E+06
        -0.35027E+06
        -0.13237E+07
        -0.28538E+06
        -0.21066E+07
        -0.15881E+07
        -0.92636E+06
        -0.12165E+07
        -0.16072E+06
        -0.17940E+06
         0.35864E+06
         0.73218E+06
        -0.26029E+05
        -0.11670E+06
        -0.13075E+06
        -0.14840E+07
        -0.14995E+07
        -0.11353E+07
        -0.31219E+06
        -0.38464E+06
        -0.38333E+06
        -0.75356E+06
        -0.75202E+06
        -0.11640E+07
        -0.61594E+06
        -0.26300E+06
        -0.36057E+06
        -0.16947E+06
         0.17969E+06
         0.79758E+06
        -0.10609E+07
         0.32493E+06
        -0.91494E+06
        -0.10267E+06
         0.46390E+06
         0.80673E+06
         0.34632E+06
         0.58549E+06
         0.25515E+06
        -0.17195E+06
         0.21761E+06
         0.33223E+06
        -0.41594E+05
         0.58672E+06
        -0.39174E+06
        -0.13100E+07
        -0.14940E+07
        -0.16075E+07
        -0.17834E+07
        -0.10428E+07
        -0.92922E+06
        -0.12556E+07
        -0.16146E+07
        -0.10731E+07
        -0.48643E+05
         0.53577E+06
        -0.92454E+05
        -0.33184E+06
        -0.17583E+06
         0.59421E+06
         0.96952E+05
         0.65696E+06
        -0.35954E+06
        -0.12170E+07
         0.22311E+06
        -0.13249E+07
        -0.10486E+07
        -0.10821E+07
        -0.40476E+06
        -0.15906E+07
        -0.15230E+07
        -0.37601E+05
         0.28919E+06
         0.50927E+06
        -0.50186E+06
        -0.49415E+05
        -0.31304E+06
         0.12661E+06
        -0.65207E+06
        -0.35421E+06
        -0.13291E+07
        -0.28974E+06
        -0.21087E+07
        -0.15900E+07
        -0.92815E+06
        -0.12198E+07
        -0.16533E+06
        -0.18348E+06
         0.35561E+06
         0.73119E+06
        -0.32734E+05
        -0.12105E+06
        -0.13465E+06
        -0.14949E+07
        -0.15070E+07
        -0.11402E+07
        -0.31555E+06
        -0.38740E+06
        -0.38778E+06
        -0.75814E+06
        -0.75636E+06
        -0.11687E+07
        -0.62050E+06
        -0.26710E+06
        -0.36421E+06
        -0.17238E+06
         0.17583E+06
         0.79568E+06
        -0.10744E+07
         0.31355E+06
        -0.92348E+06
        -0.10552E+06
         0.46013E+06
         0.79344E+06
         0.32715E+06
         0.57018E+06
         0.24471E+06
        -0.18280E+06
         0.21089E+06
         0.32406E+06
        -0.53209E+05
         0.57878E+06
        -0.40002E+06
        -0.13197E+07
        -0.15006E+07
        -0.16152E+07
        -0.17927E+07
        -0.10531E+07
        -0.94112E+06
        -0.12679E+07
        -0.16235E+07
        -0.10813E+07
        -0.58911E+05
         0.52498E+06
        -0.88959E+05
        -0.33000E+06
        -0.17450E+06
         0.59621E+06
         0.10085E+06
         0.66034E+06
        -0.35624E+06
        -0.12119E+07
         0.22551E+06
        -0.13235E+07
        -0.10443E+07
        -0.10764E+07
        -0.40292E+06
        -0.15815E+07
        -0.15117E+07
        -0.33013E+05
         0.29108E+06
         0.51333E+06
        -0.49812E+06
        -0.44171E+05
        -0.30675E+06
         0.13353E+06
        -0.64644E+06
        -0.34974E+06
        -0.13287E+07
        -0.28523E+06
        -0.21014E+07
        -0.15848E+07
        -0.92095E+06
        -0.12136E+07
        -0.16006E+06
        -0.17985E+06
         0.36001E+06
         0.73555E+06
        -0.27304E+05
        -0.11732E+06
        -0.13242E+06
        -0.14885E+07
        -0.15012E+07
        -0.11317E+07
        -0.30729E+06
        -0.38100E+06
        -0.38106E+06
        -0.75405E+06
        -0.75308E+06
        -0.11652E+07
        -0.61698E+06
        -0.26256E+06
        -0.35929E+06
        -0.16716E+06
         0.18048E+06
         0.80031E+06
        -0.10572E+07
         0.33207E+06
        -0.90616E+06
        -0.96961E+05
         0.45725E+06
         0.79444E+06
         0.34109E+06
         0.58561E+06
         0.25495E+06
        -0.16715E+06
         0.22577E+06
         0.33103E+06
        -0.40684E+05
         0.59145E+06
        -0.38842E+06
        -0.13109E+07
        -0.14949E+07
        -0.16077E+07
        -0.17856E+07
        -0.10419E+07
        -0.92804E+06
        -0.12553E+07
        -0.16126E+07
        -0.10718E+07
        -0.44945E+05
         0.54134E+06
        -0.91452E+05
        -0.33331E+06
        -0.17757E+06
         0.59252E+06
         0.96361E+05
         0.65616E+06
        -0.36059E+06
        -0.12175E+07
         0.22157E+06
        -0.13323E+07
        -0.10501E+07
        -0.10844E+07
        -0.41136E+06
        -0.15861E+07
        -0.15179E+07
        -0.37200E+05
         0.28636E+06
         0.50871E+06
        -0.50357E+06
        -0.48407E+05
        -0.31458E+06
         0.12600E+06
        -0.65421E+06
        -0.35432E+06
        -0.13370E+07
        -0.28902E+06
        -0.21086E+07
        -0.15916E+07
        -0.92605E+06
        -0.12188E+07
        -0.16433E+06
        -0.18369E+06
         0.35414E+06
         0.73158E+06
        -0.33707E+05
        -0.12237E+06
        -0.13880E+06
        -0.15003E+07
        -0.15128E+07
        -0.11410E+07
        -0.31797E+06
        -0.39050E+06
        -0.38860E+06
        -0.76290E+06
        -0.76069E+06
        -0.11719E+07
        -0.62335E+06
        -0.26906E+06
        -0.36408E+06
        -0.17050E+06
         0.17533E+06
         0.79561E+06
        -0.10706E+07
         0.32041E+06
        -0.91960E+06
        -0.11225E+06
         0.43935E+06
         0.77746E+06
         0.33076E+06
         0.57237E+06
         0.23731E+06
        -0.18457E+06
         0.20455E+06
         0.30999E+06
        -0.54570E+05
         0.57702E+06
        -0.40080E+06
        -0.13252E+07
        -0.15172E+07
        -0.16276E+07
        -0.17956E+07
        -0.10555E+07
        -0.94220E+06
        -0.12625E+07
        -0.16177E+07
        -0.10819E+07
        -0.58862E+05
         0.52754E+06
        -0.91890E+05
        -0.33435E+06
        -0.17860E+06
         0.59107E+06
         0.95538E+05
         0.65471E+06
        -0.36154E+06
        -0.12190E+07
         0.22133E+06
        -0.13348E+07
        -0.10516E+07
        -0.10854E+07
        -0.41269E+06
        -0.15846E+07
        -0.15182E+07
        -0.37915E+05
         0.28600E+06
         0.50780E+06
        -0.50467E+06
        -0.48578E+05
        -0.31652E+06
         0.12480E+06
        -0.65596E+06
        -0.35507E+06
        -0.13402E+07
        -0.28988E+06
        -0.21072E+07
        -0.15925E+07
        -0.92708E+06
        -0.12206E+07
        -0.16648E+06
        -0.18506E+06
         0.35146E+06
         0.73055E+06
        -0.35170E+05
        -0.12409E+06
        -0.14076E+06
        -0.15063E+07
        -0.15198E+07
        -0.11450E+07
        -0.31938E+06
        -0.39123E+06
        -0.38969E+06
        -0.76478E+06
        -0.76244E+06
        -0.11736E+07
        -0.62564E+06
        -0.27154E+06
        -0.36573E+06
        -0.17080E+06
         0.17437E+06
         0.79439E+06
        -0.10709E+07
         0.32060E+06
        -0.92335E+06
        -0.11815E+06
         0.43892E+06
         0.77724E+06
         0.32664E+06
         0.56133E+06
         0.22455E+06
        -0.19156E+06
         0.20386E+06
         0.30785E+06
        -0.58060E+05
         0.57138E+06
        -0.40725E+06
        -0.13299E+07
        -0.15205E+07
        -0.16303E+07
        -0.17985E+07
        -0.10605E+07
        -0.94851E+06
        -0.12666E+07
        -0.16182E+07
        -0.10830E+07
        -0.64966E+05
         0.52208E+06
        -0.80858E+05
        -0.32359E+06
        -0.16997E+06
         0.59698E+06
         0.10765E+06
         0.66299E+06
        -0.35008E+06
        -0.12070E+07
         0.22831E+06
        -0.13269E+07
        -0.10403E+07
        -0.10675E+07
        -0.39745E+06
        -0.15697E+07
        -0.15011E+07
        -0.28111E+05
         0.29373E+06
         0.51532E+06
        -0.49573E+06
        -0.37994E+05
        -0.30214E+06
         0.13855E+06
        -0.64211E+06
        -0.34556E+06
        -0.13317E+07
        -0.28025E+06
        -0.20927E+07
        -0.15786E+07
        -0.91340E+06
        -0.12084E+07
        -0.15612E+06
        -0.17530E+06
         0.35853E+06
         0.73646E+06
        -0.20710E+05
        -0.11295E+06
        -0.12871E+06
        -0.14958E+07
        -0.15072E+07
        -0.11308E+07
        -0.30539E+06
        -0.37688E+06
        -0.37712E+06
        -0.75116E+06
        -0.74897E+06
        -0.11591E+07
        -0.61365E+06
        -0.26015E+06
        -0.35614E+06
        -0.16177E+06
         0.18406E+06
         0.80252E+06
        -0.10396E+07
         0.35160E+06
        -0.89735E+06
        -0.99207E+05
         0.46197E+06
         0.80667E+06
         0.35132E+06
         0.58011E+06
         0.24544E+06
        -0.16862E+06
         0.22455E+06
         0.33201E+06
        -0.38920E+05
         0.59261E+06
        -0.38295E+06
        -0.13047E+07
        -0.14922E+07
        -0.15997E+07
        -0.17721E+07
        -0.10328E+07
        -0.92511E+06
        -0.12491E+07
        -0.15990E+07
        -0.10599E+07
        -0.39869E+05
         0.54748E+06
        -0.85458E+05
        -0.32655E+06
        -0.17283E+06
         0.59253E+06
         0.10209E+06
         0.65870E+06
        -0.35399E+06
        -0.12139E+07
         0.22287E+06
        -0.13374E+07
        -0.10461E+07
        -0.10737E+07
        -0.40118E+06
        -0.15748E+07
        -0.15095E+07
        -0.33533E+05
         0.28790E+06
         0.51157E+06
        -0.50273E+06
        -0.43247E+05
        -0.30750E+06
         0.13167E+06
        -0.64691E+06
        -0.35112E+06
        -0.13410E+07
        -0.28574E+06
        -0.20991E+07
        -0.15832E+07
        -0.91412E+06
        -0.12123E+07
        -0.15917E+06
        -0.17971E+06
         0.35433E+06
         0.73168E+06
        -0.28972E+05
        -0.11754E+06
        -0.13185E+06
        -0.15090E+07
        -0.15168E+07
        -0.11350E+07
        -0.31221E+06
        -0.38422E+06
        -0.38580E+06
        -0.75786E+06
        -0.75565E+06
        -0.11655E+07
        -0.61900E+06
        -0.26375E+06
        -0.36010E+06
        -0.16704E+06
         0.17788E+06
         0.79768E+06
        -0.10594E+07
         0.33481E+06
        -0.91284E+06
        -0.10729E+06
         0.45914E+06
         0.79915E+06
         0.33469E+06
         0.56013E+06
         0.22589E+06
        -0.18597E+06
         0.20409E+06
         0.30851E+06
        -0.55448E+05
         0.58436E+06
        -0.38678E+06
        -0.13072E+07
        -0.15005E+07
        -0.16137E+07
        -0.17825E+07
        -0.10451E+07
        -0.93648E+06
        -0.12619E+07
        -0.16127E+07
        -0.10683E+07
        -0.47710E+05
         0.53444E+06
        -0.93159E+05
        -0.33425E+06
        -0.18044E+06
         0.58673E+06
         0.93410E+05
         0.65089E+06
        -0.36035E+06
        -0.12218E+07
         0.21524E+06
        -0.13542E+07
        -0.10529E+07
        -0.10837E+07
        -0.40942E+06
        -0.15799E+07
        -0.15201E+07
        -0.40215E+05
         0.27932E+06
         0.50722E+06
        -0.50857E+06
        -0.45660E+05
        -0.31403E+06
         0.12364E+06
        -0.65271E+06
        -0.35586E+06
        -0.13554E+07
        -0.29113E+06
        -0.21137E+07
        -0.15908E+07
        -0.89814E+06
        -0.12038E+07
        -0.16490E+06
        -0.18601E+06
         0.35016E+06
         0.72831E+06
        -0.38278E+05
        -0.12501E+06
        -0.13931E+06
        -0.15284E+07
        -0.15263E+07
        -0.11219E+07
        -0.31304E+06
        -0.39219E+06
        -0.39740E+06
        -0.76509E+06
        -0.76403E+06
        -0.11754E+07
        -0.62807E+06
        -0.27027E+06
        -0.36472E+06
        -0.17117E+06
         0.17240E+06
         0.79177E+06
        -0.10725E+07
         0.32258E+06
        -0.92342E+06
        -0.11639E+06
         0.44636E+06
         0.77855E+06
         0.31120E+06
         0.53781E+06
         0.20620E+06
        -0.19052E+06
         0.16839E+06
         0.25231E+06
        -0.78680E+05
         0.57142E+06
        -0.39830E+06
        -0.13177E+07
        -0.15136E+07
        -0.16285E+07
        -0.17996E+07
        -0.10643E+07
        -0.94951E+06
        -0.12740E+07
        -0.16267E+07
        -0.10783E+07
        -0.63307E+05
         0.51699E+06
        -0.82650E+05
        -0.32436E+06
        -0.17105E+06
         0.59400E+06
         0.10629E+06
         0.65987E+06
        -0.35034E+06
        -0.12101E+07
         0.21990E+06
        -0.13588E+07
        -0.10428E+07
        -0.10703E+07
        -0.39812E+06
        -0.15657E+07
        -0.15048E+07
        -0.30300E+05
         0.28441E+06
         0.51427E+06
        -0.49816E+06
        -0.28421E+05
        -0.30213E+06
         0.13566E+06
        -0.64158E+06
        -0.34561E+06
        -0.13553E+07
        -0.28067E+06
        -0.21162E+07
        -0.15821E+07
        -0.84931E+06
        -0.11639E+07
        -0.15602E+06
        -0.17610E+06
         0.35707E+06
         0.73623E+06
        -0.22788E+05
        -0.11258E+06
        -0.12794E+06
        -0.15281E+07
        -0.15117E+07
        -0.10717E+07
        -0.28591E+06
        -0.37765E+06
        -0.39010E+06
        -0.75347E+06
        -0.75088E+06
        -0.11594E+07
        -0.61555E+06
        -0.25982E+06
        -0.35424E+06
        -0.15907E+06
         0.18530E+06
         0.80141E+06
        -0.10404E+07
         0.35406E+06
        -0.89132E+06
        -0.93822E+05
         0.46073E+06
         0.79530E+06
         0.33434E+06
         0.56126E+06
         0.23175E+06
        -0.14055E+06
         0.15679E+06
         0.20707E+06
        -0.76996E+05
         0.58902E+06
        -0.38348E+06
        -0.13054E+07
        -0.14984E+07
        -0.16028E+07
        -0.17681E+07
        -0.10347E+07
        -0.92411E+06
        -0.12478E+07
        -0.15971E+07
        -0.10507E+07
        -0.40894E+05
         0.54054E+06
        -0.12180E+06
        -0.36030E+06
        -0.20557E+06
         0.56218E+06
         0.58938E+05
         0.61839E+06
        -0.38752E+06
        -0.12569E+07
         0.18078E+06
        -0.14176E+07
        -0.10850E+07
        -0.11333E+07
        -0.45585E+06
        -0.16132E+07
        -0.15700E+07
        -0.67138E+05
         0.24591E+06
         0.48280E+06
        -0.53588E+06
        -0.63306E+05
        -0.35659E+06
         0.82812E+05
        -0.69366E+06
        -0.38121E+06
        -0.14065E+07
        -0.31424E+06
        -0.21736E+07
        -0.16246E+07
        -0.86807E+06
        -0.11923E+07
        -0.19094E+06
        -0.21102E+06
         0.32352E+06
         0.70111E+06
        -0.79466E+05
        -0.15898E+06
        -0.17864E+06
        -0.16022E+07
        -0.15692E+07
        -0.11049E+07
        -0.33986E+06
        -0.43502E+06
        -0.44791E+06
        -0.80380E+06
        -0.80271E+06
        -0.12205E+07
        -0.66589E+06
        -0.30360E+06
        -0.39466E+06
        -0.20459E+06
         0.12768E+06
         0.75371E+06
        -0.11522E+07
         0.24548E+06
        -0.10045E+07
        -0.20882E+06
         0.34595E+06
         0.68481E+06
         0.22208E+06
         0.44096E+06
         0.11873E+06
        -0.24348E+06
         0.13369E+05
         0.50998E+05
        -0.18720E+06
         0.49759E+06
        -0.47938E+06
        -0.14052E+07
        -0.16018E+07
        -0.17185E+07
        -0.18868E+07
        -0.11484E+07
        -0.10296E+07
        -0.13487E+07
        -0.17005E+07
        -0.11566E+07
        -0.14264E+06
         0.43958E+06
        -0.99378E+05
        -0.35772E+06
        -0.19931E+06
         0.57360E+06
         0.74351E+05
         0.63143E+06
        -0.38245E+06
        -0.12302E+07
         0.20544E+06
        -0.13792E+07
        -0.10743E+07
        -0.11319E+07
        -0.47058E+06
        -0.15810E+07
        -0.15417E+07
        -0.38273E+05
         0.26998E+06
         0.49998E+06
        -0.51652E+06
        -0.42314E+05
        -0.33245E+06
         0.10090E+06
        -0.65634E+06
        -0.35433E+06
        -0.13667E+07
        -0.28902E+06
        -0.21248E+07
        -0.15758E+07
        -0.82727E+06
        -0.11519E+07
        -0.16899E+06
        -0.19529E+06
         0.33233E+06
         0.69575E+06
        -0.70812E+05
        -0.16265E+06
        -0.19306E+06
        -0.15689E+07
        -0.15298E+07
        -0.10701E+07
        -0.31591E+06
        -0.40227E+06
        -0.41347E+06
        -0.77035E+06
        -0.78444E+06
        -0.12114E+07
        -0.65870E+06
        -0.28476E+06
        -0.38065E+06
        -0.20329E+06
         0.13140E+06
         0.75451E+06
        -0.11091E+07
         0.30136E+06
        -0.99045E+06
        -0.23364E+06
         0.29435E+06
         0.65345E+06
         0.27358E+06
         0.49388E+06
         0.16066E+06
        -0.21852E+06
         0.20301E+05
         0.72293E+05
        -0.14552E+06
         0.51815E+06
        -0.43582E+06
        -0.13430E+07
        -0.15490E+07
        -0.16779E+07
        -0.18693E+07
        -0.11505E+07
        -0.10062E+07
        -0.13153E+07
        -0.16475E+07
        -0.10919E+07
        -0.91608E+05
         0.49246E+06
         0.15400E+09
         0.14520E+09
         0.14254E+09
         0.11934E+09
         0.18550E+09
         0.16273E+09
         0.14159E+09
         0.17488E+09
         0.13882E+09
         0.17461E+09
         0.16637E+09
         0.24065E+09
         0.21103E+09
         0.18764E+09
         0.24858E+09
         0.13975E+09
         0.13026E+09
         0.11409E+09
         0.14337E+09
         0.14172E+09
         0.19462E+09
         0.19522E+09
         0.18457E+09
         0.12931E+09
         0.16240E+09
         0.12393E+09
         0.18488E+09
         0.15516E+09
         0.15604E+09
         0.16974E+09
         0.13635E+09
         0.12828E+09
         0.11989E+09
         0.12550E+09
         0.21384E+09
         0.17730E+09
         0.18510E+09
         0.23204E+09
         0.21776E+09
         0.21255E+09
         0.22755E+09
         0.21281E+09
         0.20163E+09
         0.17567E+09
         0.18049E+09
         0.21585E+09
         0.18524E+09
         0.16788E+09
         0.15685E+09
         0.16883E+09
         0.20263E+09
         0.17459E+09
         0.40825E+09
         0.40007E+09
         0.40720E+09
         0.39397E+09
         0.40642E+09
         0.42645E+09
         0.42799E+09
         0.42282E+09
         0.42603E+09
         0.43836E+09
         0.42559E+09
         0.40155E+09
         0.35532E+09
         0.33521E+09
         0.34062E+09
         0.34873E+09
         0.35315E+09
         0.38493E+09
         0.41157E+09
         0.41340E+09
         0.37866E+09
         0.36494E+09
         0.37841E+09
         0.37481E+09
         0.37288E+09
         0.37364E+09
         0.18567E+10
         0.19435E+10
         0.19150E+10
         0.17450E+10
         0.21552E+10
         0.20221E+10
         0.21032E+10
         0.21222E+10
         0.18132E+10
         0.21210E+10
         0.23115E+10
         0.25967E+10
         0.23523E+10
         0.23797E+10
         0.26880E+10
         0.17770E+10
         0.19097E+10
         0.16632E+10
         0.19732E+10
         0.20765E+10
         0.21544E+10
         0.22011E+10
         0.20670E+10
         0.18967E+10
         0.21445E+10
         0.18290E+10
         0.23711E+10
         0.23295E+10
         0.23403E+10
         0.22210E+10
         0.17957E+10
         0.18882E+10
         0.17590E+10
         0.18405E+10
         0.23621E+10
         0.21643E+10
         0.21725E+10
         0.26017E+10
         0.25334E+10
         0.25026E+10
         0.25491E+10
         0.24200E+10
         0.22884E+10
         0.20166E+10
         0.20995E+10
         0.23614E+10
         0.21811E+10
         0.20496E+10
         0.20079E+10
         0.20829E+10
         0.22648E+10
         0.20896E+10
         0.37543E+10
         0.36589E+10
         0.37349E+10
         0.36186E+10
         0.37258E+10
         0.39159E+10
         0.39782E+10
         0.39688E+10
         0.39964E+10
         0.40877E+10
         0.39707E+10
         0.37351E+10
         0.33492E+10
         0.31660E+10
         0.31755E+10
         0.32164E+10
         0.32476E+10
         0.35204E+10
         0.37696E+10
         0.37849E+10
         0.35041E+10
         0.33960E+10
         0.35082E+10
         0.34835E+10
         0.34448E+10
         0.34351E+10
  
SCALARS                      stress_zz  double 1
LOOKUP_TABLE default
         0.22549E+12
         0.22180E+12
         0.22414E+12
         0.22833E+12
        -0.22865E+03
        -0.25640E+03
        -0.24551E+03
        -0.22303E+03
         0.22167E+12
         0.22292E+12
        -0.23057E+03
        -0.22313E+03
         0.21645E+12
         0.21626E+12
        -0.27396E+03
        -0.25759E+03
         0.22772E+12
         0.21655E+12
        -0.20243E+03
        -0.22452E+03
         0.21244E+12
         0.20925E+12
         0.21433E+12
        -0.27153E+03
        -0.23713E+03
        -0.24486E+03
         0.20938E+12
         0.20472E+12
        -0.26049E+03
        -0.21968E+03
         0.22751E+12
         0.22266E+12
         0.23223E+12
        -0.22229E+03
        -0.20665E+03
        -0.20092E+03
         0.22470E+12
         0.21851E+12
        -0.23517E+03
        -0.21460E+03
         0.22225E+12
         0.21747E+12
        -0.20326E+03
        -0.17994E+03
         0.22630E+12
         0.22809E+12
        -0.22274E+03
        -0.24888E+03
         0.21364E+12
        -0.21760E+03
         0.22774E+12
        -0.25569E+03
         0.20804E+12
        -0.22979E+03
         0.20657E+12
        -0.22042E+03
         0.20660E+12
         0.21180E+12
        -0.22458E+03
        -0.21872E+03
         0.22742E+12
         0.22555E+12
        -0.22520E+03
        -0.25458E+03
         0.22858E+12
        -0.21730E+03
         0.22636E+12
        -0.23715E+03
         0.22052E+12
         0.21993E+12
        -0.22829E+03
        -0.23920E+03
         0.21861E+12
        -0.24121E+03
         0.20307E+12
        -0.19057E+03
         0.20225E+12
        -0.18498E+03
         0.20266E+12
        -0.19504E+03
         0.20491E+12
         0.20725E+12
        -0.18583E+03
        -0.19374E+03
         0.21196E+12
        -0.18044E+03
         0.22620E+12
        -0.23663E+03
         0.22398E+12
        -0.24218E+03
         0.22216E+12
         0.22116E+12
        -0.23257E+03
        -0.23529E+03
         0.22239E+12
        -0.21371E+03
         0.22327E+12
        -0.21066E+03
         0.22247E+12
        -0.22551E+03
         0.22219E+12
         0.22300E+12
        -0.22115E+03
        -0.22764E+03
         0.21780E+12
         0.21990E+12
        -0.17170E+03
        -0.16149E+03
         0.21740E+12
        -0.16395E+03
         0.21983E+12
        -0.15720E+03
         0.21743E+12
        -0.15501E+03
         0.21211E+12
        -0.14649E+03
         0.20695E+12
        -0.13014E+03
         0.20386E+12
        -0.11718E+03
         0.20355E+12
        -0.11637E+03
         0.20365E+12
        -0.12620E+03
         0.20700E+12
        -0.13263E+03
         0.21326E+12
        -0.12110E+03
         0.22013E+12
        -0.10916E+03
         0.22415E+12
        -0.10904E+03
         0.22813E+12
        -0.12188E+03
         0.23076E+12
        -0.13897E+03
         0.23066E+12
        -0.14929E+03
         0.22428E+12
        -0.16124E+03
         0.21983E+12
        -0.17274E+03
         0.21830E+12
        -0.15824E+03
         0.22069E+12
        -0.13882E+03
         0.22193E+12
        -0.13839E+03
         0.21985E+12
        -0.15142E+03
         0.21988E+12
        -0.16142E+03
         0.22145E+12
        -0.15319E+03
         0.22350E+12
        -0.14810E+03
        -0.30082E+11
        -0.30336E+11
        -0.30303E+11
        -0.29969E+11
        -0.30567E+11
        -0.30275E+11
        -0.30634E+11
        -0.30450E+11
        -0.30023E+11
        -0.30294E+11
        -0.30820E+11
        -0.30875E+11
        -0.30727E+11
        -0.30716E+11
        -0.30813E+11
        -0.29985E+11
        -0.30049E+11
        -0.29868E+11
        -0.30363E+11
        -0.30277E+11
        -0.30399E+11
        -0.30319E+11
        -0.30466E+11
        -0.30429E+11
        -0.30284E+11
        -0.30294E+11
        -0.30538E+11
        -0.30516E+11
        -0.30688E+11
        -0.30425E+11
        -0.30017E+11
        -0.30340E+11
        -0.30019E+11
        -0.30234E+11
        -0.30913E+11
        -0.30709E+11
        -0.30607E+11
        -0.30726E+11
        -0.30741E+11
        -0.30926E+11
        -0.31054E+11
        -0.30733E+11
        -0.30394E+11
        -0.30442E+11
        -0.30617E+11
        -0.30905E+11
        -0.30661E+11
        -0.30379E+11
        -0.30399E+11
        -0.30618E+11
        -0.30829E+11
        -0.30542E+11
        -0.31341E+11
        -0.31128E+11
        -0.31164E+11
        -0.31113E+11
        -0.31126E+11
        -0.31243E+11
        -0.31358E+11
        -0.31394E+11
        -0.31379E+11
        -0.31390E+11
        -0.31437E+11
        -0.31137E+11
        -0.31016E+11
        -0.30968E+11
        -0.30883E+11
        -0.30818E+11
        -0.30821E+11
        -0.30931E+11
        -0.31272E+11
        -0.31194E+11
        -0.31079E+11
        -0.31080E+11
        -0.31101E+11
        -0.31211E+11
        -0.31047E+11
        -0.30983E+11
         0.19560E+07
         0.11539E+07
         0.13384E+07
         0.18388E+07
         0.16355E+07
         0.21659E+07
        -0.21600E+06
         0.89978E+05
         0.22993E+07
        -0.38407E+05
        -0.10756E+07
         0.10113E+07
         0.12498E+07
        -0.20629E+07
         0.32934E+06
         0.10731E+07
         0.12511E+07
         0.14129E+07
         0.48692E+06
         0.33096E+06
         0.81235E+06
         0.13331E+07
         0.37963E+06
        -0.47948E+05
        -0.64489E+06
        -0.68320E+05
        -0.31616E+07
        -0.33658E+07
        -0.16092E+07
        -0.40311E+06
         0.96747E+06
         0.16821E+06
         0.16181E+07
         0.22618E+07
         0.96570E+06
         0.77340E+06
         0.11237E+07
         0.11068E+06
         0.13721E+06
         0.47842E+06
         0.10562E+07
         0.73405E+06
         0.85716E+06
         0.37421E+06
         0.41039E+06
         0.65237E+06
         0.84960E+06
         0.98712E+06
         0.12932E+07
         0.17370E+07
         0.17863E+07
         0.21591E+07
         0.25403E+06
         0.18113E+07
         0.83562E+06
         0.20367E+07
         0.30122E+07
         0.36856E+07
         0.32386E+07
         0.34299E+07
         0.30245E+07
         0.23852E+07
         0.21736E+07
         0.19292E+07
         0.13996E+07
         0.20222E+07
         0.96389E+06
         0.21552E+06
         0.34944E+06
         0.40950E+06
         0.67593E+06
         0.17166E+07
         0.17380E+07
         0.13587E+07
         0.82111E+06
         0.81525E+06
         0.14871E+07
         0.21065E+07
         0.18903E+07
         0.10753E+07
         0.12593E+07
         0.17654E+07
         0.15578E+07
         0.20862E+07
        -0.30620E+06
         0.14508E+05
         0.22192E+07
        -0.12069E+06
        -0.11782E+07
         0.92432E+06
         0.11704E+07
        -0.21557E+07
         0.24393E+06
         0.99585E+06
         0.11565E+07
         0.13385E+07
         0.38961E+06
         0.22798E+06
         0.73401E+06
         0.12557E+07
         0.29746E+06
        -0.14770E+06
        -0.74564E+06
        -0.16342E+06
        -0.32494E+07
        -0.34692E+07
        -0.17180E+07
        -0.50680E+06
         0.88910E+06
         0.78037E+05
         0.15406E+07
         0.21866E+07
         0.88347E+06
         0.69184E+06
         0.10471E+07
         0.21653E+05
         0.49954E+05
         0.39050E+06
         0.96820E+06
         0.64641E+06
         0.77373E+06
         0.29214E+06
         0.33042E+06
         0.57075E+06
         0.76691E+06
         0.90555E+06
         0.12138E+07
         0.16614E+07
         0.17095E+07
         0.20820E+07
         0.13071E+06
         0.16913E+07
         0.71786E+06
         0.19239E+07
         0.28933E+07
         0.35539E+07
         0.31067E+07
         0.32954E+07
         0.28883E+07
         0.22467E+07
         0.20355E+07
         0.18014E+07
         0.12914E+07
         0.19206E+07
         0.85838E+06
         0.10347E+06
         0.23525E+06
         0.29093E+06
         0.55646E+06
         0.15905E+07
         0.16181E+07
         0.12500E+07
         0.71264E+06
         0.70396E+06
         0.13749E+07
         0.19923E+07
         0.19059E+07
         0.10909E+07
         0.12763E+07
         0.17862E+07
         0.15781E+07
         0.21077E+07
        -0.28633E+06
         0.32188E+05
         0.22324E+07
        -0.11553E+06
        -0.11574E+07
         0.94094E+06
         0.11857E+07
        -0.21364E+07
         0.26526E+06
         0.98051E+06
         0.11529E+07
         0.13579E+07
         0.36602E+06
         0.20798E+06
         0.72109E+06
         0.12507E+07
         0.24356E+06
        -0.21969E+06
        -0.78663E+06
        -0.23007E+06
        -0.32314E+07
        -0.34832E+07
        -0.17610E+07
        -0.57881E+06
         0.88953E+06
         0.57487E+05
         0.15602E+07
         0.22119E+07
         0.90507E+06
         0.71229E+06
         0.10640E+07
         0.37697E+05
         0.65201E+05
         0.39603E+06
         0.96616E+06
         0.61467E+06
         0.72882E+06
         0.23721E+06
         0.31666E+06
         0.58196E+06
         0.78191E+06
         0.92394E+06
         0.12351E+07
         0.16845E+07
         0.17312E+07
         0.21038E+07
         0.16731E+06
         0.17241E+07
         0.75415E+06
         0.19519E+07
         0.29139E+07
         0.35743E+07
         0.31328E+07
         0.33219E+07
         0.29151E+07
         0.22743E+07
         0.20518E+07
         0.18008E+07
         0.12931E+07
         0.19393E+07
         0.87070E+06
         0.80824E+05
         0.21072E+06
         0.29730E+06
         0.58924E+06
         0.16284E+07
         0.16522E+07
         0.12846E+07
         0.75124E+06
         0.73642E+06
         0.14012E+07
         0.20178E+07
         0.18967E+07
         0.10843E+07
         0.12698E+07
         0.17753E+07
         0.15707E+07
         0.21010E+07
        -0.29301E+06
         0.22771E+05
         0.22092E+07
        -0.14983E+06
        -0.11679E+07
         0.93194E+06
         0.11794E+07
        -0.21499E+07
         0.25491E+06
         0.91914E+06
         0.10978E+07
         0.13441E+07
         0.28110E+06
         0.12120E+06
         0.66167E+06
         0.11972E+07
         0.11817E+06
        -0.38068E+06
        -0.90652E+06
        -0.38185E+06
        -0.32549E+07
        -0.35669E+07
        -0.18952E+07
        -0.75337E+06
         0.85168E+06
        -0.23731E+05
         0.15475E+07
         0.22001E+07
         0.89457E+06
         0.70400E+06
         0.10578E+07
         0.21723E+05
         0.44597E+05
         0.35650E+06
         0.91642E+06
         0.51544E+06
         0.60699E+06
         0.10776E+06
         0.25049E+06
         0.54909E+06
         0.75535E+06
         0.90879E+06
         0.12213E+07
         0.16700E+07
         0.17195E+07
         0.20952E+07
         0.15000E+06
         0.17122E+07
         0.73551E+06
         0.19356E+07
         0.29030E+07
         0.35618E+07
         0.31117E+07
         0.32989E+07
         0.28928E+07
         0.22474E+07
         0.20093E+07
         0.17321E+07
         0.12275E+07
         0.19081E+07
         0.83590E+06
        -0.14430E+05
         0.11004E+06
         0.25049E+06
         0.56686E+06
         0.16072E+07
         0.16359E+07
         0.12652E+07
         0.73102E+06
         0.72258E+06
         0.13908E+07
         0.20074E+07
         0.18798E+07
         0.10709E+07
         0.12584E+07
         0.17641E+07
         0.15622E+07
         0.20915E+07
        -0.30408E+06
         0.68375E+04
         0.21815E+07
        -0.18562E+06
        -0.11792E+07
         0.92634E+06
         0.11724E+07
        -0.21646E+07
         0.25013E+06
         0.87777E+06
         0.10546E+07
         0.13313E+07
         0.22539E+06
         0.58521E+05
         0.62344E+06
         0.11588E+07
         0.41155E+05
        -0.48045E+06
        -0.99163E+06
        -0.47905E+06
        -0.32754E+07
        -0.36272E+07
        -0.19874E+07
        -0.86890E+06
         0.81219E+06
        -0.82711E+05
         0.15234E+07
         0.21834E+07
         0.88373E+06
         0.69341E+06
         0.10485E+07
         0.99834E+04
         0.27732E+05
         0.32674E+06
         0.88143E+06
         0.44880E+06
         0.52712E+06
         0.25574E+05
         0.20689E+06
         0.52742E+06
         0.73180E+06
         0.88451E+06
         0.11975E+07
         0.16487E+07
         0.17014E+07
         0.20815E+07
         0.13441E+06
         0.17018E+07
         0.71964E+06
         0.19230E+07
         0.28978E+07
         0.35580E+07
         0.31027E+07
         0.32837E+07
         0.28739E+07
         0.22308E+07
         0.19833E+07
         0.16846E+07
         0.11828E+07
         0.18839E+07
         0.81134E+06
        -0.76119E+05
         0.39387E+05
         0.21704E+06
         0.55668E+06
         0.15879E+07
         0.16142E+07
         0.12430E+07
         0.70502E+06
         0.70019E+06
         0.13770E+07
         0.19970E+07
         0.18388E+07
         0.10450E+07
         0.12472E+07
         0.17753E+07
         0.15726E+07
         0.21066E+07
        -0.31147E+06
        -0.21440E+05
         0.21428E+07
        -0.23452E+06
        -0.11704E+07
         0.94576E+06
         0.11805E+07
        -0.21637E+07
         0.27455E+06
         0.88565E+06
         0.10457E+07
         0.13512E+07
         0.23746E+06
         0.67005E+05
         0.63457E+06
         0.11723E+07
         0.42903E+05
        -0.48246E+06
        -0.10257E+07
        -0.49264E+06
        -0.32799E+07
        -0.36341E+07
        -0.19810E+07
        -0.87184E+06
         0.76495E+06
        -0.11382E+06
         0.14838E+07
         0.21797E+07
         0.89331E+06
         0.69445E+06
         0.10468E+07
         0.26239E+05
         0.43263E+05
         0.34379E+06
         0.89880E+06
         0.45954E+06
         0.53573E+06
         0.20442E+05
         0.20132E+06
         0.52384E+06
         0.71144E+06
         0.83557E+06
         0.11397E+07
         0.16198E+07
         0.16954E+07
         0.20879E+07
         0.16450E+06
         0.17329E+07
         0.74490E+06
         0.19399E+07
         0.29155E+07
         0.35820E+07
         0.31298E+07
         0.33100E+07
         0.29041E+07
         0.22706E+07
         0.20182E+07
         0.17056E+07
         0.12064E+07
         0.19086E+07
         0.83505E+06
        -0.57219E+05
         0.53030E+05
         0.23053E+06
         0.57285E+06
         0.15991E+07
         0.16117E+07
         0.12275E+07
         0.69475E+06
         0.70520E+06
         0.13920E+07
         0.20187E+07
         0.17762E+07
         0.99919E+06
         0.12201E+07
         0.17688E+07
         0.15642E+07
         0.21058E+07
        -0.34728E+06
        -0.77099E+05
         0.20774E+07
        -0.30739E+06
        -0.11948E+07
         0.93834E+06
         0.11677E+07
        -0.21955E+07
         0.26963E+06
         0.87345E+06
         0.10104E+07
         0.13470E+07
         0.22816E+06
         0.52069E+05
         0.62924E+06
         0.11685E+07
         0.36867E+05
        -0.49456E+06
        -0.10756E+07
        -0.51718E+06
        -0.33151E+07
        -0.36649E+07
        -0.19899E+07
        -0.88459E+06
         0.69874E+06
        -0.16488E+06
         0.14238E+07
         0.21571E+07
         0.88059E+06
         0.67735E+06
         0.10287E+07
         0.13905E+05
         0.31383E+05
         0.33732E+06
         0.89598E+06
         0.45828E+06
         0.53502E+06
         0.79797E+04
         0.17721E+06
         0.49321E+06
         0.66447E+06
         0.76201E+06
         0.10573E+07
         0.15694E+07
         0.16712E+07
         0.20785E+07
         0.15178E+06
         0.17230E+07
         0.73736E+06
         0.19314E+07
         0.29031E+07
         0.35673E+07
         0.31176E+07
         0.32995E+07
         0.28934E+07
         0.22626E+07
         0.20118E+07
         0.16980E+07
         0.12050E+07
         0.19066E+07
         0.82988E+06
        -0.60065E+05
         0.47103E+05
         0.20937E+06
         0.54120E+06
         0.15642E+07
         0.15723E+07
         0.11786E+07
         0.65193E+06
         0.68241E+06
         0.13797E+07
         0.20091E+07
         0.17580E+07
         0.98219E+06
         0.12090E+07
         0.17598E+07
         0.15552E+07
         0.20966E+07
        -0.36500E+06
        -0.96056E+05
         0.20582E+07
        -0.32820E+06
        -0.12120E+07
         0.92788E+06
         0.11552E+07
        -0.22143E+07
         0.26107E+06
         0.86252E+06
         0.99703E+06
         0.13369E+07
         0.21968E+06
         0.40291E+05
         0.62085E+06
         0.11597E+07
         0.28904E+05
        -0.50382E+06
        -0.10909E+07
        -0.53113E+06
        -0.33298E+07
        -0.36813E+07
        -0.20059E+07
        -0.89666E+06
         0.67737E+06
        -0.18520E+06
         0.14039E+07
         0.21447E+07
         0.86988E+06
         0.66809E+06
         0.10177E+07
        -0.17812E+04
         0.17493E+05
         0.32274E+06
         0.88140E+06
         0.44656E+06
         0.52746E+06
        -0.31474E+04
         0.16283E+06
         0.47890E+06
         0.64899E+06
         0.74378E+06
         0.10366E+07
         0.15517E+07
         0.16562E+07
         0.20668E+07
         0.13436E+06
         0.17060E+07
         0.72583E+06
         0.19195E+07
         0.28889E+07
         0.35548E+07
         0.31047E+07
         0.32816E+07
         0.28697E+07
         0.22378E+07
         0.19893E+07
         0.16878E+07
         0.11968E+07
         0.18890E+07
         0.81162E+06
        -0.77311E+05
         0.24699E+05
         0.18802E+06
         0.52315E+06
         0.15497E+07
         0.15602E+07
         0.11623E+07
         0.63034E+06
         0.66224E+06
         0.13628E+07
         0.19923E+07
         0.17698E+07
         0.99371E+06
         0.12177E+07
         0.17640E+07
         0.15649E+07
         0.20995E+07
        -0.35135E+06
        -0.81456E+05
         0.20707E+07
        -0.31261E+06
        -0.11995E+07
         0.93842E+06
         0.11634E+07
        -0.22006E+07
         0.27786E+06
         0.87741E+06
         0.10126E+07
         0.13457E+07
         0.23716E+06
         0.54481E+05
         0.63222E+06
         0.11705E+07
         0.40683E+05
        -0.48734E+06
        -0.10736E+07
        -0.51568E+06
        -0.33074E+07
        -0.36621E+07
        -0.19907E+07
        -0.88276E+06
         0.69040E+06
        -0.17374E+06
         0.14125E+07
         0.21496E+07
         0.88231E+06
         0.67862E+06
         0.10262E+07
         0.10459E+05
         0.28412E+05
         0.33237E+06
         0.89172E+06
         0.45799E+06
         0.53899E+06
         0.79115E+04
         0.17222E+06
         0.48811E+06
         0.65918E+06
         0.75654E+06
         0.10497E+07
         0.15613E+07
         0.16624E+07
         0.20695E+07
         0.16003E+06
         0.17312E+07
         0.74084E+06
         0.19257E+07
         0.29013E+07
         0.35741E+07
         0.31263E+07
         0.32972E+07
         0.28757E+07
         0.22469E+07
         0.20059E+07
         0.17113E+07
         0.12177E+07
         0.19026E+07
         0.82436E+06
        -0.62623E+05
         0.39541E+05
         0.20622E+06
         0.54041E+06
         0.15699E+07
         0.15812E+07
         0.11811E+07
         0.64592E+06
         0.67607E+06
         0.13767E+07
         0.20074E+07
         0.17669E+07
         0.99273E+06
         0.12156E+07
         0.17583E+07
         0.15629E+07
         0.20946E+07
        -0.35271E+06
        -0.86186E+05
         0.20612E+07
        -0.31975E+06
        -0.12067E+07
         0.93209E+06
         0.11616E+07
        -0.22114E+07
         0.26885E+06
         0.87076E+06
         0.10044E+07
         0.13350E+07
         0.23023E+06
         0.45198E+05
         0.62790E+06
         0.11648E+07
         0.36583E+05
        -0.49341E+06
        -0.10756E+07
        -0.52143E+06
        -0.33117E+07
        -0.36639E+07
        -0.19941E+07
        -0.88775E+06
         0.68398E+06
        -0.18004E+06
         0.14012E+07
         0.21406E+07
         0.87846E+06
         0.67443E+06
         0.10236E+07
        -0.30222E+04
         0.21118E+05
         0.32536E+06
         0.88474E+06
         0.45360E+06
         0.53255E+06
         0.48285E+04
         0.16888E+06
         0.48358E+06
         0.65202E+06
         0.74825E+06
         0.10414E+07
         0.15543E+07
         0.16565E+07
         0.20627E+07
         0.15246E+06
         0.17253E+07
         0.72878E+06
         0.19155E+07
         0.28999E+07
         0.35669E+07
         0.31096E+07
         0.32784E+07
         0.28646E+07
         0.22303E+07
         0.19878E+07
         0.17023E+07
         0.12069E+07
         0.18967E+07
         0.81887E+06
        -0.67706E+05
         0.38774E+05
         0.20267E+06
         0.53522E+06
         0.15562E+07
         0.15641E+07
         0.11679E+07
         0.63911E+06
         0.67267E+06
         0.13690E+07
         0.19967E+07
         0.17586E+07
         0.98405E+06
         0.12093E+07
         0.17555E+07
         0.15566E+07
         0.20915E+07
        -0.35940E+06
        -0.93424E+05
         0.20526E+07
        -0.32685E+06
        -0.12148E+07
         0.92369E+06
         0.11560E+07
        -0.22204E+07
         0.25963E+06
         0.86139E+06
         0.99830E+06
         0.13286E+07
         0.22162E+06
         0.38053E+05
         0.62232E+06
         0.11591E+07
         0.30332E+05
        -0.50288E+06
        -0.10774E+07
        -0.53232E+06
        -0.33146E+07
        -0.36681E+07
        -0.19982E+07
        -0.89110E+06
         0.67460E+06
        -0.19030E+06
         0.13945E+07
         0.21394E+07
         0.86904E+06
         0.66714E+06
         0.10177E+07
        -0.16045E+05
         0.12839E+05
         0.31931E+06
         0.88083E+06
         0.44989E+06
         0.52667E+06
        -0.10980E+04
         0.16292E+06
         0.47746E+06
         0.64534E+06
         0.74107E+06
         0.10334E+07
         0.15482E+07
         0.16509E+07
         0.20596E+07
         0.13741E+06
         0.17128E+07
         0.71960E+06
         0.19124E+07
         0.28958E+07
         0.35524E+07
         0.30886E+07
         0.32614E+07
         0.28532E+07
         0.22184E+07
         0.19804E+07
         0.16935E+07
         0.11940E+07
         0.18878E+07
         0.80969E+06
        -0.78243E+05
         0.31794E+05
         0.19446E+06
         0.52502E+06
         0.15449E+07
         0.15511E+07
         0.11543E+07
         0.62931E+06
         0.66333E+06
         0.13574E+07
         0.19845E+07
         0.17643E+07
         0.98767E+06
         0.12125E+07
         0.17622E+07
         0.15631E+07
         0.20985E+07
        -0.35026E+06
        -0.83135E+05
         0.20583E+07
        -0.31945E+06
        -0.12029E+07
         0.93090E+06
         0.11586E+07
        -0.22082E+07
         0.27520E+06
         0.86986E+06
         0.10054E+07
         0.13374E+07
         0.23237E+06
         0.49324E+05
         0.63141E+06
         0.11688E+07
         0.38310E+05
        -0.49274E+06
        -0.10675E+07
        -0.52250E+06
        -0.33001E+07
        -0.36557E+07
        -0.19812E+07
        -0.87605E+06
         0.68496E+06
        -0.18253E+06
         0.14050E+07
         0.21508E+07
         0.87676E+06
         0.67388E+06
         0.10212E+07
        -0.61091E+04
         0.23681E+05
         0.33308E+06
         0.89230E+06
         0.45863E+06
         0.53596E+06
         0.57060E+04
         0.16863E+06
         0.48260E+06
         0.65156E+06
         0.74883E+06
         0.10419E+07
         0.15563E+07
         0.16575E+07
         0.20675E+07
         0.15615E+06
         0.17331E+07
         0.73869E+06
         0.19218E+07
         0.28927E+07
         0.35534E+07
         0.31035E+07
         0.32782E+07
         0.28644E+07
         0.22355E+07
         0.19967E+07
         0.17012E+07
         0.12079E+07
         0.19020E+07
         0.82258E+06
        -0.68308E+05
         0.38478E+05
         0.20280E+06
         0.53283E+06
         0.15571E+07
         0.15655E+07
         0.11683E+07
         0.64129E+06
         0.67348E+06
         0.13725E+07
         0.20022E+07
         0.17605E+07
         0.98072E+06
         0.12065E+07
         0.17557E+07
         0.15566E+07
         0.20915E+07
        -0.35897E+06
        -0.89633E+05
         0.20514E+07
        -0.32851E+06
        -0.12147E+07
         0.92044E+06
         0.11470E+07
        -0.22213E+07
         0.26874E+06
         0.86235E+06
         0.99707E+06
         0.13260E+07
         0.22168E+06
         0.38474E+05
         0.62129E+06
         0.11584E+07
         0.27577E+05
        -0.50369E+06
        -0.10751E+07
        -0.53205E+06
        -0.33126E+07
        -0.36713E+07
        -0.19929E+07
        -0.88294E+06
         0.67625E+06
        -0.19224E+06
         0.13916E+07
         0.21427E+07
         0.86776E+06
         0.66539E+06
         0.10114E+07
        -0.20342E+05
         0.97271E+04
         0.32060E+06
         0.87872E+06
         0.44578E+06
         0.52589E+06
        -0.64810E+04
         0.15768E+06
         0.47366E+06
         0.64201E+06
         0.73754E+06
         0.10317E+07
         0.15494E+07
         0.16500E+07
         0.20597E+07
         0.14128E+06
         0.17203E+07
         0.72416E+06
         0.19050E+07
         0.28733E+07
         0.35349E+07
         0.30921E+07
         0.32635E+07
         0.28451E+07
         0.22164E+07
         0.19734E+07
         0.16782E+07
         0.11924E+07
         0.18859E+07
         0.80887E+06
        -0.83887E+05
         0.14402E+05
         0.18134E+06
         0.52201E+06
         0.15421E+07
         0.15500E+07
         0.11603E+07
         0.63575E+06
         0.66196E+06
         0.13569E+07
         0.19867E+07
         0.17600E+07
         0.97844E+06
         0.12047E+07
         0.17544E+07
         0.15558E+07
         0.20896E+07
        -0.35967E+06
        -0.89682E+05
         0.20519E+07
        -0.32737E+06
        -0.12163E+07
         0.91903E+06
         0.11453E+07
        -0.22231E+07
         0.26954E+06
         0.86117E+06
         0.99895E+06
         0.13232E+07
         0.22116E+06
         0.37126E+05
         0.61916E+06
         0.11568E+07
         0.25244E+05
        -0.50571E+06
        -0.10727E+07
        -0.53476E+06
        -0.33092E+07
        -0.36734E+07
        -0.19951E+07
        -0.88351E+06
         0.67180E+06
        -0.19613E+06
         0.13857E+07
         0.21414E+07
         0.86575E+06
         0.66266E+06
         0.10085E+07
        -0.26886E+05
         0.22371E+04
         0.31601E+06
         0.87739E+06
         0.44484E+06
         0.52457E+06
        -0.84369E+04
         0.15569E+06
         0.47158E+06
         0.63897E+06
         0.73315E+06
         0.10275E+07
         0.15478E+07
         0.16485E+07
         0.20578E+07
         0.14080E+06
         0.17205E+07
         0.72021E+06
         0.18986E+07
         0.28728E+07
         0.35345E+07
         0.30875E+07
         0.32512E+07
         0.28311E+07
         0.22086E+07
         0.19726E+07
         0.16760E+07
         0.11885E+07
         0.18796E+07
         0.80173E+06
        -0.88853E+05
         0.11171E+05
         0.17855E+06
         0.51893E+06
         0.15367E+07
         0.15431E+07
         0.11559E+07
         0.63518E+06
         0.66037E+06
         0.13499E+07
         0.19803E+07
         0.17774E+07
         0.10004E+07
         0.12235E+07
         0.17703E+07
         0.15751E+07
         0.21057E+07
        -0.33147E+06
        -0.68564E+05
         0.20668E+07
        -0.30975E+06
        -0.11881E+07
         0.94182E+06
         0.11663E+07
        -0.22002E+07
         0.29258E+06
         0.87910E+06
         0.10197E+07
         0.13401E+07
         0.24403E+06
         0.60856E+05
         0.63925E+06
         0.11759E+07
         0.44704E+05
        -0.48378E+06
        -0.10469E+07
        -0.51299E+06
        -0.32811E+07
        -0.36406E+07
        -0.19629E+07
        -0.85682E+06
         0.69228E+06
        -0.17409E+06
         0.14025E+07
         0.21563E+07
         0.88620E+06
         0.68230E+06
         0.10272E+07
        -0.11560E+05
         0.22606E+05
         0.33795E+06
         0.89643E+06
         0.46437E+06
         0.54181E+06
         0.12368E+05
         0.17700E+06
         0.49179E+06
         0.65874E+06
         0.75273E+06
         0.10451E+07
         0.15627E+07
         0.16623E+07
         0.20715E+07
         0.17496E+06
         0.17545E+07
         0.74878E+06
         0.19193E+07
         0.28980E+07
         0.35663E+07
         0.31141E+07
         0.32716E+07
         0.28541E+07
         0.22336E+07
         0.19952E+07
         0.17025E+07
         0.12099E+07
         0.19034E+07
         0.82869E+06
        -0.60863E+05
         0.42604E+05
         0.21218E+06
         0.54782E+06
         0.15669E+07
         0.15690E+07
         0.11752E+07
         0.65631E+06
         0.68559E+06
         0.13772E+07
         0.20080E+07
         0.17703E+07
         0.99410E+06
         0.12178E+07
         0.17620E+07
         0.15669E+07
         0.20985E+07
        -0.33911E+06
        -0.77125E+05
         0.20569E+07
        -0.32140E+06
        -0.11996E+07
         0.93379E+06
         0.11612E+07
        -0.22140E+07
         0.28314E+06
         0.86936E+06
         0.10089E+07
         0.13307E+07
         0.22974E+06
         0.47655E+05
         0.63250E+06
         0.11665E+07
         0.38114E+05
        -0.49700E+06
        -0.10565E+07
        -0.52651E+06
        -0.32922E+07
        -0.36512E+07
        -0.19643E+07
        -0.86134E+06
         0.68602E+06
        -0.18508E+06
         0.13930E+07
         0.21464E+07
         0.87460E+06
         0.67460E+06
         0.10225E+07
        -0.27731E+05
         0.11444E+05
         0.33286E+06
         0.88794E+06
         0.45446E+06
         0.53019E+06
         0.33096E+04
         0.16748E+06
         0.48339E+06
         0.65081E+06
         0.74644E+06
         0.10364E+07
         0.15523E+07
         0.16534E+07
         0.20635E+07
         0.15305E+06
         0.17361E+07
         0.73200E+06
         0.19105E+07
         0.28949E+07
         0.35580E+07
         0.30959E+07
         0.32495E+07
         0.28326E+07
         0.22146E+07
         0.19728E+07
         0.16769E+07
         0.11914E+07
         0.18942E+07
         0.82446E+06
        -0.63508E+05
         0.33867E+05
         0.19704E+06
         0.53648E+06
         0.15534E+07
         0.15565E+07
         0.11611E+07
         0.64125E+06
         0.67597E+06
         0.13683E+07
         0.19933E+07
         0.17584E+07
         0.97812E+06
         0.12021E+07
         0.17506E+07
         0.15539E+07
         0.20848E+07
        -0.35244E+06
        -0.87387E+05
         0.20427E+07
        -0.34319E+06
        -0.12137E+07
         0.92077E+06
         0.11500E+07
        -0.22282E+07
         0.27110E+06
         0.85734E+06
         0.99166E+06
         0.13199E+07
         0.21814E+06
         0.41081E+05
         0.62414E+06
         0.11554E+07
         0.30141E+05
        -0.50833E+06
        -0.10764E+07
        -0.53977E+06
        -0.33187E+07
        -0.36686E+07
        -0.19268E+07
        -0.84206E+06
         0.67443E+06
        -0.20048E+06
         0.13836E+07
         0.21397E+07
         0.86152E+06
         0.66187E+06
         0.10110E+07
        -0.51902E+05
         0.48015E+03
         0.35315E+06
         0.88739E+06
         0.44370E+06
         0.51463E+06
        -0.64919E+04
         0.15533E+06
         0.46992E+06
         0.63693E+06
         0.73514E+06
         0.10265E+07
         0.15440E+07
         0.16454E+07
         0.20537E+07
         0.13841E+06
         0.17227E+07
         0.72059E+06
         0.19005E+07
         0.28811E+07
         0.35356E+07
         0.30702E+07
         0.32248E+07
         0.28110E+07
         0.22096E+07
         0.19337E+07
         0.16154E+07
         0.11656E+07
         0.18798E+07
         0.81170E+06
        -0.74826E+05
         0.19888E+05
         0.18116E+06
         0.51786E+06
         0.15324E+07
         0.15422E+07
         0.11477E+07
         0.62590E+06
         0.66455E+06
         0.13508E+07
         0.19737E+07
         0.17750E+07
         0.99827E+06
         0.12225E+07
         0.17697E+07
         0.15744E+07
         0.21022E+07
        -0.32758E+06
        -0.66601E+05
         0.20530E+07
        -0.34560E+06
        -0.11883E+07
         0.93781E+06
         0.11656E+07
        -0.22066E+07
         0.29172E+06
         0.87545E+06
         0.10064E+07
         0.13358E+07
         0.24447E+06
         0.80408E+05
         0.64086E+06
         0.11721E+07
         0.45807E+05
        -0.48468E+06
        -0.10675E+07
        -0.51606E+06
        -0.33227E+07
        -0.36481E+07
        -0.18125E+07
        -0.76241E+06
         0.69195E+06
        -0.17807E+06
         0.14001E+07
         0.21593E+07
         0.88343E+06
         0.68377E+06
         0.10287E+07
        -0.50028E+05
         0.23638E+05
         0.42749E+06
         0.92376E+06
         0.46344E+06
         0.52470E+06
         0.11377E+05
         0.17617E+06
         0.49238E+06
         0.65755E+06
         0.75306E+06
         0.10458E+07
         0.15644E+07
         0.16639E+07
         0.20700E+07
         0.17357E+06
         0.17572E+07
         0.75584E+06
         0.19252E+07
         0.28967E+07
         0.35536E+07
         0.30952E+07
         0.32504E+07
         0.28391E+07
         0.22641E+07
         0.19209E+07
         0.15659E+07
         0.11674E+07
         0.18995E+07
         0.82816E+06
        -0.61060E+05
         0.36899E+05
         0.20932E+06
         0.55240E+06
         0.15647E+07
         0.15703E+07
         0.11767E+07
         0.65841E+06
         0.69469E+06
         0.13752E+07
         0.19994E+07
         0.17139E+07
         0.92434E+06
         0.11497E+07
         0.16976E+07
         0.15013E+07
         0.20260E+07
        -0.41286E+06
        -0.13814E+06
         0.19765E+07
        -0.43413E+06
        -0.12848E+07
         0.85699E+06
         0.10865E+07
        -0.22995E+07
         0.21059E+06
         0.80876E+06
         0.91940E+06
         0.12617E+07
         0.15851E+06
        -0.18712E+04
         0.56734E+06
         0.10989E+07
        -0.26796E+05
        -0.56799E+06
        -0.11600E+07
        -0.59508E+06
        -0.34295E+07
        -0.37471E+07
        -0.18559E+07
        -0.81461E+06
         0.62231E+06
        -0.26024E+06
         0.13221E+07
         0.20786E+07
         0.80353E+06
         0.60334E+06
         0.95022E+06
        -0.14644E+06
        -0.55495E+05
         0.38001E+06
         0.85302E+06
         0.38562E+06
         0.44645E+06
        -0.61703E+05
         0.97504E+05
         0.40835E+06
         0.57769E+06
         0.67751E+06
         0.96642E+06
         0.14827E+07
         0.15811E+07
         0.19902E+07
         0.50468E+05
         0.16380E+07
         0.63230E+06
         0.17994E+07
         0.27718E+07
         0.34338E+07
         0.29730E+07
         0.31183E+07
         0.27150E+07
         0.21515E+07
         0.17640E+07
         0.13951E+07
         0.10447E+07
         0.17972E+07
         0.72181E+06
        -0.17094E+06
        -0.76337E+05
         0.83403E+05
         0.42255E+06
         0.14404E+07
         0.14542E+07
         0.10651E+07
         0.54459E+06
         0.57745E+06
         0.12629E+07
         0.18878E+07
         0.17491E+07
         0.92948E+06
         0.11634E+07
         0.17264E+07
         0.15257E+07
         0.20509E+07
        -0.39947E+06
        -0.93832E+05
         0.20264E+07
        -0.36798E+06
        -0.12579E+07
         0.85854E+06
         0.10664E+07
        -0.22444E+07
         0.24768E+06
         0.86123E+06
         0.97846E+06
         0.13011E+07
         0.20577E+06
         0.46260E+05
         0.60070E+06
         0.11241E+07
         0.25422E+05
        -0.50549E+06
        -0.10728E+07
        -0.53688E+06
        -0.33379E+07
        -0.36331E+07
        -0.17603E+07
        -0.73432E+06
         0.66582E+06
        -0.22421E+06
         0.13430E+07
         0.20673E+07
         0.81581E+06
         0.59722E+06
         0.92794E+06
        -0.10102E+06
         0.27838E+04
         0.43166E+06
         0.88518E+06
         0.43006E+06
         0.49333E+06
        -0.11815E+05
         0.12615E+06
         0.42129E+06
         0.58979E+06
         0.70990E+06
         0.99260E+06
         0.14839E+07
         0.15863E+07
         0.19916E+07
         0.97662E+05
         0.16994E+07
         0.64775E+06
         0.17723E+07
         0.27157E+07
         0.33997E+07
         0.30288E+07
         0.31761E+07
         0.27611E+07
         0.21787E+07
         0.17716E+07
         0.14185E+07
         0.10911E+07
         0.18203E+07
         0.77014E+06
        -0.10220E+06
        -0.17928E+05
         0.12787E+06
         0.44179E+06
         0.14382E+07
         0.14799E+07
         0.11022E+07
         0.60301E+06
         0.64856E+06
         0.13188E+07
         0.19457E+07
         0.23845E+09
         0.27824E+09
         0.27975E+09
         0.27885E+09
         0.28305E+09
         0.28674E+09
         0.33088E+09
         0.27069E+09
         0.26039E+09
         0.27248E+09
         0.34907E+09
         0.30883E+09
         0.28808E+09
         0.32668E+09
         0.31447E+09
         0.24480E+09
         0.30431E+09
         0.26633E+09
         0.29971E+09
         0.33082E+09
         0.26354E+09
         0.26893E+09
         0.25619E+09
         0.30205E+09
         0.29831E+09
         0.28930E+09
         0.32311E+09
         0.36209E+09
         0.36427E+09
         0.30597E+09
         0.25673E+09
         0.29956E+09
         0.28031E+09
         0.29328E+09
         0.29852E+09
         0.29608E+09
         0.28170E+09
         0.30588E+09
         0.30592E+09
         0.30611E+09
         0.29943E+09
         0.28695E+09
         0.27222E+09
         0.25549E+09
         0.27236E+09
         0.29632E+09
         0.28957E+09
         0.27971E+09
         0.28726E+09
         0.28767E+09
         0.28809E+09
         0.28367E+09
         0.44995E+09
         0.44008E+09
         0.44650E+09
         0.43259E+09
         0.44448E+09
         0.46427E+09
         0.46741E+09
         0.46575E+09
         0.47018E+09
         0.48097E+09
         0.46701E+09
         0.44067E+09
         0.39664E+09
         0.37611E+09
         0.37866E+09
         0.38532E+09
         0.38926E+09
         0.42149E+09
         0.45257E+09
         0.45382E+09
         0.41942E+09
         0.40609E+09
         0.41871E+09
         0.41522E+09
         0.41158E+09
         0.41268E+09
         0.21513E+10
         0.22583E+10
         0.22303E+10
         0.20619E+10
         0.24608E+10
         0.23357E+10
         0.24277E+10
         0.24268E+10
         0.21236E+10
         0.24266E+10
         0.26371E+10
         0.28819E+10
         0.26456E+10
         0.27008E+10
         0.29709E+10
         0.20819E+10
         0.22300E+10
         0.19828E+10
         0.22922E+10
         0.24020E+10
         0.24379E+10
         0.24903E+10
         0.23531E+10
         0.22174E+10
         0.24623E+10
         0.21517E+10
         0.26919E+10
         0.26595E+10
         0.26689E+10
         0.25396E+10
         0.21057E+10
         0.22096E+10
         0.20765E+10
         0.21604E+10
         0.26621E+10
         0.24782E+10
         0.24780E+10
         0.28939E+10
         0.28372E+10
         0.28095E+10
         0.28390E+10
         0.27116E+10
         0.25752E+10
         0.23098E+10
         0.24017E+10
         0.26577E+10
         0.24901E+10
         0.23601E+10
         0.23229E+10
         0.23958E+10
         0.25642E+10
         0.23995E+10
         0.39880E+10
         0.38859E+10
         0.39590E+10
         0.38389E+10
         0.39429E+10
         0.41315E+10
         0.42001E+10
         0.42034E+10
         0.42353E+10
         0.43223E+10
         0.42027E+10
         0.39595E+10
         0.35807E+10
         0.33955E+10
         0.33950E+10
         0.34303E+10
         0.34587E+10
         0.37330E+10
         0.39979E+10
         0.40104E+10
         0.37305E+10
         0.36237E+10
         0.37336E+10
         0.37107E+10
         0.36668E+10
         0.36581E+10
  
SCALARS                      stress_yz  double 1
LOOKUP_TABLE default
         0.32930E+06
        -0.10953E+06
        -0.28459E+06
        -0.14638E+06
        -0.50536E+01
        -0.13929E+01
        -0.62630E+01
        -0.47770E+01
        -0.10667E+07
         0.70158E+06
        -0.93205E+01
        -0.82056E+01
        -0.93568E+06
        -0.47578E+05
         0.66703E+01
        -0.42766E+00
         0.32172E+06
         0.11990E+07
         0.98137E-01
         0.10041E+01
        -0.62216E+06
        -0.23418E+07
        -0.24346E+07
         0.15291E+02
         0.26407E+02
         0.22072E+02
        -0.23083E+06
        -0.23741E+07
         0.10999E+02
         0.21338E+02
         0.36768E+06
         0.32048E+06
        -0.27223E+06
         0.57020E+01
         0.58208E+01
        -0.12085E+00
         0.10927E+07
         0.10529E+07
         0.10493E+02
         0.81637E+01
         0.10741E+07
         0.68368E+06
         0.79298E+01
         0.72468E+01
         0.97415E+06
         0.33586E+06
        -0.26305E+00
         0.40688E+01
         0.90443E+06
         0.19157E+01
         0.89146E+05
        -0.15516E+00
         0.53282E+05
         0.74102E+01
        -0.35311E+06
         0.43106E+01
        -0.11516E+07
         0.20450E+06
         0.11694E+00
        -0.23735E+00
         0.44588E+06
         0.16269E+07
        -0.15933E+01
        -0.59599E+01
         0.26925E+06
        -0.32162E+01
         0.11559E+07
        -0.39181E+01
        -0.93875E+06
        -0.49724E+06
        -0.48420E+00
         0.63931E+01
        -0.17386E+07
         0.14038E+02
        -0.30135E+07
         0.13593E+02
        -0.30412E+07
         0.10318E+02
        -0.25052E+07
         0.86486E+01
        -0.36743E+07
        -0.28201E+07
         0.55481E+01
        -0.12301E+01
        -0.39443E+06
        -0.13764E+00
         0.15224E+07
        -0.86223E+01
         0.35980E+07
        -0.15094E+02
         0.50278E+07
         0.31165E+07
        -0.22388E+02
        -0.18121E+02
         0.21919E+07
        -0.14067E+02
         0.19667E+07
        -0.14391E+02
         0.19139E+07
        -0.15473E+02
         0.31847E+07
         0.26467E+07
        -0.14389E+02
        -0.68947E+01
        -0.21364E+07
         0.80867E+06
         0.50596E+01
        -0.62875E+01
        -0.52521E+07
         0.16832E+02
        -0.75187E+07
         0.24621E+02
        -0.92052E+07
         0.30407E+02
        -0.10795E+08
         0.30162E+02
        -0.12708E+08
         0.23869E+02
        -0.12990E+08
         0.18472E+02
        -0.12231E+08
         0.17180E+02
        -0.10884E+08
         0.16346E+02
        -0.79378E+07
         0.10446E+02
        -0.53611E+07
         0.34489E+01
        -0.26897E+07
         0.22285E+01
         0.19348E+06
         0.33497E+01
         0.25666E+07
         0.17301E+01
         0.46044E+07
        -0.52320E+01
         0.71257E+07
        -0.14768E+02
         0.80174E+07
        -0.23061E+02
         0.87695E+07
        -0.30232E+02
         0.11203E+08
        -0.30206E+02
         0.11604E+08
        -0.26369E+02
         0.10724E+08
        -0.25699E+02
         0.87216E+07
        -0.25859E+02
         0.59296E+07
        -0.20448E+02
         0.41999E+07
        -0.12092E+02
         0.30203E+07
        -0.93496E+01
        -0.28575E+07
        -0.14776E+07
        -0.12900E+07
        -0.40075E+06
        -0.13207E+07
        -0.14054E+07
        -0.14803E+06
        -0.22764E+07
        -0.19551E+07
        -0.28667E+07
         0.14947E+07
         0.63749E+07
         0.43581E+07
         0.50550E+06
         0.64417E+07
         0.75704E+06
        -0.67063E+06
         0.43193E+06
         0.56320E+06
        -0.42582E+06
         0.39085E+06
         0.32235E+06
        -0.10826E+07
         0.91263E+05
        -0.19573E+07
         0.28935E+06
         0.14971E+05
         0.26178E+06
         0.31745E+06
        -0.15337E+07
         0.73890E+06
        -0.80088E+06
         0.53735E+06
        -0.13081E+06
         0.21534E+06
         0.11684E+07
         0.26213E+07
         0.56632E+07
         0.51743E+07
         0.43682E+07
         0.41101E+07
         0.10227E+07
        -0.83797E+06
        -0.22980E+07
        -0.37939E+07
        -0.61872E+07
        -0.40654E+07
        -0.29194E+07
        -0.31146E+07
        -0.33053E+07
        -0.38726E+07
        -0.17725E+07
         0.33227E+07
        -0.39992E+07
         0.10828E+08
         0.14965E+08
         0.19074E+08
         0.22632E+08
         0.22740E+08
         0.20584E+08
         0.19589E+08
         0.18512E+08
         0.11956E+08
         0.52588E+07
         0.23158E+07
         0.10212E+07
        -0.15646E+07
        -0.61870E+07
        -0.11370E+08
        -0.14829E+08
        -0.17915E+08
        -0.20550E+08
        -0.19371E+08
        -0.18313E+08
        -0.17035E+08
        -0.11841E+08
        -0.69223E+07
        -0.60798E+07
        -0.16375E+09
        -0.16761E+09
        -0.16403E+09
        -0.43552E+08
        -0.11979E+09
        -0.76434E+08
        -0.85052E+08
        -0.15722E+09
        -0.16082E+09
        -0.15641E+09
         0.14785E+09
         0.17853E+09
         0.13667E+09
         0.37748E+08
         0.16851E+09
         0.84062E+08
        -0.36156E+08
         0.34518E+08
         0.15558E+09
         0.30080E+08
         0.46794E+08
         0.35264E+08
        -0.20957E+08
         0.46590E+08
        -0.15979E+09
         0.46580E+08
         0.85606E+07
         0.21729E+08
        -0.34708E+08
        -0.14748E+09
         0.10529E+09
         0.33870E+08
         0.83108E+08
         0.72161E+08
        -0.13578E+08
         0.67173E+08
         0.10046E+09
         0.15479E+09
         0.17444E+09
         0.16444E+09
         0.87009E+08
        -0.23560E+08
        -0.48229E+08
        -0.76564E+08
        -0.10966E+09
        -0.16695E+09
        -0.14446E+09
        -0.11139E+09
        -0.16820E+09
        -0.16950E+09
        -0.11043E+09
        -0.11809E+08
         0.35159E+08
        -0.49221E+08
         0.11001E+09
         0.14312E+09
         0.17428E+09
         0.19604E+09
         0.19936E+09
         0.19374E+09
         0.19009E+09
         0.17680E+09
         0.11308E+09
         0.37738E+08
         0.17887E+08
         0.16052E+08
        -0.68232E+07
        -0.54367E+08
        -0.10530E+09
        -0.13526E+09
        -0.18237E+09
        -0.19736E+09
        -0.19068E+09
        -0.18900E+09
        -0.17770E+09
        -0.12773E+09
        -0.64644E+08
        -0.61683E+08
        -0.16374E+09
        -0.16761E+09
        -0.16403E+09
        -0.43871E+08
        -0.11985E+09
        -0.76536E+08
        -0.85159E+08
        -0.15734E+09
        -0.16084E+09
        -0.15656E+09
         0.14794E+09
         0.17852E+09
         0.13666E+09
         0.37833E+08
         0.16856E+09
         0.84003E+08
        -0.36484E+08
         0.34466E+08
         0.15569E+09
         0.29912E+08
         0.46906E+08
         0.35300E+08
        -0.20963E+08
         0.46567E+08
        -0.15986E+09
         0.46495E+08
         0.86587E+07
         0.21851E+08
        -0.34480E+08
        -0.14754E+09
         0.10521E+09
         0.33796E+08
         0.83292E+08
         0.72279E+08
        -0.13445E+08
         0.67235E+08
         0.10048E+09
         0.15480E+09
         0.17445E+09
         0.16442E+09
         0.87022E+08
        -0.23485E+08
        -0.48273E+08
        -0.76604E+08
        -0.10969E+09
        -0.16695E+09
        -0.14448E+09
        -0.11133E+09
        -0.16821E+09
        -0.16949E+09
        -0.11044E+09
        -0.11647E+08
         0.35138E+08
        -0.49235E+08
         0.11004E+09
         0.14312E+09
         0.17428E+09
         0.19603E+09
         0.19936E+09
         0.19373E+09
         0.19009E+09
         0.17680E+09
         0.11307E+09
         0.37754E+08
         0.17887E+08
         0.16086E+08
        -0.67669E+07
        -0.54383E+08
        -0.10532E+09
        -0.13526E+09
        -0.18237E+09
        -0.19736E+09
        -0.19069E+09
        -0.18900E+09
        -0.17771E+09
        -0.12771E+09
        -0.64606E+08
        -0.61632E+08
        -0.16373E+09
        -0.16760E+09
        -0.16402E+09
        -0.44194E+08
        -0.11992E+09
        -0.76639E+08
        -0.85266E+08
        -0.15746E+09
        -0.16086E+09
        -0.15671E+09
         0.14803E+09
         0.17851E+09
         0.13664E+09
         0.37914E+08
         0.16862E+09
         0.83943E+08
        -0.36817E+08
         0.34414E+08
         0.15580E+09
         0.29742E+08
         0.47018E+08
         0.35335E+08
        -0.20972E+08
         0.46539E+08
        -0.15992E+09
         0.46399E+08
         0.87639E+07
         0.21980E+08
        -0.34230E+08
        -0.14760E+09
         0.10513E+09
         0.33707E+08
         0.83477E+08
         0.72395E+08
        -0.13311E+08
         0.67298E+08
         0.10050E+09
         0.15482E+09
         0.17446E+09
         0.16440E+09
         0.87038E+08
        -0.23404E+08
        -0.48314E+08
        -0.76652E+08
        -0.10972E+09
        -0.16696E+09
        -0.14449E+09
        -0.11127E+09
        -0.16821E+09
        -0.16948E+09
        -0.11045E+09
        -0.11485E+08
         0.35117E+08
        -0.49249E+08
         0.11006E+09
         0.14312E+09
         0.17429E+09
         0.19603E+09
         0.19935E+09
         0.19372E+09
         0.19010E+09
         0.17680E+09
         0.11307E+09
         0.37772E+08
         0.17888E+08
         0.16120E+08
        -0.67103E+07
        -0.54401E+08
        -0.10535E+09
        -0.13527E+09
        -0.18238E+09
        -0.19736E+09
        -0.19069E+09
        -0.18901E+09
        -0.17772E+09
        -0.12770E+09
        -0.64568E+08
        -0.61580E+08
        -0.16371E+09
        -0.16760E+09
        -0.16401E+09
        -0.44518E+08
        -0.11998E+09
        -0.76743E+08
        -0.85379E+08
        -0.15758E+09
        -0.16089E+09
        -0.15686E+09
         0.14812E+09
         0.17850E+09
         0.13663E+09
         0.38000E+08
         0.16867E+09
         0.83879E+08
        -0.37155E+08
         0.34361E+08
         0.15591E+09
         0.29561E+08
         0.47132E+08
         0.35366E+08
        -0.20990E+08
         0.46493E+08
        -0.15997E+09
         0.46272E+08
         0.88728E+07
         0.22151E+08
        -0.33920E+08
        -0.14766E+09
         0.10503E+09
         0.33585E+08
         0.83660E+08
         0.72512E+08
        -0.13178E+08
         0.67359E+08
         0.10051E+09
         0.15483E+09
         0.17447E+09
         0.16437E+09
         0.87061E+08
        -0.23303E+08
        -0.48344E+08
        -0.76719E+08
        -0.10976E+09
        -0.16697E+09
        -0.14450E+09
        -0.11121E+09
        -0.16822E+09
        -0.16948E+09
        -0.11046E+09
        -0.11324E+08
         0.35096E+08
        -0.49262E+08
         0.11008E+09
         0.14312E+09
         0.17429E+09
         0.19602E+09
         0.19934E+09
         0.19371E+09
         0.19010E+09
         0.17680E+09
         0.11306E+09
         0.37792E+08
         0.17889E+08
         0.16153E+08
        -0.66532E+07
        -0.54419E+08
        -0.10537E+09
        -0.13528E+09
        -0.18238E+09
        -0.19735E+09
        -0.19070E+09
        -0.18901E+09
        -0.17773E+09
        -0.12769E+09
        -0.64530E+08
        -0.61529E+08
        -0.16370E+09
        -0.16759E+09
        -0.16400E+09
        -0.44841E+08
        -0.12005E+09
        -0.76846E+08
        -0.85484E+08
        -0.15770E+09
        -0.16091E+09
        -0.15701E+09
         0.14821E+09
         0.17849E+09
         0.13661E+09
         0.38087E+08
         0.16872E+09
         0.83810E+08
        -0.37498E+08
         0.34307E+08
         0.15603E+09
         0.29370E+08
         0.47246E+08
         0.35394E+08
        -0.21017E+08
         0.46428E+08
        -0.16001E+09
         0.46112E+08
         0.89946E+07
         0.22360E+08
        -0.33547E+08
        -0.14771E+09
         0.10493E+09
         0.33427E+08
         0.83843E+08
         0.72630E+08
        -0.13044E+08
         0.67421E+08
         0.10053E+09
         0.15485E+09
         0.17448E+09
         0.16435E+09
         0.87091E+08
        -0.23181E+08
        -0.48362E+08
        -0.76806E+08
        -0.10982E+09
        -0.16699E+09
        -0.14452E+09
        -0.11115E+09
        -0.16822E+09
        -0.16947E+09
        -0.11047E+09
        -0.11160E+08
         0.35074E+08
        -0.49276E+08
         0.11010E+09
         0.14312E+09
         0.17430E+09
         0.19601E+09
         0.19933E+09
         0.19370E+09
         0.19011E+09
         0.17680E+09
         0.11306E+09
         0.37816E+08
         0.17892E+08
         0.16185E+08
        -0.65959E+07
        -0.54437E+08
        -0.10541E+09
        -0.13529E+09
        -0.18239E+09
        -0.19735E+09
        -0.19070E+09
        -0.18901E+09
        -0.17774E+09
        -0.12767E+09
        -0.64493E+08
        -0.61478E+08
        -0.16368E+09
        -0.16759E+09
        -0.16400E+09
        -0.45168E+08
        -0.12011E+09
        -0.76949E+08
        -0.85578E+08
        -0.15782E+09
        -0.16094E+09
        -0.15716E+09
         0.14831E+09
         0.17848E+09
         0.13660E+09
         0.38180E+08
         0.16877E+09
         0.83741E+08
        -0.37849E+08
         0.34254E+08
         0.15615E+09
         0.29175E+08
         0.47360E+08
         0.35419E+08
        -0.21047E+08
         0.46356E+08
        -0.16005E+09
         0.45942E+08
         0.91258E+07
         0.22591E+08
        -0.33149E+08
        -0.14775E+09
         0.10482E+09
         0.33250E+08
         0.84030E+08
         0.72753E+08
        -0.12909E+08
         0.67485E+08
         0.10055E+09
         0.15487E+09
         0.17449E+09
         0.16434E+09
         0.87123E+08
        -0.23053E+08
        -0.48376E+08
        -0.76900E+08
        -0.10989E+09
        -0.16700E+09
        -0.14454E+09
        -0.11110E+09
        -0.16823E+09
        -0.16947E+09
        -0.11048E+09
        -0.10996E+08
         0.35053E+08
        -0.49289E+08
         0.11012E+09
         0.14312E+09
         0.17430E+09
         0.19601E+09
         0.19932E+09
         0.19368E+09
         0.19011E+09
         0.17680E+09
         0.11306E+09
         0.37842E+08
         0.17895E+08
         0.16217E+08
        -0.65386E+07
        -0.54456E+08
        -0.10544E+09
        -0.13530E+09
        -0.18240E+09
        -0.19735E+09
        -0.19071E+09
        -0.18902E+09
        -0.17775E+09
        -0.12766E+09
        -0.64455E+08
        -0.61426E+08
        -0.16367E+09
        -0.16758E+09
        -0.16400E+09
        -0.45502E+08
        -0.12018E+09
        -0.77052E+08
        -0.85652E+08
        -0.15794E+09
        -0.16097E+09
        -0.15729E+09
         0.14843E+09
         0.17847E+09
         0.13658E+09
         0.38294E+08
         0.16883E+09
         0.83676E+08
        -0.38208E+08
         0.34201E+08
         0.15627E+09
         0.28980E+08
         0.47474E+08
         0.35445E+08
        -0.21076E+08
         0.46286E+08
        -0.16009E+09
         0.45770E+08
         0.92804E+07
         0.22837E+08
        -0.32744E+08
        -0.14778E+09
         0.10472E+09
         0.33062E+08
         0.84223E+08
         0.72882E+08
        -0.12774E+08
         0.67549E+08
         0.10057E+09
         0.15488E+09
         0.17450E+09
         0.16432E+09
         0.87157E+08
        -0.22922E+08
        -0.48389E+08
        -0.76993E+08
        -0.10995E+09
        -0.16701E+09
        -0.14457E+09
        -0.11107E+09
        -0.16823E+09
        -0.16946E+09
        -0.11048E+09
        -0.10830E+08
         0.35031E+08
        -0.49302E+08
         0.11014E+09
         0.14312E+09
         0.17431E+09
         0.19600E+09
         0.19931E+09
         0.19367E+09
         0.19011E+09
         0.17680E+09
         0.11306E+09
         0.37868E+08
         0.17898E+08
         0.16249E+08
        -0.64813E+07
        -0.54475E+08
        -0.10548E+09
        -0.13531E+09
        -0.18240E+09
        -0.19735E+09
        -0.19072E+09
        -0.18902E+09
        -0.17776E+09
        -0.12764E+09
        -0.64417E+08
        -0.61374E+08
        -0.16366E+09
        -0.16757E+09
        -0.16399E+09
        -0.45842E+08
        -0.12024E+09
        -0.77156E+08
        -0.85709E+08
        -0.15805E+09
        -0.16100E+09
        -0.15743E+09
         0.14856E+09
         0.17846E+09
         0.13657E+09
         0.38414E+08
         0.16888E+09
         0.83613E+08
        -0.38572E+08
         0.34147E+08
         0.15639E+09
         0.28786E+08
         0.47588E+08
         0.35471E+08
        -0.21106E+08
         0.46219E+08
        -0.16014E+09
         0.45600E+08
         0.94410E+07
         0.23090E+08
        -0.32336E+08
        -0.14782E+09
         0.10461E+09
         0.32864E+08
         0.84419E+08
         0.73016E+08
        -0.12638E+08
         0.67614E+08
         0.10059E+09
         0.15490E+09
         0.17451E+09
         0.16430E+09
         0.87190E+08
        -0.22791E+08
        -0.48400E+08
        -0.77085E+08
        -0.11002E+09
        -0.16703E+09
        -0.14460E+09
        -0.11104E+09
        -0.16825E+09
        -0.16945E+09
        -0.11048E+09
        -0.10662E+08
         0.35010E+08
        -0.49316E+08
         0.11016E+09
         0.14312E+09
         0.17431E+09
         0.19599E+09
         0.19930E+09
         0.19366E+09
         0.19012E+09
         0.17680E+09
         0.11306E+09
         0.37893E+08
         0.17901E+08
         0.16282E+08
        -0.64239E+07
        -0.54494E+08
        -0.10551E+09
        -0.13532E+09
        -0.18241E+09
        -0.19735E+09
        -0.19072E+09
        -0.18902E+09
        -0.17777E+09
        -0.12762E+09
        -0.64379E+08
        -0.61323E+08
        -0.16364E+09
        -0.16755E+09
        -0.16399E+09
        -0.46181E+08
        -0.12031E+09
        -0.77260E+08
        -0.85767E+08
        -0.15816E+09
        -0.16103E+09
        -0.15756E+09
         0.14869E+09
         0.17845E+09
         0.13656E+09
         0.38539E+08
         0.16894E+09
         0.83550E+08
        -0.38938E+08
         0.34092E+08
         0.15651E+09
         0.28589E+08
         0.47702E+08
         0.35498E+08
        -0.21135E+08
         0.46151E+08
        -0.16018E+09
         0.45430E+08
         0.96054E+07
         0.23339E+08
        -0.31930E+08
        -0.14785E+09
         0.10451E+09
         0.32670E+08
         0.84614E+08
         0.73148E+08
        -0.12501E+08
         0.67677E+08
         0.10060E+09
         0.15492E+09
         0.17452E+09
         0.16428E+09
         0.87224E+08
        -0.22661E+08
        -0.48412E+08
        -0.77177E+08
        -0.11008E+09
        -0.16704E+09
        -0.14463E+09
        -0.11102E+09
        -0.16826E+09
        -0.16944E+09
        -0.11049E+09
        -0.10494E+08
         0.34989E+08
        -0.49329E+08
         0.11018E+09
         0.14312E+09
         0.17432E+09
         0.19599E+09
         0.19930E+09
         0.19365E+09
         0.19012E+09
         0.17680E+09
         0.11306E+09
         0.37919E+08
         0.17905E+08
         0.16315E+08
        -0.63667E+07
        -0.54513E+08
        -0.10554E+09
        -0.13533E+09
        -0.18242E+09
        -0.19734E+09
        -0.19073E+09
        -0.18903E+09
        -0.17778E+09
        -0.12761E+09
        -0.64341E+08
        -0.61271E+08
        -0.16363E+09
        -0.16754E+09
        -0.16399E+09
        -0.46519E+08
        -0.12037E+09
        -0.77363E+08
        -0.85825E+08
        -0.15827E+09
        -0.16105E+09
        -0.15769E+09
         0.14882E+09
         0.17844E+09
         0.13655E+09
         0.38658E+08
         0.16899E+09
         0.83488E+08
        -0.39305E+08
         0.34038E+08
         0.15663E+09
         0.28392E+08
         0.47816E+08
         0.35524E+08
        -0.21163E+08
         0.46084E+08
        -0.16023E+09
         0.45261E+08
         0.97653E+07
         0.23587E+08
        -0.31525E+08
        -0.14788E+09
         0.10441E+09
         0.32474E+08
         0.84808E+08
         0.73281E+08
        -0.12365E+08
         0.67742E+08
         0.10062E+09
         0.15494E+09
         0.17453E+09
         0.16426E+09
         0.87257E+08
        -0.22532E+08
        -0.48425E+08
        -0.77268E+08
        -0.11015E+09
        -0.16705E+09
        -0.14466E+09
        -0.11100E+09
        -0.16827E+09
        -0.16943E+09
        -0.11049E+09
        -0.10326E+08
         0.34967E+08
        -0.49342E+08
         0.11020E+09
         0.14312E+09
         0.17433E+09
         0.19598E+09
         0.19929E+09
         0.19364E+09
         0.19013E+09
         0.17680E+09
         0.11305E+09
         0.37944E+08
         0.17908E+08
         0.16349E+08
        -0.63096E+07
        -0.54532E+08
        -0.10558E+09
        -0.13535E+09
        -0.18242E+09
        -0.19734E+09
        -0.19073E+09
        -0.18903E+09
        -0.17779E+09
        -0.12759E+09
        -0.64304E+08
        -0.61219E+08
        -0.16362E+09
        -0.16753E+09
        -0.16399E+09
        -0.46856E+08
        -0.12043E+09
        -0.77465E+08
        -0.85889E+08
        -0.15838E+09
        -0.16108E+09
        -0.15782E+09
         0.14896E+09
         0.17843E+09
         0.13653E+09
         0.38782E+08
         0.16904E+09
         0.83426E+08
        -0.39673E+08
         0.33983E+08
         0.15675E+09
         0.28193E+08
         0.47930E+08
         0.35549E+08
        -0.21193E+08
         0.46018E+08
        -0.16027E+09
         0.45092E+08
         0.99278E+07
         0.23830E+08
        -0.31121E+08
        -0.14792E+09
         0.10430E+09
         0.32279E+08
         0.85003E+08
         0.73414E+08
        -0.12228E+08
         0.67806E+08
         0.10065E+09
         0.15496E+09
         0.17454E+09
         0.16424E+09
         0.87290E+08
        -0.22402E+08
        -0.48436E+08
        -0.77359E+08
        -0.11021E+09
        -0.16706E+09
        -0.14470E+09
        -0.11097E+09
        -0.16828E+09
        -0.16942E+09
        -0.11050E+09
        -0.10156E+08
         0.34945E+08
        -0.49355E+08
         0.11022E+09
         0.14312E+09
         0.17433E+09
         0.19598E+09
         0.19928E+09
         0.19363E+09
         0.19013E+09
         0.17679E+09
         0.11305E+09
         0.37969E+08
         0.17912E+08
         0.16381E+08
        -0.62523E+07
        -0.54551E+08
        -0.10561E+09
        -0.13536E+09
        -0.18243E+09
        -0.19734E+09
        -0.19074E+09
        -0.18903E+09
        -0.17779E+09
        -0.12758E+09
        -0.64266E+08
        -0.61167E+08
        -0.16361E+09
        -0.16752E+09
        -0.16399E+09
        -0.47197E+08
        -0.12049E+09
        -0.77568E+08
        -0.85946E+08
        -0.15849E+09
        -0.16111E+09
        -0.15795E+09
         0.14909E+09
         0.17842E+09
         0.13652E+09
         0.38905E+08
         0.16910E+09
         0.83364E+08
        -0.40041E+08
         0.33928E+08
         0.15687E+09
         0.27996E+08
         0.48044E+08
         0.35574E+08
        -0.21222E+08
         0.45952E+08
        -0.16031E+09
         0.44924E+08
         0.10087E+08
         0.24072E+08
        -0.30716E+08
        -0.14795E+09
         0.10420E+09
         0.32084E+08
         0.85197E+08
         0.73548E+08
        -0.12090E+08
         0.67871E+08
         0.10066E+09
         0.15498E+09
         0.17455E+09
         0.16422E+09
         0.87323E+08
        -0.22274E+08
        -0.48448E+08
        -0.77450E+08
        -0.11028E+09
        -0.16708E+09
        -0.14473E+09
        -0.11095E+09
        -0.16829E+09
        -0.16942E+09
        -0.11050E+09
        -0.99865E+07
         0.34923E+08
        -0.49368E+08
         0.11024E+09
         0.14312E+09
         0.17434E+09
         0.19597E+09
         0.19927E+09
         0.19362E+09
         0.19013E+09
         0.17679E+09
         0.11305E+09
         0.37994E+08
         0.17915E+08
         0.16414E+08
        -0.61948E+07
        -0.54570E+08
        -0.10564E+09
        -0.13537E+09
        -0.18243E+09
        -0.19734E+09
        -0.19075E+09
        -0.18904E+09
        -0.17780E+09
        -0.12756E+09
        -0.64229E+08
        -0.61116E+08
        -0.16359E+09
        -0.16751E+09
        -0.16399E+09
        -0.47538E+08
        -0.12056E+09
        -0.77672E+08
        -0.86004E+08
        -0.15860E+09
        -0.16114E+09
        -0.15808E+09
         0.14922E+09
         0.17841E+09
         0.13651E+09
         0.39025E+08
         0.16915E+09
         0.83302E+08
        -0.40410E+08
         0.33872E+08
         0.15699E+09
         0.27800E+08
         0.48158E+08
         0.35599E+08
        -0.21251E+08
         0.45886E+08
        -0.16036E+09
         0.44754E+08
         0.10250E+08
         0.24312E+08
        -0.30313E+08
        -0.14798E+09
         0.10410E+09
         0.31886E+08
         0.85389E+08
         0.73681E+08
        -0.11952E+08
         0.67935E+08
         0.10068E+09
         0.15500E+09
         0.17456E+09
         0.16420E+09
         0.87356E+08
        -0.22145E+08
        -0.48459E+08
        -0.77542E+08
        -0.11034E+09
        -0.16709E+09
        -0.14476E+09
        -0.11093E+09
        -0.16830E+09
        -0.16941E+09
        -0.11051E+09
        -0.98170E+07
         0.34902E+08
        -0.49380E+08
         0.11026E+09
         0.14313E+09
         0.17434E+09
         0.19596E+09
         0.19926E+09
         0.19360E+09
         0.19014E+09
         0.17679E+09
         0.11305E+09
         0.38019E+08
         0.17918E+08
         0.16447E+08
        -0.61375E+07
        -0.54588E+08
        -0.10568E+09
        -0.13538E+09
        -0.18244E+09
        -0.19734E+09
        -0.19075E+09
        -0.18904E+09
        -0.17781E+09
        -0.12755E+09
        -0.64192E+08
        -0.61064E+08
        -0.16358E+09
        -0.16750E+09
        -0.16399E+09
        -0.47879E+08
        -0.12062E+09
        -0.77776E+08
        -0.86070E+08
        -0.15871E+09
        -0.16116E+09
        -0.15821E+09
         0.14936E+09
         0.17840E+09
         0.13650E+09
         0.39150E+08
         0.16920E+09
         0.83240E+08
        -0.40780E+08
         0.33817E+08
         0.15711E+09
         0.27604E+08
         0.48272E+08
         0.35625E+08
        -0.21279E+08
         0.45821E+08
        -0.16040E+09
         0.44585E+08
         0.10409E+08
         0.24548E+08
        -0.29911E+08
        -0.14802E+09
         0.10399E+09
         0.31691E+08
         0.85583E+08
         0.73815E+08
        -0.11814E+08
         0.67999E+08
         0.10070E+09
         0.15502E+09
         0.17457E+09
         0.16418E+09
         0.87389E+08
        -0.22016E+08
        -0.48471E+08
        -0.77632E+08
        -0.11041E+09
        -0.16710E+09
        -0.14480E+09
        -0.11091E+09
        -0.16831E+09
        -0.16940E+09
        -0.11051E+09
        -0.96479E+07
         0.34880E+08
        -0.49393E+08
         0.11028E+09
         0.14313E+09
         0.17435E+09
         0.19596E+09
         0.19925E+09
         0.19359E+09
         0.19014E+09
         0.17679E+09
         0.11305E+09
         0.38045E+08
         0.17922E+08
         0.16480E+08
        -0.60805E+07
        -0.54607E+08
        -0.10571E+09
        -0.13539E+09
        -0.18245E+09
        -0.19734E+09
        -0.19076E+09
        -0.18905E+09
        -0.17782E+09
        -0.12753E+09
        -0.64155E+08
        -0.61012E+08
        -0.16357E+09
        -0.16749E+09
        -0.16399E+09
        -0.48219E+08
        -0.12068E+09
        -0.77879E+08
        -0.86129E+08
        -0.15882E+09
        -0.16119E+09
        -0.15833E+09
         0.14949E+09
         0.17839E+09
         0.13649E+09
         0.39270E+08
         0.16926E+09
         0.83178E+08
        -0.41152E+08
         0.33762E+08
         0.15723E+09
         0.27406E+08
         0.48385E+08
         0.35650E+08
        -0.21308E+08
         0.45757E+08
        -0.16044E+09
         0.44415E+08
         0.10571E+08
         0.24781E+08
        -0.29511E+08
        -0.14805E+09
         0.10389E+09
         0.31494E+08
         0.85777E+08
         0.73949E+08
        -0.11677E+08
         0.68064E+08
         0.10072E+09
         0.15504E+09
         0.17458E+09
         0.16416E+09
         0.87422E+08
        -0.21888E+08
        -0.48483E+08
        -0.77723E+08
        -0.11047E+09
        -0.16712E+09
        -0.14483E+09
        -0.11089E+09
        -0.16832E+09
        -0.16939E+09
        -0.11052E+09
        -0.94773E+07
         0.34858E+08
        -0.49406E+08
         0.11030E+09
         0.14313E+09
         0.17435E+09
         0.19595E+09
         0.19924E+09
         0.19358E+09
         0.19015E+09
         0.17679E+09
         0.11304E+09
         0.38070E+08
         0.17925E+08
         0.16513E+08
        -0.60233E+07
        -0.54626E+08
        -0.10575E+09
        -0.13541E+09
        -0.18245E+09
        -0.19733E+09
        -0.19077E+09
        -0.18905E+09
        -0.17783E+09
        -0.12751E+09
        -0.64118E+08
        -0.60959E+08
        -0.16356E+09
        -0.16747E+09
        -0.16398E+09
        -0.48559E+08
        -0.12075E+09
        -0.77982E+08
        -0.86189E+08
        -0.15893E+09
        -0.16122E+09
        -0.15846E+09
         0.14962E+09
         0.17838E+09
         0.13648E+09
         0.39394E+08
         0.16931E+09
         0.83116E+08
        -0.41526E+08
         0.33706E+08
         0.15735E+09
         0.27209E+08
         0.48499E+08
         0.35673E+08
        -0.21337E+08
         0.45694E+08
        -0.16049E+09
         0.44246E+08
         0.10728E+08
         0.25010E+08
        -0.29112E+08
        -0.14808E+09
         0.10379E+09
         0.31299E+08
         0.85969E+08
         0.74085E+08
        -0.11538E+08
         0.68128E+08
         0.10074E+09
         0.15506E+09
         0.17459E+09
         0.16414E+09
         0.87455E+08
        -0.21760E+08
        -0.48496E+08
        -0.77813E+08
        -0.11054E+09
        -0.16713E+09
        -0.14486E+09
        -0.11086E+09
        -0.16832E+09
        -0.16938E+09
        -0.11052E+09
        -0.93062E+07
         0.34836E+08
        -0.49418E+08
         0.11032E+09
         0.14313E+09
         0.17436E+09
         0.19594E+09
         0.19924E+09
         0.19357E+09
         0.19015E+09
         0.17679E+09
         0.11304E+09
         0.38095E+08
         0.17928E+08
         0.16545E+08
        -0.59661E+07
        -0.54644E+08
        -0.10578E+09
        -0.13542E+09
        -0.18246E+09
        -0.19733E+09
        -0.19077E+09
        -0.18905E+09
        -0.17784E+09
        -0.12750E+09
        -0.64081E+08
        -0.60907E+08
        -0.16354E+09
        -0.16746E+09
        -0.16398E+09
        -0.48899E+08
        -0.12081E+09
        -0.78085E+08
        -0.86252E+08
        -0.15903E+09
        -0.16125E+09
        -0.15858E+09
         0.14976E+09
         0.17837E+09
         0.13646E+09
         0.39514E+08
         0.16936E+09
         0.83055E+08
        -0.41902E+08
         0.33650E+08
         0.15747E+09
         0.27014E+08
         0.48613E+08
         0.35697E+08
        -0.21365E+08
         0.45631E+08
        -0.16053E+09
         0.44075E+08
         0.10890E+08
         0.25237E+08
        -0.28713E+08
        -0.14812E+09
         0.10369E+09
         0.31103E+08
         0.86162E+08
         0.74219E+08
        -0.11399E+08
         0.68192E+08
         0.10076E+09
         0.15508E+09
         0.17460E+09
         0.16412E+09
         0.87489E+08
        -0.21633E+08
        -0.48509E+08
        -0.77903E+08
        -0.11060E+09
        -0.16714E+09
        -0.14490E+09
        -0.11084E+09
        -0.16833E+09
        -0.16937E+09
        -0.11053E+09
        -0.91359E+07
         0.34814E+08
        -0.49431E+08
         0.11034E+09
         0.14313E+09
         0.17436E+09
         0.19594E+09
         0.19923E+09
         0.19356E+09
         0.19016E+09
         0.17679E+09
         0.11304E+09
         0.38120E+08
         0.17930E+08
         0.16577E+08
        -0.59092E+07
        -0.54663E+08
        -0.10581E+09
        -0.13543E+09
        -0.18247E+09
        -0.19733E+09
        -0.19078E+09
        -0.18906E+09
        -0.17785E+09
        -0.12748E+09
        -0.64045E+08
        -0.60855E+08
        -0.16353E+09
        -0.16745E+09
        -0.16398E+09
        -0.49242E+08
        -0.12087E+09
        -0.78188E+08
        -0.86312E+08
        -0.15914E+09
        -0.16128E+09
        -0.15871E+09
         0.14989E+09
         0.17836E+09
         0.13645E+09
         0.39638E+08
         0.16942E+09
         0.82994E+08
        -0.42281E+08
         0.33593E+08
         0.15758E+09
         0.26829E+08
         0.48726E+08
         0.35719E+08
        -0.21394E+08
         0.45566E+08
        -0.16058E+09
         0.43906E+08
         0.11051E+08
         0.25462E+08
        -0.28314E+08
        -0.14814E+09
         0.10358E+09
         0.30904E+08
         0.86353E+08
         0.74355E+08
        -0.11260E+08
         0.68257E+08
         0.10078E+09
         0.15510E+09
         0.17461E+09
         0.16410E+09
         0.87525E+08
        -0.21506E+08
        -0.48523E+08
        -0.77993E+08
        -0.11067E+09
        -0.16715E+09
        -0.14493E+09
        -0.11082E+09
        -0.16834E+09
        -0.16937E+09
        -0.11053E+09
        -0.89651E+07
         0.34792E+08
        -0.49443E+08
         0.11036E+09
         0.14313E+09
         0.17437E+09
         0.19593E+09
         0.19922E+09
         0.19355E+09
         0.19016E+09
         0.17679E+09
         0.11304E+09
         0.38145E+08
         0.17931E+08
         0.16610E+08
        -0.58524E+07
        -0.54681E+08
        -0.10585E+09
        -0.13544E+09
        -0.18247E+09
        -0.19733E+09
        -0.19079E+09
        -0.18906E+09
        -0.17786E+09
        -0.12747E+09
        -0.64009E+08
        -0.60803E+08
        -0.16352E+09
        -0.16744E+09
        -0.16398E+09
        -0.49583E+08
        -0.12094E+09
        -0.78290E+08
        -0.86372E+08
        -0.15925E+09
        -0.16131E+09
        -0.15884E+09
         0.15002E+09
         0.17835E+09
         0.13644E+09
         0.39764E+08
         0.16947E+09
         0.82932E+08
        -0.42667E+08
         0.33536E+08
         0.15770E+09
         0.26651E+08
         0.48839E+08
         0.35742E+08
        -0.21423E+08
         0.45504E+08
        -0.16063E+09
         0.43736E+08
         0.11220E+08
         0.25685E+08
        -0.27918E+08
        -0.14817E+09
         0.10348E+09
         0.30707E+08
         0.86544E+08
         0.74489E+08
        -0.11120E+08
         0.68320E+08
         0.10080E+09
         0.15513E+09
         0.17462E+09
         0.16408E+09
         0.87562E+08
        -0.21381E+08
        -0.48541E+08
        -0.78083E+08
        -0.11073E+09
        -0.16717E+09
        -0.14496E+09
        -0.11080E+09
        -0.16835E+09
        -0.16936E+09
        -0.11054E+09
        -0.87925E+07
         0.34770E+08
        -0.49456E+08
         0.11038E+09
         0.14313E+09
         0.17437E+09
         0.19592E+09
         0.19921E+09
         0.19354E+09
         0.19016E+09
         0.17678E+09
         0.11304E+09
         0.38169E+08
         0.17931E+08
         0.16642E+08
        -0.57952E+07
        -0.54699E+08
        -0.10588E+09
        -0.13546E+09
        -0.18248E+09
        -0.19733E+09
        -0.19079E+09
        -0.18906E+09
        -0.17787E+09
        -0.12745E+09
        -0.63973E+08
        -0.60750E+08
        -0.16350E+09
        -0.16743E+09
        -0.16398E+09
        -0.49924E+08
        -0.12100E+09
        -0.78393E+08
        -0.86438E+08
        -0.15935E+09
        -0.16134E+09
        -0.15897E+09
         0.15016E+09
         0.17834E+09
         0.13643E+09
         0.39886E+08
         0.16952E+09
         0.82872E+08
        -0.43055E+08
         0.33479E+08
         0.15783E+09
         0.26477E+08
         0.48953E+08
         0.35765E+08
        -0.21450E+08
         0.45446E+08
        -0.16068E+09
         0.43572E+08
         0.11384E+08
         0.25899E+08
        -0.27525E+08
        -0.14819E+09
         0.10338E+09
         0.30515E+08
         0.86736E+08
         0.74627E+08
        -0.10982E+08
         0.68382E+08
         0.10081E+09
         0.15515E+09
         0.17462E+09
         0.16405E+09
         0.87600E+08
        -0.21258E+08
        -0.48560E+08
        -0.78171E+08
        -0.11080E+09
        -0.16718E+09
        -0.14499E+09
        -0.11077E+09
        -0.16836E+09
        -0.16935E+09
        -0.11054E+09
        -0.86204E+07
         0.34747E+08
        -0.49469E+08
         0.11040E+09
         0.14313E+09
         0.17438E+09
         0.19592E+09
         0.19920E+09
         0.19352E+09
         0.19017E+09
         0.17678E+09
         0.11305E+09
         0.38192E+08
         0.17929E+08
         0.16674E+08
        -0.57381E+07
        -0.54717E+08
        -0.10591E+09
        -0.13547E+09
        -0.18248E+09
        -0.19732E+09
        -0.19080E+09
        -0.18907E+09
        -0.17787E+09
        -0.12744E+09
        -0.63937E+08
        -0.60698E+08
        -0.15735E+09
        -0.15010E+09
        -0.14576E+09
        -0.50401E+08
        -0.11493E+09
        -0.71587E+08
        -0.86758E+08
        -0.15165E+09
        -0.14765E+09
        -0.15093E+09
         0.13069E+09
         0.17446E+09
         0.13239E+09
         0.35515E+08
         0.16617E+09
         0.77686E+08
        -0.43545E+08
         0.33525E+08
         0.13650E+09
         0.26397E+08
         0.47900E+08
         0.34804E+08
        -0.20903E+08
         0.45548E+08
        -0.14347E+09
         0.43589E+08
         0.10255E+08
         0.26131E+08
        -0.27281E+08
        -0.13228E+09
         0.94642E+08
         0.30468E+08
         0.87177E+08
         0.74980E+08
        -0.10458E+08
         0.62998E+08
         0.95799E+08
         0.15109E+09
         0.16778E+09
         0.15664E+09
         0.85419E+08
        -0.20581E+08
        -0.47384E+08
        -0.75644E+08
        -0.10589E+09
        -0.16182E+09
        -0.13650E+09
        -0.10302E+09
        -0.15185E+09
        -0.15596E+09
        -0.10640E+09
        -0.78930E+07
         0.34488E+08
        -0.49187E+08
         0.10978E+09
         0.14235E+09
         0.17350E+09
         0.19496E+09
         0.19813E+09
         0.19224E+09
         0.18883E+09
         0.17563E+09
         0.11233E+09
         0.37986E+08
         0.17801E+08
         0.16591E+08
        -0.56520E+07
        -0.54450E+08
        -0.10543E+09
        -0.13483E+09
        -0.18139E+09
        -0.19619E+09
        -0.18965E+09
        -0.18789E+09
        -0.17683E+09
        -0.12664E+09
        -0.63540E+08
        -0.60297E+08
        -0.77505E+08
        -0.49560E+08
        -0.46768E+08
        -0.14027E+08
        -0.50514E+08
        -0.25324E+08
        -0.20610E+08
        -0.67509E+08
        -0.52936E+08
        -0.65989E+08
         0.32268E+08
         0.10367E+09
         0.71021E+08
         0.11330E+08
         0.10130E+09
         0.31473E+08
        -0.11214E+08
         0.97721E+07
         0.38737E+08
         0.62717E+07
         0.27676E+08
         0.19147E+08
        -0.11660E+08
         0.11713E+08
        -0.46682E+08
         0.11763E+08
         0.33109E+07
         0.57361E+07
        -0.59094E+07
        -0.43040E+08
         0.33973E+08
         0.79029E+07
         0.24062E+08
         0.19946E+08
        -0.51118E+07
         0.23180E+08
         0.42340E+08
         0.84362E+08
         0.81387E+08
         0.72182E+08
         0.48446E+08
        -0.11308E+08
        -0.26994E+08
        -0.38832E+08
        -0.48662E+08
        -0.84000E+08
        -0.56556E+08
        -0.39880E+08
        -0.51195E+08
        -0.57478E+08
        -0.52385E+08
        -0.30850E+07
         0.27457E+08
        -0.39926E+08
         0.90022E+08
         0.11781E+09
         0.14510E+09
         0.16426E+09
         0.16456E+09
         0.15399E+09
         0.14927E+09
         0.14086E+09
         0.90508E+08
         0.31136E+08
         0.14186E+08
         0.13280E+08
        -0.46202E+07
        -0.45492E+08
        -0.88777E+08
        -0.11359E+09
        -0.14719E+09
        -0.16058E+09
        -0.15419E+09
        -0.15190E+09
        -0.14414E+09
        -0.10256E+09
        -0.52139E+08
        -0.49301E+08
  
SCALARS                      stress_xz  double 1
LOOKUP_TABLE default
         0.54341E+05
        -0.38322E+06
        -0.12651E+07
         0.86915E+05
        -0.52307E+01
         0.18547E+01
         0.62016E+01
         0.12386E+01
        -0.35597E+07
        -0.23783E+07
         0.18550E+02
         0.16708E+02
         0.15177E+06
        -0.61929E+06
        -0.22878E+01
        -0.10717E+02
        -0.12708E+06
        -0.59431E+06
        -0.77414E+01
        -0.11530E+02
        -0.87094E+06
        -0.14675E+07
        -0.13897E+07
        -0.76989E+01
        -0.35502E+01
         0.62023E+01
        -0.15501E+07
        -0.12586E+07
        -0.14411E+02
        -0.11432E+02
         0.29733E+06
        -0.66046E+06
         0.63212E+05
         0.14673E+01
        -0.56701E+01
        -0.34932E+01
         0.88214E+06
         0.42516E+06
        -0.84182E+01
        -0.89632E+01
         0.17582E+07
         0.24911E+07
        -0.18989E+02
        -0.14004E+02
         0.18812E+07
         0.10019E+07
        -0.20853E+02
        -0.10037E+02
        -0.53994E+06
        -0.63004E+01
         0.12861E+07
        -0.17538E+01
        -0.56319E+06
        -0.12311E+02
         0.42071E+06
        -0.32566E+01
         0.18407E+07
         0.50499E+06
        -0.27897E+01
        -0.67431E+01
        -0.31749E+05
         0.87585E+06
         0.55797E+01
         0.38262E+01
        -0.22748E+06
        -0.56124E+00
        -0.76146E+06
         0.36916E+01
        -0.50094E+07
        -0.34327E+07
         0.23074E+02
         0.16735E+02
        -0.22078E+07
         0.12185E+02
         0.52025E+06
        -0.84290E+01
         0.16280E+07
        -0.16543E+01
         0.34513E+07
        -0.25666E+01
         0.45667E+07
         0.32429E+07
        -0.94059E+01
        -0.10757E+02
         0.28646E+07
        -0.11569E+02
         0.22813E+07
        -0.16656E+02
         0.14207E+07
        -0.10624E+02
         0.22364E+07
         0.16448E+07
        -0.45341E+01
         0.62179E+01
        -0.37599E+06
         0.72935E+01
        -0.10321E+07
         0.30624E+01
        -0.24781E+07
         0.75624E+01
        -0.36633E+07
        -0.25141E+07
         0.17437E+02
         0.18196E+02
        -0.89714E+07
        -0.99341E+07
         0.32220E+02
         0.31752E+02
        -0.88854E+07
         0.27525E+02
        -0.80983E+07
         0.20570E+02
        -0.58099E+07
         0.11304E+02
        -0.42211E+07
         0.12088E+01
        -0.15661E+07
        -0.43053E+01
         0.20177E+07
        -0.34445E+01
         0.48150E+07
        -0.33855E+01
         0.71543E+07
        -0.76346E+01
         0.96239E+07
        -0.14525E+02
         0.11696E+08
        -0.17333E+02
         0.12434E+08
        -0.16354E+02
         0.11843E+08
        -0.17784E+02
         0.10854E+08
        -0.23081E+02
         0.97622E+07
        -0.27217E+02
         0.86100E+07
        -0.25301E+02
         0.68465E+07
        -0.20562E+02
         0.40170E+07
        -0.97071E+01
         0.34436E+06
         0.18536E+01
        -0.22465E+07
         0.45002E+01
        -0.35160E+07
         0.73589E+01
        -0.52880E+07
         0.14402E+02
        -0.69721E+07
         0.23632E+02
        -0.91639E+07
         0.28393E+02
        -0.10528E+08
         0.29041E+02
        -0.88490E+06
         0.46061E+06
         0.54038E+06
        -0.10885E+07
         0.42108E+07
         0.32584E+07
         0.49173E+06
        -0.72251E+06
        -0.37291E+06
        -0.66336E+06
         0.36384E+06
         0.15751E+07
         0.32910E+07
        -0.10528E+07
        -0.12663E+07
         0.14485E+07
         0.12155E+07
        -0.56368E+06
        -0.87651E+06
        -0.94296E+06
        -0.51539E+07
        -0.54880E+07
        -0.49558E+07
        -0.15403E+07
         0.61768E+06
        -0.46028E+06
        -0.14782E+07
        -0.16576E+06
        -0.16957E+07
        -0.11664E+07
         0.12932E+07
         0.25370E+06
        -0.60938E+06
        -0.19700E+06
         0.62241E+07
         0.39671E+07
         0.35908E+07
        -0.25130E+07
        -0.14315E+07
        -0.30611E+07
        -0.62969E+07
        -0.58729E+07
        -0.58017E+07
        -0.42645E+07
        -0.30582E+07
        -0.23913E+07
         0.44931E+06
         0.18775E+07
         0.54293E+06
         0.17205E+07
         0.45942E+07
         0.38717E+07
         0.18153E+08
         0.19068E+08
         0.17041E+08
         0.14500E+08
         0.10796E+08
         0.54968E+07
        -0.32603E+06
        -0.39139E+07
        -0.59639E+07
        -0.10238E+08
        -0.16686E+08
        -0.20325E+08
        -0.18627E+08
        -0.17867E+08
        -0.18877E+08
        -0.18875E+08
        -0.17146E+08
        -0.15009E+08
        -0.75962E+07
         0.12010E+07
         0.46178E+07
         0.51478E+07
         0.87165E+07
         0.13916E+08
         0.18060E+08
         0.18984E+08
        -0.55604E+08
         0.18524E+08
        -0.37296E+08
        -0.12156E+09
         0.12524E+09
         0.15185E+09
         0.62081E+08
        -0.71659E+08
        -0.51357E+08
        -0.72063E+08
        -0.26028E+08
         0.26495E+08
         0.11263E+09
        -0.16600E+09
        -0.66328E+08
         0.14787E+09
         0.11684E+09
        -0.69979E+08
        -0.47094E+08
        -0.82704E+08
        -0.17124E+09
        -0.17322E+09
        -0.17522E+09
        -0.11162E+09
         0.53796E+08
         0.42689E+08
        -0.16955E+09
         0.30739E+08
        -0.77478E+08
        -0.82947E+08
         0.13203E+09
         0.10434E+09
        -0.10458E+09
        -0.90256E+08
         0.17548E+09
         0.15718E+09
         0.14123E+09
        -0.88904E+08
        -0.19022E+08
        -0.58993E+08
        -0.15610E+09
        -0.17596E+09
        -0.17093E+09
        -0.15707E+09
        -0.13455E+09
        -0.58668E+08
         0.94294E+08
         0.12980E+09
        -0.20614E+08
         0.21186E+08
         0.13655E+09
         0.17143E+09
         0.19374E+09
         0.19109E+09
         0.16475E+09
         0.13679E+09
         0.96298E+08
         0.41575E+08
        -0.10717E+08
        -0.38641E+08
        -0.52115E+08
        -0.89805E+08
        -0.16247E+09
        -0.19407E+09
        -0.19358E+09
        -0.19289E+09
        -0.19503E+09
        -0.18865E+09
        -0.16647E+09
        -0.14533E+09
        -0.76713E+08
         0.19460E+08
         0.47353E+08
         0.50296E+08
         0.84328E+08
         0.14906E+09
         0.18587E+09
         0.18672E+09
        -0.55670E+08
         0.18589E+08
        -0.37346E+08
        -0.12164E+09
         0.12518E+09
         0.15179E+09
         0.62476E+08
        -0.71412E+08
        -0.51329E+08
        -0.71806E+08
        -0.25501E+08
         0.26561E+08
         0.11266E+09
        -0.16596E+09
        -0.66229E+08
         0.14791E+09
         0.11709E+09
        -0.69785E+08
        -0.47071E+08
        -0.82559E+08
        -0.17121E+09
        -0.17321E+09
        -0.17522E+09
        -0.11163E+09
         0.53696E+08
         0.42760E+08
        -0.16955E+09
         0.30162E+08
        -0.78023E+08
        -0.82861E+08
         0.13210E+09
         0.10432E+09
        -0.10414E+09
        -0.90297E+08
         0.17550E+09
         0.15716E+09
         0.14122E+09
        -0.88918E+08
        -0.19164E+08
        -0.59102E+08
        -0.15610E+09
        -0.17597E+09
        -0.17092E+09
        -0.15705E+09
        -0.13452E+09
        -0.58641E+08
         0.94275E+08
         0.12985E+09
        -0.20492E+08
         0.21142E+08
         0.13653E+09
         0.17143E+09
         0.19374E+09
         0.19108E+09
         0.16474E+09
         0.13679E+09
         0.96283E+08
         0.41575E+08
        -0.10733E+08
        -0.38674E+08
        -0.52083E+08
        -0.89794E+08
        -0.16247E+09
        -0.19406E+09
        -0.19358E+09
        -0.19289E+09
        -0.19503E+09
        -0.18865E+09
        -0.16646E+09
        -0.14533E+09
        -0.76696E+08
         0.19470E+08
         0.47323E+08
         0.50279E+08
         0.84292E+08
         0.14905E+09
         0.18588E+09
         0.18673E+09
        -0.55735E+08
         0.18652E+08
        -0.37395E+08
        -0.12172E+09
         0.12511E+09
         0.15173E+09
         0.62873E+08
        -0.71166E+08
        -0.51297E+08
        -0.71548E+08
        -0.24976E+08
         0.26626E+08
         0.11269E+09
        -0.16593E+09
        -0.66130E+08
         0.14795E+09
         0.11735E+09
        -0.69589E+08
        -0.47047E+08
        -0.82418E+08
        -0.17118E+09
        -0.17320E+09
        -0.17522E+09
        -0.11164E+09
         0.53607E+08
         0.42837E+08
        -0.16955E+09
         0.29591E+08
        -0.78571E+08
        -0.82778E+08
         0.13218E+09
         0.10431E+09
        -0.10370E+09
        -0.90337E+08
         0.17551E+09
         0.15713E+09
         0.14121E+09
        -0.88931E+08
        -0.19305E+08
        -0.59212E+08
        -0.15610E+09
        -0.17599E+09
        -0.17091E+09
        -0.15703E+09
        -0.13450E+09
        -0.58614E+08
         0.94257E+08
         0.12990E+09
        -0.20365E+08
         0.21095E+08
         0.13651E+09
         0.17142E+09
         0.19374E+09
         0.19107E+09
         0.16472E+09
         0.13679E+09
         0.96268E+08
         0.41575E+08
        -0.10749E+08
        -0.38707E+08
        -0.52051E+08
        -0.89783E+08
        -0.16247E+09
        -0.19406E+09
        -0.19358E+09
        -0.19288E+09
        -0.19504E+09
        -0.18865E+09
        -0.16645E+09
        -0.14533E+09
        -0.76678E+08
         0.19479E+08
         0.47293E+08
         0.50262E+08
         0.84256E+08
         0.14905E+09
         0.18588E+09
         0.18674E+09
        -0.55800E+08
         0.18718E+08
        -0.37443E+08
        -0.12180E+09
         0.12504E+09
         0.15167E+09
         0.63264E+08
        -0.70920E+08
        -0.51259E+08
        -0.71286E+08
        -0.24451E+08
         0.26692E+08
         0.11271E+09
        -0.16589E+09
        -0.66032E+08
         0.14800E+09
         0.11763E+09
        -0.69393E+08
        -0.47027E+08
        -0.82272E+08
        -0.17115E+09
        -0.17319E+09
        -0.17522E+09
        -0.11164E+09
         0.53547E+08
         0.42932E+08
        -0.16955E+09
         0.29038E+08
        -0.79117E+08
        -0.82705E+08
         0.13226E+09
         0.10433E+09
        -0.10326E+09
        -0.90378E+08
         0.17553E+09
         0.15710E+09
         0.14119E+09
        -0.88943E+08
        -0.19444E+08
        -0.59315E+08
        -0.15610E+09
        -0.17601E+09
        -0.17091E+09
        -0.15700E+09
        -0.13446E+09
        -0.58583E+08
         0.94236E+08
         0.12995E+09
        -0.20237E+08
         0.21047E+08
         0.13650E+09
         0.17142E+09
         0.19374E+09
         0.19106E+09
         0.16471E+09
         0.13679E+09
         0.96253E+08
         0.41575E+08
        -0.10766E+08
        -0.38741E+08
        -0.52019E+08
        -0.89772E+08
        -0.16247E+09
        -0.19406E+09
        -0.19358E+09
        -0.19288E+09
        -0.19504E+09
        -0.18865E+09
        -0.16644E+09
        -0.14533E+09
        -0.76661E+08
         0.19489E+08
         0.47263E+08
         0.50246E+08
         0.84221E+08
         0.14905E+09
         0.18588E+09
         0.18674E+09
        -0.55865E+08
         0.18784E+08
        -0.37493E+08
        -0.12188E+09
         0.12497E+09
         0.15162E+09
         0.63662E+08
        -0.70674E+08
        -0.51215E+08
        -0.71018E+08
        -0.23926E+08
         0.26758E+08
         0.11274E+09
        -0.16585E+09
        -0.65933E+08
         0.14805E+09
         0.11791E+09
        -0.69196E+08
        -0.47001E+08
        -0.82123E+08
        -0.17112E+09
        -0.17319E+09
        -0.17521E+09
        -0.11165E+09
         0.53517E+08
         0.43041E+08
        -0.16954E+09
         0.28502E+08
        -0.79661E+08
        -0.82642E+08
         0.13236E+09
         0.10435E+09
        -0.10282E+09
        -0.90418E+08
         0.17554E+09
         0.15707E+09
         0.14118E+09
        -0.88954E+08
        -0.19581E+08
        -0.59417E+08
        -0.15609E+09
        -0.17603E+09
        -0.17090E+09
        -0.15696E+09
        -0.13441E+09
        -0.58547E+08
         0.94215E+08
         0.13001E+09
        -0.20110E+08
         0.21001E+08
         0.13648E+09
         0.17142E+09
         0.19373E+09
         0.19105E+09
         0.16469E+09
         0.13679E+09
         0.96237E+08
         0.41576E+08
        -0.10782E+08
        -0.38774E+08
        -0.51987E+08
        -0.89761E+08
        -0.16246E+09
        -0.19406E+09
        -0.19358E+09
        -0.19288E+09
        -0.19505E+09
        -0.18865E+09
        -0.16643E+09
        -0.14533E+09
        -0.76643E+08
         0.19499E+08
         0.47233E+08
         0.50229E+08
         0.84185E+08
         0.14905E+09
         0.18589E+09
         0.18675E+09
        -0.55928E+08
         0.18857E+08
        -0.37534E+08
        -0.12196E+09
         0.12490E+09
         0.15156E+09
         0.64058E+08
        -0.70430E+08
        -0.51169E+08
        -0.70755E+08
        -0.23400E+08
         0.26823E+08
         0.11276E+09
        -0.16581E+09
        -0.65834E+08
         0.14810E+09
         0.11820E+09
        -0.68999E+08
        -0.46975E+08
        -0.81982E+08
        -0.17109E+09
        -0.17318E+09
        -0.17521E+09
        -0.11166E+09
         0.53491E+08
         0.43153E+08
        -0.16954E+09
         0.27970E+08
        -0.80210E+08
        -0.82590E+08
         0.13245E+09
         0.10437E+09
        -0.10238E+09
        -0.90454E+08
         0.17556E+09
         0.15704E+09
         0.14116E+09
        -0.88965E+08
        -0.19718E+08
        -0.59516E+08
        -0.15608E+09
        -0.17606E+09
        -0.17090E+09
        -0.15692E+09
        -0.13436E+09
        -0.58512E+08
         0.94189E+08
         0.13005E+09
        -0.19977E+08
         0.20960E+08
         0.13647E+09
         0.17141E+09
         0.19373E+09
         0.19105E+09
         0.16468E+09
         0.13679E+09
         0.96222E+08
         0.41576E+08
        -0.10798E+08
        -0.38807E+08
        -0.51955E+08
        -0.89750E+08
        -0.16246E+09
        -0.19405E+09
        -0.19358E+09
        -0.19287E+09
        -0.19505E+09
        -0.18865E+09
        -0.16641E+09
        -0.14532E+09
        -0.76625E+08
         0.19508E+08
         0.47202E+08
         0.50212E+08
         0.84150E+08
         0.14904E+09
         0.18589E+09
         0.18676E+09
        -0.55985E+08
         0.18947E+08
        -0.37563E+08
        -0.12203E+09
         0.12483E+09
         0.15150E+09
         0.64462E+08
        -0.70190E+08
        -0.51124E+08
        -0.70505E+08
        -0.22872E+08
         0.26888E+08
         0.11279E+09
        -0.16576E+09
        -0.65734E+08
         0.14814E+09
         0.11847E+09
        -0.68800E+08
        -0.46954E+08
        -0.81843E+08
        -0.17106E+09
        -0.17318E+09
        -0.17521E+09
        -0.11167E+09
         0.53451E+08
         0.43251E+08
        -0.16953E+09
         0.27426E+08
        -0.80762E+08
        -0.82546E+08
         0.13254E+09
         0.10438E+09
        -0.10192E+09
        -0.90480E+08
         0.17557E+09
         0.15701E+09
         0.14115E+09
        -0.88973E+08
        -0.19854E+08
        -0.59619E+08
        -0.15608E+09
        -0.17608E+09
        -0.17090E+09
        -0.15687E+09
        -0.13431E+09
        -0.58479E+08
         0.94148E+08
         0.13008E+09
        -0.19826E+08
         0.20933E+08
         0.13646E+09
         0.17141E+09
         0.19373E+09
         0.19104E+09
         0.16467E+09
         0.13679E+09
         0.96207E+08
         0.41576E+08
        -0.10814E+08
        -0.38841E+08
        -0.51923E+08
        -0.89739E+08
        -0.16246E+09
        -0.19405E+09
        -0.19358E+09
        -0.19287E+09
        -0.19505E+09
        -0.18866E+09
        -0.16640E+09
        -0.14531E+09
        -0.76608E+08
         0.19516E+08
         0.47170E+08
         0.50195E+08
         0.84116E+08
         0.14904E+09
         0.18589E+09
         0.18677E+09
        -0.56040E+08
         0.19043E+08
        -0.37585E+08
        -0.12211E+09
         0.12477E+09
         0.15144E+09
         0.64871E+08
        -0.69953E+08
        -0.51080E+08
        -0.70263E+08
        -0.22342E+08
         0.26952E+08
         0.11281E+09
        -0.16571E+09
        -0.65634E+08
         0.14819E+09
         0.11874E+09
        -0.68600E+08
        -0.46929E+08
        -0.81713E+08
        -0.17103E+09
        -0.17317E+09
        -0.17521E+09
        -0.11168E+09
         0.53405E+08
         0.43344E+08
        -0.16952E+09
         0.26878E+08
        -0.81323E+08
        -0.82507E+08
         0.13263E+09
         0.10437E+09
        -0.10146E+09
        -0.90501E+08
         0.17559E+09
         0.15698E+09
         0.14113E+09
        -0.88980E+08
        -0.19990E+08
        -0.59720E+08
        -0.15607E+09
        -0.17611E+09
        -0.17090E+09
        -0.15683E+09
        -0.13425E+09
        -0.58448E+08
         0.94101E+08
         0.13010E+09
        -0.19667E+08
         0.20912E+08
         0.13645E+09
         0.17141E+09
         0.19373E+09
         0.19103E+09
         0.16465E+09
         0.13679E+09
         0.96191E+08
         0.41576E+08
        -0.10830E+08
        -0.38874E+08
        -0.51892E+08
        -0.89729E+08
        -0.16246E+09
        -0.19404E+09
        -0.19358E+09
        -0.19287E+09
        -0.19506E+09
        -0.18866E+09
        -0.16638E+09
        -0.14531E+09
        -0.76590E+08
         0.19523E+08
         0.47137E+08
         0.50177E+08
         0.84082E+08
         0.14904E+09
         0.18589E+09
         0.18677E+09
        -0.56095E+08
         0.19140E+08
        -0.37607E+08
        -0.12218E+09
         0.12470E+09
         0.15139E+09
         0.65277E+08
        -0.69716E+08
        -0.51036E+08
        -0.70024E+08
        -0.21814E+08
         0.27017E+08
         0.11283E+09
        -0.16566E+09
        -0.65534E+08
         0.14823E+09
         0.11901E+09
        -0.68401E+08
        -0.46903E+08
        -0.81578E+08
        -0.17100E+09
        -0.17317E+09
        -0.17520E+09
        -0.11170E+09
         0.53358E+08
         0.43436E+08
        -0.16952E+09
         0.26331E+08
        -0.81883E+08
        -0.82468E+08
         0.13272E+09
         0.10437E+09
        -0.10100E+09
        -0.90523E+08
         0.17560E+09
         0.15695E+09
         0.14111E+09
        -0.88987E+08
        -0.20126E+08
        -0.59821E+08
        -0.15606E+09
        -0.17613E+09
        -0.17090E+09
        -0.15679E+09
        -0.13420E+09
        -0.58418E+08
         0.94057E+08
         0.13012E+09
        -0.19508E+08
         0.20894E+08
         0.13644E+09
         0.17140E+09
         0.19372E+09
         0.19102E+09
         0.16464E+09
         0.13679E+09
         0.96176E+08
         0.41576E+08
        -0.10846E+08
        -0.38907E+08
        -0.51860E+08
        -0.89719E+08
        -0.16245E+09
        -0.19404E+09
        -0.19358E+09
        -0.19286E+09
        -0.19506E+09
        -0.18866E+09
        -0.16637E+09
        -0.14530E+09
        -0.76572E+08
         0.19531E+08
         0.47104E+08
         0.50160E+08
         0.84049E+08
         0.14904E+09
         0.18590E+09
         0.18678E+09
        -0.56150E+08
         0.19238E+08
        -0.37629E+08
        -0.12225E+09
         0.12463E+09
         0.15133E+09
         0.65686E+08
        -0.69480E+08
        -0.50992E+08
        -0.69785E+08
        -0.21286E+08
         0.27082E+08
         0.11286E+09
        -0.16562E+09
        -0.65434E+08
         0.14828E+09
         0.11927E+09
        -0.68204E+08
        -0.46878E+08
        -0.81447E+08
        -0.17097E+09
        -0.17316E+09
        -0.17520E+09
        -0.11171E+09
         0.53313E+08
         0.43527E+08
        -0.16951E+09
         0.25787E+08
        -0.82440E+08
        -0.82429E+08
         0.13281E+09
         0.10436E+09
        -0.10054E+09
        -0.90546E+08
         0.17562E+09
         0.15692E+09
         0.14110E+09
        -0.88994E+08
        -0.20262E+08
        -0.59922E+08
        -0.15605E+09
        -0.17615E+09
        -0.17090E+09
        -0.15675E+09
        -0.13415E+09
        -0.58385E+08
         0.94010E+08
         0.13014E+09
        -0.19351E+08
         0.20872E+08
         0.13643E+09
         0.17140E+09
         0.19372E+09
         0.19102E+09
         0.16462E+09
         0.13679E+09
         0.96160E+08
         0.41576E+08
        -0.10862E+08
        -0.38940E+08
        -0.51827E+08
        -0.89708E+08
        -0.16245E+09
        -0.19404E+09
        -0.19357E+09
        -0.19286E+09
        -0.19507E+09
        -0.18866E+09
        -0.16635E+09
        -0.14530E+09
        -0.76554E+08
         0.19538E+08
         0.47070E+08
         0.50143E+08
         0.84015E+08
         0.14904E+09
         0.18590E+09
         0.18679E+09
        -0.56205E+08
         0.19335E+08
        -0.37652E+08
        -0.12233E+09
         0.12457E+09
         0.15127E+09
         0.66091E+08
        -0.69244E+08
        -0.50948E+08
        -0.69549E+08
        -0.20757E+08
         0.27147E+08
         0.11288E+09
        -0.16557E+09
        -0.65334E+08
         0.14832E+09
         0.11954E+09
        -0.68007E+08
        -0.46857E+08
        -0.81310E+08
        -0.17094E+09
        -0.17316E+09
        -0.17520E+09
        -0.11173E+09
         0.53266E+08
         0.43618E+08
        -0.16950E+09
         0.25243E+08
        -0.82997E+08
        -0.82389E+08
         0.13290E+09
         0.10435E+09
        -0.10008E+09
        -0.90568E+08
         0.17563E+09
         0.15689E+09
         0.14108E+09
        -0.89000E+08
        -0.20397E+08
        -0.60023E+08
        -0.15605E+09
        -0.17618E+09
        -0.17090E+09
        -0.15671E+09
        -0.13410E+09
        -0.58355E+08
         0.93963E+08
         0.13016E+09
        -0.19191E+08
         0.20851E+08
         0.13642E+09
         0.17140E+09
         0.19372E+09
         0.19101E+09
         0.16461E+09
         0.13679E+09
         0.96145E+08
         0.41577E+08
        -0.10878E+08
        -0.38973E+08
        -0.51796E+08
        -0.89698E+08
        -0.16245E+09
        -0.19403E+09
        -0.19357E+09
        -0.19286E+09
        -0.19507E+09
        -0.18866E+09
        -0.16634E+09
        -0.14529E+09
        -0.76537E+08
         0.19545E+08
         0.47037E+08
         0.50125E+08
         0.83982E+08
         0.14904E+09
         0.18590E+09
         0.18679E+09
        -0.56259E+08
         0.19432E+08
        -0.37673E+08
        -0.12240E+09
         0.12450E+09
         0.15121E+09
         0.66498E+08
        -0.69009E+08
        -0.50904E+08
        -0.69313E+08
        -0.20230E+08
         0.27212E+08
         0.11290E+09
        -0.16552E+09
        -0.65234E+08
         0.14836E+09
         0.11981E+09
        -0.67808E+08
        -0.46834E+08
        -0.81179E+08
        -0.17091E+09
        -0.17315E+09
        -0.17520E+09
        -0.11175E+09
         0.53220E+08
         0.43712E+08
        -0.16949E+09
         0.24702E+08
        -0.83549E+08
        -0.82352E+08
         0.13299E+09
         0.10434E+09
        -0.99616E+08
        -0.90590E+08
         0.17565E+09
         0.15686E+09
         0.14107E+09
        -0.89006E+08
        -0.20532E+08
        -0.60125E+08
        -0.15604E+09
        -0.17620E+09
        -0.17090E+09
        -0.15666E+09
        -0.13405E+09
        -0.58325E+08
         0.93918E+08
         0.13018E+09
        -0.19030E+08
         0.20832E+08
         0.13640E+09
         0.17139E+09
         0.19372E+09
         0.19100E+09
         0.16460E+09
         0.13679E+09
         0.96130E+08
         0.41577E+08
        -0.10894E+08
        -0.39006E+08
        -0.51764E+08
        -0.89688E+08
        -0.16245E+09
        -0.19403E+09
        -0.19357E+09
        -0.19285E+09
        -0.19508E+09
        -0.18866E+09
        -0.16633E+09
        -0.14529E+09
        -0.76519E+08
         0.19552E+08
         0.47004E+08
         0.50108E+08
         0.83949E+08
         0.14904E+09
         0.18590E+09
         0.18680E+09
        -0.56315E+08
         0.19530E+08
        -0.37693E+08
        -0.12247E+09
         0.12443E+09
         0.15115E+09
         0.66904E+08
        -0.68773E+08
        -0.50858E+08
        -0.69078E+08
        -0.19704E+08
         0.27277E+08
         0.11292E+09
        -0.16547E+09
        -0.65134E+08
         0.14841E+09
         0.12007E+09
        -0.67609E+08
        -0.46810E+08
        -0.81044E+08
        -0.17088E+09
        -0.17315E+09
        -0.17519E+09
        -0.11176E+09
         0.53173E+08
         0.43802E+08
        -0.16949E+09
         0.24159E+08
        -0.84106E+08
        -0.82313E+08
         0.13308E+09
         0.10433E+09
        -0.99154E+08
        -0.90612E+08
         0.17566E+09
         0.15683E+09
         0.14105E+09
        -0.89011E+08
        -0.20667E+08
        -0.60226E+08
        -0.15603E+09
        -0.17622E+09
        -0.17090E+09
        -0.15662E+09
        -0.13399E+09
        -0.58293E+08
         0.93871E+08
         0.13021E+09
        -0.18868E+08
         0.20810E+08
         0.13639E+09
         0.17139E+09
         0.19371E+09
         0.19099E+09
         0.16458E+09
         0.13679E+09
         0.96114E+08
         0.41577E+08
        -0.10910E+08
        -0.39039E+08
        -0.51731E+08
        -0.89677E+08
        -0.16245E+09
        -0.19403E+09
        -0.19357E+09
        -0.19285E+09
        -0.19508E+09
        -0.18866E+09
        -0.16631E+09
        -0.14528E+09
        -0.76501E+08
         0.19559E+08
         0.46971E+08
         0.50091E+08
         0.83916E+08
         0.14903E+09
         0.18591E+09
         0.18681E+09
        -0.56370E+08
         0.19626E+08
        -0.37714E+08
        -0.12254E+09
         0.12436E+09
         0.15110E+09
         0.67306E+08
        -0.68538E+08
        -0.50814E+08
        -0.68844E+08
        -0.19179E+08
         0.27342E+08
         0.11295E+09
        -0.16542E+09
        -0.65034E+08
         0.14845E+09
         0.12034E+09
        -0.67411E+08
        -0.46791E+08
        -0.80913E+08
        -0.17085E+09
        -0.17314E+09
        -0.17519E+09
        -0.11178E+09
         0.53126E+08
         0.43893E+08
        -0.16948E+09
         0.23619E+08
        -0.84662E+08
        -0.82274E+08
         0.13317E+09
         0.10433E+09
        -0.98691E+08
        -0.90633E+08
         0.17568E+09
         0.15680E+09
         0.14104E+09
        -0.89015E+08
        -0.20801E+08
        -0.60329E+08
        -0.15603E+09
        -0.17625E+09
        -0.17090E+09
        -0.15658E+09
        -0.13394E+09
        -0.58262E+08
         0.93824E+08
         0.13023E+09
        -0.18707E+08
         0.20789E+08
         0.13638E+09
         0.17139E+09
         0.19371E+09
         0.19099E+09
         0.16457E+09
         0.13678E+09
         0.96099E+08
         0.41577E+08
        -0.10926E+08
        -0.39071E+08
        -0.51699E+08
        -0.89668E+08
        -0.16244E+09
        -0.19402E+09
        -0.19357E+09
        -0.19285E+09
        -0.19509E+09
        -0.18866E+09
        -0.16630E+09
        -0.14528E+09
        -0.76484E+08
         0.19566E+08
         0.46937E+08
         0.50074E+08
         0.83882E+08
         0.14903E+09
         0.18591E+09
         0.18682E+09
        -0.56426E+08
         0.19722E+08
        -0.37734E+08
        -0.12261E+09
         0.12430E+09
         0.15104E+09
         0.67712E+08
        -0.68304E+08
        -0.50769E+08
        -0.68612E+08
        -0.18654E+08
         0.27408E+08
         0.11297E+09
        -0.16538E+09
        -0.64933E+08
         0.14850E+09
         0.12061E+09
        -0.67214E+08
        -0.46768E+08
        -0.80778E+08
        -0.17082E+09
        -0.17314E+09
        -0.17519E+09
        -0.11179E+09
         0.53078E+08
         0.43984E+08
        -0.16947E+09
         0.23080E+08
        -0.85217E+08
        -0.82234E+08
         0.13326E+09
         0.10432E+09
        -0.98228E+08
        -0.90654E+08
         0.17569E+09
         0.15678E+09
         0.14102E+09
        -0.89018E+08
        -0.20934E+08
        -0.60429E+08
        -0.15602E+09
        -0.17627E+09
        -0.17090E+09
        -0.15654E+09
        -0.13389E+09
        -0.58232E+08
         0.93778E+08
         0.13025E+09
        -0.18543E+08
         0.20769E+08
         0.13637E+09
         0.17138E+09
         0.19371E+09
         0.19098E+09
         0.16456E+09
         0.13678E+09
         0.96084E+08
         0.41577E+08
        -0.10942E+08
        -0.39103E+08
        -0.51667E+08
        -0.89658E+08
        -0.16244E+09
        -0.19402E+09
        -0.19357E+09
        -0.19284E+09
        -0.19509E+09
        -0.18866E+09
        -0.16628E+09
        -0.14527E+09
        -0.76466E+08
         0.19572E+08
         0.46904E+08
         0.50057E+08
         0.83849E+08
         0.14903E+09
         0.18591E+09
         0.18682E+09
        -0.56481E+08
         0.19821E+08
        -0.37756E+08
        -0.12269E+09
         0.12423E+09
         0.15098E+09
         0.68114E+08
        -0.68069E+08
        -0.50724E+08
        -0.68380E+08
        -0.18129E+08
         0.27472E+08
         0.11299E+09
        -0.16533E+09
        -0.64834E+08
         0.14854E+09
         0.12087E+09
        -0.67019E+08
        -0.46744E+08
        -0.80646E+08
        -0.17079E+09
        -0.17313E+09
        -0.17519E+09
        -0.11181E+09
         0.53029E+08
         0.44076E+08
        -0.16946E+09
         0.22541E+08
        -0.85771E+08
        -0.82194E+08
         0.13335E+09
         0.10431E+09
        -0.97766E+08
        -0.90676E+08
         0.17571E+09
         0.15675E+09
         0.14101E+09
        -0.89021E+08
        -0.21069E+08
        -0.60531E+08
        -0.15601E+09
        -0.17629E+09
        -0.17090E+09
        -0.15650E+09
        -0.13384E+09
        -0.58200E+08
         0.93731E+08
         0.13027E+09
        -0.18380E+08
         0.20747E+08
         0.13636E+09
         0.17138E+09
         0.19371E+09
         0.19097E+09
         0.16454E+09
         0.13678E+09
         0.96068E+08
         0.41577E+08
        -0.10958E+08
        -0.39136E+08
        -0.51635E+08
        -0.89648E+08
        -0.16244E+09
        -0.19401E+09
        -0.19357E+09
        -0.19284E+09
        -0.19509E+09
        -0.18866E+09
        -0.16627E+09
        -0.14526E+09
        -0.76448E+08
         0.19579E+08
         0.46871E+08
         0.50040E+08
         0.83816E+08
         0.14903E+09
         0.18591E+09
         0.18683E+09
        -0.56536E+08
         0.19917E+08
        -0.37777E+08
        -0.12276E+09
         0.12416E+09
         0.15092E+09
         0.68519E+08
        -0.67835E+08
        -0.50678E+08
        -0.68147E+08
        -0.17604E+08
         0.27538E+08
         0.11301E+09
        -0.16528E+09
        -0.64733E+08
         0.14858E+09
         0.12114E+09
        -0.66823E+08
        -0.46723E+08
        -0.80511E+08
        -0.17076E+09
        -0.17313E+09
        -0.17519E+09
        -0.11183E+09
         0.52978E+08
         0.44166E+08
        -0.16946E+09
         0.21997E+08
        -0.86320E+08
        -0.82156E+08
         0.13344E+09
         0.10430E+09
        -0.97305E+08
        -0.90700E+08
         0.17572E+09
         0.15672E+09
         0.14099E+09
        -0.89022E+08
        -0.21204E+08
        -0.60634E+08
        -0.15600E+09
        -0.17632E+09
        -0.17090E+09
        -0.15646E+09
        -0.13378E+09
        -0.58169E+08
         0.93685E+08
         0.13029E+09
        -0.18217E+08
         0.20726E+08
         0.13635E+09
         0.17137E+09
         0.19370E+09
         0.19096E+09
         0.16453E+09
         0.13678E+09
         0.96053E+08
         0.41578E+08
        -0.10973E+08
        -0.39168E+08
        -0.51603E+08
        -0.89638E+08
        -0.16244E+09
        -0.19401E+09
        -0.19357E+09
        -0.19284E+09
        -0.19510E+09
        -0.18866E+09
        -0.16625E+09
        -0.14526E+09
        -0.76430E+08
         0.19586E+08
         0.46837E+08
         0.50023E+08
         0.83782E+08
         0.14903E+09
         0.18592E+09
         0.18684E+09
        -0.56592E+08
         0.20014E+08
        -0.37796E+08
        -0.12283E+09
         0.12410E+09
         0.15086E+09
         0.68920E+08
        -0.67602E+08
        -0.50627E+08
        -0.67908E+08
        -0.17080E+08
         0.27603E+08
         0.11304E+09
        -0.16523E+09
        -0.64632E+08
         0.14863E+09
         0.12141E+09
        -0.66626E+08
        -0.46707E+08
        -0.80382E+08
        -0.17073E+09
        -0.17312E+09
        -0.17518E+09
        -0.11184E+09
         0.52920E+08
         0.44260E+08
        -0.16945E+09
         0.21440E+08
        -0.86873E+08
        -0.82127E+08
         0.13353E+09
         0.10429E+09
        -0.96841E+08
        -0.90722E+08
         0.17573E+09
         0.15669E+09
         0.14098E+09
        -0.89021E+08
        -0.21344E+08
        -0.60737E+08
        -0.15599E+09
        -0.17634E+09
        -0.17090E+09
        -0.15641E+09
        -0.13373E+09
        -0.58137E+08
         0.93640E+08
         0.13031E+09
        -0.18054E+08
         0.20704E+08
         0.13634E+09
         0.17137E+09
         0.19370E+09
         0.19096E+09
         0.16452E+09
         0.13678E+09
         0.96038E+08
         0.41578E+08
        -0.10989E+08
        -0.39201E+08
        -0.51572E+08
        -0.89629E+08
        -0.16243E+09
        -0.19401E+09
        -0.19357E+09
        -0.19284E+09
        -0.19510E+09
        -0.18866E+09
        -0.16624E+09
        -0.14525E+09
        -0.76413E+08
         0.19593E+08
         0.46804E+08
         0.50005E+08
         0.83749E+08
         0.14903E+09
         0.18592E+09
         0.18685E+09
        -0.56647E+08
         0.20110E+08
        -0.37816E+08
        -0.12290E+09
         0.12403E+09
         0.15080E+09
         0.69324E+08
        -0.67369E+08
        -0.50573E+08
        -0.67664E+08
        -0.16558E+08
         0.27668E+08
         0.11306E+09
        -0.16518E+09
        -0.64530E+08
         0.14867E+09
         0.12167E+09
        -0.66429E+08
        -0.46686E+08
        -0.80248E+08
        -0.17070E+09
        -0.17312E+09
        -0.17518E+09
        -0.11186E+09
         0.52853E+08
         0.44350E+08
        -0.16944E+09
         0.20866E+08
        -0.87425E+08
        -0.82101E+08
         0.13361E+09
         0.10429E+09
        -0.96377E+08
        -0.90745E+08
         0.17575E+09
         0.15666E+09
         0.14096E+09
        -0.89016E+08
        -0.21488E+08
        -0.60842E+08
        -0.15598E+09
        -0.17636E+09
        -0.17090E+09
        -0.15637E+09
        -0.13368E+09
        -0.58107E+08
         0.93592E+08
         0.13033E+09
        -0.17889E+08
         0.20684E+08
         0.13633E+09
         0.17136E+09
         0.19370E+09
         0.19095E+09
         0.16450E+09
         0.13678E+09
         0.96022E+08
         0.41578E+08
        -0.11004E+08
        -0.39233E+08
        -0.51541E+08
        -0.89619E+08
        -0.16243E+09
        -0.19400E+09
        -0.19357E+09
        -0.19283E+09
        -0.19511E+09
        -0.18866E+09
        -0.16622E+09
        -0.14525E+09
        -0.76395E+08
         0.19600E+08
         0.46771E+08
         0.49988E+08
         0.83716E+08
         0.14902E+09
         0.18592E+09
         0.18685E+09
        -0.56702E+08
         0.20206E+08
        -0.37836E+08
        -0.12297E+09
         0.12396E+09
         0.15075E+09
         0.69722E+08
        -0.67137E+08
        -0.50517E+08
        -0.67419E+08
        -0.16039E+08
         0.27732E+08
         0.11308E+09
        -0.16513E+09
        -0.64429E+08
         0.14871E+09
         0.12193E+09
        -0.66234E+08
        -0.46663E+08
        -0.80119E+08
        -0.17067E+09
        -0.17311E+09
        -0.17518E+09
        -0.11188E+09
         0.52784E+08
         0.44440E+08
        -0.16943E+09
         0.20289E+08
        -0.87973E+08
        -0.82075E+08
         0.13370E+09
         0.10428E+09
        -0.95917E+08
        -0.90768E+08
         0.17576E+09
         0.15663E+09
         0.14095E+09
        -0.89009E+08
        -0.21634E+08
        -0.60945E+08
        -0.15597E+09
        -0.17638E+09
        -0.17089E+09
        -0.15633E+09
        -0.13362E+09
        -0.58076E+08
         0.93548E+08
         0.13035E+09
        -0.17725E+08
         0.20661E+08
         0.13632E+09
         0.17136E+09
         0.19370E+09
         0.19094E+09
         0.16449E+09
         0.13678E+09
         0.96007E+08
         0.41578E+08
        -0.11019E+08
        -0.39264E+08
        -0.51511E+08
        -0.89610E+08
        -0.16242E+09
        -0.19400E+09
        -0.19357E+09
        -0.19283E+09
        -0.19511E+09
        -0.18866E+09
        -0.16621E+09
        -0.14524E+09
        -0.76377E+08
         0.19607E+08
         0.46739E+08
         0.49971E+08
         0.83684E+08
         0.14902E+09
         0.18592E+09
         0.18686E+09
        -0.54620E+08
         0.18181E+08
        -0.33646E+08
        -0.12339E+09
         0.11759E+09
         0.13742E+09
         0.70268E+08
        -0.63658E+08
        -0.46168E+08
        -0.63759E+08
        -0.13556E+08
         0.27178E+08
         0.10976E+09
        -0.14658E+09
        -0.63047E+08
         0.13951E+09
         0.12252E+09
        -0.66249E+08
        -0.40299E+08
        -0.80189E+08
        -0.16659E+09
        -0.16835E+09
        -0.17061E+09
        -0.11220E+09
         0.47053E+08
         0.44647E+08
        -0.15064E+09
         0.19803E+08
        -0.88709E+08
        -0.73214E+08
         0.12256E+09
         0.10455E+09
        -0.95774E+08
        -0.91058E+08
         0.16931E+09
         0.14420E+09
         0.13391E+09
        -0.86669E+08
        -0.20911E+08
        -0.58284E+08
        -0.15202E+09
        -0.17155E+09
        -0.16664E+09
        -0.15112E+09
        -0.12761E+09
        -0.56181E+08
         0.88030E+08
         0.12132E+09
        -0.15858E+08
         0.19005E+08
         0.13120E+09
         0.16006E+09
         0.19240E+09
         0.18977E+09
         0.16354E+09
         0.13604E+09
         0.95505E+08
         0.41370E+08
        -0.10978E+08
        -0.39028E+08
        -0.51116E+08
        -0.89013E+08
        -0.16139E+09
        -0.19288E+09
        -0.19226E+09
        -0.19154E+09
        -0.19401E+09
        -0.18770E+09
        -0.16539E+09
        -0.14454E+09
        -0.75899E+08
         0.19505E+08
         0.46433E+08
         0.49645E+08
         0.83162E+08
         0.14811E+09
         0.18486E+09
         0.18578E+09
        -0.26918E+08
         0.60219E+07
        -0.10796E+08
        -0.34169E+08
         0.51628E+08
         0.48536E+08
         0.16731E+08
        -0.28287E+08
        -0.16534E+08
        -0.27832E+08
        -0.32982E+07
         0.16155E+08
         0.58878E+08
        -0.46678E+08
        -0.38401E+08
         0.56534E+08
         0.31378E+08
        -0.19307E+08
        -0.11430E+08
        -0.19091E+08
        -0.96076E+08
        -0.92566E+08
        -0.95210E+08
        -0.28855E+08
         0.15287E+08
         0.12060E+08
        -0.48177E+08
         0.42618E+07
        -0.19388E+08
        -0.23799E+08
         0.44022E+08
         0.27146E+08
        -0.26307E+08
        -0.24200E+08
         0.83846E+08
         0.53034E+08
         0.59187E+08
        -0.48414E+08
        -0.10179E+08
        -0.26882E+08
        -0.86206E+08
        -0.94427E+08
        -0.94844E+08
        -0.77555E+08
        -0.58633E+08
        -0.29159E+08
         0.36467E+08
         0.47024E+08
        -0.53161E+07
         0.70011E+07
         0.64577E+08
         0.63480E+08
         0.15330E+09
         0.15397E+09
         0.13409E+09
         0.11259E+09
         0.79864E+08
         0.34845E+08
        -0.91323E+07
        -0.31271E+08
        -0.40387E+08
        -0.71380E+08
        -0.13003E+09
        -0.15809E+09
        -0.15329E+09
        -0.15313E+09
        -0.15962E+09
        -0.15681E+09
        -0.13925E+09
        -0.12177E+09
        -0.61576E+08
         0.15977E+08
         0.37745E+08
         0.40127E+08
         0.67778E+08
         0.11996E+09
         0.15175E+09
         0.15198E+09
  
SCALARS                      stress_xy  double 1
LOOKUP_TABLE default
        -0.58687E+00
        -0.13770E+01
        -0.11809E+02
         0.41716E+00
        -0.43773E-09
         0.42778E-10
         0.64318E-09
         0.97976E-10
        -0.12456E+03
         0.54733E+02
         0.28630E-08
         0.22703E-08
         0.46603E+01
        -0.96695E+00
         0.25270E-09
        -0.75897E-10
         0.13406E+01
         0.23385E+02
         0.12580E-10
         0.19171E-09
        -0.17787E+02
        -0.11283E+03
        -0.11105E+03
         0.19494E-08
         0.15524E-08
        -0.22670E-08
        -0.11748E+02
        -0.98136E+02
         0.26248E-08
         0.40393E-08
        -0.35849E+01
         0.69432E+01
         0.56409E+00
        -0.13854E-09
         0.54653E-09
        -0.69903E-11
        -0.31614E+02
        -0.14689E+02
         0.14627E-08
         0.12117E-08
        -0.61950E+02
        -0.55888E+02
         0.24935E-08
         0.16805E-08
        -0.60098E+02
        -0.11034E+02
        -0.90835E-10
         0.67627E-09
         0.16029E+02
         0.19986E-09
        -0.37594E+01
        -0.45060E-11
         0.98533E+00
         0.15106E-08
         0.48785E+01
         0.23246E-09
         0.69613E+02
        -0.33902E+01
         0.54023E-11
        -0.26503E-10
         0.46421E+00
        -0.46732E+02
         0.14722E-09
         0.37762E-09
         0.20083E+01
        -0.29891E-10
         0.28865E+02
         0.23951E-09
        -0.15428E+03
        -0.56001E+02
         0.18501E-09
        -0.17716E-08
        -0.12594E+03
        -0.28326E-08
         0.51497E+02
         0.18973E-08
         0.16264E+03
         0.28266E-09
         0.28402E+03
         0.36757E-09
         0.55109E+03
         0.30032E+03
         0.86414E-09
        -0.21912E-09
         0.37091E+02
        -0.26368E-10
        -0.11390E+03
        -0.23782E-08
        -0.16766E+03
        -0.26554E-08
        -0.36885E+03
        -0.16816E+03
        -0.16809E-08
         0.18658E-08
         0.27034E+02
         0.16989E-08
         0.66582E+02
         0.72979E-09
         0.15558E+03
         0.19377E-08
         0.38271E+03
         0.21826E+03
         0.41549E-08
         0.20774E-08
        -0.62892E+03
         0.26357E+03
        -0.26995E-08
         0.33059E-08
        -0.15313E+04
        -0.76720E-08
        -0.19977E+04
        -0.83865E-08
        -0.17549E+04
        -0.56918E-08
        -0.14958E+04
        -0.60374E-09
        -0.65355E+03
         0.17017E-08
         0.86084E+03
         0.10536E-08
         0.19344E+04
         0.96317E-09
         0.25576E+04
         0.20665E-08
         0.25086E+04
         0.25125E-08
         0.20581E+04
         0.98990E-09
         0.10972E+04
         0.60352E-09
        -0.75158E+02
         0.98644E-09
        -0.91347E+03
         0.66123E-09
        -0.14736E+04
        -0.23580E-08
        -0.20114E+04
        -0.61873E-08
        -0.18004E+04
        -0.78521E-08
        -0.11557E+04
        -0.48596E-08
        -0.12659E+03
         0.92715E-09
         0.85523E+03
         0.19650E-08
         0.12369E+04
         0.31316E-08
         0.15131E+04
         0.61669E-08
         0.13564E+04
         0.80021E-08
         0.12626E+04
         0.56852E-08
         0.10430E+04
         0.44962E-08
        -0.83384E+02
         0.22444E+02
         0.22987E+02
        -0.14384E+02
         0.18339E+03
         0.15101E+03
         0.24004E+01
        -0.54237E+02
        -0.24043E+02
        -0.62710E+02
        -0.17933E+02
        -0.33113E+03
        -0.47298E+03
         0.17550E+02
         0.26899E+03
        -0.36162E+02
         0.26880E+02
         0.80288E+01
         0.16279E+02
        -0.13241E+02
         0.66428E+02
         0.58338E+02
        -0.17693E+03
         0.46355E+01
         0.39867E+02
         0.43920E+01
         0.72980E+00
         0.14309E+01
         0.17751E+02
        -0.58989E+02
        -0.31510E+02
         0.67003E+01
         0.10798E+02
        -0.84977E+00
        -0.44198E+02
        -0.15285E+03
        -0.31039E+03
         0.46932E+03
         0.24425E+03
         0.44093E+03
         0.85346E+03
         0.19806E+03
        -0.16032E+03
        -0.32317E+03
        -0.38261E+03
        -0.48789E+03
         0.60236E+02
         0.18075E+03
         0.55763E+02
         0.18754E+03
         0.58671E+03
         0.22631E+03
        -0.19890E+04
         0.25148E+04
        -0.60854E+04
        -0.71557E+04
        -0.67907E+04
        -0.41026E+04
         0.24449E+03
         0.26568E+04
         0.38526E+04
         0.62503E+04
         0.65793E+04
         0.35248E+04
         0.14225E+04
         0.60170E+03
        -0.97398E+03
        -0.38510E+04
        -0.64290E+04
        -0.73399E+04
        -0.44879E+04
         0.81393E+03
         0.29498E+04
         0.31088E+04
         0.48966E+04
         0.54336E+04
         0.41226E+04
         0.38062E+04
        -0.24035E+06
         0.60036E+05
        -0.11270E+06
        -0.87666E+05
         0.40245E+06
         0.25564E+06
         0.87436E+05
        -0.29520E+06
        -0.16290E+06
        -0.28726E+06
         0.63726E+05
        -0.14895E+06
        -0.46202E+06
         0.14069E+06
         0.35387E+06
        -0.27594E+06
         0.69952E+05
         0.40000E+05
         0.12133E+06
         0.41196E+05
         0.24236E+06
         0.18209E+06
        -0.10874E+06
         0.86117E+05
         0.16559E+06
        -0.32928E+05
         0.31357E+05
        -0.11060E+05
        -0.44530E+05
        -0.25093E+06
        -0.27579E+06
        -0.58519E+05
         0.14392E+06
         0.10785E+06
         0.69792E+05
        -0.24936E+06
        -0.38082E+06
         0.42307E+06
         0.95859E+05
         0.27393E+06
         0.41879E+06
        -0.12542E+06
        -0.24977E+06
        -0.33997E+06
        -0.40016E+06
        -0.29307E+06
         0.35247E+06
         0.34397E+06
        -0.72887E+05
         0.84120E+05
         0.43722E+06
         0.50541E+05
        -0.22411E+06
         0.30951E+06
        -0.59667E+06
        -0.64444E+06
        -0.55275E+06
        -0.26859E+06
         0.70386E+05
         0.24639E+06
         0.32596E+06
         0.52274E+06
         0.60475E+06
         0.24105E+06
         0.11375E+06
         0.10166E+06
        -0.43737E+05
        -0.33733E+06
        -0.57673E+06
        -0.64724E+06
        -0.46049E+06
         0.12644E+06
         0.29699E+06
         0.31251E+06
         0.49294E+06
         0.62617E+06
         0.39529E+06
         0.37888E+06
        -0.24069E+06
         0.60254E+05
        -0.11290E+06
        -0.88368E+05
         0.40237E+06
         0.25578E+06
         0.88103E+05
        -0.29454E+06
        -0.16305E+06
        -0.28692E+06
         0.62474E+05
        -0.14930E+06
        -0.46211E+06
         0.14076E+06
         0.35349E+06
        -0.27597E+06
         0.70743E+05
         0.39830E+05
         0.12135E+06
         0.40894E+05
         0.24290E+06
         0.18226E+06
        -0.10877E+06
         0.86081E+05
         0.16592E+06
        -0.32923E+05
         0.31723E+05
        -0.10913E+05
        -0.44548E+05
        -0.25111E+06
        -0.27594E+06
        -0.58384E+05
         0.14364E+06
         0.10808E+06
         0.69122E+05
        -0.24950E+06
        -0.38081E+06
         0.42329E+06
         0.96644E+05
         0.27453E+06
         0.41890E+06
        -0.12505E+06
        -0.24999E+06
        -0.34011E+06
        -0.40015E+06
        -0.29295E+06
         0.35243E+06
         0.34390E+06
        -0.72381E+05
         0.83871E+05
         0.43713E+06
         0.49808E+05
        -0.22397E+06
         0.30958E+06
        -0.59674E+06
        -0.64444E+06
        -0.55268E+06
        -0.26858E+06
         0.70489E+05
         0.24658E+06
         0.32577E+06
         0.52268E+06
         0.60471E+06
         0.24115E+06
         0.11375E+06
         0.10187E+06
        -0.43376E+05
        -0.33744E+06
        -0.57683E+06
        -0.64727E+06
        -0.46040E+06
         0.12651E+06
         0.29682E+06
         0.31241E+06
         0.49276E+06
         0.62608E+06
         0.39506E+06
         0.37857E+06
        -0.24103E+06
         0.60469E+05
        -0.11310E+06
        -0.89078E+05
         0.40229E+06
         0.25594E+06
         0.88773E+05
        -0.29387E+06
        -0.16319E+06
        -0.28656E+06
         0.61223E+05
        -0.14966E+06
        -0.46221E+06
         0.14082E+06
         0.35312E+06
        -0.27600E+06
         0.71547E+05
         0.39658E+05
         0.12138E+06
         0.40591E+05
         0.24345E+06
         0.18243E+06
        -0.10882E+06
         0.86033E+05
         0.16628E+06
        -0.32913E+05
         0.32115E+05
        -0.10770E+05
        -0.44535E+05
        -0.25128E+06
        -0.27609E+06
        -0.58224E+05
         0.14335E+06
         0.10830E+06
         0.68449E+05
        -0.24965E+06
        -0.38079E+06
         0.42351E+06
         0.97426E+05
         0.27513E+06
         0.41903E+06
        -0.12464E+06
        -0.25019E+06
        -0.34027E+06
        -0.40015E+06
        -0.29282E+06
         0.35239E+06
         0.34384E+06
        -0.71861E+05
         0.83612E+05
         0.43705E+06
         0.49077E+05
        -0.22384E+06
         0.30965E+06
        -0.59680E+06
        -0.64444E+06
        -0.55261E+06
        -0.26857E+06
         0.70593E+05
         0.24678E+06
         0.32557E+06
         0.52261E+06
         0.60468E+06
         0.24126E+06
         0.11376E+06
         0.10208E+06
        -0.43014E+05
        -0.33754E+06
        -0.57693E+06
        -0.64730E+06
        -0.46031E+06
         0.12657E+06
         0.29664E+06
         0.31231E+06
         0.49258E+06
         0.62599E+06
         0.39483E+06
         0.37827E+06
        -0.24137E+06
         0.60692E+05
        -0.11330E+06
        -0.89791E+05
         0.40221E+06
         0.25609E+06
         0.89444E+05
        -0.29321E+06
        -0.16331E+06
        -0.28617E+06
         0.59973E+05
        -0.15003E+06
        -0.46231E+06
         0.14089E+06
         0.35274E+06
        -0.27603E+06
         0.72372E+05
         0.39484E+05
         0.12142E+06
         0.40273E+05
         0.24400E+06
         0.18258E+06
        -0.10891E+06
         0.85952E+05
         0.16669E+06
        -0.32896E+05
         0.32520E+05
        -0.10651E+05
        -0.44439E+05
        -0.25143E+06
        -0.27623E+06
        -0.58021E+05
         0.14306E+06
         0.10852E+06
         0.67779E+05
        -0.24979E+06
        -0.38078E+06
         0.42373E+06
         0.98201E+05
         0.27571E+06
         0.41919E+06
        -0.12413E+06
        -0.25034E+06
        -0.34051E+06
        -0.40018E+06
        -0.29269E+06
         0.35236E+06
         0.34377E+06
        -0.71340E+05
         0.83354E+05
         0.43697E+06
         0.48347E+05
        -0.22370E+06
         0.30972E+06
        -0.59686E+06
        -0.64445E+06
        -0.55254E+06
        -0.26856E+06
         0.70698E+05
         0.24698E+06
         0.32538E+06
         0.52254E+06
         0.60466E+06
         0.24139E+06
         0.11376E+06
         0.10229E+06
        -0.42649E+05
        -0.33766E+06
        -0.57704E+06
        -0.64733E+06
        -0.46022E+06
         0.12663E+06
         0.29646E+06
         0.31221E+06
         0.49240E+06
         0.62591E+06
         0.39461E+06
         0.37797E+06
        -0.24171E+06
         0.60915E+05
        -0.11350E+06
        -0.90500E+05
         0.40213E+06
         0.25624E+06
         0.90116E+05
        -0.29254E+06
        -0.16342E+06
        -0.28575E+06
         0.58719E+05
        -0.15038E+06
        -0.46240E+06
         0.14097E+06
         0.35237E+06
        -0.27606E+06
         0.73218E+05
         0.39310E+05
         0.12144E+06
         0.39941E+05
         0.24456E+06
         0.18272E+06
        -0.10905E+06
         0.85838E+05
         0.16718E+06
        -0.32865E+05
         0.32971E+05
        -0.10553E+05
        -0.44253E+05
        -0.25158E+06
        -0.27638E+06
        -0.57761E+05
         0.14276E+06
         0.10875E+06
         0.67105E+05
        -0.24993E+06
        -0.38076E+06
         0.42394E+06
         0.98967E+05
         0.27629E+06
         0.41937E+06
        -0.12352E+06
        -0.25045E+06
        -0.34084E+06
        -0.40025E+06
        -0.29253E+06
         0.35234E+06
         0.34372E+06
        -0.70822E+05
         0.83098E+05
         0.43689E+06
         0.47611E+05
        -0.22356E+06
         0.30980E+06
        -0.59692E+06
        -0.64445E+06
        -0.55247E+06
        -0.26855E+06
         0.70801E+05
         0.24717E+06
         0.32518E+06
         0.52247E+06
         0.60464E+06
         0.24154E+06
         0.11378E+06
         0.10249E+06
        -0.42283E+05
        -0.33777E+06
        -0.57718E+06
        -0.64736E+06
        -0.46013E+06
         0.12670E+06
         0.29628E+06
         0.31211E+06
         0.49221E+06
         0.62582E+06
         0.39438E+06
         0.37767E+06
        -0.24204E+06
         0.61157E+05
        -0.11367E+06
        -0.91218E+05
         0.40206E+06
         0.25639E+06
         0.90778E+05
        -0.29186E+06
        -0.16352E+06
        -0.28532E+06
         0.57468E+05
        -0.15074E+06
        -0.46250E+06
         0.14106E+06
         0.35199E+06
        -0.27610E+06
         0.74081E+05
         0.39138E+05
         0.12147E+06
         0.39608E+05
         0.24511E+06
         0.18284E+06
        -0.10920E+06
         0.85712E+05
         0.16765E+06
        -0.32829E+05
         0.33456E+05
        -0.10463E+05
        -0.44029E+05
        -0.25173E+06
        -0.27651E+06
        -0.57469E+05
         0.14246E+06
         0.10898E+06
         0.66425E+05
        -0.25009E+06
        -0.38076E+06
         0.42415E+06
         0.99731E+05
         0.27687E+06
         0.41956E+06
        -0.12287E+06
        -0.25053E+06
        -0.34119E+06
        -0.40033E+06
        -0.29239E+06
         0.35231E+06
         0.34368E+06
        -0.70287E+05
         0.82866E+05
         0.43681E+06
         0.46874E+05
        -0.22341E+06
         0.30987E+06
        -0.59698E+06
        -0.64445E+06
        -0.55239E+06
        -0.26855E+06
         0.70903E+05
         0.24737E+06
         0.32499E+06
         0.52241E+06
         0.60462E+06
         0.24169E+06
         0.11380E+06
         0.10269E+06
        -0.41917E+05
        -0.33789E+06
        -0.57731E+06
        -0.64740E+06
        -0.46004E+06
         0.12675E+06
         0.29609E+06
         0.31201E+06
         0.49203E+06
         0.62574E+06
         0.39415E+06
         0.37736E+06
        -0.24233E+06
         0.61448E+05
        -0.11381E+06
        -0.91951E+05
         0.40198E+06
         0.25654E+06
         0.91429E+05
        -0.29117E+06
        -0.16362E+06
        -0.28491E+06
         0.56216E+05
        -0.15110E+06
        -0.46260E+06
         0.14123E+06
         0.35161E+06
        -0.27615E+06
         0.74957E+05
         0.38965E+05
         0.12151E+06
         0.39276E+05
         0.24567E+06
         0.18297E+06
        -0.10936E+06
         0.85593E+05
         0.16807E+06
        -0.32781E+05
         0.34027E+05
        -0.10371E+05
        -0.43790E+05
        -0.25191E+06
        -0.27663E+06
        -0.57145E+05
         0.14215E+06
         0.10920E+06
         0.65745E+05
        -0.25025E+06
        -0.38076E+06
         0.42436E+06
         0.10050E+06
         0.27746E+06
         0.41976E+06
        -0.12220E+06
        -0.25061E+06
        -0.34154E+06
        -0.40042E+06
        -0.29226E+06
         0.35226E+06
         0.34369E+06
        -0.69702E+05
         0.82691E+05
         0.43673E+06
         0.46127E+05
        -0.22327E+06
         0.30994E+06
        -0.59704E+06
        -0.64445E+06
        -0.55232E+06
        -0.26854E+06
         0.71006E+05
         0.24757E+06
         0.32480E+06
         0.52234E+06
         0.60460E+06
         0.24185E+06
         0.11382E+06
         0.10289E+06
        -0.41551E+05
        -0.33802E+06
        -0.57745E+06
        -0.64743E+06
        -0.45995E+06
         0.12680E+06
         0.29590E+06
         0.31191E+06
         0.49186E+06
         0.62565E+06
         0.39393E+06
         0.37706E+06
        -0.24262E+06
         0.61754E+05
        -0.11393E+06
        -0.92693E+05
         0.40191E+06
         0.25669E+06
         0.92070E+05
        -0.29049E+06
        -0.16373E+06
        -0.28451E+06
         0.54963E+05
        -0.15145E+06
        -0.46270E+06
         0.14141E+06
         0.35123E+06
        -0.27621E+06
         0.75842E+05
         0.38790E+05
         0.12153E+06
         0.38951E+05
         0.24623E+06
         0.18310E+06
        -0.10951E+06
         0.85476E+05
         0.16846E+06
        -0.32729E+05
         0.34621E+05
        -0.10277E+05
        -0.43546E+05
        -0.25209E+06
        -0.27674E+06
        -0.56800E+05
         0.14183E+06
         0.10943E+06
         0.65057E+05
        -0.25042E+06
        -0.38078E+06
         0.42457E+06
         0.10126E+06
         0.27804E+06
         0.41996E+06
        -0.12154E+06
        -0.25068E+06
        -0.34189E+06
        -0.40052E+06
        -0.29214E+06
         0.35221E+06
         0.34370E+06
        -0.69097E+05
         0.82544E+05
         0.43665E+06
         0.45378E+05
        -0.22313E+06
         0.31001E+06
        -0.59711E+06
        -0.64445E+06
        -0.55225E+06
        -0.26853E+06
         0.71108E+05
         0.24776E+06
         0.32461E+06
         0.52228E+06
         0.60458E+06
         0.24201E+06
         0.11384E+06
         0.10310E+06
        -0.41184E+05
        -0.33813E+06
        -0.57759E+06
        -0.64747E+06
        -0.45986E+06
         0.12685E+06
         0.29570E+06
         0.31181E+06
         0.49169E+06
         0.62556E+06
         0.39370E+06
         0.37675E+06
        -0.24290E+06
         0.62064E+05
        -0.11404E+06
        -0.93435E+05
         0.40183E+06
         0.25684E+06
         0.92710E+05
        -0.28980E+06
        -0.16384E+06
        -0.28411E+06
         0.53710E+05
        -0.15181E+06
        -0.46280E+06
         0.14161E+06
         0.35084E+06
        -0.27626E+06
         0.76734E+05
         0.38616E+05
         0.12156E+06
         0.38621E+05
         0.24678E+06
         0.18323E+06
        -0.10967E+06
         0.85363E+05
         0.16885E+06
        -0.32676E+05
         0.35230E+05
        -0.10176E+05
        -0.43295E+05
        -0.25227E+06
        -0.27685E+06
        -0.56461E+05
         0.14152E+06
         0.10965E+06
         0.64366E+05
        -0.25059E+06
        -0.38078E+06
         0.42477E+06
         0.10203E+06
         0.27862E+06
         0.42016E+06
        -0.12087E+06
        -0.25076E+06
        -0.34224E+06
        -0.40062E+06
        -0.29202E+06
         0.35216E+06
         0.34372E+06
        -0.68490E+05
         0.82403E+05
         0.43657E+06
         0.44625E+05
        -0.22299E+06
         0.31008E+06
        -0.59717E+06
        -0.64445E+06
        -0.55217E+06
        -0.26852E+06
         0.71211E+05
         0.24796E+06
         0.32441E+06
         0.52222E+06
         0.60457E+06
         0.24217E+06
         0.11386E+06
         0.10331E+06
        -0.40818E+05
        -0.33825E+06
        -0.57773E+06
        -0.64750E+06
        -0.45976E+06
         0.12690E+06
         0.29550E+06
         0.31171E+06
         0.49152E+06
         0.62547E+06
         0.39347E+06
         0.37645E+06
        -0.24319E+06
         0.62378E+05
        -0.11415E+06
        -0.94176E+05
         0.40175E+06
         0.25698E+06
         0.93353E+05
        -0.28910E+06
        -0.16395E+06
        -0.28371E+06
         0.52457E+05
        -0.15216E+06
        -0.46290E+06
         0.14179E+06
         0.35046E+06
        -0.27631E+06
         0.77631E+05
         0.38443E+05
         0.12159E+06
         0.38292E+05
         0.24734E+06
         0.18336E+06
        -0.10981E+06
         0.85250E+05
         0.16924E+06
        -0.32623E+05
         0.35822E+05
        -0.10072E+05
        -0.43037E+05
        -0.25245E+06
        -0.27696E+06
        -0.56118E+05
         0.14119E+06
         0.10988E+06
         0.63678E+05
        -0.25076E+06
        -0.38080E+06
         0.42497E+06
         0.10279E+06
         0.27921E+06
         0.42036E+06
        -0.12022E+06
        -0.25084E+06
        -0.34258E+06
        -0.40072E+06
        -0.29189E+06
         0.35210E+06
         0.34374E+06
        -0.67888E+05
         0.82249E+05
         0.43650E+06
         0.43874E+05
        -0.22285E+06
         0.31015E+06
        -0.59722E+06
        -0.64445E+06
        -0.55210E+06
        -0.26851E+06
         0.71313E+05
         0.24815E+06
         0.32422E+06
         0.52215E+06
         0.60455E+06
         0.24233E+06
         0.11388E+06
         0.10352E+06
        -0.40453E+05
        -0.33837E+06
        -0.57786E+06
        -0.64753E+06
        -0.45967E+06
         0.12694E+06
         0.29530E+06
         0.31161E+06
         0.49134E+06
         0.62539E+06
         0.39324E+06
         0.37614E+06
        -0.24347E+06
         0.62688E+05
        -0.11427E+06
        -0.94915E+05
         0.40168E+06
         0.25713E+06
         0.93998E+05
        -0.28841E+06
        -0.16406E+06
        -0.28332E+06
         0.51200E+05
        -0.15252E+06
        -0.46300E+06
         0.14199E+06
         0.35007E+06
        -0.27637E+06
         0.78534E+05
         0.38271E+05
         0.12163E+06
         0.37961E+05
         0.24789E+06
         0.18348E+06
        -0.10997E+06
         0.85140E+05
         0.16961E+06
        -0.32569E+05
         0.36424E+05
        -0.99610E+04
        -0.42772E+05
        -0.25263E+06
        -0.27706E+06
        -0.55777E+05
         0.14087E+06
         0.11010E+06
         0.62985E+05
        -0.25093E+06
        -0.38081E+06
         0.42517E+06
         0.10355E+06
         0.27979E+06
         0.42055E+06
        -0.11956E+06
        -0.25091E+06
        -0.34293E+06
        -0.40081E+06
        -0.29177E+06
         0.35205E+06
         0.34375E+06
        -0.67280E+05
         0.82100E+05
         0.43642E+06
         0.43120E+05
        -0.22271E+06
         0.31021E+06
        -0.59728E+06
        -0.64445E+06
        -0.55203E+06
        -0.26850E+06
         0.71413E+05
         0.24835E+06
         0.32402E+06
         0.52209E+06
         0.60453E+06
         0.24248E+06
         0.11390E+06
         0.10372E+06
        -0.40087E+05
        -0.33849E+06
        -0.57800E+06
        -0.64757E+06
        -0.45958E+06
         0.12698E+06
         0.29511E+06
         0.31150E+06
         0.49117E+06
         0.62530E+06
         0.39302E+06
         0.37584E+06
        -0.24375E+06
         0.62997E+05
        -0.11438E+06
        -0.95662E+05
         0.40160E+06
         0.25728E+06
         0.94641E+05
        -0.28772E+06
        -0.16416E+06
        -0.28291E+06
         0.49943E+05
        -0.15288E+06
        -0.46310E+06
         0.14218E+06
         0.34969E+06
        -0.27642E+06
         0.79440E+05
         0.38096E+05
         0.12166E+06
         0.37635E+05
         0.24845E+06
         0.18361E+06
        -0.11012E+06
         0.85031E+05
         0.16999E+06
        -0.32517E+05
         0.37012E+05
        -0.98464E+04
        -0.42496E+05
        -0.25282E+06
        -0.27717E+06
        -0.55436E+05
         0.14054E+06
         0.11033E+06
         0.62289E+05
        -0.25109E+06
        -0.38082E+06
         0.42536E+06
         0.10431E+06
         0.28037E+06
         0.42075E+06
        -0.11890E+06
        -0.25098E+06
        -0.34327E+06
        -0.40091E+06
        -0.29165E+06
         0.35200E+06
         0.34377E+06
        -0.66669E+05
         0.81959E+05
         0.43635E+06
         0.42366E+05
        -0.22257E+06
         0.31028E+06
        -0.59734E+06
        -0.64445E+06
        -0.55195E+06
        -0.26850E+06
         0.71514E+05
         0.24855E+06
         0.32383E+06
         0.52202E+06
         0.60451E+06
         0.24264E+06
         0.11392E+06
         0.10393E+06
        -0.39719E+05
        -0.33861E+06
        -0.57814E+06
        -0.64760E+06
        -0.45949E+06
         0.12703E+06
         0.29491E+06
         0.31140E+06
         0.49100E+06
         0.62521E+06
         0.39279E+06
         0.37553E+06
        -0.24404E+06
         0.63310E+05
        -0.11449E+06
        -0.96411E+05
         0.40153E+06
         0.25742E+06
         0.95284E+05
        -0.28702E+06
        -0.16427E+06
        -0.28251E+06
         0.48688E+05
        -0.15324E+06
        -0.46321E+06
         0.14236E+06
         0.34930E+06
        -0.27647E+06
         0.80350E+05
         0.37922E+05
         0.12169E+06
         0.37309E+05
         0.24900E+06
         0.18373E+06
        -0.11027E+06
         0.84922E+05
         0.17036E+06
        -0.32462E+05
         0.37617E+05
        -0.97258E+04
        -0.42218E+05
        -0.25299E+06
        -0.27728E+06
        -0.55091E+05
         0.14020E+06
         0.11056E+06
         0.61595E+05
        -0.25127E+06
        -0.38083E+06
         0.42556E+06
         0.10507E+06
         0.28095E+06
         0.42094E+06
        -0.11824E+06
        -0.25106E+06
        -0.34362E+06
        -0.40101E+06
        -0.29152E+06
         0.35194E+06
         0.34379E+06
        -0.66056E+05
         0.81808E+05
         0.43626E+06
         0.41613E+05
        -0.22243E+06
         0.31035E+06
        -0.59740E+06
        -0.64445E+06
        -0.55188E+06
        -0.26849E+06
         0.71616E+05
         0.24874E+06
         0.32364E+06
         0.52196E+06
         0.60449E+06
         0.24280E+06
         0.11394E+06
         0.10413E+06
        -0.39353E+05
        -0.33873E+06
        -0.57828E+06
        -0.64764E+06
        -0.45940E+06
         0.12707E+06
         0.29471E+06
         0.31130E+06
         0.49083E+06
         0.62513E+06
         0.39257E+06
         0.37522E+06
        -0.24433E+06
         0.63618E+05
        -0.11460E+06
        -0.97159E+05
         0.40145E+06
         0.25757E+06
         0.95929E+05
        -0.28632E+06
        -0.16437E+06
        -0.28210E+06
         0.47433E+05
        -0.15359E+06
        -0.46331E+06
         0.14255E+06
         0.34891E+06
        -0.27652E+06
         0.81266E+05
         0.37750E+05
         0.12173E+06
         0.36986E+05
         0.24956E+06
         0.18386E+06
        -0.11042E+06
         0.84814E+05
         0.17072E+06
        -0.32406E+05
         0.38207E+05
        -0.96012E+04
        -0.41933E+05
        -0.25317E+06
        -0.27738E+06
        -0.54749E+05
         0.13987E+06
         0.11079E+06
         0.60896E+05
        -0.25143E+06
        -0.38084E+06
         0.42575E+06
         0.10583E+06
         0.28154E+06
         0.42114E+06
        -0.11759E+06
        -0.25113E+06
        -0.34396E+06
        -0.40111E+06
        -0.29141E+06
         0.35189E+06
         0.34381E+06
        -0.65444E+05
         0.81658E+05
         0.43619E+06
         0.40863E+05
        -0.22228E+06
         0.31042E+06
        -0.59746E+06
        -0.64445E+06
        -0.55181E+06
        -0.26848E+06
         0.71718E+05
         0.24893E+06
         0.32344E+06
         0.52190E+06
         0.60447E+06
         0.24295E+06
         0.11396E+06
         0.10434E+06
        -0.38988E+05
        -0.33885E+06
        -0.57841E+06
        -0.64767E+06
        -0.45931E+06
         0.12712E+06
         0.29451E+06
         0.31120E+06
         0.49066E+06
         0.62504E+06
         0.39235E+06
         0.37492E+06
        -0.24461E+06
         0.63923E+05
        -0.11471E+06
        -0.97907E+05
         0.40137E+06
         0.25771E+06
         0.96573E+05
        -0.28562E+06
        -0.16448E+06
        -0.28169E+06
         0.46177E+05
        -0.15395E+06
        -0.46341E+06
         0.14272E+06
         0.34852E+06
        -0.27657E+06
         0.82189E+05
         0.37578E+05
         0.12176E+06
         0.36659E+05
         0.25011E+06
         0.18398E+06
        -0.11057E+06
         0.84708E+05
         0.17108E+06
        -0.32350E+05
         0.38806E+05
        -0.94707E+04
        -0.41643E+05
        -0.25334E+06
        -0.27748E+06
        -0.54404E+05
         0.13953E+06
         0.11101E+06
         0.60200E+05
        -0.25161E+06
        -0.38085E+06
         0.42594E+06
         0.10659E+06
         0.28212E+06
         0.42134E+06
        -0.11693E+06
        -0.25121E+06
        -0.34430E+06
        -0.40120E+06
        -0.29129E+06
         0.35183E+06
         0.34383E+06
        -0.64822E+05
         0.81513E+05
         0.43612E+06
         0.40108E+05
        -0.22214E+06
         0.31048E+06
        -0.59752E+06
        -0.64445E+06
        -0.55174E+06
        -0.26847E+06
         0.71818E+05
         0.24912E+06
         0.32325E+06
         0.52183E+06
         0.60445E+06
         0.24311E+06
         0.11398E+06
         0.10455E+06
        -0.38622E+05
        -0.33896E+06
        -0.57855E+06
        -0.64770E+06
        -0.45922E+06
         0.12716E+06
         0.29431E+06
         0.31111E+06
         0.49049E+06
         0.62495E+06
         0.39213E+06
         0.37461E+06
        -0.24490E+06
         0.64237E+05
        -0.11483E+06
        -0.98653E+05
         0.40130E+06
         0.25786E+06
         0.97215E+05
        -0.28492E+06
        -0.16458E+06
        -0.28128E+06
         0.44917E+05
        -0.15431E+06
        -0.46351E+06
         0.14291E+06
         0.34813E+06
        -0.27662E+06
         0.83119E+05
         0.37407E+05
         0.12180E+06
         0.36336E+05
         0.25066E+06
         0.18410E+06
        -0.11072E+06
         0.84604E+05
         0.17144E+06
        -0.32293E+05
         0.39389E+05
        -0.93352E+04
        -0.41348E+05
        -0.25351E+06
        -0.27759E+06
        -0.54063E+05
         0.13918E+06
         0.11124E+06
         0.59497E+05
        -0.25177E+06
        -0.38086E+06
         0.42612E+06
         0.10735E+06
         0.28270E+06
         0.42153E+06
        -0.11628E+06
        -0.25128E+06
        -0.34464E+06
        -0.40130E+06
        -0.29116E+06
         0.35178E+06
         0.34384E+06
        -0.64206E+05
         0.81361E+05
         0.43604E+06
         0.39351E+05
        -0.22200E+06
         0.31055E+06
        -0.59757E+06
        -0.64445E+06
        -0.55166E+06
        -0.26846E+06
         0.71917E+05
         0.24931E+06
         0.32305E+06
         0.52177E+06
         0.60443E+06
         0.24326E+06
         0.11400E+06
         0.10475E+06
        -0.38256E+05
        -0.33908E+06
        -0.57869E+06
        -0.64774E+06
        -0.45913E+06
         0.12720E+06
         0.29411E+06
         0.31101E+06
         0.49032E+06
         0.62486E+06
         0.39190E+06
         0.37430E+06
        -0.24518E+06
         0.64545E+05
        -0.11494E+06
        -0.99403E+05
         0.40122E+06
         0.25800E+06
         0.97863E+05
        -0.28421E+06
        -0.16468E+06
        -0.28085E+06
         0.43656E+05
        -0.15467E+06
        -0.46361E+06
         0.14307E+06
         0.34774E+06
        -0.27667E+06
         0.84056E+05
         0.37235E+05
         0.12183E+06
         0.36016E+05
         0.25121E+06
         0.18421E+06
        -0.11087E+06
         0.84500E+05
         0.17178E+06
        -0.32235E+05
         0.39988E+05
        -0.91927E+04
        -0.41042E+05
        -0.25369E+06
        -0.27769E+06
        -0.53721E+05
         0.13883E+06
         0.11147E+06
         0.58793E+05
        -0.25194E+06
        -0.38086E+06
         0.42631E+06
         0.10811E+06
         0.28328E+06
         0.42173E+06
        -0.11563E+06
        -0.25136E+06
        -0.34498E+06
        -0.40140E+06
        -0.29104E+06
         0.35173E+06
         0.34387E+06
        -0.63592E+05
         0.81209E+05
         0.43596E+06
         0.38599E+05
        -0.22185E+06
         0.31062E+06
        -0.59763E+06
        -0.64445E+06
        -0.55159E+06
        -0.26845E+06
         0.72015E+05
         0.24950E+06
         0.32286E+06
         0.52171E+06
         0.60442E+06
         0.24342E+06
         0.11402E+06
         0.10495E+06
        -0.37892E+05
        -0.33920E+06
        -0.57882E+06
        -0.64777E+06
        -0.45904E+06
         0.12725E+06
         0.29391E+06
         0.31090E+06
         0.49014E+06
         0.62478E+06
         0.39168E+06
         0.37399E+06
        -0.24547E+06
         0.64852E+05
        -0.11505E+06
        -0.10016E+06
         0.40114E+06
         0.25814E+06
         0.98506E+05
        -0.28351E+06
        -0.16476E+06
        -0.28040E+06
         0.42394E+05
        -0.15503E+06
        -0.46371E+06
         0.14325E+06
         0.34735E+06
        -0.27672E+06
         0.85003E+05
         0.37063E+05
         0.12188E+06
         0.35711E+05
         0.25176E+06
         0.18433E+06
        -0.11103E+06
         0.84392E+05
         0.17210E+06
        -0.32180E+05
         0.40582E+05
        -0.90397E+04
        -0.40732E+05
        -0.25386E+06
        -0.27779E+06
        -0.53372E+05
         0.13848E+06
         0.11171E+06
         0.58090E+05
        -0.25211E+06
        -0.38088E+06
         0.42648E+06
         0.10890E+06
         0.28386E+06
         0.42193E+06
        -0.11498E+06
        -0.25145E+06
        -0.34532E+06
        -0.40149E+06
        -0.29091E+06
         0.35167E+06
         0.34388E+06
        -0.62980E+05
         0.81058E+05
         0.43589E+06
         0.37846E+05
        -0.22171E+06
         0.31068E+06
        -0.59769E+06
        -0.64445E+06
        -0.55152E+06
        -0.26845E+06
         0.72114E+05
         0.24969E+06
         0.32267E+06
         0.52165E+06
         0.60440E+06
         0.24357E+06
         0.11402E+06
         0.10516E+06
        -0.37529E+05
        -0.33931E+06
        -0.57896E+06
        -0.64781E+06
        -0.45894E+06
         0.12729E+06
         0.29371E+06
         0.31080E+06
         0.48997E+06
         0.62469E+06
         0.39147E+06
         0.37368E+06
        -0.24575E+06
         0.65158E+05
        -0.11515E+06
        -0.10091E+06
         0.40106E+06
         0.25828E+06
         0.99151E+05
        -0.28280E+06
        -0.16484E+06
        -0.27992E+06
         0.41134E+05
        -0.15538E+06
        -0.46381E+06
         0.14344E+06
         0.34694E+06
        -0.27677E+06
         0.85964E+05
         0.36890E+05
         0.12192E+06
         0.35415E+05
         0.25231E+06
         0.18444E+06
        -0.11118E+06
         0.84290E+05
         0.17239E+06
        -0.32120E+05
         0.41202E+05
        -0.88745E+04
        -0.40416E+05
        -0.25403E+06
        -0.27788E+06
        -0.53028E+05
         0.13812E+06
         0.11194E+06
         0.57381E+05
        -0.25228E+06
        -0.38089E+06
         0.42664E+06
         0.10971E+06
         0.28445E+06
         0.42213E+06
        -0.11433E+06
        -0.25155E+06
        -0.34566E+06
        -0.40159E+06
        -0.29080E+06
         0.35162E+06
         0.34390E+06
        -0.62359E+05
         0.80910E+05
         0.43581E+06
         0.37086E+05
        -0.22156E+06
         0.31075E+06
        -0.59775E+06
        -0.64445E+06
        -0.55145E+06
        -0.26844E+06
         0.72212E+05
         0.24988E+06
         0.32248E+06
         0.52158E+06
         0.60440E+06
         0.24372E+06
         0.11402E+06
         0.10536E+06
        -0.37163E+05
        -0.33943E+06
        -0.57910E+06
        -0.64784E+06
        -0.45885E+06
         0.12733E+06
         0.29352E+06
         0.31070E+06
         0.48980E+06
         0.62460E+06
         0.39125E+06
         0.37337E+06
        -0.24603E+06
         0.65466E+05
        -0.11527E+06
        -0.10166E+06
         0.40099E+06
         0.25843E+06
         0.99797E+05
        -0.28209E+06
        -0.16491E+06
        -0.27943E+06
         0.39881E+05
        -0.15573E+06
        -0.46390E+06
         0.14360E+06
         0.34655E+06
        -0.27682E+06
         0.86932E+05
         0.36720E+05
         0.12195E+06
         0.35128E+05
         0.25287E+06
         0.18455E+06
        -0.11132E+06
         0.84195E+05
         0.17267E+06
        -0.32064E+05
         0.41806E+05
        -0.87012E+04
        -0.40098E+05
        -0.25420E+06
        -0.27799E+06
        -0.52692E+05
         0.13777E+06
         0.11217E+06
         0.56680E+05
        -0.25244E+06
        -0.38089E+06
         0.42679E+06
         0.11053E+06
         0.28501E+06
         0.42232E+06
        -0.11370E+06
        -0.25165E+06
        -0.34599E+06
        -0.40168E+06
        -0.29068E+06
         0.35157E+06
         0.34392E+06
        -0.61745E+05
         0.80753E+05
         0.43574E+06
         0.36330E+05
        -0.22142E+06
         0.31081E+06
        -0.59780E+06
        -0.64445E+06
        -0.55137E+06
        -0.26843E+06
         0.72309E+05
         0.25006E+06
         0.32230E+06
         0.52152E+06
         0.60439E+06
         0.24387E+06
         0.11401E+06
         0.10556E+06
        -0.36798E+05
        -0.33954E+06
        -0.57923E+06
        -0.64787E+06
        -0.45876E+06
         0.12738E+06
         0.29332E+06
         0.31060E+06
         0.48963E+06
         0.62452E+06
         0.39103E+06
         0.37307E+06
        -0.23267E+06
         0.57808E+05
        -0.10092E+06
        -0.10317E+06
         0.37044E+06
         0.22952E+06
         0.10116E+06
        -0.26116E+06
        -0.14820E+06
        -0.25810E+06
         0.33572E+05
        -0.14996E+06
        -0.44096E+06
         0.12308E+06
         0.33368E+06
        -0.25477E+06
         0.88519E+05
         0.36840E+05
         0.10478E+06
         0.35125E+05
         0.24326E+06
         0.17623E+06
        -0.10660E+06
         0.84790E+05
         0.15033E+06
        -0.32285E+05
         0.36355E+05
        -0.85888E+04
        -0.40167E+05
        -0.22040E+06
        -0.25044E+06
        -0.52851E+05
         0.13850E+06
         0.11327E+06
         0.52666E+05
        -0.22542E+06
        -0.35238E+06
         0.40742E+06
         0.10413E+06
         0.26501E+06
         0.40395E+06
        -0.10793E+06
        -0.24122E+06
        -0.32820E+06
        -0.37450E+06
        -0.27490E+06
         0.32138E+06
         0.31132E+06
        -0.53848E+05
         0.72123E+05
         0.40930E+06
         0.32309E+05
        -0.21846E+06
         0.30738E+06
        -0.59148E+06
        -0.63793E+06
        -0.54608E+06
        -0.26595E+06
         0.71700E+05
         0.24710E+06
         0.31782E+06
         0.51506E+06
         0.59718E+06
         0.24133E+06
         0.11252E+06
         0.10442E+06
        -0.36067E+05
        -0.33639E+06
        -0.57411E+06
        -0.64210E+06
        -0.45349E+06
         0.12608E+06
         0.28986E+06
         0.30688E+06
         0.48406E+06
         0.61723E+06
         0.38666E+06
         0.36872E+06
        -0.68482E+05
         0.97942E+04
        -0.16563E+05
        -0.15672E+05
         0.85826E+05
         0.40379E+05
         0.11331E+05
        -0.62830E+05
        -0.28675E+05
        -0.60423E+05
         0.35039E+04
        -0.55298E+05
        -0.13787E+06
         0.17424E+05
         0.12849E+06
        -0.58286E+05
         0.11537E+05
         0.61556E+04
         0.14533E+05
         0.39332E+04
         0.87585E+05
         0.58389E+05
        -0.36539E+05
         0.11079E+05
         0.23469E+05
        -0.46441E+04
         0.52549E+04
        -0.80483E+03
        -0.37726E+04
        -0.33709E+05
        -0.48984E+05
        -0.70310E+04
         0.20704E+05
         0.15809E+05
         0.14129E+05
        -0.40446E+05
        -0.82483E+05
         0.13484E+06
         0.27334E+05
         0.64006E+05
         0.13785E+06
        -0.35221E+05
        -0.84398E+05
        -0.99043E+05
        -0.93867E+05
        -0.80755E+05
         0.67879E+05
         0.61638E+05
        -0.89387E+04
         0.13229E+05
         0.11145E+06
         0.64396E+04
        -0.13951E+06
         0.20374E+06
        -0.40013E+06
        -0.43958E+06
        -0.38414E+06
        -0.18980E+06
         0.49834E+05
         0.15966E+06
         0.19988E+06
         0.33343E+06
         0.39022E+06
         0.16316E+06
         0.72027E+05
         0.67332E+05
        -0.24422E+05
        -0.23628E+06
        -0.40949E+06
        -0.45836E+06
        -0.30043E+06
         0.85047E+05
         0.19284E+06
         0.20191E+06
         0.32371E+06
         0.40761E+06
         0.26214E+06
         0.24824E+06
  
SCALARS                      strain_xx  double 1
LOOKUP_TABLE default
        -0.11052E-06
        -0.54492E-05
        -0.59723E-04
        -0.28445E-06
        -0.15064E-19
        -0.18938E-20
        -0.21175E-19
        -0.84460E-21
        -0.46995E-03
        -0.21044E-03
        -0.18944E-18
        -0.15370E-18
        -0.84251E-06
        -0.14020E-04
        -0.28817E-20
        -0.63238E-19
        -0.60729E-06
        -0.12922E-04
        -0.32995E-19
        -0.73188E-19
        -0.27410E-04
        -0.76999E-04
        -0.70196E-04
        -0.32633E-19
        -0.69391E-20
        -0.21180E-19
        -0.85952E-04
        -0.55730E-04
        -0.11434E-18
        -0.71952E-19
        -0.33234E-05
        -0.16219E-04
        -0.15156E-06
        -0.11853E-20
        -0.17701E-19
        -0.67182E-20
        -0.29074E-04
        -0.66498E-05
        -0.39017E-19
        -0.44232E-19
        -0.11483E-03
        -0.22762E-03
        -0.19853E-18
        -0.10797E-18
        -0.13268E-03
        -0.37778E-04
        -0.23942E-18
        -0.55467E-19
        -0.10574E-04
        -0.21855E-19
        -0.62202E-04
        -0.16934E-20
        -0.11295E-04
        -0.83444E-19
        -0.62700E-05
        -0.58388E-20
        -0.12003E-03
        -0.91961E-05
        -0.42848E-20
        -0.25034E-19
        -0.37884E-07
        -0.28715E-04
        -0.17141E-19
        -0.80603E-20
        -0.19494E-05
        -0.17343E-21
        -0.21743E-04
        -0.75031E-20
        -0.92783E-03
        -0.43510E-03
        -0.29312E-18
        -0.15418E-18
        -0.17935E-03
        -0.81745E-19
        -0.94629E-05
        -0.39117E-19
        -0.92368E-04
        -0.15068E-20
        -0.41578E-03
        -0.36267E-20
        -0.73409E-03
        -0.37339E-03
        -0.48710E-19
        -0.63711E-19
        -0.29605E-03
        -0.73687E-19
        -0.19508E-03
        -0.15275E-18
        -0.75272E-04
        -0.62139E-19
        -0.18568E-03
        -0.10020E-03
        -0.11319E-19
        -0.21286E-19
        -0.52528E-05
        -0.29287E-19
        -0.39664E-04
        -0.51634E-20
        -0.22822E-03
        -0.31487E-19
        -0.49828E-03
        -0.23518E-03
        -0.16740E-18
        -0.18228E-18
        -0.29525E-02
        -0.36400E-02
        -0.57155E-18
        -0.55506E-18
        -0.28923E-02
        -0.41713E-18
        -0.24179E-02
        -0.23296E-18
        -0.12365E-02
        -0.70352E-19
        -0.64237E-03
        -0.80447E-21
        -0.86890E-04
        -0.10205E-19
        -0.14259E-03
        -0.65323E-20
        -0.81111E-03
        -0.63106E-20
        -0.17914E-02
        -0.32091E-19
        -0.32820E-02
        -0.11616E-18
        -0.49477E-02
        -0.16541E-18
        -0.57015E-02
        -0.14725E-18
        -0.52249E-02
        -0.17412E-18
        -0.44271E-02
        -0.29330E-18
        -0.35993E-02
        -0.40784E-18
        -0.27990E-02
        -0.35244E-18
        -0.17473E-02
        -0.23278E-18
        -0.59510E-03
        -0.51878E-19
        -0.43541E-05
        -0.18916E-20
        -0.18643E-03
        -0.11150E-19
        -0.45818E-03
        -0.29815E-19
        -0.10312E-02
        -0.11419E-18
        -0.17931E-02
        -0.30748E-18
        -0.31096E-02
        -0.44384E-18
        -0.41240E-02
        -0.46432E-18
        -0.19831E-05
        -0.54582E-06
        -0.74970E-06
        -0.29787E-05
        -0.46284E-04
        -0.27215E-04
        -0.63361E-06
        -0.13526E-05
        -0.35085E-06
        -0.11293E-05
        -0.35088E-06
        -0.66024E-05
        -0.28556E-04
        -0.29192E-05
        -0.42511E-05
        -0.52811E-05
        -0.37332E-05
        -0.79379E-06
        -0.19797E-05
        -0.22791E-05
        -0.68630E-04
        -0.77433E-04
        -0.63719E-04
        -0.61387E-05
        -0.97840E-06
        -0.54362E-06
        -0.56924E-05
        -0.71481E-07
        -0.75596E-05
        -0.35193E-05
        -0.42174E-05
        -0.16562E-06
        -0.93660E-06
        -0.99205E-07
        -0.10332E-03
        -0.41441E-04
        -0.33741E-04
        -0.16652E-04
        -0.54073E-05
        -0.25008E-04
        -0.10669E-03
        -0.90979E-04
        -0.86950E-04
        -0.47110E-04
        -0.24492E-04
        -0.15245E-04
        -0.53003E-06
        -0.90944E-05
        -0.76143E-06
        -0.77513E-05
        -0.56004E-04
        -0.39069E-04
        -0.90605E-03
        -0.98756E-03
        -0.79084E-03
        -0.57097E-03
        -0.31699E-03
        -0.82840E-04
        -0.29333E-06
        -0.42317E-04
        -0.98135E-04
        -0.28953E-03
        -0.77091E-03
        -0.11237E-02
        -0.93556E-03
        -0.85784E-03
        -0.95325E-03
        -0.94972E-03
        -0.78420E-03
        -0.60516E-03
        -0.15809E-03
        -0.39362E-05
        -0.57758E-04
        -0.71746E-04
        -0.20597E-03
        -0.52821E-03
        -0.88141E-03
        -0.97057E-03
        -0.62830E-05
        -0.26475E-06
        -0.95957E-06
        -0.81352E-05
        -0.34230E-04
        -0.24998E-04
        -0.21219E-05
        -0.10112E-04
        -0.21349E-05
        -0.91396E-05
        -0.37299E-06
        -0.49654E-05
        -0.53736E-04
        -0.31600E-04
        -0.33906E-04
        -0.24251E-04
        -0.75156E-05
        -0.26962E-05
        -0.12211E-05
        -0.37659E-05
        -0.13259E-03
        -0.12043E-03
        -0.11727E-03
        -0.68600E-05
        -0.22131E-05
        -0.10033E-05
        -0.29508E-04
        -0.52022E-06
        -0.33050E-05
        -0.61461E-05
        -0.14314E-04
        -0.59936E-05
        -0.60214E-05
        -0.44851E-05
        -0.10887E-03
        -0.33164E-04
        -0.43636E-04
        -0.41696E-04
        -0.11688E-05
        -0.98246E-05
        -0.13261E-03
        -0.14031E-03
        -0.13406E-03
        -0.70088E-04
        -0.41564E-04
        -0.14230E-04
        -0.16621E-04
        -0.23164E-04
        -0.40477E-06
        -0.58679E-06
        -0.61652E-04
        -0.47841E-04
        -0.19035E-02
        -0.19331E-02
        -0.15578E-02
        -0.10597E-02
        -0.59003E-03
        -0.12517E-03
        -0.77155E-05
        -0.80993E-04
        -0.14055E-03
        -0.47230E-03
        -0.14901E-02
        -0.20737E-02
        -0.14581E-02
        -0.13197E-02
        -0.16018E-02
        -0.16990E-02
        -0.14154E-02
        -0.12665E-02
        -0.32877E-03
        -0.22211E-04
        -0.10864E-03
        -0.11151E-03
        -0.35248E-03
        -0.10567E-02
        -0.17312E-02
        -0.17203E-02
        -0.63067E-05
        -0.26672E-06
        -0.96319E-06
        -0.81462E-05
        -0.34165E-04
        -0.24952E-04
        -0.21490E-05
        -0.10061E-04
        -0.21396E-05
        -0.91252E-05
        -0.35804E-06
        -0.49895E-05
        -0.53801E-04
        -0.31445E-04
        -0.33869E-04
        -0.24301E-04
        -0.75487E-05
        -0.26813E-05
        -0.12199E-05
        -0.37527E-05
        -0.13256E-03
        -0.12040E-03
        -0.11725E-03
        -0.68607E-05
        -0.22231E-05
        -0.10067E-05
        -0.29526E-04
        -0.50085E-06
        -0.33516E-05
        -0.61539E-05
        -0.14356E-04
        -0.59920E-05
        -0.59713E-05
        -0.44892E-05
        -0.10898E-03
        -0.33133E-04
        -0.43609E-04
        -0.41830E-04
        -0.11913E-05
        -0.98866E-05
        -0.13277E-03
        -0.14048E-03
        -0.13408E-03
        -0.70067E-04
        -0.41534E-04
        -0.14215E-04
        -0.16614E-04
        -0.23180E-04
        -0.39888E-06
        -0.58279E-06
        -0.61573E-04
        -0.47699E-04
        -0.19022E-02
        -0.19321E-02
        -0.15575E-02
        -0.10597E-02
        -0.58966E-03
        -0.12509E-03
        -0.77330E-05
        -0.81094E-04
        -0.14031E-03
        -0.47193E-03
        -0.14896E-02
        -0.20737E-02
        -0.14578E-02
        -0.13195E-02
        -0.16022E-02
        -0.16997E-02
        -0.14159E-02
        -0.12670E-02
        -0.32859E-03
        -0.22231E-04
        -0.10848E-03
        -0.11142E-03
        -0.35196E-03
        -0.10554E-02
        -0.17295E-02
        -0.17188E-02
        -0.63306E-05
        -0.26867E-06
        -0.96682E-06
        -0.81570E-05
        -0.34097E-04
        -0.24907E-04
        -0.21764E-05
        -0.10010E-04
        -0.21440E-05
        -0.91097E-05
        -0.34344E-06
        -0.50137E-05
        -0.53866E-04
        -0.31290E-04
        -0.33833E-04
        -0.24353E-04
        -0.75824E-05
        -0.26663E-05
        -0.12187E-05
        -0.37399E-05
        -0.13254E-03
        -0.12037E-03
        -0.11724E-03
        -0.68615E-05
        -0.22338E-05
        -0.10103E-05
        -0.29543E-04
        -0.48207E-06
        -0.33989E-05
        -0.61616E-05
        -0.14399E-04
        -0.59911E-05
        -0.59212E-05
        -0.44932E-05
        -0.10909E-03
        -0.33105E-04
        -0.43580E-04
        -0.41963E-04
        -0.12140E-05
        -0.99493E-05
        -0.13294E-03
        -0.14064E-03
        -0.13410E-03
        -0.70050E-04
        -0.41505E-04
        -0.14201E-04
        -0.16608E-04
        -0.23195E-04
        -0.39289E-06
        -0.57867E-06
        -0.61496E-04
        -0.47559E-04
        -0.19009E-02
        -0.19311E-02
        -0.15572E-02
        -0.10597E-02
        -0.58930E-03
        -0.12502E-03
        -0.77507E-05
        -0.81194E-04
        -0.14008E-03
        -0.47155E-03
        -0.14892E-02
        -0.20738E-02
        -0.14575E-02
        -0.13194E-02
        -0.16027E-02
        -0.17005E-02
        -0.14164E-02
        -0.12675E-02
        -0.32841E-03
        -0.22251E-04
        -0.10832E-03
        -0.11133E-03
        -0.35144E-03
        -0.10541E-02
        -0.17278E-02
        -0.17172E-02
        -0.63546E-05
        -0.27069E-06
        -0.97037E-06
        -0.81677E-05
        -0.34030E-04
        -0.24861E-04
        -0.22036E-05
        -0.99590E-05
        -0.21479E-05
        -0.90918E-05
        -0.32917E-06
        -0.50385E-05
        -0.53932E-04
        -0.31135E-04
        -0.33797E-04
        -0.24409E-04
        -0.76177E-05
        -0.26512E-05
        -0.12176E-05
        -0.37266E-05
        -0.13253E-03
        -0.12035E-03
        -0.11724E-03
        -0.68622E-05
        -0.22465E-05
        -0.10148E-05
        -0.29557E-04
        -0.46422E-06
        -0.34463E-05
        -0.61689E-05
        -0.14445E-04
        -0.59922E-05
        -0.58710E-05
        -0.44972E-05
        -0.10920E-03
        -0.33075E-04
        -0.43552E-04
        -0.42097E-04
        -0.12368E-05
        -0.10012E-04
        -0.13312E-03
        -0.14082E-03
        -0.13413E-03
        -0.70037E-04
        -0.41473E-04
        -0.14186E-04
        -0.16603E-04
        -0.23211E-04
        -0.38693E-06
        -0.57457E-06
        -0.61416E-04
        -0.47418E-04
        -0.18996E-02
        -0.19301E-02
        -0.15569E-02
        -0.10598E-02
        -0.58894E-03
        -0.12494E-03
        -0.77685E-05
        -0.81294E-04
        -0.13984E-03
        -0.47118E-03
        -0.14887E-02
        -0.20740E-02
        -0.14573E-02
        -0.13193E-02
        -0.16031E-02
        -0.17014E-02
        -0.14170E-02
        -0.12680E-02
        -0.32822E-03
        -0.22272E-04
        -0.10816E-03
        -0.11124E-03
        -0.35092E-03
        -0.10528E-02
        -0.17260E-02
        -0.17157E-02
        -0.63783E-05
        -0.27272E-06
        -0.97398E-06
        -0.81784E-05
        -0.33964E-04
        -0.24815E-04
        -0.22313E-05
        -0.99075E-05
        -0.21512E-05
        -0.90710E-05
        -0.31517E-06
        -0.50629E-05
        -0.53997E-04
        -0.30981E-04
        -0.33761E-04
        -0.24469E-04
        -0.76547E-05
        -0.26362E-05
        -0.12163E-05
        -0.37132E-05
        -0.13252E-03
        -0.12034E-03
        -0.11725E-03
        -0.68631E-05
        -0.22613E-05
        -0.10199E-05
        -0.29569E-04
        -0.44726E-06
        -0.34938E-05
        -0.61757E-05
        -0.14495E-04
        -0.59952E-05
        -0.58209E-05
        -0.45012E-05
        -0.10931E-03
        -0.33045E-04
        -0.43525E-04
        -0.42231E-04
        -0.12598E-05
        -0.10075E-04
        -0.13330E-03
        -0.14101E-03
        -0.13419E-03
        -0.70029E-04
        -0.41439E-04
        -0.14170E-04
        -0.16600E-04
        -0.23229E-04
        -0.38106E-06
        -0.57053E-06
        -0.61340E-04
        -0.47277E-04
        -0.18982E-02
        -0.19291E-02
        -0.15566E-02
        -0.10598E-02
        -0.58858E-03
        -0.12486E-03
        -0.77860E-05
        -0.81395E-04
        -0.13961E-03
        -0.47080E-03
        -0.14882E-02
        -0.20741E-02
        -0.14572E-02
        -0.13192E-02
        -0.16036E-02
        -0.17024E-02
        -0.14176E-02
        -0.12685E-02
        -0.32804E-03
        -0.22292E-04
        -0.10800E-03
        -0.11115E-03
        -0.35041E-03
        -0.10515E-02
        -0.17243E-02
        -0.17142E-02
        -0.64012E-05
        -0.27492E-06
        -0.97717E-06
        -0.81888E-05
        -0.33898E-04
        -0.24769E-04
        -0.22592E-05
        -0.98554E-05
        -0.21544E-05
        -0.90497E-05
        -0.30147E-06
        -0.50874E-05
        -0.54062E-04
        -0.30827E-04
        -0.33724E-04
        -0.24531E-04
        -0.76916E-05
        -0.26212E-05
        -0.12149E-05
        -0.37004E-05
        -0.13252E-03
        -0.12033E-03
        -0.11727E-03
        -0.68642E-05
        -0.22761E-05
        -0.10252E-05
        -0.29580E-04
        -0.43071E-06
        -0.35421E-05
        -0.61836E-05
        -0.14544E-04
        -0.59978E-05
        -0.57704E-05
        -0.45048E-05
        -0.10942E-03
        -0.33019E-04
        -0.43499E-04
        -0.42364E-04
        -0.12830E-05
        -0.10139E-04
        -0.13348E-03
        -0.14120E-03
        -0.13425E-03
        -0.70022E-04
        -0.41409E-04
        -0.14155E-04
        -0.16595E-04
        -0.23245E-04
        -0.37506E-06
        -0.56684E-06
        -0.61264E-04
        -0.47140E-04
        -0.18969E-02
        -0.19281E-02
        -0.15564E-02
        -0.10598E-02
        -0.58821E-03
        -0.12479E-03
        -0.78032E-05
        -0.81495E-04
        -0.13937E-03
        -0.47042E-03
        -0.14877E-02
        -0.20743E-02
        -0.14571E-02
        -0.13191E-02
        -0.16041E-02
        -0.17034E-02
        -0.14182E-02
        -0.12689E-02
        -0.32786E-03
        -0.22310E-04
        -0.10784E-03
        -0.11107E-03
        -0.34989E-03
        -0.10502E-02
        -0.17226E-02
        -0.17126E-02
        -0.64223E-05
        -0.27758E-06
        -0.97965E-06
        -0.81991E-05
        -0.33833E-04
        -0.24725E-04
        -0.22878E-05
        -0.98022E-05
        -0.21578E-05
        -0.90296E-05
        -0.28800E-06
        -0.51121E-05
        -0.54130E-04
        -0.30673E-04
        -0.33687E-04
        -0.24593E-04
        -0.77273E-05
        -0.26061E-05
        -0.12138E-05
        -0.36879E-05
        -0.13251E-03
        -0.12033E-03
        -0.11729E-03
        -0.68658E-05
        -0.22892E-05
        -0.10299E-05
        -0.29593E-04
        -0.41411E-06
        -0.35910E-05
        -0.61928E-05
        -0.14591E-04
        -0.59983E-05
        -0.57191E-05
        -0.45074E-05
        -0.10954E-03
        -0.32995E-04
        -0.43475E-04
        -0.42497E-04
        -0.13066E-05
        -0.10204E-04
        -0.13366E-03
        -0.14140E-03
        -0.13431E-03
        -0.70018E-04
        -0.41382E-04
        -0.14143E-04
        -0.16587E-04
        -0.23261E-04
        -0.36860E-06
        -0.56399E-06
        -0.61198E-04
        -0.47003E-04
        -0.18956E-02
        -0.19271E-02
        -0.15561E-02
        -0.10598E-02
        -0.58785E-03
        -0.12471E-03
        -0.78206E-05
        -0.81595E-04
        -0.13914E-03
        -0.47005E-03
        -0.14873E-02
        -0.20745E-02
        -0.14570E-02
        -0.13190E-02
        -0.16047E-02
        -0.17045E-02
        -0.14189E-02
        -0.12694E-02
        -0.32767E-03
        -0.22325E-04
        -0.10768E-03
        -0.11098E-03
        -0.34939E-03
        -0.10489E-02
        -0.17209E-02
        -0.17111E-02
        -0.64425E-05
        -0.28039E-06
        -0.98178E-06
        -0.82089E-05
        -0.33771E-04
        -0.24678E-04
        -0.23169E-05
        -0.97487E-05
        -0.21613E-05
        -0.90103E-05
        -0.27482E-06
        -0.51368E-05
        -0.54197E-04
        -0.30519E-04
        -0.33649E-04
        -0.24655E-04
        -0.77623E-05
        -0.25909E-05
        -0.12125E-05
        -0.36762E-05
        -0.13251E-03
        -0.12032E-03
        -0.11731E-03
        -0.68672E-05
        -0.23015E-05
        -0.10343E-05
        -0.29606E-04
        -0.39773E-06
        -0.36411E-05
        -0.62027E-05
        -0.14637E-04
        -0.59975E-05
        -0.56675E-05
        -0.45095E-05
        -0.10966E-03
        -0.32973E-04
        -0.43455E-04
        -0.42630E-04
        -0.13304E-05
        -0.10269E-04
        -0.13385E-03
        -0.14160E-03
        -0.13437E-03
        -0.70018E-04
        -0.41357E-04
        -0.14132E-04
        -0.16579E-04
        -0.23275E-04
        -0.36200E-06
        -0.56153E-06
        -0.61134E-04
        -0.46870E-04
        -0.18943E-02
        -0.19261E-02
        -0.15558E-02
        -0.10598E-02
        -0.58748E-03
        -0.12464E-03
        -0.78378E-05
        -0.81694E-04
        -0.13890E-03
        -0.46968E-03
        -0.14868E-02
        -0.20746E-02
        -0.14569E-02
        -0.13189E-02
        -0.16052E-02
        -0.17055E-02
        -0.14195E-02
        -0.12698E-02
        -0.32748E-03
        -0.22339E-04
        -0.10751E-03
        -0.11090E-03
        -0.34890E-03
        -0.10477E-02
        -0.17192E-02
        -0.17096E-02
        -0.64626E-05
        -0.28325E-06
        -0.98386E-06
        -0.82188E-05
        -0.33707E-04
        -0.24633E-04
        -0.23460E-05
        -0.96954E-05
        -0.21649E-05
        -0.89913E-05
        -0.26198E-06
        -0.51615E-05
        -0.54265E-04
        -0.30366E-04
        -0.33612E-04
        -0.24716E-04
        -0.77974E-05
        -0.25759E-05
        -0.12112E-05
        -0.36640E-05
        -0.13250E-03
        -0.12031E-03
        -0.11733E-03
        -0.68691E-05
        -0.23138E-05
        -0.10387E-05
        -0.29620E-04
        -0.38171E-06
        -0.36914E-05
        -0.62126E-05
        -0.14682E-04
        -0.59968E-05
        -0.56162E-05
        -0.45117E-05
        -0.10978E-03
        -0.32950E-04
        -0.43434E-04
        -0.42763E-04
        -0.13546E-05
        -0.10334E-04
        -0.13403E-03
        -0.14180E-03
        -0.13444E-03
        -0.70019E-04
        -0.41334E-04
        -0.14122E-04
        -0.16570E-04
        -0.23290E-04
        -0.35545E-06
        -0.55918E-06
        -0.61072E-04
        -0.46735E-04
        -0.18930E-02
        -0.19251E-02
        -0.15555E-02
        -0.10598E-02
        -0.58712E-03
        -0.12456E-03
        -0.78550E-05
        -0.81793E-04
        -0.13867E-03
        -0.46931E-03
        -0.14863E-02
        -0.20748E-02
        -0.14567E-02
        -0.13188E-02
        -0.16057E-02
        -0.17066E-02
        -0.14202E-02
        -0.12703E-02
        -0.32728E-03
        -0.22354E-04
        -0.10734E-03
        -0.11081E-03
        -0.34840E-03
        -0.10464E-02
        -0.17175E-02
        -0.17080E-02
        -0.64829E-05
        -0.28616E-06
        -0.98596E-06
        -0.82289E-05
        -0.33644E-04
        -0.24587E-04
        -0.23755E-05
        -0.96423E-05
        -0.21684E-05
        -0.89722E-05
        -0.24945E-06
        -0.51863E-05
        -0.54334E-04
        -0.30215E-04
        -0.33574E-04
        -0.24777E-04
        -0.78325E-05
        -0.25611E-05
        -0.12099E-05
        -0.36522E-05
        -0.13250E-03
        -0.12030E-03
        -0.11735E-03
        -0.68709E-05
        -0.23261E-05
        -0.10431E-05
        -0.29633E-04
        -0.36611E-06
        -0.37418E-05
        -0.62223E-05
        -0.14728E-04
        -0.59959E-05
        -0.55652E-05
        -0.45140E-05
        -0.10989E-03
        -0.32929E-04
        -0.43413E-04
        -0.42895E-04
        -0.13789E-05
        -0.10400E-04
        -0.13422E-03
        -0.14200E-03
        -0.13450E-03
        -0.70019E-04
        -0.41310E-04
        -0.14110E-04
        -0.16561E-04
        -0.23305E-04
        -0.34902E-06
        -0.55664E-06
        -0.61007E-04
        -0.46600E-04
        -0.18917E-02
        -0.19242E-02
        -0.15552E-02
        -0.10598E-02
        -0.58675E-03
        -0.12448E-03
        -0.78722E-05
        -0.81891E-04
        -0.13843E-03
        -0.46894E-03
        -0.14858E-02
        -0.20750E-02
        -0.14566E-02
        -0.13187E-02
        -0.16062E-02
        -0.17076E-02
        -0.14208E-02
        -0.12707E-02
        -0.32709E-03
        -0.22367E-04
        -0.10717E-03
        -0.11072E-03
        -0.34790E-03
        -0.10451E-02
        -0.17158E-02
        -0.17065E-02
        -0.65030E-05
        -0.28905E-06
        -0.98814E-06
        -0.82386E-05
        -0.33582E-04
        -0.24542E-04
        -0.24049E-05
        -0.95892E-05
        -0.21720E-05
        -0.89534E-05
        -0.23721E-06
        -0.52114E-05
        -0.54402E-04
        -0.30063E-04
        -0.33536E-04
        -0.24839E-04
        -0.78677E-05
        -0.25464E-05
        -0.12088E-05
        -0.36400E-05
        -0.13250E-03
        -0.12030E-03
        -0.11737E-03
        -0.68729E-05
        -0.23383E-05
        -0.10475E-05
        -0.29648E-04
        -0.35082E-06
        -0.37926E-05
        -0.62319E-05
        -0.14773E-04
        -0.59950E-05
        -0.55144E-05
        -0.45161E-05
        -0.11002E-03
        -0.32906E-04
        -0.43393E-04
        -0.43029E-04
        -0.14035E-05
        -0.10465E-04
        -0.13440E-03
        -0.14220E-03
        -0.13457E-03
        -0.70016E-04
        -0.41285E-04
        -0.14100E-04
        -0.16553E-04
        -0.23320E-04
        -0.34258E-06
        -0.55418E-06
        -0.60946E-04
        -0.46467E-04
        -0.18904E-02
        -0.19232E-02
        -0.15549E-02
        -0.10598E-02
        -0.58639E-03
        -0.12441E-03
        -0.78888E-05
        -0.81990E-04
        -0.13820E-03
        -0.46856E-03
        -0.14853E-02
        -0.20751E-02
        -0.14565E-02
        -0.13187E-02
        -0.16067E-02
        -0.17087E-02
        -0.14215E-02
        -0.12711E-02
        -0.32690E-03
        -0.22381E-04
        -0.10700E-03
        -0.11064E-03
        -0.34740E-03
        -0.10439E-02
        -0.17141E-02
        -0.17050E-02
        -0.65232E-05
        -0.29195E-06
        -0.99017E-06
        -0.82484E-05
        -0.33518E-04
        -0.24497E-04
        -0.24346E-05
        -0.95363E-05
        -0.21755E-05
        -0.89344E-05
        -0.22531E-06
        -0.52366E-05
        -0.54469E-04
        -0.29913E-04
        -0.33498E-04
        -0.24900E-04
        -0.79029E-05
        -0.25315E-05
        -0.12076E-05
        -0.36283E-05
        -0.13249E-03
        -0.12029E-03
        -0.11739E-03
        -0.68749E-05
        -0.23505E-05
        -0.10520E-05
        -0.29661E-04
        -0.33593E-06
        -0.38432E-05
        -0.62420E-05
        -0.14819E-04
        -0.59942E-05
        -0.54636E-05
        -0.45183E-05
        -0.11014E-03
        -0.32884E-04
        -0.43371E-04
        -0.43161E-04
        -0.14284E-05
        -0.10532E-04
        -0.13459E-03
        -0.14239E-03
        -0.13463E-03
        -0.70016E-04
        -0.41261E-04
        -0.14090E-04
        -0.16544E-04
        -0.23335E-04
        -0.33619E-06
        -0.55185E-06
        -0.60881E-04
        -0.46332E-04
        -0.18891E-02
        -0.19222E-02
        -0.15546E-02
        -0.10598E-02
        -0.58603E-03
        -0.12433E-03
        -0.79058E-05
        -0.82089E-04
        -0.13796E-03
        -0.46819E-03
        -0.14848E-02
        -0.20753E-02
        -0.14564E-02
        -0.13186E-02
        -0.16072E-02
        -0.17097E-02
        -0.14221E-02
        -0.12716E-02
        -0.32671E-03
        -0.22395E-04
        -0.10683E-03
        -0.11055E-03
        -0.34691E-03
        -0.10426E-02
        -0.17124E-02
        -0.17035E-02
        -0.65436E-05
        -0.29490E-06
        -0.99221E-06
        -0.82581E-05
        -0.33455E-04
        -0.24451E-04
        -0.24644E-05
        -0.94835E-05
        -0.21789E-05
        -0.89151E-05
        -0.21375E-06
        -0.52615E-05
        -0.54538E-04
        -0.29762E-04
        -0.33460E-04
        -0.24962E-04
        -0.79381E-05
        -0.25167E-05
        -0.12064E-05
        -0.36162E-05
        -0.13249E-03
        -0.12028E-03
        -0.11741E-03
        -0.68770E-05
        -0.23625E-05
        -0.10563E-05
        -0.29675E-04
        -0.32133E-06
        -0.38945E-05
        -0.62516E-05
        -0.14865E-04
        -0.59933E-05
        -0.54130E-05
        -0.45205E-05
        -0.11025E-03
        -0.32863E-04
        -0.43352E-04
        -0.43294E-04
        -0.14536E-05
        -0.10598E-04
        -0.13478E-03
        -0.14259E-03
        -0.13470E-03
        -0.70018E-04
        -0.41238E-04
        -0.14078E-04
        -0.16536E-04
        -0.23350E-04
        -0.32983E-06
        -0.54938E-06
        -0.60816E-04
        -0.46197E-04
        -0.18878E-02
        -0.19212E-02
        -0.15543E-02
        -0.10598E-02
        -0.58567E-03
        -0.12426E-03
        -0.79230E-05
        -0.82186E-04
        -0.13773E-03
        -0.46781E-03
        -0.14843E-02
        -0.20755E-02
        -0.14563E-02
        -0.13185E-02
        -0.16078E-02
        -0.17107E-02
        -0.14228E-02
        -0.12720E-02
        -0.32652E-03
        -0.22408E-04
        -0.10666E-03
        -0.11047E-03
        -0.34641E-03
        -0.10413E-02
        -0.17107E-02
        -0.17020E-02
        -0.65641E-05
        -0.29781E-06
        -0.99426E-06
        -0.82678E-05
        -0.33394E-04
        -0.24406E-04
        -0.24941E-05
        -0.94308E-05
        -0.21824E-05
        -0.88959E-05
        -0.20251E-06
        -0.52865E-05
        -0.54606E-04
        -0.29612E-04
        -0.33422E-04
        -0.25023E-04
        -0.79734E-05
        -0.25020E-05
        -0.12054E-05
        -0.36046E-05
        -0.13248E-03
        -0.12027E-03
        -0.11743E-03
        -0.68790E-05
        -0.23746E-05
        -0.10607E-05
        -0.29688E-04
        -0.30714E-06
        -0.39462E-05
        -0.62612E-05
        -0.14910E-04
        -0.59924E-05
        -0.53626E-05
        -0.45226E-05
        -0.11038E-03
        -0.32841E-04
        -0.43331E-04
        -0.43425E-04
        -0.14790E-05
        -0.10665E-04
        -0.13496E-03
        -0.14279E-03
        -0.13476E-03
        -0.70017E-04
        -0.41214E-04
        -0.14067E-04
        -0.16527E-04
        -0.23364E-04
        -0.32356E-06
        -0.54694E-06
        -0.60754E-04
        -0.46065E-04
        -0.18865E-02
        -0.19203E-02
        -0.15540E-02
        -0.10598E-02
        -0.58531E-03
        -0.12418E-03
        -0.79401E-05
        -0.82281E-04
        -0.13750E-03
        -0.46744E-03
        -0.14839E-02
        -0.20756E-02
        -0.14562E-02
        -0.13184E-02
        -0.16083E-02
        -0.17118E-02
        -0.14234E-02
        -0.12725E-02
        -0.32633E-03
        -0.22421E-04
        -0.10650E-03
        -0.11038E-03
        -0.34592E-03
        -0.10401E-02
        -0.17090E-02
        -0.17004E-02
        -0.65845E-05
        -0.30071E-06
        -0.99631E-06
        -0.82776E-05
        -0.33331E-04
        -0.24360E-04
        -0.25243E-05
        -0.93783E-05
        -0.21859E-05
        -0.88769E-05
        -0.19158E-06
        -0.53122E-05
        -0.54674E-04
        -0.29463E-04
        -0.33383E-04
        -0.25085E-04
        -0.80088E-05
        -0.24874E-05
        -0.12042E-05
        -0.35925E-05
        -0.13248E-03
        -0.12027E-03
        -0.11745E-03
        -0.68809E-05
        -0.23867E-05
        -0.10651E-05
        -0.29701E-04
        -0.29328E-06
        -0.39981E-05
        -0.62707E-05
        -0.14956E-04
        -0.59913E-05
        -0.53123E-05
        -0.45247E-05
        -0.11049E-03
        -0.32820E-04
        -0.43311E-04
        -0.43556E-04
        -0.15047E-05
        -0.10732E-04
        -0.13515E-03
        -0.14299E-03
        -0.13483E-03
        -0.70017E-04
        -0.41189E-04
        -0.14057E-04
        -0.16518E-04
        -0.23379E-04
        -0.31724E-06
        -0.54457E-06
        -0.60690E-04
        -0.45930E-04
        -0.18852E-02
        -0.19193E-02
        -0.15537E-02
        -0.10598E-02
        -0.58495E-03
        -0.12410E-03
        -0.79567E-05
        -0.82376E-04
        -0.13726E-03
        -0.46707E-03
        -0.14834E-02
        -0.20758E-02
        -0.14560E-02
        -0.13183E-02
        -0.16088E-02
        -0.17128E-02
        -0.14241E-02
        -0.12729E-02
        -0.32614E-03
        -0.22434E-04
        -0.10633E-03
        -0.11030E-03
        -0.34542E-03
        -0.10388E-02
        -0.17074E-02
        -0.16989E-02
        -0.66050E-05
        -0.30371E-06
        -0.99837E-06
        -0.82872E-05
        -0.33268E-04
        -0.24316E-04
        -0.25544E-05
        -0.93259E-05
        -0.21894E-05
        -0.88579E-05
        -0.18095E-06
        -0.53374E-05
        -0.54743E-04
        -0.29315E-04
        -0.33344E-04
        -0.25146E-04
        -0.80442E-05
        -0.24729E-05
        -0.12030E-05
        -0.35808E-05
        -0.13248E-03
        -0.12026E-03
        -0.11747E-03
        -0.68830E-05
        -0.23986E-05
        -0.10696E-05
        -0.29714E-04
        -0.27974E-06
        -0.40503E-05
        -0.62801E-05
        -0.15002E-04
        -0.59905E-05
        -0.52625E-05
        -0.45269E-05
        -0.11062E-03
        -0.32798E-04
        -0.43290E-04
        -0.43688E-04
        -0.15307E-05
        -0.10799E-04
        -0.13533E-03
        -0.14318E-03
        -0.13489E-03
        -0.70014E-04
        -0.41166E-04
        -0.14046E-04
        -0.16509E-04
        -0.23394E-04
        -0.31106E-06
        -0.54211E-06
        -0.60627E-04
        -0.45796E-04
        -0.18839E-02
        -0.19183E-02
        -0.15534E-02
        -0.10598E-02
        -0.58458E-03
        -0.12402E-03
        -0.79731E-05
        -0.82471E-04
        -0.13703E-03
        -0.46669E-03
        -0.14829E-02
        -0.20760E-02
        -0.14559E-02
        -0.13182E-02
        -0.16093E-02
        -0.17139E-02
        -0.14247E-02
        -0.12733E-02
        -0.32595E-03
        -0.22447E-04
        -0.10616E-03
        -0.11022E-03
        -0.34493E-03
        -0.10375E-02
        -0.17057E-02
        -0.16974E-02
        -0.66255E-05
        -0.30668E-06
        -0.10005E-05
        -0.82968E-05
        -0.33207E-04
        -0.24271E-04
        -0.25848E-05
        -0.92736E-05
        -0.21927E-05
        -0.88380E-05
        -0.17062E-06
        -0.53629E-05
        -0.54811E-04
        -0.29166E-04
        -0.33305E-04
        -0.25208E-04
        -0.80797E-05
        -0.24585E-05
        -0.12019E-05
        -0.35688E-05
        -0.13247E-03
        -0.12025E-03
        -0.11749E-03
        -0.68853E-05
        -0.24102E-05
        -0.10739E-05
        -0.29726E-04
        -0.26640E-06
        -0.41023E-05
        -0.62896E-05
        -0.15048E-04
        -0.59897E-05
        -0.52130E-05
        -0.45293E-05
        -0.11074E-03
        -0.32776E-04
        -0.43269E-04
        -0.43818E-04
        -0.15572E-05
        -0.10867E-04
        -0.13551E-03
        -0.14338E-03
        -0.13495E-03
        -0.70015E-04
        -0.41141E-04
        -0.14035E-04
        -0.16501E-04
        -0.23410E-04
        -0.30496E-06
        -0.53967E-06
        -0.60563E-04
        -0.45664E-04
        -0.18825E-02
        -0.19173E-02
        -0.15531E-02
        -0.10598E-02
        -0.58422E-03
        -0.12395E-03
        -0.79892E-05
        -0.82566E-04
        -0.13680E-03
        -0.46632E-03
        -0.14824E-02
        -0.20762E-02
        -0.14558E-02
        -0.13181E-02
        -0.16098E-02
        -0.17149E-02
        -0.14253E-02
        -0.12738E-02
        -0.32576E-03
        -0.22460E-04
        -0.10599E-03
        -0.11013E-03
        -0.34443E-03
        -0.10363E-02
        -0.17040E-02
        -0.16959E-02
        -0.66461E-05
        -0.30964E-06
        -0.10025E-05
        -0.83064E-05
        -0.33145E-04
        -0.24226E-04
        -0.26152E-05
        -0.92215E-05
        -0.21957E-05
        -0.88159E-05
        -0.16062E-06
        -0.53885E-05
        -0.54879E-04
        -0.29017E-04
        -0.33265E-04
        -0.25270E-04
        -0.81150E-05
        -0.24440E-05
        -0.12011E-05
        -0.35573E-05
        -0.13247E-03
        -0.12024E-03
        -0.11751E-03
        -0.68872E-05
        -0.24212E-05
        -0.10785E-05
        -0.29733E-04
        -0.25307E-06
        -0.41550E-05
        -0.62997E-05
        -0.15094E-04
        -0.59886E-05
        -0.51634E-05
        -0.45316E-05
        -0.11086E-03
        -0.32756E-04
        -0.43250E-04
        -0.43946E-04
        -0.15846E-05
        -0.10933E-04
        -0.13568E-03
        -0.14356E-03
        -0.13501E-03
        -0.70016E-04
        -0.41117E-04
        -0.14024E-04
        -0.16492E-04
        -0.23425E-04
        -0.29893E-06
        -0.53724E-06
        -0.60502E-04
        -0.45530E-04
        -0.18812E-02
        -0.19164E-02
        -0.15528E-02
        -0.10598E-02
        -0.58385E-03
        -0.12387E-03
        -0.80056E-05
        -0.82661E-04
        -0.13657E-03
        -0.46593E-03
        -0.14819E-02
        -0.20765E-02
        -0.14558E-02
        -0.13180E-02
        -0.16103E-02
        -0.17160E-02
        -0.14260E-02
        -0.12742E-02
        -0.32557E-03
        -0.22473E-04
        -0.10582E-03
        -0.11004E-03
        -0.34394E-03
        -0.10350E-02
        -0.17023E-02
        -0.16944E-02
        -0.66666E-05
        -0.31262E-06
        -0.10045E-05
        -0.83159E-05
        -0.33082E-04
        -0.24180E-04
        -0.26459E-05
        -0.91695E-05
        -0.21984E-05
        -0.87919E-05
        -0.15094E-06
        -0.54140E-05
        -0.54948E-04
        -0.28867E-04
        -0.33223E-04
        -0.25331E-04
        -0.81500E-05
        -0.24296E-05
        -0.12000E-05
        -0.35455E-05
        -0.13246E-03
        -0.12023E-03
        -0.11753E-03
        -0.68894E-05
        -0.24312E-05
        -0.10829E-05
        -0.29735E-04
        -0.23969E-06
        -0.42080E-05
        -0.63094E-05
        -0.15140E-04
        -0.59877E-05
        -0.51140E-05
        -0.45338E-05
        -0.11098E-03
        -0.32734E-04
        -0.43230E-04
        -0.44071E-04
        -0.16131E-05
        -0.11001E-04
        -0.13583E-03
        -0.14372E-03
        -0.13506E-03
        -0.70015E-04
        -0.41094E-04
        -0.14014E-04
        -0.16484E-04
        -0.23440E-04
        -0.29290E-06
        -0.53486E-06
        -0.60436E-04
        -0.45396E-04
        -0.18799E-02
        -0.19154E-02
        -0.15525E-02
        -0.10598E-02
        -0.58349E-03
        -0.12380E-03
        -0.80218E-05
        -0.82756E-04
        -0.13634E-03
        -0.46553E-03
        -0.14814E-02
        -0.20769E-02
        -0.14558E-02
        -0.13180E-02
        -0.16109E-02
        -0.17170E-02
        -0.14266E-02
        -0.12746E-02
        -0.32538E-03
        -0.22486E-04
        -0.10566E-03
        -0.10996E-03
        -0.34345E-03
        -0.10338E-02
        -0.17006E-02
        -0.16929E-02
        -0.66872E-05
        -0.31562E-06
        -0.10065E-05
        -0.83256E-05
        -0.33021E-04
        -0.24137E-04
        -0.26764E-05
        -0.91179E-05
        -0.22010E-05
        -0.87674E-05
        -0.14163E-06
        -0.54391E-05
        -0.55015E-04
        -0.28718E-04
        -0.33182E-04
        -0.25393E-04
        -0.81852E-05
        -0.24153E-05
        -0.11988E-05
        -0.35341E-05
        -0.13246E-03
        -0.12022E-03
        -0.11755E-03
        -0.68915E-05
        -0.24410E-05
        -0.10873E-05
        -0.29737E-04
        -0.22663E-06
        -0.42609E-05
        -0.63190E-05
        -0.15186E-04
        -0.59867E-05
        -0.50653E-05
        -0.45362E-05
        -0.11111E-03
        -0.32714E-04
        -0.43209E-04
        -0.44194E-04
        -0.16421E-05
        -0.11067E-04
        -0.13598E-03
        -0.14388E-03
        -0.13510E-03
        -0.70015E-04
        -0.41069E-04
        -0.14003E-04
        -0.16476E-04
        -0.23456E-04
        -0.28699E-06
        -0.53237E-06
        -0.60376E-04
        -0.45265E-04
        -0.18786E-02
        -0.19145E-02
        -0.15522E-02
        -0.10598E-02
        -0.58313E-03
        -0.12372E-03
        -0.80377E-05
        -0.82846E-04
        -0.13612E-03
        -0.46513E-03
        -0.14809E-02
        -0.20774E-02
        -0.14558E-02
        -0.13179E-02
        -0.16114E-02
        -0.17181E-02
        -0.14273E-02
        -0.12751E-02
        -0.32519E-03
        -0.22500E-04
        -0.10549E-03
        -0.10987E-03
        -0.34296E-03
        -0.10325E-02
        -0.16989E-02
        -0.16914E-02
        -0.67617E-05
        -0.32060E-06
        -0.10170E-05
        -0.84013E-05
        -0.33218E-04
        -0.24285E-04
        -0.27256E-05
        -0.91467E-05
        -0.22209E-05
        -0.88191E-05
        -0.13487E-06
        -0.55018E-05
        -0.55507E-04
        -0.28820E-04
        -0.33420E-04
        -0.25654E-04
        -0.82850E-05
        -0.24215E-05
        -0.12068E-05
        -0.35496E-05
        -0.13346E-03
        -0.12114E-03
        -0.11846E-03
        -0.69479E-05
        -0.24698E-05
        -0.11000E-05
        -0.29990E-04
        -0.21654E-06
        -0.43451E-05
        -0.63789E-05
        -0.15352E-04
        -0.60329E-05
        -0.50614E-05
        -0.45756E-05
        -0.11210E-03
        -0.32954E-04
        -0.43528E-04
        -0.44680E-04
        -0.16825E-05
        -0.11218E-04
        -0.13723E-03
        -0.14520E-03
        -0.13622E-03
        -0.70542E-04
        -0.41361E-04
        -0.14098E-04
        -0.16599E-04
        -0.23661E-04
        -0.28404E-06
        -0.53410E-06
        -0.60793E-04
        -0.45498E-04
        -0.18927E-02
        -0.19288E-02
        -0.15645E-02
        -0.10683E-02
        -0.58755E-03
        -0.12464E-03
        -0.81268E-05
        -0.83621E-04
        -0.13707E-03
        -0.46875E-03
        -0.14931E-02
        -0.20949E-02
        -0.14672E-02
        -0.13278E-02
        -0.16239E-02
        -0.17317E-02
        -0.14385E-02
        -0.12853E-02
        -0.32764E-03
        -0.22708E-04
        -0.10619E-03
        -0.11064E-03
        -0.34521E-03
        -0.10395E-02
        -0.17106E-02
        -0.17030E-02
        -0.15078E-04
        -0.72467E-06
        -0.22591E-05
        -0.18788E-04
        -0.68617E-04
        -0.51108E-04
        -0.61289E-05
        -0.20137E-04
        -0.49204E-05
        -0.19350E-04
        -0.28330E-06
        -0.10994E-04
        -0.11416E-03
        -0.61624E-04
        -0.67421E-04
        -0.57285E-04
        -0.18409E-04
        -0.53929E-05
        -0.26210E-05
        -0.77457E-05
        -0.27394E-03
        -0.25512E-03
        -0.24445E-03
        -0.15329E-04
        -0.55293E-05
        -0.24701E-05
        -0.65271E-04
        -0.46783E-06
        -0.98472E-05
        -0.14245E-04
        -0.34315E-04
        -0.13403E-04
        -0.11266E-04
        -0.10237E-04
        -0.22335E-03
        -0.69305E-04
        -0.91633E-04
        -0.94407E-04
        -0.36798E-05
        -0.24573E-04
        -0.29185E-03
        -0.31325E-03
        -0.29334E-03
        -0.14765E-03
        -0.86006E-04
        -0.27684E-04
        -0.34289E-04
        -0.50185E-04
        -0.60015E-06
        -0.11302E-05
        -0.12273E-03
        -0.95181E-04
        -0.29782E-02
        -0.30240E-02
        -0.24560E-02
        -0.16862E-02
        -0.92615E-03
        -0.19749E-03
        -0.13214E-04
        -0.13791E-03
        -0.22491E-03
        -0.76082E-03
        -0.24293E-02
        -0.33942E-02
        -0.24267E-02
        -0.22087E-02
        -0.26329E-02
        -0.27450E-02
        -0.22664E-02
        -0.20047E-02
        -0.51045E-03
        -0.35527E-04
        -0.16917E-03
        -0.17776E-03
        -0.55078E-03
        -0.16700E-02
        -0.27311E-02
        -0.26994E-02
  
SCALARS                      strain_yy  double 1
LOOKUP_TABLE default
        -0.40588E-05
        -0.44516E-06
        -0.30221E-05
        -0.80678E-06
        -0.14061E-19
        -0.10682E-20
        -0.21596E-19
        -0.12564E-19
        -0.42198E-04
        -0.18312E-04
        -0.47829E-19
        -0.37071E-19
        -0.32023E-04
        -0.82751E-07
        -0.24496E-19
        -0.10069E-21
        -0.38926E-05
        -0.52597E-04
        -0.53024E-23
        -0.55512E-21
        -0.13987E-04
        -0.19610E-03
        -0.21542E-03
        -0.12872E-18
        -0.38391E-18
        -0.26823E-18
        -0.19060E-05
        -0.19831E-03
        -0.66604E-19
        -0.25067E-18
        -0.50819E-05
        -0.38190E-05
        -0.28108E-05
        -0.17900E-19
        -0.18654E-19
        -0.80402E-23
        -0.44608E-04
        -0.40783E-04
        -0.60616E-19
        -0.36693E-19
        -0.42854E-04
        -0.17145E-04
        -0.34620E-19
        -0.28913E-19
        -0.35579E-04
        -0.42453E-05
        -0.38096E-22
        -0.91146E-20
        -0.29669E-04
        -0.20205E-20
        -0.29887E-06
        -0.13254E-22
        -0.10109E-06
        -0.30232E-19
        -0.44170E-05
        -0.10230E-19
        -0.46985E-04
        -0.15081E-05
        -0.75294E-23
        -0.31017E-22
        -0.74721E-05
        -0.99074E-04
        -0.13977E-20
        -0.19556E-19
        -0.27311E-05
        -0.56950E-20
        -0.50104E-04
        -0.84519E-20
        -0.32583E-04
        -0.91292E-05
        -0.12908E-21
        -0.22503E-19
        -0.11122E-03
        -0.10851E-18
        -0.31751E-03
        -0.10172E-18
        -0.32234E-03
        -0.58618E-19
        -0.21907E-03
        -0.41181E-19
        -0.47523E-03
        -0.28238E-03
        -0.16947E-19
        -0.83308E-21
        -0.56128E-05
        -0.10430E-22
        -0.86872E-04
        -0.40931E-19
        -0.48279E-03
        -0.12544E-18
        -0.93845E-03
        -0.35975E-03
        -0.27595E-18
        -0.18079E-18
        -0.17852E-03
        -0.10894E-18
        -0.14403E-03
        -0.11402E-18
        -0.13612E-03
        -0.13182E-18
        -0.37660E-03
        -0.26064E-03
        -0.11400E-18
        -0.26172E-19
        -0.16742E-03
        -0.24121E-04
        -0.14094E-19
        -0.21765E-19
        -0.10105E-02
        -0.15598E-18
        -0.20842E-02
        -0.33375E-18
        -0.31041E-02
        -0.50905E-18
        -0.42016E-02
        -0.50086E-18
        -0.57213E-02
        -0.31367E-18
        -0.59103E-02
        -0.18785E-18
        -0.52340E-02
        -0.16251E-18
        -0.41460E-02
        -0.14710E-18
        -0.22327E-02
        -0.60079E-19
        -0.10396E-02
        -0.65488E-20
        -0.26681E-03
        -0.27343E-20
        -0.13946E-05
        -0.61775E-20
        -0.24753E-03
        -0.16479E-20
        -0.80071E-03
        -0.15071E-19
        -0.19172E-02
        -0.12008E-18
        -0.23960E-02
        -0.29279E-18
        -0.28362E-02
        -0.50321E-18
        -0.46084E-02
        -0.50234E-18
        -0.49747E-02
        -0.38281E-18
        -0.42620E-02
        -0.36361E-18
        -0.28051E-02
        -0.36815E-18
        -0.12970E-02
        -0.23021E-18
        -0.65317E-03
        -0.80501E-19
        -0.33939E-03
        -0.48128E-19
        -0.20679E-04
        -0.56171E-05
        -0.42720E-05
        -0.40379E-06
        -0.45532E-05
        -0.50629E-05
        -0.57420E-07
        -0.13427E-04
        -0.96441E-05
        -0.21089E-04
        -0.59217E-05
        -0.10815E-03
        -0.50077E-04
        -0.67301E-06
        -0.11001E-03
        -0.14425E-05
        -0.11365E-05
        -0.46608E-06
        -0.81738E-06
        -0.46476E-06
        -0.39470E-06
        -0.26715E-06
        -0.30409E-05
        -0.21551E-07
        -0.98241E-05
        -0.21484E-06
        -0.58385E-09
        -0.17827E-06
        -0.26495E-06
        -0.60850E-05
        -0.13769E-05
        -0.16505E-05
        -0.72827E-06
        -0.43738E-07
        -0.12367E-06
        -0.35946E-05
        -0.17981E-04
        -0.84567E-04
        -0.70652E-04
        -0.50924E-04
        -0.45455E-04
        -0.27587E-05
        -0.18139E-05
        -0.13680E-04
        -0.37692E-04
        -0.10206E-03
        -0.43392E-04
        -0.21989E-04
        -0.25057E-04
        -0.28607E-04
        -0.39792E-04
        -0.81885E-05
        -0.30355E-04
        -0.43439E-04
        -0.31931E-03
        -0.60818E-03
        -0.98952E-03
        -0.14043E-02
        -0.14271E-02
        -0.11705E-02
        -0.10587E-02
        -0.94654E-03
        -0.39580E-03
        -0.75224E-04
        -0.14461E-04
        -0.28027E-05
        -0.65488E-05
        -0.10205E-03
        -0.34487E-03
        -0.59079E-03
        -0.87933E-03
        -0.11524E-02
        -0.10164E-02
        -0.90796E-03
        -0.78670E-03
        -0.38243E-03
        -0.12950E-03
        -0.99546E-04
        -0.54492E-04
        -0.21677E-04
        -0.18562E-04
        -0.10443E-05
        -0.31313E-04
        -0.63340E-05
        -0.39828E-05
        -0.48676E-04
        -0.20933E-04
        -0.43059E-04
        -0.12036E-04
        -0.22545E-03
        -0.79125E-04
        -0.16340E-05
        -0.21884E-03
        -0.78370E-05
        -0.71973E-06
        -0.65601E-06
        -0.13327E-04
        -0.49816E-06
        -0.99013E-05
        -0.49911E-05
        -0.16775E-05
        -0.11951E-05
        -0.19525E-04
        -0.11946E-05
        -0.75219E-07
        -0.25994E-06
        -0.66325E-06
        -0.19429E-04
        -0.91024E-05
        -0.63160E-06
        -0.38027E-05
        -0.28669E-05
        -0.65182E-06
        -0.60567E-05
        -0.22079E-04
        -0.12640E-03
        -0.98293E-04
        -0.76338E-04
        -0.41201E-04
        -0.25156E-05
        -0.10673E-04
        -0.16653E-04
        -0.27612E-04
        -0.11522E-03
        -0.39012E-04
        -0.17060E-04
        -0.26948E-04
        -0.37556E-04
        -0.40322E-04
        -0.22700E-06
        -0.62685E-04
        -0.12826E-03
        -0.69463E-03
        -0.11601E-02
        -0.19325E-02
        -0.27830E-02
        -0.26700E-02
        -0.20361E-02
        -0.18699E-02
        -0.18306E-02
        -0.72185E-03
        -0.78413E-04
        -0.12449E-04
        -0.91398E-05
        -0.19606E-05
        -0.14110E-03
        -0.56630E-03
        -0.10970E-02
        -0.18580E-02
        -0.22846E-02
        -0.17616E-02
        -0.15745E-02
        -0.15651E-02
        -0.77592E-03
        -0.20939E-03
        -0.18773E-03
        -0.54560E-04
        -0.21685E-04
        -0.18581E-04
        -0.10597E-05
        -0.31320E-04
        -0.63439E-05
        -0.39928E-05
        -0.48841E-04
        -0.21008E-04
        -0.43381E-04
        -0.12050E-04
        -0.22541E-03
        -0.79165E-04
        -0.16341E-05
        -0.21940E-03
        -0.78379E-05
        -0.73288E-06
        -0.65405E-06
        -0.13345E-04
        -0.49262E-06
        -0.99503E-05
        -0.50007E-05
        -0.16783E-05
        -0.11939E-05
        -0.19703E-04
        -0.11902E-05
        -0.77003E-07
        -0.26286E-06
        -0.65453E-06
        -0.19512E-04
        -0.91056E-05
        -0.62884E-06
        -0.38196E-05
        -0.28763E-05
        -0.63964E-06
        -0.60646E-05
        -0.22077E-04
        -0.12679E-03
        -0.98717E-04
        -0.76515E-04
        -0.41264E-04
        -0.25021E-05
        -0.10695E-04
        -0.16670E-04
        -0.27614E-04
        -0.11522E-03
        -0.39020E-04
        -0.17040E-04
        -0.26876E-04
        -0.37456E-04
        -0.40288E-04
        -0.22017E-06
        -0.62568E-04
        -0.12828E-03
        -0.69489E-03
        -0.11601E-02
        -0.19321E-02
        -0.27811E-02
        -0.26678E-02
        -0.20349E-02
        -0.18691E-02
        -0.18296E-02
        -0.72155E-03
        -0.78486E-04
        -0.12447E-04
        -0.91774E-05
        -0.19288E-05
        -0.14125E-03
        -0.56681E-03
        -0.10975E-02
        -0.18579E-02
        -0.22843E-02
        -0.17613E-02
        -0.15744E-02
        -0.15643E-02
        -0.77481E-03
        -0.20893E-03
        -0.18724E-03
        -0.54629E-04
        -0.21693E-04
        -0.18599E-04
        -0.10753E-05
        -0.31327E-04
        -0.63543E-05
        -0.40028E-05
        -0.49006E-04
        -0.21084E-04
        -0.43703E-04
        -0.12064E-04
        -0.22537E-03
        -0.79204E-04
        -0.16337E-05
        -0.21996E-03
        -0.78389E-05
        -0.74629E-06
        -0.65206E-06
        -0.13364E-04
        -0.48701E-06
        -0.99999E-05
        -0.50100E-05
        -0.16796E-05
        -0.11925E-05
        -0.19879E-04
        -0.11853E-05
        -0.78932E-07
        -0.26597E-06
        -0.64507E-06
        -0.19591E-04
        -0.91085E-05
        -0.62552E-06
        -0.38366E-05
        -0.28856E-05
        -0.62750E-06
        -0.60729E-05
        -0.22074E-04
        -0.12718E-03
        -0.99144E-04
        -0.76694E-04
        -0.41331E-04
        -0.24872E-05
        -0.10716E-04
        -0.16691E-04
        -0.27620E-04
        -0.11523E-03
        -0.39028E-04
        -0.17018E-04
        -0.26805E-04
        -0.37355E-04
        -0.40254E-04
        -0.21348E-06
        -0.62452E-04
        -0.12829E-03
        -0.69515E-03
        -0.11601E-02
        -0.19316E-02
        -0.27792E-02
        -0.26656E-02
        -0.20336E-02
        -0.18684E-02
        -0.18286E-02
        -0.72125E-03
        -0.78564E-04
        -0.12445E-04
        -0.92152E-05
        -0.18971E-05
        -0.14140E-03
        -0.56734E-03
        -0.10980E-02
        -0.18579E-02
        -0.22840E-02
        -0.17611E-02
        -0.15742E-02
        -0.15635E-02
        -0.77371E-03
        -0.20847E-03
        -0.18675E-03
        -0.54697E-04
        -0.21701E-04
        -0.18618E-04
        -0.10912E-05
        -0.31335E-04
        -0.63646E-05
        -0.40134E-05
        -0.49169E-04
        -0.21160E-04
        -0.44021E-04
        -0.12079E-04
        -0.22533E-03
        -0.79247E-04
        -0.16338E-05
        -0.22052E-03
        -0.78402E-05
        -0.76006E-06
        -0.65004E-06
        -0.13384E-04
        -0.48111E-06
        -0.10051E-04
        -0.50185E-05
        -0.16825E-05
        -0.11901E-05
        -0.20050E-04
        -0.11788E-05
        -0.80949E-07
        -0.27013E-06
        -0.63344E-06
        -0.19664E-04
        -0.91098E-05
        -0.62102E-06
        -0.38535E-05
        -0.28950E-05
        -0.61553E-06
        -0.60808E-05
        -0.22071E-04
        -0.12757E-03
        -0.99580E-04
        -0.76886E-04
        -0.41408E-04
        -0.24683E-05
        -0.10732E-04
        -0.16724E-04
        -0.27637E-04
        -0.11524E-03
        -0.39041E-04
        -0.16998E-04
        -0.26734E-04
        -0.37255E-04
        -0.40218E-04
        -0.20691E-06
        -0.62335E-04
        -0.12831E-03
        -0.69541E-03
        -0.11602E-02
        -0.19311E-02
        -0.27773E-02
        -0.26633E-02
        -0.20324E-02
        -0.18676E-02
        -0.18275E-02
        -0.72098E-03
        -0.78657E-04
        -0.12446E-04
        -0.92524E-05
        -0.18654E-05
        -0.14157E-03
        -0.56796E-03
        -0.10986E-02
        -0.18578E-02
        -0.22837E-02
        -0.17608E-02
        -0.15741E-02
        -0.15627E-02
        -0.77261E-03
        -0.20802E-03
        -0.18625E-03
        -0.54765E-04
        -0.21709E-04
        -0.18637E-04
        -0.11070E-05
        -0.31342E-04
        -0.63747E-05
        -0.40232E-05
        -0.49332E-04
        -0.21236E-04
        -0.44337E-04
        -0.12093E-04
        -0.22529E-03
        -0.79287E-04
        -0.16340E-05
        -0.22108E-03
        -0.78416E-05
        -0.77418E-06
        -0.64800E-06
        -0.13404E-04
        -0.47491E-06
        -0.10102E-04
        -0.50260E-05
        -0.16869E-05
        -0.11868E-05
        -0.20215E-04
        -0.11707E-05
        -0.83225E-07
        -0.27526E-06
        -0.61962E-06
        -0.19728E-04
        -0.91099E-05
        -0.61517E-06
        -0.38703E-05
        -0.29043E-05
        -0.60359E-06
        -0.60888E-05
        -0.22069E-04
        -0.12797E-03
        -0.10002E-03
        -0.77089E-04
        -0.41496E-04
        -0.24453E-05
        -0.10745E-04
        -0.16769E-04
        -0.27664E-04
        -0.11527E-03
        -0.39058E-04
        -0.16980E-04
        -0.26664E-04
        -0.37153E-04
        -0.40184E-04
        -0.20040E-06
        -0.62218E-04
        -0.12832E-03
        -0.69566E-03
        -0.11602E-02
        -0.19307E-02
        -0.27755E-02
        -0.26611E-02
        -0.20312E-02
        -0.18668E-02
        -0.18265E-02
        -0.72074E-03
        -0.78767E-04
        -0.12448E-04
        -0.92889E-05
        -0.18339E-05
        -0.14175E-03
        -0.56866E-03
        -0.10993E-02
        -0.18578E-02
        -0.22834E-02
        -0.17606E-02
        -0.15740E-02
        -0.15619E-02
        -0.77151E-03
        -0.20756E-03
        -0.18576E-03
        -0.54829E-04
        -0.21714E-04
        -0.18655E-04
        -0.11232E-05
        -0.31349E-04
        -0.63848E-05
        -0.40321E-05
        -0.49488E-04
        -0.21313E-04
        -0.44646E-04
        -0.12110E-04
        -0.22526E-03
        -0.79329E-04
        -0.16346E-05
        -0.22164E-03
        -0.78436E-05
        -0.78873E-06
        -0.64601E-06
        -0.13425E-04
        -0.46864E-06
        -0.10154E-04
        -0.50332E-05
        -0.16920E-05
        -0.11831E-05
        -0.20377E-04
        -0.11620E-05
        -0.85708E-07
        -0.28098E-06
        -0.60499E-06
        -0.19789E-04
        -0.91089E-05
        -0.60870E-06
        -0.38876E-05
        -0.29142E-05
        -0.59170E-06
        -0.60976E-05
        -0.22069E-04
        -0.12837E-03
        -0.10047E-03
        -0.77300E-04
        -0.41587E-04
        -0.24210E-05
        -0.10757E-04
        -0.16817E-04
        -0.27698E-04
        -0.11531E-03
        -0.39079E-04
        -0.16964E-04
        -0.26597E-04
        -0.37055E-04
        -0.40150E-04
        -0.19400E-06
        -0.62100E-04
        -0.12834E-03
        -0.69592E-03
        -0.11602E-02
        -0.19302E-02
        -0.27736E-02
        -0.26588E-02
        -0.20300E-02
        -0.18660E-02
        -0.18255E-02
        -0.72051E-03
        -0.78883E-04
        -0.12452E-04
        -0.93255E-05
        -0.18027E-05
        -0.14193E-03
        -0.56938E-03
        -0.11000E-02
        -0.18577E-02
        -0.22832E-02
        -0.17604E-02
        -0.15739E-02
        -0.15611E-02
        -0.77041E-03
        -0.20711E-03
        -0.18527E-03
        -0.54888E-04
        -0.21713E-04
        -0.18673E-04
        -0.11399E-05
        -0.31357E-04
        -0.63953E-05
        -0.40391E-05
        -0.49630E-04
        -0.21392E-04
        -0.44942E-04
        -0.12130E-04
        -0.22524E-03
        -0.79382E-04
        -0.16371E-05
        -0.22221E-03
        -0.78462E-05
        -0.80377E-06
        -0.64401E-06
        -0.13445E-04
        -0.46240E-06
        -0.10207E-04
        -0.50406E-05
        -0.16972E-05
        -0.11795E-05
        -0.20536E-04
        -0.11534E-05
        -0.88681E-07
        -0.28714E-06
        -0.59028E-06
        -0.19849E-04
        -0.91073E-05
        -0.60181E-06
        -0.39055E-05
        -0.29245E-05
        -0.57989E-06
        -0.61069E-05
        -0.22070E-04
        -0.12878E-03
        -0.10093E-03
        -0.77510E-04
        -0.41680E-04
        -0.23963E-05
        -0.10767E-04
        -0.16866E-04
        -0.27735E-04
        -0.11535E-03
        -0.39110E-04
        -0.16959E-04
        -0.26542E-04
        -0.36960E-04
        -0.40116E-04
        -0.18762E-06
        -0.61983E-04
        -0.12835E-03
        -0.69616E-03
        -0.11602E-02
        -0.19297E-02
        -0.27717E-02
        -0.26565E-02
        -0.20287E-02
        -0.18653E-02
        -0.18245E-02
        -0.72028E-03
        -0.79000E-04
        -0.12455E-04
        -0.93625E-05
        -0.17717E-05
        -0.14212E-03
        -0.57011E-03
        -0.11006E-02
        -0.18576E-02
        -0.22829E-02
        -0.17602E-02
        -0.15738E-02
        -0.15603E-02
        -0.76931E-03
        -0.20665E-03
        -0.18478E-03
        -0.54945E-04
        -0.21710E-04
        -0.18691E-04
        -0.11570E-05
        -0.31366E-04
        -0.64055E-05
        -0.40445E-05
        -0.49764E-04
        -0.21471E-04
        -0.45232E-04
        -0.12151E-04
        -0.22521E-03
        -0.79434E-04
        -0.16400E-05
        -0.22278E-03
        -0.78492E-05
        -0.81914E-06
        -0.64197E-06
        -0.13466E-04
        -0.45621E-06
        -0.10259E-04
        -0.50481E-05
        -0.17023E-05
        -0.11761E-05
        -0.20694E-04
        -0.11448E-05
        -0.91824E-07
        -0.29352E-06
        -0.57569E-06
        -0.19909E-04
        -0.91054E-05
        -0.59465E-06
        -0.39237E-05
        -0.29353E-05
        -0.56809E-06
        -0.61171E-05
        -0.22074E-04
        -0.12919E-03
        -0.10139E-03
        -0.77724E-04
        -0.41774E-04
        -0.23717E-05
        -0.10778E-04
        -0.16916E-04
        -0.27772E-04
        -0.11541E-03
        -0.39147E-04
        -0.16956E-04
        -0.26491E-04
        -0.36867E-04
        -0.40084E-04
        -0.18136E-06
        -0.61867E-04
        -0.12836E-03
        -0.69641E-03
        -0.11602E-02
        -0.19293E-02
        -0.27698E-02
        -0.26543E-02
        -0.20275E-02
        -0.18645E-02
        -0.18234E-02
        -0.72005E-03
        -0.79116E-04
        -0.12459E-04
        -0.94000E-05
        -0.17410E-05
        -0.14230E-03
        -0.57083E-03
        -0.11013E-02
        -0.18575E-02
        -0.22826E-02
        -0.17600E-02
        -0.15737E-02
        -0.15595E-02
        -0.76820E-03
        -0.20620E-03
        -0.18429E-03
        -0.55001E-04
        -0.21707E-04
        -0.18709E-04
        -0.11742E-05
        -0.31374E-04
        -0.64157E-05
        -0.40500E-05
        -0.49899E-04
        -0.21551E-04
        -0.45523E-04
        -0.12172E-04
        -0.22519E-03
        -0.79486E-04
        -0.16434E-05
        -0.22336E-03
        -0.78523E-05
        -0.83475E-06
        -0.63992E-06
        -0.13487E-04
        -0.45001E-06
        -0.10312E-04
        -0.50557E-05
        -0.17073E-05
        -0.11727E-05
        -0.20852E-04
        -0.11363E-05
        -0.95102E-07
        -0.29990E-06
        -0.56132E-06
        -0.19968E-04
        -0.91033E-05
        -0.58763E-06
        -0.39419E-05
        -0.29459E-05
        -0.55636E-06
        -0.61264E-05
        -0.22076E-04
        -0.12961E-03
        -0.10185E-03
        -0.77934E-04
        -0.41868E-04
        -0.23474E-05
        -0.10788E-04
        -0.16965E-04
        -0.27811E-04
        -0.11546E-03
        -0.39181E-04
        -0.16954E-04
        -0.26441E-04
        -0.36776E-04
        -0.40052E-04
        -0.17517E-06
        -0.61750E-04
        -0.12838E-03
        -0.69665E-03
        -0.11602E-02
        -0.19288E-02
        -0.27679E-02
        -0.26520E-02
        -0.20263E-02
        -0.18637E-02
        -0.18224E-02
        -0.71981E-03
        -0.79231E-04
        -0.12463E-04
        -0.94381E-05
        -0.17106E-05
        -0.14249E-03
        -0.57155E-03
        -0.11019E-02
        -0.18574E-02
        -0.22823E-02
        -0.17599E-02
        -0.15737E-02
        -0.15587E-02
        -0.76710E-03
        -0.20575E-03
        -0.18380E-03
        -0.55056E-04
        -0.21704E-04
        -0.18727E-04
        -0.11915E-05
        -0.31381E-04
        -0.64258E-05
        -0.40554E-05
        -0.50034E-04
        -0.21631E-04
        -0.45813E-04
        -0.12194E-04
        -0.22517E-03
        -0.79542E-04
        -0.16463E-05
        -0.22393E-03
        -0.78552E-05
        -0.85056E-06
        -0.63787E-06
        -0.13507E-04
        -0.44381E-06
        -0.10364E-04
        -0.50631E-05
        -0.17122E-05
        -0.11692E-05
        -0.21010E-04
        -0.11279E-05
        -0.98347E-07
        -0.30629E-06
        -0.54717E-06
        -0.20028E-04
        -0.91012E-05
        -0.58061E-06
        -0.39599E-05
        -0.29566E-05
        -0.54477E-06
        -0.61365E-05
        -0.22079E-04
        -0.13002E-03
        -0.10231E-03
        -0.78147E-04
        -0.41962E-04
        -0.23232E-05
        -0.10799E-04
        -0.17014E-04
        -0.27849E-04
        -0.11551E-03
        -0.39217E-04
        -0.16953E-04
        -0.26390E-04
        -0.36683E-04
        -0.40018E-04
        -0.16912E-06
        -0.61633E-04
        -0.12839E-03
        -0.69689E-03
        -0.11603E-02
        -0.19283E-02
        -0.27660E-02
        -0.26497E-02
        -0.20250E-02
        -0.18629E-02
        -0.18213E-02
        -0.71958E-03
        -0.79346E-04
        -0.12467E-04
        -0.94761E-05
        -0.16805E-05
        -0.14267E-03
        -0.57228E-03
        -0.11026E-02
        -0.18573E-02
        -0.22820E-02
        -0.17597E-02
        -0.15736E-02
        -0.15579E-02
        -0.76599E-03
        -0.20530E-03
        -0.18331E-03
        -0.55111E-04
        -0.21700E-04
        -0.18745E-04
        -0.12088E-05
        -0.31389E-04
        -0.64360E-05
        -0.40615E-05
        -0.50168E-04
        -0.21711E-04
        -0.46105E-04
        -0.12216E-04
        -0.22514E-03
        -0.79594E-04
        -0.16495E-05
        -0.22451E-03
        -0.78583E-05
        -0.86656E-06
        -0.63584E-06
        -0.13528E-04
        -0.43762E-06
        -0.10417E-04
        -0.50702E-05
        -0.17173E-05
        -0.11659E-05
        -0.21169E-04
        -0.11194E-05
        -0.10171E-06
        -0.31264E-06
        -0.53323E-06
        -0.20087E-04
        -0.90992E-05
        -0.57366E-06
        -0.39781E-05
        -0.29674E-05
        -0.53324E-06
        -0.61462E-05
        -0.22083E-04
        -0.13044E-03
        -0.10278E-03
        -0.78356E-04
        -0.42055E-04
        -0.22992E-05
        -0.10809E-04
        -0.17063E-04
        -0.27887E-04
        -0.11556E-03
        -0.39254E-04
        -0.16951E-04
        -0.26340E-04
        -0.36591E-04
        -0.39987E-04
        -0.16315E-06
        -0.61515E-04
        -0.12840E-03
        -0.69712E-03
        -0.11603E-02
        -0.19279E-02
        -0.27641E-02
        -0.26474E-02
        -0.20238E-02
        -0.18622E-02
        -0.18203E-02
        -0.71934E-03
        -0.79460E-04
        -0.12471E-04
        -0.95136E-05
        -0.16506E-05
        -0.14286E-03
        -0.57301E-03
        -0.11033E-02
        -0.18572E-02
        -0.22816E-02
        -0.17595E-02
        -0.15735E-02
        -0.15570E-02
        -0.76489E-03
        -0.20485E-03
        -0.18283E-03
        -0.55167E-04
        -0.21697E-04
        -0.18763E-04
        -0.12264E-05
        -0.31397E-04
        -0.64462E-05
        -0.40669E-05
        -0.50302E-04
        -0.21792E-04
        -0.46396E-04
        -0.12238E-04
        -0.22512E-03
        -0.79646E-04
        -0.16526E-05
        -0.22508E-03
        -0.78615E-05
        -0.88273E-06
        -0.63377E-06
        -0.13549E-04
        -0.43153E-06
        -0.10470E-04
        -0.50774E-05
        -0.17224E-05
        -0.11626E-05
        -0.21328E-04
        -0.11111E-05
        -0.10504E-06
        -0.31903E-06
        -0.51945E-06
        -0.20147E-04
        -0.90970E-05
        -0.56674E-06
        -0.39963E-05
        -0.29783E-05
        -0.52178E-06
        -0.61561E-05
        -0.22085E-04
        -0.13086E-03
        -0.10324E-03
        -0.78568E-04
        -0.42149E-04
        -0.22756E-05
        -0.10820E-04
        -0.17112E-04
        -0.27925E-04
        -0.11562E-03
        -0.39288E-04
        -0.16950E-04
        -0.26290E-04
        -0.36499E-04
        -0.39955E-04
        -0.15730E-06
        -0.61398E-04
        -0.12841E-03
        -0.69736E-03
        -0.11603E-02
        -0.19274E-02
        -0.27622E-02
        -0.26451E-02
        -0.20225E-02
        -0.18614E-02
        -0.18192E-02
        -0.71910E-03
        -0.79576E-04
        -0.12474E-04
        -0.95514E-05
        -0.16208E-05
        -0.14305E-03
        -0.57373E-03
        -0.11039E-02
        -0.18571E-02
        -0.22814E-02
        -0.17593E-02
        -0.15734E-02
        -0.15562E-02
        -0.76379E-03
        -0.20441E-03
        -0.18234E-03
        -0.55222E-04
        -0.21693E-04
        -0.18780E-04
        -0.12442E-05
        -0.31405E-04
        -0.64564E-05
        -0.40724E-05
        -0.50437E-04
        -0.21873E-04
        -0.46687E-04
        -0.12260E-04
        -0.22510E-03
        -0.79702E-04
        -0.16554E-05
        -0.22566E-03
        -0.78644E-05
        -0.89906E-06
        -0.63167E-06
        -0.13569E-04
        -0.42551E-06
        -0.10523E-04
        -0.50846E-05
        -0.17274E-05
        -0.11592E-05
        -0.21487E-04
        -0.11028E-05
        -0.10853E-06
        -0.32541E-06
        -0.50590E-06
        -0.20206E-04
        -0.90949E-05
        -0.55979E-06
        -0.40144E-05
        -0.29890E-05
        -0.51045E-06
        -0.61663E-05
        -0.22089E-04
        -0.13127E-03
        -0.10371E-03
        -0.78780E-04
        -0.42244E-04
        -0.22518E-05
        -0.10830E-04
        -0.17162E-04
        -0.27965E-04
        -0.11566E-03
        -0.39325E-04
        -0.16948E-04
        -0.26240E-04
        -0.36408E-04
        -0.39921E-04
        -0.15157E-06
        -0.61281E-04
        -0.12843E-03
        -0.69759E-03
        -0.11603E-02
        -0.19269E-02
        -0.27603E-02
        -0.26428E-02
        -0.20213E-02
        -0.18606E-02
        -0.18182E-02
        -0.71886E-03
        -0.79691E-04
        -0.12478E-04
        -0.95893E-05
        -0.15914E-05
        -0.14323E-03
        -0.57446E-03
        -0.11046E-02
        -0.18570E-02
        -0.22811E-02
        -0.17592E-02
        -0.15734E-02
        -0.15554E-02
        -0.76269E-03
        -0.20396E-03
        -0.18185E-03
        -0.55277E-04
        -0.21690E-04
        -0.18798E-04
        -0.12622E-05
        -0.31414E-04
        -0.64666E-05
        -0.40786E-05
        -0.50570E-04
        -0.21954E-04
        -0.46980E-04
        -0.12282E-04
        -0.22508E-03
        -0.79754E-04
        -0.16586E-05
        -0.22624E-03
        -0.78673E-05
        -0.91560E-06
        -0.62962E-06
        -0.13590E-04
        -0.41952E-06
        -0.10576E-04
        -0.50918E-05
        -0.17325E-05
        -0.11560E-05
        -0.21647E-04
        -0.10944E-05
        -0.11199E-06
        -0.33178E-06
        -0.49257E-06
        -0.20265E-04
        -0.90926E-05
        -0.55295E-06
        -0.40327E-05
        -0.29999E-05
        -0.49919E-06
        -0.61760E-05
        -0.22091E-04
        -0.13170E-03
        -0.10417E-03
        -0.78989E-04
        -0.42338E-04
        -0.22281E-05
        -0.10841E-04
        -0.17211E-04
        -0.28003E-04
        -0.11572E-03
        -0.39362E-04
        -0.16946E-04
        -0.26189E-04
        -0.36316E-04
        -0.39890E-04
        -0.14598E-06
        -0.61163E-04
        -0.12844E-03
        -0.69783E-03
        -0.11603E-02
        -0.19265E-02
        -0.27584E-02
        -0.26405E-02
        -0.20201E-02
        -0.18599E-02
        -0.18171E-02
        -0.71863E-03
        -0.79806E-04
        -0.12482E-04
        -0.96275E-05
        -0.15624E-05
        -0.14341E-03
        -0.57519E-03
        -0.11052E-02
        -0.18569E-02
        -0.22808E-02
        -0.17590E-02
        -0.15733E-02
        -0.15545E-02
        -0.76159E-03
        -0.20352E-03
        -0.18137E-03
        -0.55332E-04
        -0.21687E-04
        -0.18816E-04
        -0.12802E-05
        -0.31421E-04
        -0.64767E-05
        -0.40842E-05
        -0.50704E-04
        -0.22035E-04
        -0.47273E-04
        -0.12303E-04
        -0.22505E-03
        -0.79806E-04
        -0.16613E-05
        -0.22682E-03
        -0.78704E-05
        -0.93238E-06
        -0.62758E-06
        -0.13610E-04
        -0.41353E-06
        -0.10629E-04
        -0.50989E-05
        -0.17375E-05
        -0.11527E-05
        -0.21808E-04
        -0.10861E-05
        -0.11556E-06
        -0.33808E-06
        -0.47948E-06
        -0.20325E-04
        -0.90904E-05
        -0.54611E-06
        -0.40509E-05
        -0.30108E-05
        -0.48806E-06
        -0.61862E-05
        -0.22094E-04
        -0.13212E-03
        -0.10464E-03
        -0.79200E-04
        -0.42433E-04
        -0.22047E-05
        -0.10851E-04
        -0.17260E-04
        -0.28042E-04
        -0.11577E-03
        -0.39397E-04
        -0.16945E-04
        -0.26139E-04
        -0.36224E-04
        -0.39858E-04
        -0.14046E-06
        -0.61046E-04
        -0.12845E-03
        -0.69806E-03
        -0.11603E-02
        -0.19260E-02
        -0.27565E-02
        -0.26382E-02
        -0.20188E-02
        -0.18591E-02
        -0.18160E-02
        -0.71839E-03
        -0.79921E-04
        -0.12486E-04
        -0.96657E-05
        -0.15336E-05
        -0.14360E-03
        -0.57593E-03
        -0.11059E-02
        -0.18568E-02
        -0.22805E-02
        -0.17589E-02
        -0.15732E-02
        -0.15537E-02
        -0.76050E-03
        -0.20308E-03
        -0.18088E-03
        -0.55386E-04
        -0.21683E-04
        -0.18834E-04
        -0.12982E-05
        -0.31429E-04
        -0.64870E-05
        -0.40899E-05
        -0.50837E-04
        -0.22117E-04
        -0.47566E-04
        -0.12325E-04
        -0.22503E-03
        -0.79862E-04
        -0.16644E-05
        -0.22740E-03
        -0.78734E-05
        -0.94940E-06
        -0.62551E-06
        -0.13631E-04
        -0.40761E-06
        -0.10683E-04
        -0.51057E-05
        -0.17425E-05
        -0.11496E-05
        -0.21969E-04
        -0.10778E-05
        -0.11909E-06
        -0.34437E-06
        -0.46661E-06
        -0.20385E-04
        -0.90883E-05
        -0.53935E-06
        -0.40691E-05
        -0.30219E-05
        -0.47697E-06
        -0.61959E-05
        -0.22097E-04
        -0.13254E-03
        -0.10511E-03
        -0.79407E-04
        -0.42527E-04
        -0.21814E-05
        -0.10862E-04
        -0.17309E-04
        -0.28081E-04
        -0.11582E-03
        -0.39434E-04
        -0.16943E-04
        -0.26090E-04
        -0.36133E-04
        -0.39825E-04
        -0.13504E-06
        -0.60928E-04
        -0.12846E-03
        -0.69829E-03
        -0.11604E-02
        -0.19256E-02
        -0.27546E-02
        -0.26359E-02
        -0.20176E-02
        -0.18584E-02
        -0.18149E-02
        -0.71816E-03
        -0.80037E-04
        -0.12489E-04
        -0.97033E-05
        -0.15050E-05
        -0.14378E-03
        -0.57666E-03
        -0.11066E-02
        -0.18567E-02
        -0.22802E-02
        -0.17587E-02
        -0.15732E-02
        -0.15529E-02
        -0.75940E-03
        -0.20264E-03
        -0.18040E-03
        -0.55440E-04
        -0.21680E-04
        -0.18852E-04
        -0.13165E-05
        -0.31437E-04
        -0.64971E-05
        -0.40959E-05
        -0.50971E-04
        -0.22200E-04
        -0.47860E-04
        -0.12347E-04
        -0.22501E-03
        -0.79915E-04
        -0.16670E-05
        -0.22798E-03
        -0.78765E-05
        -0.96666E-06
        -0.62342E-06
        -0.13652E-04
        -0.40179E-06
        -0.10736E-04
        -0.51122E-05
        -0.17475E-05
        -0.11464E-05
        -0.22131E-04
        -0.10695E-05
        -0.12277E-06
        -0.35065E-06
        -0.45389E-06
        -0.20443E-04
        -0.90859E-05
        -0.53261E-06
        -0.40874E-05
        -0.30329E-05
        -0.46598E-06
        -0.62057E-05
        -0.22099E-04
        -0.13297E-03
        -0.10558E-03
        -0.79615E-04
        -0.42621E-04
        -0.21584E-05
        -0.10873E-04
        -0.17359E-04
        -0.28120E-04
        -0.11588E-03
        -0.39471E-04
        -0.16942E-04
        -0.26041E-04
        -0.36041E-04
        -0.39793E-04
        -0.12978E-06
        -0.60810E-04
        -0.12847E-03
        -0.69851E-03
        -0.11604E-02
        -0.19251E-02
        -0.27527E-02
        -0.26336E-02
        -0.20163E-02
        -0.18576E-02
        -0.18138E-02
        -0.71793E-03
        -0.80154E-04
        -0.12492E-04
        -0.97409E-05
        -0.14768E-05
        -0.14397E-03
        -0.57738E-03
        -0.11072E-02
        -0.18566E-02
        -0.22799E-02
        -0.17585E-02
        -0.15731E-02
        -0.15520E-02
        -0.75831E-03
        -0.20221E-03
        -0.17991E-03
        -0.55495E-04
        -0.21676E-04
        -0.18870E-04
        -0.13350E-05
        -0.31445E-04
        -0.65072E-05
        -0.41016E-05
        -0.51102E-04
        -0.22283E-04
        -0.48154E-04
        -0.12369E-04
        -0.22499E-03
        -0.79967E-04
        -0.16700E-05
        -0.22855E-03
        -0.78795E-05
        -0.98426E-06
        -0.62131E-06
        -0.13672E-04
        -0.39629E-06
        -0.10790E-04
        -0.51186E-05
        -0.17526E-05
        -0.11431E-05
        -0.22293E-04
        -0.10614E-05
        -0.12646E-06
        -0.35694E-06
        -0.44139E-06
        -0.20498E-04
        -0.90836E-05
        -0.52581E-06
        -0.41056E-05
        -0.30439E-05
        -0.45513E-06
        -0.62161E-05
        -0.22102E-04
        -0.13341E-03
        -0.10605E-03
        -0.79812E-04
        -0.42714E-04
        -0.21353E-05
        -0.10884E-04
        -0.17408E-04
        -0.28159E-04
        -0.11593E-03
        -0.39506E-04
        -0.16941E-04
        -0.25990E-04
        -0.35950E-04
        -0.39762E-04
        -0.12461E-06
        -0.60692E-04
        -0.12848E-03
        -0.69874E-03
        -0.11604E-02
        -0.19246E-02
        -0.27508E-02
        -0.26313E-02
        -0.20151E-02
        -0.18568E-02
        -0.18127E-02
        -0.71773E-03
        -0.80272E-04
        -0.12493E-04
        -0.97785E-05
        -0.14489E-05
        -0.14415E-03
        -0.57811E-03
        -0.11079E-02
        -0.18565E-02
        -0.22796E-02
        -0.17584E-02
        -0.15730E-02
        -0.15512E-02
        -0.75721E-03
        -0.20177E-03
        -0.17943E-03
        -0.55549E-04
        -0.21673E-04
        -0.18887E-04
        -0.13536E-05
        -0.31453E-04
        -0.65171E-05
        -0.41073E-05
        -0.51234E-04
        -0.22366E-04
        -0.48449E-04
        -0.12391E-04
        -0.22497E-03
        -0.80023E-04
        -0.16729E-05
        -0.22914E-03
        -0.78824E-05
        -0.10023E-05
        -0.61920E-06
        -0.13693E-04
        -0.39104E-06
        -0.10844E-04
        -0.51249E-05
        -0.17577E-05
        -0.11400E-05
        -0.22456E-04
        -0.10531E-05
        -0.13038E-06
        -0.36322E-06
        -0.42910E-06
        -0.20549E-04
        -0.90811E-05
        -0.51915E-06
        -0.41237E-05
        -0.30550E-05
        -0.44432E-06
        -0.62258E-05
        -0.22105E-04
        -0.13384E-03
        -0.10652E-03
        -0.80005E-04
        -0.42805E-04
        -0.21124E-05
        -0.10896E-04
        -0.17458E-04
        -0.28199E-04
        -0.11599E-03
        -0.39543E-04
        -0.16939E-04
        -0.25941E-04
        -0.35858E-04
        -0.39729E-04
        -0.11951E-06
        -0.60575E-04
        -0.12849E-03
        -0.69897E-03
        -0.11604E-02
        -0.19241E-02
        -0.27488E-02
        -0.26289E-02
        -0.20138E-02
        -0.18560E-02
        -0.18114E-02
        -0.71755E-03
        -0.80391E-04
        -0.12492E-04
        -0.98163E-05
        -0.14212E-05
        -0.14433E-03
        -0.57885E-03
        -0.11085E-02
        -0.18564E-02
        -0.22793E-02
        -0.17582E-02
        -0.15729E-02
        -0.15503E-02
        -0.75612E-03
        -0.20134E-03
        -0.17895E-03
        -0.55604E-04
        -0.21670E-04
        -0.18906E-04
        -0.13722E-05
        -0.31462E-04
        -0.65273E-05
        -0.41136E-05
        -0.51366E-04
        -0.22451E-04
        -0.48745E-04
        -0.12413E-04
        -0.22495E-03
        -0.80075E-04
        -0.16755E-05
        -0.22972E-03
        -0.78856E-05
        -0.10206E-05
        -0.61712E-06
        -0.13714E-04
        -0.38598E-06
        -0.10898E-04
        -0.51311E-05
        -0.17624E-05
        -0.11371E-05
        -0.22620E-04
        -0.10452E-05
        -0.13426E-06
        -0.36928E-06
        -0.41713E-06
        -0.20600E-04
        -0.90791E-05
        -0.51266E-06
        -0.41420E-05
        -0.30663E-05
        -0.43374E-06
        -0.62355E-05
        -0.22106E-04
        -0.13428E-03
        -0.10699E-03
        -0.80189E-04
        -0.42894E-04
        -0.20900E-05
        -0.10909E-04
        -0.17506E-04
        -0.28237E-04
        -0.11604E-03
        -0.39579E-04
        -0.16938E-04
        -0.25892E-04
        -0.35768E-04
        -0.39699E-04
        -0.11455E-06
        -0.60456E-04
        -0.12850E-03
        -0.69919E-03
        -0.11604E-02
        -0.19237E-02
        -0.27470E-02
        -0.26266E-02
        -0.20126E-02
        -0.18552E-02
        -0.18102E-02
        -0.71738E-03
        -0.80507E-04
        -0.12489E-04
        -0.98539E-05
        -0.13937E-05
        -0.14451E-03
        -0.57957E-03
        -0.11092E-02
        -0.18563E-02
        -0.22790E-02
        -0.17580E-02
        -0.15729E-02
        -0.15495E-02
        -0.75504E-03
        -0.20092E-03
        -0.17847E-03
        -0.56113E-04
        -0.21852E-04
        -0.19087E-04
        -0.14017E-05
        -0.31730E-04
        -0.65898E-05
        -0.41549E-05
        -0.51908E-04
        -0.22714E-04
        -0.49419E-04
        -0.12536E-04
        -0.22672E-03
        -0.80758E-04
        -0.16918E-05
        -0.23215E-03
        -0.79545E-05
        -0.10465E-05
        -0.62008E-06
        -0.13846E-04
        -0.38463E-06
        -0.11034E-04
        -0.51778E-05
        -0.17781E-05
        -0.11449E-05
        -0.22963E-04
        -0.10485E-05
        -0.13898E-06
        -0.37702E-06
        -0.41093E-06
        -0.20825E-04
        -0.91546E-05
        -0.51230E-06
        -0.41935E-05
        -0.31024E-05
        -0.42774E-06
        -0.62901E-05
        -0.22276E-04
        -0.13579E-03
        -0.10831E-03
        -0.81025E-04
        -0.43324E-04
        -0.20899E-05
        -0.11014E-04
        -0.17674E-04
        -0.28478E-04
        -0.11696E-03
        -0.39907E-04
        -0.17059E-04
        -0.26045E-04
        -0.35965E-04
        -0.39984E-04
        -0.11064E-06
        -0.60813E-04
        -0.12958E-03
        -0.70504E-03
        -0.11697E-02
        -0.19390E-02
        -0.27682E-02
        -0.26469E-02
        -0.20288E-02
        -0.18705E-02
        -0.18249E-02
        -0.72335E-03
        -0.81251E-04
        -0.12578E-04
        -0.99635E-05
        -0.13782E-05
        -0.14573E-03
        -0.58449E-03
        -0.11184E-02
        -0.18714E-02
        -0.22973E-02
        -0.17716E-02
        -0.15849E-02
        -0.15608E-02
        -0.75994E-03
        -0.20208E-03
        -0.17940E-03
        -0.12500E-03
        -0.49083E-04
        -0.42394E-04
        -0.31663E-05
        -0.65690E-04
        -0.13914E-04
        -0.93002E-05
        -0.11470E-03
        -0.50439E-04
        -0.10878E-03
        -0.27118E-04
        -0.45274E-03
        -0.16611E-03
        -0.36305E-05
        -0.46916E-03
        -0.17754E-04
        -0.23513E-05
        -0.13816E-05
        -0.30103E-04
        -0.83595E-06
        -0.22731E-04
        -0.10916E-04
        -0.36662E-05
        -0.25258E-05
        -0.51560E-04
        -0.23500E-05
        -0.30826E-06
        -0.84750E-06
        -0.91480E-06
        -0.46591E-04
        -0.20436E-04
        -0.11360E-05
        -0.94245E-05
        -0.69538E-05
        -0.83018E-06
        -0.13240E-04
        -0.46891E-04
        -0.28665E-03
        -0.23525E-03
        -0.17717E-03
        -0.92169E-04
        -0.44925E-05
        -0.23762E-04
        -0.37018E-04
        -0.59242E-04
        -0.22974E-03
        -0.82473E-04
        -0.36096E-04
        -0.55656E-04
        -0.76181E-04
        -0.80765E-04
        -0.22480E-06
        -0.95542E-04
        -0.20334E-03
        -0.11069E-02
        -0.18462E-02
        -0.30571E-02
        -0.43887E-02
        -0.42909E-02
        -0.33442E-02
        -0.30721E-02
        -0.29629E-02
        -0.11769E-02
        -0.13166E-03
        -0.20783E-04
        -0.16611E-04
        -0.22058E-05
        -0.23102E-03
        -0.92118E-03
        -0.17445E-02
        -0.29166E-02
        -0.35891E-02
        -0.28231E-02
        -0.25471E-02
        -0.24910E-02
        -0.12206E-02
        -0.32241E-03
        -0.28406E-03
  
SCALARS                      strain_zz  double 1
LOOKUP_TABLE default
         0.34548E+01
         0.33982E+01
         0.34342E+01
         0.34984E+01
        -0.21721E-08
        -0.24356E-08
        -0.23322E-08
        -0.21187E-08
         0.33967E+01
         0.34156E+01
        -0.21902E-08
        -0.21196E-08
         0.33163E+01
         0.33132E+01
        -0.26025E-08
        -0.24470E-08
         0.34890E+01
         0.33177E+01
        -0.19229E-08
        -0.21328E-08
         0.32547E+01
         0.32060E+01
         0.32838E+01
        -0.25793E-08
        -0.22526E-08
        -0.23260E-08
         0.32077E+01
         0.31365E+01
        -0.24745E-08
        -0.20868E-08
         0.34859E+01
         0.34114E+01
         0.35582E+01
        -0.21116E-08
        -0.19631E-08
        -0.19086E-08
         0.34429E+01
         0.33478E+01
        -0.22340E-08
        -0.20386E-08
         0.34053E+01
         0.33321E+01
        -0.19308E-08
        -0.17093E-08
         0.34674E+01
         0.34948E+01
        -0.21159E-08
        -0.23642E-08
         0.32731E+01
        -0.20671E-08
         0.34894E+01
        -0.24289E-08
         0.31870E+01
        -0.21829E-08
         0.31646E+01
        -0.20939E-08
         0.31651E+01
         0.32447E+01
        -0.21334E-08
        -0.20777E-08
         0.34844E+01
         0.34559E+01
        -0.21392E-08
        -0.24184E-08
         0.35023E+01
        -0.20642E-08
         0.34683E+01
        -0.22528E-08
         0.33795E+01
         0.33700E+01
        -0.21686E-08
        -0.22723E-08
         0.33496E+01
        -0.22913E-08
         0.31112E+01
        -0.18103E-08
         0.30987E+01
        -0.17572E-08
         0.31052E+01
        -0.18528E-08
         0.31403E+01
         0.31756E+01
        -0.17653E-08
        -0.18404E-08
         0.32476E+01
        -0.17141E-08
         0.34660E+01
        -0.22478E-08
         0.34322E+01
        -0.23006E-08
         0.34048E+01
         0.33888E+01
        -0.22093E-08
        -0.22351E-08
         0.34075E+01
        -0.20301E-08
         0.34209E+01
        -0.20011E-08
         0.34089E+01
        -0.21423E-08
         0.34052E+01
         0.34171E+01
        -0.21008E-08
        -0.21624E-08
         0.33399E+01
         0.33728E+01
        -0.16311E-08
        -0.15341E-08
         0.33346E+01
        -0.15575E-08
         0.33725E+01
        -0.14933E-08
         0.33355E+01
        -0.14725E-08
         0.32544E+01
        -0.13916E-08
         0.31762E+01
        -0.12362E-08
         0.31291E+01
        -0.11132E-08
         0.31242E+01
        -0.11054E-08
         0.31256E+01
        -0.11988E-08
         0.31766E+01
        -0.12599E-08
         0.32731E+01
        -0.11504E-08
         0.33786E+01
        -0.10370E-08
         0.34396E+01
        -0.10358E-08
         0.35000E+01
        -0.11578E-08
         0.35401E+01
        -0.13201E-08
         0.35389E+01
        -0.14182E-08
         0.34404E+01
        -0.15317E-08
         0.33715E+01
        -0.16409E-08
         0.33492E+01
        -0.15032E-08
         0.33863E+01
        -0.13187E-08
         0.34050E+01
        -0.13146E-08
         0.33721E+01
        -0.14384E-08
         0.33718E+01
        -0.15334E-08
         0.33966E+01
        -0.14552E-08
         0.34288E+01
        -0.14068E-08
        -0.45733E+00
        -0.46123E+00
        -0.46072E+00
        -0.45560E+00
        -0.46473E+00
        -0.46026E+00
        -0.46580E+00
        -0.46298E+00
        -0.45643E+00
        -0.46057E+00
        -0.46866E+00
        -0.46939E+00
        -0.46715E+00
        -0.46706E+00
        -0.46844E+00
        -0.45585E+00
        -0.45683E+00
        -0.45405E+00
        -0.46164E+00
        -0.46032E+00
        -0.46214E+00
        -0.46089E+00
        -0.46317E+00
        -0.46265E+00
        -0.46043E+00
        -0.46060E+00
        -0.46432E+00
        -0.46400E+00
        -0.46662E+00
        -0.46259E+00
        -0.45634E+00
        -0.46129E+00
        -0.45638E+00
        -0.45967E+00
        -0.46997E+00
        -0.46691E+00
        -0.46535E+00
        -0.46712E+00
        -0.46738E+00
        -0.47021E+00
        -0.47210E+00
        -0.46723E+00
        -0.46204E+00
        -0.46280E+00
        -0.46549E+00
        -0.46985E+00
        -0.46618E+00
        -0.46187E+00
        -0.46218E+00
        -0.46553E+00
        -0.46870E+00
        -0.46435E+00
        -0.47572E+00
        -0.47236E+00
        -0.47284E+00
        -0.47198E+00
        -0.47205E+00
        -0.47367E+00
        -0.47549E+00
        -0.47627E+00
        -0.47608E+00
        -0.47617E+00
        -0.47696E+00
        -0.47234E+00
        -0.47072E+00
        -0.47007E+00
        -0.46868E+00
        -0.46758E+00
        -0.46755E+00
        -0.46918E+00
        -0.47456E+00
        -0.47325E+00
        -0.47156E+00
        -0.47168E+00
        -0.47198E+00
        -0.47375E+00
        -0.47113E+00
        -0.47010E+00
         0.74333E-04
         0.28040E-04
         0.27612E-04
         0.24024E-04
         0.75271E-04
         0.47646E-04
         0.23086E-05
         0.50774E-04
         0.40751E-04
         0.43131E-04
        -0.13544E-05
         0.23022E-03
         0.13673E-03
         0.40413E-05
         0.24340E-03
         0.36700E-04
         0.17767E-04
         0.15816E-04
         0.15017E-04
         0.61897E-05
         0.14071E-03
         0.13044E-03
         0.11219E-03
         0.52981E-05
         0.97167E-05
         0.92092E-06
        -0.10446E-04
        -0.31416E-04
        -0.12452E-04
         0.15328E-04
         0.27515E-04
         0.63301E-05
         0.22389E-04
         0.26738E-04
         0.11024E-03
         0.40138E-04
         0.69438E-04
         0.15697E-03
         0.90256E-04
         0.81536E-04
         0.17472E-03
         0.14006E-03
         0.14349E-03
         0.80837E-04
         0.64380E-04
         0.12589E-03
         0.56548E-04
         0.43440E-04
         0.34561E-04
         0.49696E-04
         0.11292E-03
         0.64137E-04
         0.19514E-02
         0.20690E-02
         0.22458E-02
         0.22306E-02
         0.25473E-02
         0.29426E-02
         0.27058E-02
         0.21481E-02
         0.20357E-02
         0.23187E-02
         0.22247E-02
         0.21614E-02
         0.14728E-02
         0.13401E-02
         0.15997E-02
         0.18250E-02
         0.19683E-02
         0.23506E-02
         0.21779E-02
         0.23129E-02
         0.18770E-02
         0.16875E-02
         0.19111E-02
         0.18261E-02
         0.19437E-02
         0.19200E-02
         0.73660E-04
         0.27256E-04
         0.26850E-04
         0.23346E-04
         0.74302E-04
         0.46760E-04
         0.14783E-05
         0.50007E-04
         0.40016E-04
         0.42477E-04
        -0.23291E-05
         0.22907E-03
         0.13584E-03
         0.29197E-05
         0.24280E-03
         0.35920E-04
         0.16902E-04
         0.15097E-04
         0.14105E-04
         0.51980E-05
         0.13975E-03
         0.12945E-03
         0.11116E-03
         0.43502E-05
         0.88490E-05
         0.16778E-07
        -0.11361E-04
        -0.32410E-04
        -0.13458E-04
         0.14330E-04
         0.26757E-04
         0.54705E-05
         0.21629E-04
         0.26033E-04
         0.10932E-03
         0.39219E-04
         0.68511E-04
         0.15635E-03
         0.89620E-04
         0.80706E-04
         0.17382E-03
         0.13910E-03
         0.14247E-03
         0.79842E-04
         0.63410E-04
         0.12485E-03
         0.55598E-04
         0.42534E-04
         0.33658E-04
         0.48766E-04
         0.11186E-03
         0.63119E-04
         0.19482E-02
         0.20663E-02
         0.22441E-02
         0.22290E-02
         0.25448E-02
         0.29387E-02
         0.27016E-02
         0.21450E-02
         0.20327E-02
         0.23153E-02
         0.22219E-02
         0.21597E-02
         0.14709E-02
         0.13386E-02
         0.15985E-02
         0.18242E-02
         0.19677E-02
         0.23499E-02
         0.21759E-02
         0.23108E-02
         0.18748E-02
         0.16857E-02
         0.19082E-02
         0.18221E-02
         0.19399E-02
         0.19164E-02
         0.73932E-04
         0.27423E-04
         0.27039E-04
         0.23562E-04
         0.74480E-04
         0.46955E-04
         0.16937E-05
         0.50318E-04
         0.40232E-04
         0.42821E-04
        -0.21317E-05
         0.22927E-03
         0.13614E-03
         0.30039E-05
         0.24359E-03
         0.35805E-04
         0.16901E-04
         0.15269E-04
         0.13893E-04
         0.49949E-05
         0.13961E-03
         0.12937E-03
         0.11047E-03
         0.36659E-05
         0.85822E-05
        -0.61722E-06
        -0.11157E-04
        -0.32554E-04
        -0.13840E-04
         0.13657E-04
         0.26803E-04
         0.52722E-05
         0.21791E-04
         0.26283E-04
         0.10969E-03
         0.39425E-04
         0.68678E-04
         0.15707E-03
         0.90241E-04
         0.81006E-04
         0.17403E-03
         0.13884E-03
         0.14194E-03
         0.79184E-04
         0.63227E-04
         0.12498E-03
         0.55772E-04
         0.42732E-04
         0.33808E-04
         0.48916E-04
         0.11202E-03
         0.63220E-04
         0.19473E-02
         0.20658E-02
         0.22446E-02
         0.22294E-02
         0.25443E-02
         0.29370E-02
         0.26998E-02
         0.21443E-02
         0.20321E-02
         0.23143E-02
         0.22214E-02
         0.21598E-02
         0.14707E-02
         0.13387E-02
         0.15991E-02
         0.18248E-02
         0.19684E-02
         0.23510E-02
         0.21762E-02
         0.23111E-02
         0.18749E-02
         0.16860E-02
         0.19075E-02
         0.18201E-02
         0.19381E-02
         0.19147E-02
         0.73916E-04
         0.27365E-04
         0.26996E-04
         0.23478E-04
         0.74335E-04
         0.46848E-04
         0.16573E-05
         0.50315E-04
         0.40076E-04
         0.42708E-04
        -0.22320E-05
         0.22914E-03
         0.13616E-03
         0.27367E-05
         0.24398E-03
         0.35202E-04
         0.16413E-04
         0.15126E-04
         0.13100E-04
         0.41568E-05
         0.13889E-03
         0.12869E-03
         0.10892E-03
         0.21354E-05
         0.75136E-05
        -0.20605E-05
        -0.11394E-04
        -0.33359E-04
        -0.15089E-04
         0.11914E-04
         0.26461E-04
         0.44983E-05
         0.21646E-04
         0.26180E-04
         0.10965E-03
         0.39314E-04
         0.68576E-04
         0.15738E-03
         0.90433E-04
         0.80775E-04
         0.17364E-03
         0.13775E-03
         0.14045E-03
         0.77639E-04
         0.62431E-04
         0.12457E-03
         0.55474E-04
         0.42560E-04
         0.33591E-04
         0.48657E-04
         0.11176E-03
         0.62978E-04
         0.19457E-02
         0.20646E-02
         0.22443E-02
         0.22292E-02
         0.25433E-02
         0.29349E-02
         0.26972E-02
         0.21428E-02
         0.20307E-02
         0.23125E-02
         0.22201E-02
         0.21591E-02
         0.14696E-02
         0.13382E-02
         0.15990E-02
         0.18245E-02
         0.19681E-02
         0.23514E-02
         0.21756E-02
         0.23105E-02
         0.18743E-02
         0.16855E-02
         0.19059E-02
         0.18176E-02
         0.19357E-02
         0.19125E-02
         0.73809E-04
         0.27239E-04
         0.26904E-04
         0.23390E-04
         0.74179E-04
         0.46712E-04
         0.15789E-05
         0.50235E-04
         0.39874E-04
         0.42572E-04
        -0.23386E-05
         0.22905E-03
         0.13618E-03
         0.24579E-05
         0.24444E-03
         0.34817E-04
         0.16039E-04
         0.14993E-04
         0.12584E-04
         0.35474E-05
         0.13845E-03
         0.12821E-03
         0.10797E-03
         0.11859E-05
         0.67916E-05
        -0.29860E-05
        -0.11601E-04
        -0.33940E-04
        -0.15941E-04
         0.10775E-04
         0.26102E-04
         0.39360E-05
         0.21394E-04
         0.26031E-04
         0.10961E-03
         0.39177E-04
         0.68439E-04
         0.15775E-03
         0.90678E-04
         0.80672E-04
         0.17345E-03
         0.13707E-03
         0.13951E-03
         0.76682E-04
         0.61911E-04
         0.12431E-03
         0.55216E-04
         0.42291E-04
         0.33271E-04
         0.48321E-04
         0.11143E-03
         0.62677E-04
         0.19440E-02
         0.20635E-02
         0.22440E-02
         0.22291E-02
         0.25424E-02
         0.29329E-02
         0.26949E-02
         0.21415E-02
         0.20294E-02
         0.23109E-02
         0.22190E-02
         0.21586E-02
         0.14688E-02
         0.13378E-02
         0.15991E-02
         0.18248E-02
         0.19684E-02
         0.23521E-02
         0.21752E-02
         0.23100E-02
         0.18736E-02
         0.16849E-02
         0.19042E-02
         0.18148E-02
         0.19334E-02
         0.19104E-02
         0.73417E-04
         0.26985E-04
         0.26813E-04
         0.23516E-04
         0.74244E-04
         0.46837E-04
         0.15351E-05
         0.50005E-04
         0.39559E-04
         0.42278E-04
        -0.22527E-05
         0.22930E-03
         0.13639E-03
         0.23458E-05
         0.24527E-03
         0.34960E-04
         0.15991E-04
         0.15169E-04
         0.12712E-04
         0.36144E-05
         0.13864E-03
         0.12838E-03
         0.10802E-03
         0.11650E-05
         0.65831E-05
        -0.31175E-05
        -0.11638E-04
        -0.34013E-04
        -0.15856E-04
         0.10801E-04
         0.25664E-04
         0.36377E-05
         0.20994E-04
         0.26005E-04
         0.10983E-03
         0.39172E-04
         0.68394E-04
         0.15849E-03
         0.91327E-04
         0.81143E-04
         0.17395E-03
         0.13737E-03
         0.13969E-03
         0.76661E-04
         0.61850E-04
         0.12429E-03
         0.54997E-04
         0.41752E-04
         0.32600E-04
         0.47905E-04
         0.11125E-03
         0.62608E-04
         0.19430E-02
         0.20630E-02
         0.22444E-02
         0.22294E-02
         0.25418E-02
         0.29312E-02
         0.26930E-02
         0.21407E-02
         0.20289E-02
         0.23101E-02
         0.22188E-02
         0.21592E-02
         0.14690E-02
         0.13381E-02
         0.16000E-02
         0.18263E-02
         0.19700E-02
         0.23534E-02
         0.21752E-02
         0.23099E-02
         0.18731E-02
         0.16845E-02
         0.19027E-02
         0.18125E-02
         0.19314E-02
         0.19087E-02
         0.72768E-04
         0.26523E-04
         0.26563E-04
         0.23474E-04
         0.74090E-04
         0.46794E-04
         0.12202E-05
         0.49443E-04
         0.38974E-04
         0.41699E-04
        -0.24799E-05
         0.22920E-03
         0.13634E-03
         0.18864E-05
         0.24574E-03
         0.34890E-04
         0.15692E-04
         0.15117E-04
         0.12638E-04
         0.34591E-05
         0.13862E-03
         0.12833E-03
         0.10797E-03
         0.10487E-05
         0.62099E-05
        -0.33534E-05
        -0.12000E-04
        -0.34314E-04
        -0.15916E-04
         0.10725E-04
         0.25028E-04
         0.31480E-05
         0.20400E-04
         0.25800E-04
         0.10977E-03
         0.38970E-04
         0.68160E-04
         0.15886E-03
         0.91646E-04
         0.81331E-04
         0.17418E-03
         0.13752E-03
         0.13975E-03
         0.76553E-04
         0.61574E-04
         0.12394E-03
         0.54480E-04
         0.40949E-04
         0.31682E-04
         0.47259E-04
         0.11085E-03
         0.62361E-04
         0.19414E-02
         0.20619E-02
         0.22442E-02
         0.22293E-02
         0.25408E-02
         0.29291E-02
         0.26906E-02
         0.21394E-02
         0.20277E-02
         0.23085E-02
         0.22180E-02
         0.21594E-02
         0.14689E-02
         0.13380E-02
         0.16004E-02
         0.18275E-02
         0.19713E-02
         0.23542E-02
         0.21745E-02
         0.23091E-02
         0.18722E-02
         0.16836E-02
         0.19008E-02
         0.18098E-02
         0.19291E-02
         0.19065E-02
         0.72632E-04
         0.26351E-04
         0.26472E-04
         0.23407E-04
         0.73932E-04
         0.46661E-04
         0.10765E-05
         0.49299E-04
         0.38860E-04
         0.41711E-04
        -0.26378E-05
         0.22907E-03
         0.13630E-03
         0.15670E-05
         0.24615E-03
         0.34833E-04
         0.15601E-04
         0.15009E-04
         0.12572E-04
         0.33344E-05
         0.13857E-03
         0.12822E-03
         0.10790E-03
         0.95922E-06
         0.61855E-05
        -0.34889E-05
        -0.12145E-04
        -0.34477E-04
        -0.16043E-04
         0.10656E-04
         0.24849E-04
         0.29494E-05
         0.20187E-04
         0.25691E-04
         0.10975E-03
         0.38857E-04
         0.68014E-04
         0.15919E-03
         0.91942E-04
         0.81424E-04
         0.17427E-03
         0.13755E-03
         0.13973E-03
         0.76466E-04
         0.61417E-04
         0.12380E-03
         0.54328E-04
         0.40759E-04
         0.31413E-04
         0.46974E-04
         0.11057E-03
         0.62091E-04
         0.19397E-02
         0.20606E-02
         0.22440E-02
         0.22291E-02
         0.25397E-02
         0.29269E-02
         0.26881E-02
         0.21380E-02
         0.20263E-02
         0.23068E-02
         0.22169E-02
         0.21595E-02
         0.14687E-02
         0.13377E-02
         0.16006E-02
         0.18284E-02
         0.19723E-02
         0.23550E-02
         0.21739E-02
         0.23086E-02
         0.18717E-02
         0.16833E-02
         0.18992E-02
         0.18072E-02
         0.19267E-02
         0.19042E-02
         0.72843E-04
         0.26468E-04
         0.26577E-04
         0.23466E-04
         0.73990E-04
         0.46657E-04
         0.12310E-05
         0.49545E-04
         0.39071E-04
         0.42141E-04
        -0.25130E-05
         0.22921E-03
         0.13653E-03
         0.15961E-05
         0.24691E-03
         0.35052E-04
         0.15785E-04
         0.15081E-04
         0.12751E-04
         0.34561E-05
         0.13876E-03
         0.12836E-03
         0.10807E-03
         0.11146E-05
         0.64936E-05
        -0.33451E-05
        -0.11896E-04
        -0.34301E-04
        -0.15873E-04
         0.10856E-04
         0.25021E-04
         0.30527E-05
         0.20245E-04
         0.25747E-04
         0.11001E-03
         0.38960E-04
         0.68096E-04
         0.15989E-03
         0.92546E-04
         0.81806E-04
         0.17468E-03
         0.13786E-03
         0.13995E-03
         0.76648E-04
         0.61542E-04
         0.12395E-03
         0.54470E-04
         0.40912E-04
         0.31497E-04
         0.46989E-04
         0.11056E-03
         0.61983E-04
         0.19387E-02
         0.20600E-02
         0.22442E-02
         0.22292E-02
         0.25391E-02
         0.29252E-02
         0.26862E-02
         0.21371E-02
         0.20254E-02
         0.23055E-02
         0.22165E-02
         0.21602E-02
         0.14689E-02
         0.13379E-02
         0.16013E-02
         0.18299E-02
         0.19739E-02
         0.23564E-02
         0.21739E-02
         0.23086E-02
         0.18717E-02
         0.16834E-02
         0.18981E-02
         0.18050E-02
         0.19247E-02
         0.19025E-02
         0.72884E-04
         0.26457E-04
         0.26575E-04
         0.23432E-04
         0.73913E-04
         0.46570E-04
         0.12429E-05
         0.49567E-04
         0.39057E-04
         0.42311E-04
        -0.25749E-05
         0.22913E-03
         0.13663E-03
         0.13640E-05
         0.24732E-03
         0.35041E-04
         0.15744E-04
         0.14967E-04
         0.12699E-04
         0.33551E-05
         0.13875E-03
         0.12828E-03
         0.10804E-03
         0.10559E-05
         0.66066E-05
        -0.34026E-05
        -0.11929E-04
        -0.34325E-04
        -0.15879E-04
         0.10861E-04
         0.24995E-04
         0.29872E-05
         0.20114E-04
         0.25671E-04
         0.11006E-03
         0.38903E-04
         0.68049E-04
         0.16026E-03
         0.92927E-04
         0.81990E-04
         0.17487E-03
         0.13798E-03
         0.13994E-03
         0.76658E-04
         0.61516E-04
         0.12394E-03
         0.54414E-04
         0.40833E-04
         0.31357E-04
         0.46820E-04
         0.11039E-03
         0.61768E-04
         0.19372E-02
         0.20590E-02
         0.22439E-02
         0.22291E-02
         0.25382E-02
         0.29231E-02
         0.26837E-02
         0.21357E-02
         0.20243E-02
         0.23038E-02
         0.22155E-02
         0.21603E-02
         0.14686E-02
         0.13377E-02
         0.16017E-02
         0.18311E-02
         0.19752E-02
         0.23574E-02
         0.21735E-02
         0.23081E-02
         0.18711E-02
         0.16830E-02
         0.18966E-02
         0.18026E-02
         0.19225E-02
         0.19003E-02
         0.72862E-04
         0.26369E-04
         0.26531E-04
         0.23424E-04
         0.73786E-04
         0.46503E-04
         0.12047E-05
         0.49559E-04
         0.39053E-04
         0.42482E-04
        -0.26453E-05
         0.22902E-03
         0.13668E-03
         0.11521E-05
         0.24773E-03
         0.35000E-04
         0.15722E-04
         0.14894E-04
         0.12632E-04
         0.32741E-05
         0.13873E-03
         0.12821E-03
         0.10799E-03
         0.96486E-06
         0.67207E-05
        -0.35090E-05
        -0.11948E-04
        -0.34371E-04
        -0.15892E-04
         0.10882E-04
         0.24938E-04
         0.28841E-05
         0.20027E-04
         0.25669E-04
         0.11005E-03
         0.38811E-04
         0.67963E-04
         0.16063E-03
         0.93298E-04
         0.82182E-04
         0.17509E-03
         0.13810E-03
         0.13994E-03
         0.76631E-04
         0.61459E-04
         0.12390E-03
         0.54363E-04
         0.40766E-04
         0.31221E-04
         0.46661E-04
         0.11023E-03
         0.61596E-04
         0.19355E-02
         0.20578E-02
         0.22437E-02
         0.22291E-02
         0.25373E-02
         0.29210E-02
         0.26811E-02
         0.21343E-02
         0.20231E-02
         0.23022E-02
         0.22146E-02
         0.21605E-02
         0.14683E-02
         0.13375E-02
         0.16020E-02
         0.18321E-02
         0.19765E-02
         0.23584E-02
         0.21731E-02
         0.23077E-02
         0.18706E-02
         0.16827E-02
         0.18952E-02
         0.18001E-02
         0.19202E-02
         0.18981E-02
         0.73002E-04
         0.26405E-04
         0.26582E-04
         0.23508E-04
         0.73809E-04
         0.46542E-04
         0.13166E-05
         0.49754E-04
         0.39196E-04
         0.42819E-04
        -0.25251E-05
         0.22912E-03
         0.13682E-03
         0.11685E-05
         0.24847E-03
         0.35152E-04
         0.15826E-04
         0.14966E-04
         0.12748E-04
         0.33684E-05
         0.13889E-03
         0.12833E-03
         0.10811E-03
         0.10603E-05
         0.69559E-05
        -0.34184E-05
        -0.11781E-04
        -0.34260E-04
        -0.15704E-04
         0.11095E-04
         0.25084E-04
         0.29524E-05
         0.20104E-04
         0.25786E-04
         0.11026E-03
         0.38874E-04
         0.67986E-04
         0.16130E-03
         0.93905E-04
         0.82619E-04
         0.17552E-03
         0.13838E-03
         0.14013E-03
         0.76760E-04
         0.61539E-04
         0.12401E-03
         0.54459E-04
         0.40865E-04
         0.31257E-04
         0.46660E-04
         0.11021E-03
         0.61545E-04
         0.19344E-02
         0.20572E-02
         0.22439E-02
         0.22292E-02
         0.25365E-02
         0.29190E-02
         0.26791E-02
         0.21334E-02
         0.20223E-02
         0.23011E-02
         0.22142E-02
         0.21609E-02
         0.14684E-02
         0.13377E-02
         0.16027E-02
         0.18335E-02
         0.19780E-02
         0.23596E-02
         0.21729E-02
         0.23075E-02
         0.18704E-02
         0.16827E-02
         0.18940E-02
         0.17979E-02
         0.19183E-02
         0.18964E-02
         0.73032E-04
         0.26335E-04
         0.26541E-04
         0.23465E-04
         0.73679E-04
         0.46433E-04
         0.12592E-05
         0.49755E-04
         0.39209E-04
         0.42968E-04
        -0.26296E-05
         0.22898E-03
         0.13680E-03
         0.91299E-06
         0.24892E-03
         0.35131E-04
         0.15784E-04
         0.14845E-04
         0.12660E-04
         0.32524E-05
         0.13881E-03
         0.12820E-03
         0.10800E-03
         0.95539E-06
         0.70119E-05
        -0.35120E-05
        -0.11901E-04
        -0.34414E-04
        -0.15789E-04
         0.11080E-04
         0.25034E-04
         0.28546E-05
         0.19953E-04
         0.25718E-04
         0.11025E-03
         0.38770E-04
         0.67855E-04
         0.16165E-03
         0.94210E-04
         0.82736E-04
         0.17562E-03
         0.13839E-03
         0.14008E-03
         0.76662E-04
         0.61426E-04
         0.12393E-03
         0.54377E-04
         0.40752E-04
         0.31098E-04
         0.46493E-04
         0.11002E-03
         0.61320E-04
         0.19327E-02
         0.20560E-02
         0.22437E-02
         0.22290E-02
         0.25354E-02
         0.29168E-02
         0.26766E-02
         0.21321E-02
         0.20210E-02
         0.22993E-02
         0.22131E-02
         0.21608E-02
         0.14681E-02
         0.13374E-02
         0.16030E-02
         0.18345E-02
         0.19790E-02
         0.23604E-02
         0.21725E-02
         0.23071E-02
         0.18699E-02
         0.16825E-02
         0.18926E-02
         0.17953E-02
         0.19159E-02
         0.18941E-02
         0.73100E-04
         0.26312E-04
         0.26542E-04
         0.23473E-04
         0.73617E-04
         0.46377E-04
         0.12781E-05
         0.49830E-04
         0.39298E-04
         0.43234E-04
        -0.26370E-05
         0.22897E-03
         0.13690E-03
         0.78002E-06
         0.24946E-03
         0.35178E-04
         0.15839E-04
         0.14807E-04
         0.12669E-04
         0.32270E-05
         0.13883E-03
         0.12818E-03
         0.10800E-03
         0.93524E-06
         0.71718E-05
        -0.35406E-05
        -0.11855E-04
        -0.34439E-04
        -0.15782E-04
         0.11130E-04
         0.25027E-04
         0.28121E-05
         0.19874E-04
         0.25716E-04
         0.11033E-03
         0.38729E-04
         0.67803E-04
         0.16212E-03
         0.94596E-04
         0.82948E-04
         0.17588E-03
         0.13855E-03
         0.14014E-03
         0.76685E-04
         0.61415E-04
         0.12395E-03
         0.54369E-04
         0.40715E-04
         0.31002E-04
         0.46385E-04
         0.10991E-03
         0.61162E-04
         0.19313E-02
         0.20550E-02
         0.22435E-02
         0.22289E-02
         0.25345E-02
         0.29148E-02
         0.26743E-02
         0.21308E-02
         0.20198E-02
         0.22978E-02
         0.22124E-02
         0.21611E-02
         0.14679E-02
         0.13373E-02
         0.16034E-02
         0.18357E-02
         0.19803E-02
         0.23615E-02
         0.21721E-02
         0.23067E-02
         0.18695E-02
         0.16822E-02
         0.18913E-02
         0.17930E-02
         0.19137E-02
         0.18920E-02
         0.73376E-04
         0.26533E-04
         0.26747E-04
         0.23644E-04
         0.73789E-04
         0.46513E-04
         0.15715E-05
         0.50152E-04
         0.39535E-04
         0.43691E-04
        -0.23613E-05
         0.22927E-03
         0.13728E-03
         0.91063E-06
         0.25031E-03
         0.35431E-04
         0.16073E-04
         0.14956E-04
         0.12900E-04
         0.34395E-05
         0.13913E-03
         0.12842E-03
         0.10826E-03
         0.11427E-05
         0.75723E-05
        -0.33366E-05
        -0.11545E-04
        -0.34133E-04
        -0.15449E-04
         0.11464E-04
         0.25276E-04
         0.30158E-05
         0.20011E-04
         0.25867E-04
         0.11069E-03
         0.38935E-04
         0.68006E-04
         0.16286E-03
         0.95326E-04
         0.83482E-04
         0.17640E-03
         0.13897E-03
         0.14043E-03
         0.76983E-04
         0.61680E-04
         0.12424E-03
         0.54621E-04
         0.40945E-04
         0.31132E-04
         0.46456E-04
         0.10999E-03
         0.61178E-04
         0.19304E-02
         0.20546E-02
         0.22439E-02
         0.22292E-02
         0.25341E-02
         0.29133E-02
         0.26724E-02
         0.21299E-02
         0.20191E-02
         0.22967E-02
         0.22120E-02
         0.21617E-02
         0.14681E-02
         0.13376E-02
         0.16043E-02
         0.18373E-02
         0.19822E-02
         0.23631E-02
         0.21723E-02
         0.23068E-02
         0.18695E-02
         0.16824E-02
         0.18903E-02
         0.17910E-02
         0.19119E-02
         0.18904E-02
         0.73367E-04
         0.26469E-04
         0.26709E-04
         0.23585E-04
         0.73640E-04
         0.46403E-04
         0.15245E-05
         0.50129E-04
         0.39519E-04
         0.43811E-04
        -0.24629E-05
         0.22917E-03
         0.13734E-03
         0.65043E-06
         0.25071E-03
         0.35387E-04
         0.16008E-04
         0.14855E-04
         0.12778E-04
         0.33015E-05
         0.13910E-03
         0.12830E-03
         0.10821E-03
         0.10163E-05
         0.76095E-05
        -0.34677E-05
        -0.11650E-04
        -0.34239E-04
        -0.15434E-04
         0.11474E-04
         0.25252E-04
         0.29060E-05
         0.19898E-04
         0.25781E-04
         0.11066E-03
         0.38839E-04
         0.67933E-04
         0.16320E-03
         0.95668E-04
         0.83685E-04
         0.17657E-03
         0.13901E-03
         0.14035E-03
         0.76918E-04
         0.61583E-04
         0.12418E-03
         0.54556E-04
         0.40887E-04
         0.30990E-04
         0.46253E-04
         0.10979E-03
         0.60951E-04
         0.19286E-02
         0.20533E-02
         0.22436E-02
         0.22291E-02
         0.25332E-02
         0.29112E-02
         0.26698E-02
         0.21284E-02
         0.20178E-02
         0.22950E-02
         0.22109E-02
         0.21617E-02
         0.14677E-02
         0.13374E-02
         0.16047E-02
         0.18385E-02
         0.19834E-02
         0.23639E-02
         0.21718E-02
         0.23064E-02
         0.18690E-02
         0.16820E-02
         0.18887E-02
         0.17885E-02
         0.19097E-02
         0.18882E-02
         0.73302E-04
         0.26307E-04
         0.26572E-04
         0.23496E-04
         0.73436E-04
         0.46223E-04
         0.14239E-05
         0.50086E-04
         0.39458E-04
         0.43815E-04
        -0.25882E-05
         0.22900E-03
         0.13732E-03
         0.38701E-06
         0.25109E-03
         0.35318E-04
         0.15882E-04
         0.14740E-04
         0.12682E-04
         0.32264E-05
         0.13904E-03
         0.12816E-03
         0.10813E-03
         0.90810E-06
         0.75415E-05
        -0.35965E-05
        -0.11920E-04
        -0.34409E-04
        -0.15049E-04
         0.11730E-04
         0.25172E-04
         0.27544E-05
         0.19787E-04
         0.25727E-04
         0.11061E-03
         0.38688E-04
         0.67781E-04
         0.16344E-03
         0.96015E-04
         0.84198E-04
         0.17683E-03
         0.13905E-03
         0.14023E-03
         0.76849E-04
         0.61454E-04
         0.12405E-03
         0.54424E-04
         0.40776E-04
         0.30836E-04
         0.46071E-04
         0.10959E-03
         0.60706E-04
         0.19270E-02
         0.20522E-02
         0.22433E-02
         0.22290E-02
         0.25322E-02
         0.29088E-02
         0.26671E-02
         0.21269E-02
         0.20165E-02
         0.22934E-02
         0.22097E-02
         0.21611E-02
         0.14672E-02
         0.13371E-02
         0.16050E-02
         0.18395E-02
         0.19846E-02
         0.23648E-02
         0.21712E-02
         0.23058E-02
         0.18685E-02
         0.16816E-02
         0.18872E-02
         0.17859E-02
         0.19073E-02
         0.18859E-02
         0.73568E-04
         0.26510E-04
         0.26793E-04
         0.23698E-04
         0.73623E-04
         0.46373E-04
         0.16858E-05
         0.50402E-04
         0.39649E-04
         0.44040E-04
        -0.23384E-05
         0.22923E-03
         0.13763E-03
         0.50338E-06
         0.25190E-03
         0.35573E-04
         0.16060E-04
         0.14879E-04
         0.12946E-04
         0.35878E-05
         0.13930E-03
         0.12837E-03
         0.10836E-03
         0.11318E-05
         0.77703E-05
        -0.33738E-05
        -0.11955E-04
        -0.34219E-04
        -0.13935E-04
         0.12613E-04
         0.25392E-04
         0.29616E-05
         0.19920E-04
         0.25924E-04
         0.11098E-03
         0.38919E-04
         0.67972E-04
         0.16401E-03
         0.96783E-04
         0.85354E-04
         0.17756E-03
         0.13945E-03
         0.14042E-03
         0.77112E-04
         0.61714E-04
         0.12438E-03
         0.54686E-04
         0.40987E-04
         0.30984E-04
         0.46203E-04
         0.10973E-03
         0.60751E-04
         0.19261E-02
         0.20517E-02
         0.22438E-02
         0.22294E-02
         0.25316E-02
         0.29071E-02
         0.26652E-02
         0.21261E-02
         0.20159E-02
         0.22926E-02
         0.22088E-02
         0.21608E-02
         0.14672E-02
         0.13374E-02
         0.16057E-02
         0.18410E-02
         0.19862E-02
         0.23663E-02
         0.21715E-02
         0.23059E-02
         0.18685E-02
         0.16819E-02
         0.18863E-02
         0.17840E-02
         0.19056E-02
         0.18843E-02
         0.72929E-04
         0.25763E-04
         0.26088E-04
         0.23033E-04
         0.72714E-04
         0.45528E-04
         0.90176E-06
         0.49646E-04
         0.38949E-04
         0.43270E-04
        -0.32465E-05
         0.22817E-03
         0.13676E-03
        -0.59638E-06
         0.25136E-03
         0.34916E-04
         0.15271E-04
         0.14163E-04
         0.12144E-04
         0.27941E-05
         0.13842E-03
         0.12745E-03
         0.10748E-03
         0.33961E-06
         0.69547E-05
        -0.41272E-05
        -0.13082E-04
        -0.35165E-04
        -0.14318E-04
         0.12119E-04
         0.24716E-04
         0.21756E-05
         0.19158E-04
         0.25166E-04
         0.11010E-03
         0.38024E-04
         0.67036E-04
         0.16333E-03
         0.96287E-04
         0.85030E-04
         0.17689E-03
         0.13860E-03
         0.13949E-03
         0.76276E-04
         0.60802E-04
         0.12336E-03
         0.53794E-04
         0.40165E-04
         0.30108E-04
         0.45223E-04
         0.10862E-03
         0.59718E-04
         0.19229E-02
         0.20491E-02
         0.22419E-02
         0.22276E-02
         0.25289E-02
         0.29034E-02
         0.26611E-02
         0.21231E-02
         0.20131E-02
         0.22894E-02
         0.22058E-02
         0.21589E-02
         0.14655E-02
         0.13359E-02
         0.16047E-02
         0.18406E-02
         0.19859E-02
         0.23656E-02
         0.21693E-02
         0.23039E-02
         0.18665E-02
         0.16801E-02
         0.18833E-02
         0.17800E-02
         0.19018E-02
         0.18807E-02
         0.73414E-04
         0.25815E-04
         0.26244E-04
         0.23327E-04
         0.72949E-04
         0.45760E-04
         0.10552E-05
         0.50236E-04
         0.39549E-04
         0.44285E-04
        -0.29818E-05
         0.22820E-03
         0.13663E-03
        -0.12415E-06
         0.25239E-03
         0.35540E-04
         0.15870E-04
         0.14526E-04
         0.12607E-04
         0.32395E-05
         0.13889E-03
         0.12776E-03
         0.10815E-03
         0.93278E-06
         0.79903E-05
        -0.35768E-05
        -0.12108E-04
        -0.34087E-04
        -0.13381E-04
         0.13006E-04
         0.25203E-04
         0.25126E-05
         0.19335E-04
         0.25068E-04
         0.11037E-03
         0.37947E-04
         0.66757E-04
         0.16446E-03
         0.97487E-04
         0.85898E-04
         0.17754E-03
         0.13930E-03
         0.14014E-03
         0.76926E-04
         0.61152E-04
         0.12357E-03
         0.53960E-04
         0.40536E-04
         0.30328E-04
         0.45146E-04
         0.10859E-03
         0.59601E-04
         0.19221E-02
         0.20490E-02
         0.22421E-02
         0.22272E-02
         0.25273E-02
         0.29009E-02
         0.26596E-02
         0.21228E-02
         0.20128E-02
         0.22882E-02
         0.22052E-02
         0.21598E-02
         0.14662E-02
         0.13362E-02
         0.16058E-02
         0.18428E-02
         0.19882E-02
         0.23673E-02
         0.21693E-02
         0.23035E-02
         0.18666E-02
         0.16805E-02
         0.18828E-02
         0.17787E-02
         0.19005E-02
         0.18796E-02
         0.28610E-02
         0.29332E-02
         0.29113E-02
         0.26559E-02
         0.34104E-02
         0.31607E-02
         0.31481E-02
         0.32373E-02
         0.27792E-02
         0.32409E-02
         0.35018E-02
         0.42786E-02
         0.37696E-02
         0.36187E-02
         0.44210E-02
         0.27138E-02
         0.28974E-02
         0.25322E-02
         0.30165E-02
         0.31454E-02
         0.34796E-02
         0.34948E-02
         0.33145E-02
         0.28751E-02
         0.32148E-02
         0.27497E-02
         0.35715E-02
         0.34401E-02
         0.34638E-02
         0.33301E-02
         0.27319E-02
         0.28503E-02
         0.26694E-02
         0.27915E-02
         0.38227E-02
         0.33654E-02
         0.33991E-02
         0.41214E-02
         0.39067E-02
         0.38355E-02
         0.40375E-02
         0.37876E-02
         0.35984E-02
         0.31897E-02
         0.33087E-02
         0.38586E-02
         0.34342E-02
         0.31883E-02
         0.31029E-02
         0.32381E-02
         0.36464E-02
         0.32793E-02
         0.84256E-02
         0.83966E-02
         0.87168E-02
         0.84815E-02
         0.89613E-02
         0.96364E-02
         0.94310E-02
         0.88262E-02
         0.87765E-02
         0.92421E-02
         0.89568E-02
         0.85321E-02
         0.71374E-02
         0.66848E-02
         0.70404E-02
         0.74105E-02
         0.76241E-02
         0.84972E-02
         0.87290E-02
         0.88769E-02
         0.79027E-02
         0.75116E-02
         0.79230E-02
         0.77567E-02
         0.78275E-02
         0.78105E-02
         0.30139E-01
         0.31483E-01
         0.31044E-01
         0.28421E-01
         0.34770E-01
         0.32699E-01
         0.33950E-01
         0.34260E-01
         0.29467E-01
         0.34239E-01
         0.37163E-01
         0.41771E-01
         0.37877E-01
         0.38225E-01
         0.43233E-01
         0.28902E-01
         0.30964E-01
         0.27164E-01
         0.31944E-01
         0.33538E-01
         0.34805E-01
         0.35521E-01
         0.33429E-01
         0.30763E-01
         0.34591E-01
         0.29722E-01
         0.38091E-01
         0.37437E-01
         0.37604E-01
         0.35772E-01
         0.29196E-01
         0.30633E-01
         0.28637E-01
         0.29897E-01
         0.38005E-01
         0.34899E-01
         0.35038E-01
         0.41800E-01
         0.40670E-01
         0.40175E-01
         0.40983E-01
         0.38944E-01
         0.36899E-01
         0.32629E-01
         0.33908E-01
         0.38010E-01
         0.35168E-01
         0.33126E-01
         0.32480E-01
         0.33641E-01
         0.36488E-01
         0.33746E-01
         0.61876E-01
         0.60531E-01
         0.62021E-01
         0.60187E-01
         0.62269E-01
         0.65784E-01
         0.66490E-01
         0.65588E-01
         0.65849E-01
         0.67653E-01
         0.65723E-01
         0.61986E-01
         0.55022E-01
         0.51978E-01
         0.52482E-01
         0.53423E-01
         0.54100E-01
         0.58858E-01
         0.62444E-01
         0.62863E-01
         0.57926E-01
         0.56006E-01
         0.58032E-01
         0.57507E-01
         0.57046E-01
         0.56833E-01
  
SCALARS                      strain_yz  double 1
LOOKUP_TABLE default
         0.63376E-03
        -0.22781E-03
        -0.56396E-03
        -0.26360E-03
        -0.16802E-09
        -0.46311E-10
        -0.20823E-09
        -0.15883E-09
        -0.22213E-02
         0.14256E-02
        -0.30989E-09
        -0.27282E-09
        -0.21469E-02
        -0.10954E-03
         0.22178E-09
        -0.14219E-10
         0.58805E-03
         0.27467E-02
         0.32629E-11
         0.33385E-10
        -0.15230E-02
        -0.60041E-02
        -0.57833E-02
         0.50838E-09
         0.87797E-09
         0.73386E-09
        -0.59098E-03
        -0.64644E-02
         0.36569E-09
         0.70944E-09
         0.67530E-03
         0.65511E-03
        -0.44265E-03
         0.18958E-09
         0.19353E-09
        -0.40179E-11
         0.21390E-02
         0.23303E-02
         0.34886E-09
         0.27143E-09
         0.22129E-02
         0.15406E-02
         0.26365E-09
         0.24094E-09
         0.18399E-02
         0.60833E-03
        -0.87459E-11
         0.13528E-09
         0.21731E-02
         0.63693E-10
         0.16283E-03
        -0.51587E-11
         0.13900E-03
         0.24637E-09
        -0.93935E-03
         0.14332E-09
        -0.30618E-02
         0.50557E-03
         0.38881E-11
        -0.78915E-11
         0.82087E-03
         0.31256E-02
        -0.52976E-10
        -0.19815E-09
         0.48189E-03
        -0.10693E-09
         0.21805E-02
        -0.13027E-09
        -0.19969E-02
        -0.10709E-02
        -0.16099E-10
         0.21256E-09
        -0.38383E-02
         0.46675E-09
        -0.83728E-02
         0.45193E-09
        -0.85310E-02
         0.34306E-09
        -0.69911E-02
         0.28755E-09
        -0.99646E-02
        -0.74264E-02
         0.18446E-09
        -0.40898E-10
        -0.97206E-03
        -0.45763E-11
         0.28806E-02
        -0.28667E-09
         0.71441E-02
        -0.50186E-09
         0.10351E-01
         0.65563E-02
        -0.74435E-09
        -0.60248E-09
         0.45028E-02
        -0.46768E-09
         0.39682E-02
        -0.47847E-09
         0.39230E-02
        -0.51446E-09
         0.65562E-02
         0.53655E-02
        -0.47842E-09
        -0.22924E-09
        -0.47541E-02
         0.17286E-02
         0.16822E-09
        -0.20905E-09
        -0.11749E-01
         0.55963E-09
        -0.16060E-01
         0.81860E-09
        -0.20560E-01
         0.10110E-08
        -0.26297E-01
         0.10028E-08
        -0.33280E-01
         0.79359E-09
        -0.35392E-01
         0.61414E-09
        -0.33457E-01
         0.57121E-09
        -0.29741E-01
         0.54346E-09
        -0.20787E-01
         0.34731E-09
        -0.12796E-01
         0.11467E-09
        -0.56911E-02
         0.74095E-10
         0.37769E-03
         0.11137E-09
         0.45753E-02
         0.57521E-10
         0.76741E-02
        -0.17395E-09
         0.11894E-01
        -0.49101E-09
         0.15656E-01
        -0.76673E-09
         0.18782E-01
        -0.10052E-08
         0.24615E-01
        -0.10043E-08
         0.24339E-01
        -0.87671E-09
         0.21966E-01
        -0.85444E-09
         0.18655E-01
        -0.85975E-09
         0.12699E-01
        -0.67987E-09
         0.87087E-02
        -0.40203E-09
         0.59922E-02
        -0.31086E-09
        -0.69204E-02
        -0.36089E-02
        -0.31471E-02
        -0.96680E-03
        -0.32509E-02
        -0.34258E-02
        -0.36513E-03
        -0.55812E-02
        -0.47254E-02
        -0.69921E-02
         0.37096E-02
         0.15855E-01
         0.10785E-01
         0.12503E-02
         0.15988E-01
         0.18274E-02
        -0.16223E-02
         0.10385E-02
         0.13768E-02
        -0.10380E-02
         0.95678E-03
         0.78701E-03
        -0.26561E-02
         0.22359E-03
        -0.47722E-02
         0.70572E-03
         0.36811E-04
         0.64318E-03
         0.78443E-03
        -0.37570E-02
         0.17855E-02
        -0.19563E-02
         0.12985E-02
        -0.31838E-03
         0.53620E-03
         0.28895E-02
         0.64610E-02
         0.14015E-01
         0.12811E-01
         0.10881E-01
         0.10283E-01
         0.25314E-02
        -0.20511E-02
        -0.56333E-02
        -0.93545E-02
        -0.15403E-01
        -0.10038E-01
        -0.71411E-02
        -0.76234E-02
        -0.81496E-02
        -0.96162E-02
        -0.43594E-02
         0.84073E-02
        -0.10052E-01
         0.27255E-01
         0.37610E-01
         0.47973E-01
         0.57164E-01
         0.57641E-01
         0.52209E-01
         0.49653E-01
         0.46949E-01
         0.30363E-01
         0.13228E-01
         0.57984E-02
         0.25524E-02
        -0.39008E-02
        -0.15396E-01
        -0.28303E-01
        -0.37053E-01
        -0.45241E-01
        -0.51781E-01
        -0.48617E-01
        -0.45952E-01
        -0.42776E-01
        -0.29832E-01
        -0.17353E-01
        -0.15212E-01
        -0.10460E-01
        -0.65971E-02
        -0.61048E-02
        -0.14480E-02
        -0.79290E-02
        -0.35661E-02
        -0.28278E-02
        -0.98858E-02
        -0.64829E-02
        -0.92980E-02
         0.49158E-02
         0.21274E-01
         0.12604E-01
         0.18113E-02
         0.20960E-01
         0.39667E-02
        -0.12021E-02
         0.11477E-02
         0.51729E-02
         0.10001E-02
         0.44585E-02
         0.31655E-02
        -0.18352E-02
         0.15490E-02
        -0.62612E-02
         0.15487E-02
         0.38862E-03
         0.72244E-03
        -0.11540E-02
        -0.62458E-02
         0.42750E-02
         0.11261E-02
         0.27632E-02
         0.23992E-02
        -0.11440E-02
         0.34872E-02
         0.66580E-02
         0.15930E-01
         0.14048E-01
         0.12380E-01
         0.90949E-02
        -0.22473E-02
        -0.46290E-02
        -0.57822E-02
        -0.74456E-02
        -0.15210E-01
        -0.88503E-02
        -0.58526E-02
        -0.73557E-02
        -0.86836E-02
        -0.89975E-02
        -0.67510E-03
         0.11213E-01
        -0.16039E-01
         0.37325E-01
         0.48236E-01
         0.62252E-01
         0.74696E-01
         0.73169E-01
         0.63904E-01
         0.61243E-01
         0.60590E-01
         0.38049E-01
         0.12541E-01
         0.49976E-02
         0.42824E-02
        -0.19833E-02
        -0.16824E-01
        -0.33703E-01
        -0.46903E-01
        -0.61045E-01
        -0.67689E-01
        -0.59444E-01
        -0.56202E-01
        -0.56031E-01
        -0.39452E-01
        -0.20494E-01
        -0.19405E-01
        -0.10466E-01
        -0.65983E-02
        -0.61079E-02
        -0.14586E-02
        -0.79299E-02
        -0.35689E-02
        -0.28314E-02
        -0.99025E-02
        -0.64946E-02
        -0.93327E-02
         0.49188E-02
         0.21273E-01
         0.12607E-01
         0.18113E-02
         0.20987E-01
         0.39670E-02
        -0.12130E-02
         0.11459E-02
         0.51764E-02
         0.99452E-03
         0.44696E-02
         0.31686E-02
        -0.18356E-02
         0.15483E-02
        -0.62896E-02
         0.15459E-02
         0.39320E-03
         0.72648E-03
        -0.11464E-02
        -0.62590E-02
         0.42758E-02
         0.11237E-02
         0.27693E-02
         0.24031E-02
        -0.11332E-02
         0.34895E-02
         0.66577E-02
         0.15955E-01
         0.14078E-01
         0.12394E-01
         0.91018E-02
        -0.22413E-02
        -0.46338E-02
        -0.57852E-02
        -0.74459E-02
        -0.15210E-01
        -0.88512E-02
        -0.58491E-02
        -0.73458E-02
        -0.86720E-02
        -0.89936E-02
        -0.66487E-03
         0.11203E-01
        -0.16040E-01
         0.37332E-01
         0.48236E-01
         0.62244E-01
         0.74671E-01
         0.73139E-01
         0.63885E-01
         0.61230E-01
         0.60574E-01
         0.38041E-01
         0.12547E-01
         0.49972E-02
         0.42912E-02
        -0.19671E-02
        -0.16833E-01
        -0.33718E-01
        -0.46914E-01
        -0.61043E-01
        -0.67684E-01
        -0.59440E-01
        -0.56199E-01
        -0.56017E-01
        -0.39424E-01
        -0.20472E-01
        -0.19380E-01
        -0.10473E-01
        -0.65996E-02
        -0.61109E-02
        -0.14694E-02
        -0.79308E-02
        -0.35718E-02
        -0.28349E-02
        -0.99192E-02
        -0.65063E-02
        -0.93672E-02
         0.49217E-02
         0.21271E-01
         0.12610E-01
         0.18111E-02
         0.21014E-01
         0.39672E-02
        -0.12241E-02
         0.11442E-02
         0.51800E-02
         0.98885E-03
         0.44807E-02
         0.31715E-02
        -0.18363E-02
         0.15473E-02
        -0.63177E-02
         0.15427E-02
         0.39810E-03
         0.73078E-03
        -0.11381E-02
        -0.62718E-02
         0.42764E-02
         0.11207E-02
         0.27754E-02
         0.24070E-02
        -0.11224E-02
         0.34919E-02
         0.66573E-02
         0.15979E-01
         0.14109E-01
         0.12409E-01
         0.91092E-02
        -0.22346E-02
        -0.46382E-02
        -0.57889E-02
        -0.74468E-02
        -0.15210E-01
        -0.88520E-02
        -0.58454E-02
        -0.73361E-02
        -0.86603E-02
        -0.89899E-02
        -0.65469E-03
         0.11192E-01
        -0.16041E-01
         0.37339E-01
         0.48236E-01
         0.62237E-01
         0.74646E-01
         0.73108E-01
         0.63866E-01
         0.61217E-01
         0.60557E-01
         0.38033E-01
         0.12553E-01
         0.49969E-02
         0.43000E-02
        -0.19509E-02
        -0.16842E-01
        -0.33734E-01
        -0.46925E-01
        -0.61042E-01
        -0.67680E-01
        -0.59436E-01
        -0.56197E-01
        -0.56003E-01
        -0.39396E-01
        -0.20449E-01
        -0.19354E-01
        -0.10479E-01
        -0.66008E-02
        -0.61140E-02
        -0.14802E-02
        -0.79317E-02
        -0.35747E-02
        -0.28387E-02
        -0.99358E-02
        -0.65180E-02
        -0.94013E-02
         0.49246E-02
         0.21269E-01
         0.12614E-01
         0.18112E-02
         0.21041E-01
         0.39675E-02
        -0.12353E-02
         0.11424E-02
         0.51838E-02
         0.98284E-03
         0.44921E-02
         0.31742E-02
        -0.18379E-02
         0.15458E-02
        -0.63448E-02
         0.15384E-02
         0.40315E-03
         0.73646E-03
        -0.11278E-02
        -0.62833E-02
         0.42767E-02
         0.11166E-02
         0.27815E-02
         0.24109E-02
        -0.11117E-02
         0.34941E-02
         0.66568E-02
         0.16004E-01
         0.14140E-01
         0.12424E-01
         0.91177E-02
        -0.22261E-02
        -0.46419E-02
        -0.57946E-02
        -0.74490E-02
        -0.15211E-01
        -0.88535E-02
        -0.58419E-02
        -0.73264E-02
        -0.86486E-02
        -0.89859E-02
        -0.64454E-03
         0.11182E-01
        -0.16042E-01
         0.37345E-01
         0.48237E-01
         0.62229E-01
         0.74621E-01
         0.73077E-01
         0.63846E-01
         0.61204E-01
         0.60540E-01
         0.38026E-01
         0.12560E-01
         0.49970E-02
         0.43087E-02
        -0.19345E-02
        -0.16852E-01
        -0.33753E-01
        -0.46938E-01
        -0.61042E-01
        -0.67676E-01
        -0.59432E-01
        -0.56195E-01
        -0.55988E-01
        -0.39368E-01
        -0.20427E-01
        -0.19329E-01
        -0.10486E-01
        -0.66020E-02
        -0.61171E-02
        -0.14909E-02
        -0.79326E-02
        -0.35776E-02
        -0.28422E-02
        -0.99522E-02
        -0.65297E-02
        -0.94350E-02
         0.49276E-02
         0.21267E-01
         0.12617E-01
         0.18113E-02
         0.21067E-01
         0.39679E-02
        -0.12468E-02
         0.11406E-02
         0.51877E-02
         0.97649E-03
         0.45036E-02
         0.31766E-02
        -0.18403E-02
         0.15436E-02
        -0.63709E-02
         0.15331E-02
         0.40878E-03
         0.74342E-03
        -0.11154E-02
        -0.62936E-02
         0.42768E-02
         0.11114E-02
         0.27876E-02
         0.24148E-02
        -0.11008E-02
         0.34964E-02
         0.66566E-02
         0.16029E-01
         0.14171E-01
         0.12441E-01
         0.91274E-02
        -0.22157E-02
        -0.46447E-02
        -0.58023E-02
        -0.74527E-02
        -0.15213E-01
        -0.88555E-02
        -0.58388E-02
        -0.73168E-02
        -0.86368E-02
        -0.89821E-02
        -0.63432E-03
         0.11171E-01
        -0.16043E-01
         0.37352E-01
         0.48237E-01
         0.62222E-01
         0.74595E-01
         0.73046E-01
         0.63827E-01
         0.61192E-01
         0.60524E-01
         0.38020E-01
         0.12569E-01
         0.49975E-02
         0.43172E-02
        -0.19181E-02
        -0.16863E-01
        -0.33773E-01
        -0.46952E-01
        -0.61041E-01
        -0.67672E-01
        -0.59428E-01
        -0.56193E-01
        -0.55974E-01
        -0.39340E-01
        -0.20404E-01
        -0.19303E-01
        -0.10492E-01
        -0.66028E-02
        -0.61201E-02
        -0.15017E-02
        -0.79336E-02
        -0.35804E-02
        -0.28453E-02
        -0.99679E-02
        -0.65416E-02
        -0.94678E-02
         0.49310E-02
         0.21266E-01
         0.12620E-01
         0.18116E-02
         0.21094E-01
         0.39684E-02
        -0.12584E-02
         0.11389E-02
         0.51917E-02
         0.97002E-03
         0.45152E-02
         0.31788E-02
        -0.18431E-02
         0.15413E-02
        -0.63963E-02
         0.15275E-02
         0.41483E-03
         0.75111E-03
        -0.11021E-02
        -0.63034E-02
         0.42765E-02
         0.11055E-02
         0.27938E-02
         0.24189E-02
        -0.10899E-02
         0.34990E-02
         0.66565E-02
         0.16054E-01
         0.14203E-01
         0.12458E-01
         0.91373E-02
        -0.22047E-02
        -0.46471E-02
        -0.58108E-02
        -0.74573E-02
        -0.15215E-01
        -0.88578E-02
        -0.58362E-02
        -0.73077E-02
        -0.86254E-02
        -0.89783E-02
        -0.62410E-03
         0.11161E-01
        -0.16044E-01
         0.37359E-01
         0.48237E-01
         0.62214E-01
         0.74570E-01
         0.73015E-01
         0.63808E-01
         0.61179E-01
         0.60507E-01
         0.38014E-01
         0.12578E-01
         0.49982E-02
         0.43257E-02
        -0.19017E-02
        -0.16874E-01
        -0.33795E-01
        -0.46967E-01
        -0.61040E-01
        -0.67667E-01
        -0.59424E-01
        -0.56191E-01
        -0.55960E-01
        -0.39312E-01
        -0.20382E-01
        -0.19278E-01
        -0.10498E-01
        -0.66026E-02
        -0.61231E-02
        -0.15129E-02
        -0.79346E-02
        -0.35833E-02
        -0.28477E-02
        -0.99822E-02
        -0.65536E-02
        -0.94991E-02
         0.49350E-02
         0.21265E-01
         0.12624E-01
         0.18130E-02
         0.21121E-01
         0.39691E-02
        -0.12704E-02
         0.11371E-02
         0.51957E-02
         0.96354E-03
         0.45268E-02
         0.31812E-02
        -0.18459E-02
         0.15389E-02
        -0.64212E-02
         0.15218E-02
         0.42196E-03
         0.75930E-03
        -0.10887E-02
        -0.63129E-02
         0.42761E-02
         0.10992E-02
         0.28003E-02
         0.24232E-02
        -0.10790E-02
         0.35016E-02
         0.66567E-02
         0.16079E-01
         0.14235E-01
         0.12475E-01
         0.91476E-02
        -0.21934E-02
        -0.46494E-02
        -0.58192E-02
        -0.74622E-02
        -0.15218E-01
        -0.88614E-02
        -0.58352E-02
        -0.73000E-02
        -0.86144E-02
        -0.89745E-02
        -0.61376E-03
         0.11150E-01
        -0.16045E-01
         0.37366E-01
         0.48238E-01
         0.62207E-01
         0.74545E-01
         0.72984E-01
         0.63789E-01
         0.61166E-01
         0.60490E-01
         0.38008E-01
         0.12588E-01
         0.49989E-02
         0.43342E-02
        -0.18853E-02
        -0.16885E-01
        -0.33816E-01
        -0.46981E-01
        -0.61039E-01
        -0.67663E-01
        -0.59421E-01
        -0.56189E-01
        -0.55945E-01
        -0.39284E-01
        -0.20360E-01
        -0.19252E-01
        -0.10503E-01
        -0.66022E-02
        -0.61260E-02
        -0.15242E-02
        -0.79356E-02
        -0.35862E-02
        -0.28496E-02
        -0.99957E-02
        -0.65658E-02
        -0.95297E-02
         0.49394E-02
         0.21263E-01
         0.12628E-01
         0.18146E-02
         0.21148E-01
         0.39698E-02
        -0.12824E-02
         0.11353E-02
         0.51998E-02
         0.95707E-03
         0.45384E-02
         0.31836E-02
        -0.18487E-02
         0.15367E-02
        -0.64458E-02
         0.15161E-02
         0.42938E-03
         0.76769E-03
        -0.10751E-02
        -0.63224E-02
         0.42757E-02
         0.10927E-02
         0.28068E-02
         0.24276E-02
        -0.10680E-02
         0.35045E-02
         0.66572E-02
         0.16105E-01
         0.14267E-01
         0.12492E-01
         0.91579E-02
        -0.21821E-02
        -0.46517E-02
        -0.58277E-02
        -0.74673E-02
        -0.15222E-01
        -0.88655E-02
        -0.58347E-02
        -0.72930E-02
        -0.86036E-02
        -0.89708E-02
        -0.60343E-03
         0.11140E-01
        -0.16046E-01
         0.37372E-01
         0.48238E-01
         0.62199E-01
         0.74519E-01
         0.72953E-01
         0.63769E-01
         0.61154E-01
         0.60472E-01
         0.38002E-01
         0.12597E-01
         0.49996E-02
         0.43429E-02
        -0.18689E-02
        -0.16896E-01
        -0.33838E-01
        -0.46995E-01
        -0.61037E-01
        -0.67658E-01
        -0.59418E-01
        -0.56188E-01
        -0.55931E-01
        -0.39256E-01
        -0.20337E-01
        -0.19227E-01
        -0.10508E-01
        -0.66018E-02
        -0.61290E-02
        -0.15354E-02
        -0.79366E-02
        -0.35891E-02
        -0.28516E-02
        -0.10009E-01
        -0.65780E-02
        -0.95603E-02
         0.49436E-02
         0.21262E-01
         0.12633E-01
         0.18165E-02
         0.21176E-01
         0.39706E-02
        -0.12946E-02
         0.11335E-02
         0.52037E-02
         0.95054E-03
         0.45500E-02
         0.31859E-02
        -0.18514E-02
         0.15344E-02
        -0.64704E-02
         0.15105E-02
         0.43698E-03
         0.77599E-03
        -0.10616E-02
        -0.63318E-02
         0.42752E-02
         0.10862E-02
         0.28133E-02
         0.24320E-02
        -0.10569E-02
         0.35072E-02
         0.66576E-02
         0.16131E-01
         0.14300E-01
         0.12509E-01
         0.91682E-02
        -0.21709E-02
        -0.46539E-02
        -0.58362E-02
        -0.74725E-02
        -0.15225E-01
        -0.88693E-02
        -0.58344E-02
        -0.72861E-02
        -0.85929E-02
        -0.89673E-02
        -0.59304E-03
         0.11129E-01
        -0.16047E-01
         0.37379E-01
         0.48239E-01
         0.62192E-01
         0.74494E-01
         0.72922E-01
         0.63750E-01
         0.61141E-01
         0.60455E-01
         0.37995E-01
         0.12606E-01
         0.50004E-02
         0.43517E-02
        -0.18525E-02
        -0.16906E-01
        -0.33859E-01
        -0.47009E-01
        -0.61035E-01
        -0.67654E-01
        -0.59415E-01
        -0.56187E-01
        -0.55916E-01
        -0.39227E-01
        -0.20315E-01
        -0.19201E-01
        -0.10514E-01
        -0.66012E-02
        -0.61318E-02
        -0.15467E-02
        -0.79376E-02
        -0.35919E-02
        -0.28535E-02
        -0.10023E-01
        -0.65902E-02
        -0.95907E-02
         0.49481E-02
         0.21261E-01
         0.12637E-01
         0.18181E-02
         0.21203E-01
         0.39713E-02
        -0.13068E-02
         0.11317E-02
         0.52077E-02
         0.94398E-03
         0.45616E-02
         0.31883E-02
        -0.18541E-02
         0.15322E-02
        -0.64949E-02
         0.15048E-02
         0.44437E-03
         0.78420E-03
        -0.10482E-02
        -0.63413E-02
         0.42747E-02
         0.10797E-02
         0.28197E-02
         0.24365E-02
        -0.10458E-02
         0.35101E-02
         0.66581E-02
         0.16157E-01
         0.14332E-01
         0.12526E-01
         0.91785E-02
        -0.21597E-02
        -0.46562E-02
        -0.58447E-02
        -0.74776E-02
        -0.15229E-01
        -0.88735E-02
        -0.58342E-02
        -0.72791E-02
        -0.85820E-02
        -0.89635E-02
        -0.58270E-03
         0.11119E-01
        -0.16047E-01
         0.37385E-01
         0.48239E-01
         0.62184E-01
         0.74468E-01
         0.72890E-01
         0.63730E-01
         0.61128E-01
         0.60438E-01
         0.37989E-01
         0.12615E-01
         0.50013E-02
         0.43605E-02
        -0.18361E-02
        -0.16918E-01
        -0.33881E-01
        -0.47024E-01
        -0.61033E-01
        -0.67650E-01
        -0.59412E-01
        -0.56186E-01
        -0.55901E-01
        -0.39199E-01
        -0.20293E-01
        -0.19176E-01
        -0.10519E-01
        -0.66007E-02
        -0.61348E-02
        -0.15579E-02
        -0.79386E-02
        -0.35947E-02
        -0.28556E-02
        -0.10036E-01
        -0.66024E-02
        -0.96212E-02
         0.49525E-02
         0.21260E-01
         0.12641E-01
         0.18198E-02
         0.21230E-01
         0.39721E-02
        -0.13190E-02
         0.11299E-02
         0.52117E-02
         0.93737E-03
         0.45731E-02
         0.31905E-02
        -0.18568E-02
         0.15300E-02
        -0.65194E-02
         0.14992E-02
         0.45189E-03
         0.79230E-03
        -0.10347E-02
        -0.63507E-02
         0.42743E-02
         0.10732E-02
         0.28262E-02
         0.24409E-02
        -0.10347E-02
         0.35129E-02
         0.66586E-02
         0.16182E-01
         0.14365E-01
         0.12543E-01
         0.91887E-02
        -0.21485E-02
        -0.46585E-02
        -0.58530E-02
        -0.74827E-02
        -0.15232E-01
        -0.88776E-02
        -0.58338E-02
        -0.72722E-02
        -0.85712E-02
        -0.89601E-02
        -0.57233E-03
         0.11108E-01
        -0.16048E-01
         0.37391E-01
         0.48239E-01
         0.62177E-01
         0.74443E-01
         0.72859E-01
         0.63711E-01
         0.61116E-01
         0.60420E-01
         0.37983E-01
         0.12624E-01
         0.50020E-02
         0.43691E-02
        -0.18197E-02
        -0.16929E-01
        -0.33902E-01
        -0.47038E-01
        -0.61032E-01
        -0.67645E-01
        -0.59409E-01
        -0.56184E-01
        -0.55886E-01
        -0.39171E-01
        -0.20271E-01
        -0.19150E-01
        -0.10524E-01
        -0.66002E-02
        -0.61377E-02
        -0.15692E-02
        -0.79396E-02
        -0.35976E-02
        -0.28575E-02
        -0.10050E-01
        -0.66147E-02
        -0.96515E-02
         0.49569E-02
         0.21259E-01
         0.12645E-01
         0.18216E-02
         0.21257E-01
         0.39729E-02
        -0.13313E-02
         0.11280E-02
         0.52156E-02
         0.93082E-03
         0.45848E-02
         0.31928E-02
        -0.18596E-02
         0.15278E-02
        -0.65439E-02
         0.14936E-02
         0.45925E-03
         0.80035E-03
        -0.10213E-02
        -0.63601E-02
         0.42737E-02
         0.10667E-02
         0.28326E-02
         0.24453E-02
        -0.10235E-02
         0.35157E-02
         0.66590E-02
         0.16208E-01
         0.14397E-01
         0.12560E-01
         0.91989E-02
        -0.21374E-02
        -0.46607E-02
        -0.58615E-02
        -0.74878E-02
        -0.15236E-01
        -0.88815E-02
        -0.58337E-02
        -0.72653E-02
        -0.85605E-02
        -0.89564E-02
        -0.56197E-03
         0.11098E-01
        -0.16049E-01
         0.37398E-01
         0.48240E-01
         0.62169E-01
         0.74417E-01
         0.72827E-01
         0.63691E-01
         0.61103E-01
         0.60403E-01
         0.37977E-01
         0.12633E-01
         0.50028E-02
         0.43777E-02
        -0.18032E-02
        -0.16939E-01
        -0.33924E-01
        -0.47052E-01
        -0.61030E-01
        -0.67641E-01
        -0.59407E-01
        -0.56183E-01
        -0.55871E-01
        -0.39143E-01
        -0.20249E-01
        -0.19125E-01
        -0.10530E-01
        -0.65997E-02
        -0.61406E-02
        -0.15806E-02
        -0.79406E-02
        -0.36004E-02
        -0.28595E-02
        -0.10063E-01
        -0.66269E-02
        -0.96818E-02
         0.49613E-02
         0.21258E-01
         0.12650E-01
         0.18231E-02
         0.21284E-01
         0.39737E-02
        -0.13436E-02
         0.11262E-02
         0.52196E-02
         0.92430E-03
         0.45964E-02
         0.31950E-02
        -0.18623E-02
         0.15256E-02
        -0.65682E-02
         0.14880E-02
         0.46682E-03
         0.80832E-03
        -0.10078E-02
        -0.63694E-02
         0.42732E-02
         0.10602E-02
         0.28390E-02
         0.24498E-02
        -0.10123E-02
         0.35186E-02
         0.66595E-02
         0.16234E-01
         0.14430E-01
         0.12577E-01
         0.92093E-02
        -0.21262E-02
        -0.46630E-02
        -0.58700E-02
        -0.74930E-02
        -0.15239E-01
        -0.88857E-02
        -0.58333E-02
        -0.72584E-02
        -0.85498E-02
        -0.89526E-02
        -0.55164E-03
         0.11087E-01
        -0.16050E-01
         0.37404E-01
         0.48240E-01
         0.62162E-01
         0.74392E-01
         0.72796E-01
         0.63672E-01
         0.61091E-01
         0.60385E-01
         0.37970E-01
         0.12642E-01
         0.50035E-02
         0.43864E-02
        -0.17868E-02
        -0.16950E-01
        -0.33945E-01
        -0.47066E-01
        -0.61029E-01
        -0.67636E-01
        -0.59404E-01
        -0.56182E-01
        -0.55856E-01
        -0.39115E-01
        -0.20227E-01
        -0.19099E-01
        -0.10535E-01
        -0.65992E-02
        -0.61436E-02
        -0.15919E-02
        -0.79417E-02
        -0.36033E-02
        -0.28617E-02
        -0.10076E-01
        -0.66392E-02
        -0.97121E-02
         0.49658E-02
         0.21257E-01
         0.12654E-01
         0.18249E-02
         0.21312E-01
         0.39744E-02
        -0.13559E-02
         0.11243E-02
         0.52235E-02
         0.91778E-03
         0.46079E-02
         0.31973E-02
        -0.18650E-02
         0.15235E-02
        -0.65927E-02
         0.14823E-02
         0.47418E-03
         0.81618E-03
        -0.99448E-03
        -0.63788E-02
         0.42727E-02
         0.10537E-02
         0.28455E-02
         0.24542E-02
        -0.10011E-02
         0.35214E-02
         0.66598E-02
         0.16260E-01
         0.14462E-01
         0.12593E-01
         0.92195E-02
        -0.21150E-02
        -0.46652E-02
        -0.58784E-02
        -0.74982E-02
        -0.15242E-01
        -0.88899E-02
        -0.58330E-02
        -0.72514E-02
        -0.85390E-02
        -0.89491E-02
        -0.54138E-03
         0.11076E-01
        -0.16050E-01
         0.37410E-01
         0.48240E-01
         0.62154E-01
         0.74366E-01
         0.72764E-01
         0.63652E-01
         0.61078E-01
         0.60367E-01
         0.37964E-01
         0.12652E-01
         0.50043E-02
         0.43952E-02
        -0.17704E-02
        -0.16961E-01
        -0.33967E-01
        -0.47080E-01
        -0.61027E-01
        -0.67632E-01
        -0.59401E-01
        -0.56181E-01
        -0.55841E-01
        -0.39087E-01
        -0.20205E-01
        -0.19074E-01
        -0.10540E-01
        -0.65988E-02
        -0.61465E-02
        -0.16032E-02
        -0.79427E-02
        -0.36061E-02
        -0.28636E-02
        -0.10090E-01
        -0.66515E-02
        -0.97423E-02
         0.49702E-02
         0.21256E-01
         0.12658E-01
         0.18264E-02
         0.21339E-01
         0.39752E-02
        -0.13682E-02
         0.11225E-02
         0.52275E-02
         0.91120E-03
         0.46196E-02
         0.31995E-02
        -0.18677E-02
         0.15213E-02
        -0.66171E-02
         0.14767E-02
         0.48168E-03
         0.82390E-03
        -0.98118E-03
        -0.63881E-02
         0.42722E-02
         0.10471E-02
         0.28519E-02
         0.24587E-02
        -0.98989E-03
         0.35243E-02
         0.66602E-02
         0.16286E-01
         0.14495E-01
         0.12610E-01
         0.92298E-02
        -0.21039E-02
        -0.46675E-02
        -0.58868E-02
        -0.75034E-02
        -0.15246E-01
        -0.88938E-02
        -0.58329E-02
        -0.72444E-02
        -0.85281E-02
        -0.89456E-02
        -0.53104E-03
         0.11066E-01
        -0.16051E-01
         0.37417E-01
         0.48241E-01
         0.62147E-01
         0.74340E-01
         0.72732E-01
         0.63632E-01
         0.61066E-01
         0.60349E-01
         0.37958E-01
         0.12661E-01
         0.50050E-02
         0.44039E-02
        -0.17540E-02
        -0.16972E-01
        -0.33988E-01
        -0.47094E-01
        -0.61025E-01
        -0.67628E-01
        -0.59399E-01
        -0.56179E-01
        -0.55826E-01
        -0.39059E-01
        -0.20183E-01
        -0.19048E-01
        -0.10545E-01
        -0.65981E-02
        -0.61493E-02
        -0.16145E-02
        -0.79436E-02
        -0.36089E-02
        -0.28656E-02
        -0.10103E-01
        -0.66638E-02
        -0.97725E-02
         0.49746E-02
         0.21255E-01
         0.12662E-01
         0.18281E-02
         0.21366E-01
         0.39759E-02
        -0.13807E-02
         0.11207E-02
         0.52315E-02
         0.90465E-03
         0.46312E-02
         0.32016E-02
        -0.18704E-02
         0.15192E-02
        -0.66415E-02
         0.14711E-02
         0.48898E-03
         0.83153E-03
        -0.96792E-03
        -0.63975E-02
         0.42717E-02
         0.10406E-02
         0.28583E-02
         0.24632E-02
        -0.97857E-03
         0.35270E-02
         0.66607E-02
         0.16313E-01
         0.14527E-01
         0.12626E-01
         0.92401E-02
        -0.20927E-02
        -0.46698E-02
        -0.58951E-02
        -0.75086E-02
        -0.15249E-01
        -0.88979E-02
        -0.58325E-02
        -0.72376E-02
        -0.85174E-02
        -0.89419E-02
        -0.52070E-03
         0.11055E-01
        -0.16052E-01
         0.37423E-01
         0.48241E-01
         0.62139E-01
         0.74315E-01
         0.72700E-01
         0.63613E-01
         0.61053E-01
         0.60331E-01
         0.37952E-01
         0.12670E-01
         0.50057E-02
         0.44124E-02
        -0.17376E-02
        -0.16983E-01
        -0.34010E-01
        -0.47108E-01
        -0.61024E-01
        -0.67623E-01
        -0.59396E-01
        -0.56178E-01
        -0.55811E-01
        -0.39031E-01
        -0.20161E-01
        -0.19023E-01
        -0.10550E-01
        -0.65976E-02
        -0.61523E-02
        -0.16258E-02
        -0.79447E-02
        -0.36117E-02
        -0.28677E-02
        -0.10116E-01
        -0.66762E-02
        -0.98026E-02
         0.49791E-02
         0.21254E-01
         0.12667E-01
         0.18295E-02
         0.21393E-01
         0.39767E-02
        -0.13931E-02
         0.11188E-02
         0.52354E-02
         0.89818E-03
         0.46427E-02
         0.32037E-02
        -0.18731E-02
         0.15171E-02
        -0.66659E-02
         0.14654E-02
         0.49648E-03
         0.83907E-03
        -0.95464E-03
        -0.64066E-02
         0.42711E-02
         0.10341E-02
         0.28647E-02
         0.24677E-02
        -0.96724E-03
         0.35298E-02
         0.66610E-02
         0.16339E-01
         0.14560E-01
         0.12643E-01
         0.92503E-02
        -0.20817E-02
        -0.46721E-02
        -0.59036E-02
        -0.75138E-02
        -0.15253E-01
        -0.89021E-02
        -0.58324E-02
        -0.72307E-02
        -0.85066E-02
        -0.89383E-02
        -0.51045E-03
         0.11044E-01
        -0.16052E-01
         0.37429E-01
         0.48242E-01
         0.62132E-01
         0.74289E-01
         0.72668E-01
         0.63593E-01
         0.61041E-01
         0.60313E-01
         0.37946E-01
         0.12679E-01
         0.50063E-02
         0.44209E-02
        -0.17213E-02
        -0.16994E-01
        -0.34031E-01
        -0.47122E-01
        -0.61022E-01
        -0.67619E-01
        -0.59393E-01
        -0.56177E-01
        -0.55796E-01
        -0.39002E-01
        -0.20140E-01
        -0.18997E-01
        -0.10556E-01
        -0.65971E-02
        -0.61552E-02
        -0.16372E-02
        -0.79457E-02
        -0.36145E-02
        -0.28697E-02
        -0.10129E-01
        -0.66887E-02
        -0.98327E-02
         0.49835E-02
         0.21253E-01
         0.12671E-01
         0.18311E-02
         0.21420E-01
         0.39775E-02
        -0.14058E-02
         0.11169E-02
         0.52394E-02
         0.89200E-03
         0.46543E-02
         0.32057E-02
        -0.18758E-02
         0.15150E-02
        -0.66903E-02
         0.14598E-02
         0.50390E-03
         0.84657E-03
        -0.94140E-03
        -0.64152E-02
         0.42706E-02
         0.10275E-02
         0.28711E-02
         0.24722E-02
        -0.95591E-03
         0.35328E-02
         0.66615E-02
         0.16366E-01
         0.14592E-01
         0.12659E-01
         0.92603E-02
        -0.20705E-02
        -0.46745E-02
        -0.59120E-02
        -0.75191E-02
        -0.15256E-01
        -0.89061E-02
        -0.58321E-02
        -0.72237E-02
        -0.84959E-02
        -0.89348E-02
        -0.50018E-03
         0.11034E-01
        -0.16053E-01
         0.37435E-01
         0.48242E-01
         0.62124E-01
         0.74263E-01
         0.72637E-01
         0.63574E-01
         0.61028E-01
         0.60294E-01
         0.37941E-01
         0.12688E-01
         0.50065E-02
         0.44295E-02
        -0.17050E-02
        -0.17005E-01
        -0.34053E-01
        -0.47136E-01
        -0.61021E-01
        -0.67614E-01
        -0.59390E-01
        -0.56175E-01
        -0.55781E-01
        -0.38974E-01
        -0.20118E-01
        -0.18972E-01
        -0.10561E-01
        -0.65966E-02
        -0.61581E-02
        -0.16486E-02
        -0.79466E-02
        -0.36173E-02
        -0.28717E-02
        -0.10142E-01
        -0.67013E-02
        -0.98628E-02
         0.49879E-02
         0.21252E-01
         0.12675E-01
         0.18327E-02
         0.21448E-01
         0.39782E-02
        -0.14186E-02
         0.11150E-02
         0.52433E-02
         0.88608E-03
         0.46659E-02
         0.32077E-02
        -0.18785E-02
         0.15129E-02
        -0.67147E-02
         0.14541E-02
         0.51165E-03
         0.85398E-03
        -0.92820E-03
        -0.64233E-02
         0.42700E-02
         0.10210E-02
         0.28774E-02
         0.24766E-02
        -0.94449E-03
         0.35355E-02
         0.66619E-02
         0.16392E-01
         0.14624E-01
         0.12674E-01
         0.92702E-02
        -0.20594E-02
        -0.46771E-02
        -0.59203E-02
        -0.75244E-02
        -0.15260E-01
        -0.89103E-02
        -0.58318E-02
        -0.72169E-02
        -0.84850E-02
        -0.89311E-02
        -0.48984E-03
         0.11023E-01
        -0.16054E-01
         0.37441E-01
         0.48242E-01
         0.62117E-01
         0.74238E-01
         0.72605E-01
         0.63554E-01
         0.61015E-01
         0.60274E-01
         0.37936E-01
         0.12698E-01
         0.50063E-02
         0.44380E-02
        -0.16885E-02
        -0.17015E-01
        -0.34074E-01
        -0.47150E-01
        -0.61019E-01
        -0.67610E-01
        -0.59387E-01
        -0.56174E-01
        -0.55766E-01
        -0.38946E-01
        -0.20097E-01
        -0.18946E-01
        -0.10566E-01
        -0.65961E-02
        -0.61612E-02
        -0.16599E-02
        -0.79478E-02
        -0.36201E-02
        -0.28739E-02
        -0.10155E-01
        -0.67139E-02
        -0.98928E-02
         0.49924E-02
         0.21251E-01
         0.12679E-01
         0.18341E-02
         0.21475E-01
         0.39790E-02
        -0.14315E-02
         0.11131E-02
         0.52474E-02
         0.88032E-03
         0.46775E-02
         0.32096E-02
        -0.18811E-02
         0.15110E-02
        -0.67391E-02
         0.14487E-02
         0.51919E-03
         0.86108E-03
        -0.91516E-03
        -0.64312E-02
         0.42695E-02
         0.10146E-02
         0.28838E-02
         0.24812E-02
        -0.93318E-03
         0.35383E-02
         0.66621E-02
         0.16419E-01
         0.14656E-01
         0.12688E-01
         0.92799E-02
        -0.20484E-02
        -0.46798E-02
        -0.59285E-02
        -0.75294E-02
        -0.15263E-01
        -0.89143E-02
        -0.58316E-02
        -0.72101E-02
        -0.84743E-02
        -0.89277E-02
        -0.47957E-03
         0.11012E-01
        -0.16054E-01
         0.37447E-01
         0.48243E-01
         0.62109E-01
         0.74212E-01
         0.72573E-01
         0.63535E-01
         0.61002E-01
         0.60253E-01
         0.37931E-01
         0.12707E-01
         0.50058E-02
         0.44465E-02
        -0.16721E-02
        -0.17026E-01
        -0.34096E-01
        -0.47164E-01
        -0.61018E-01
        -0.67605E-01
        -0.59385E-01
        -0.56173E-01
        -0.55751E-01
        -0.38918E-01
        -0.20075E-01
        -0.18921E-01
        -0.10609E-01
        -0.66205E-02
        -0.61875E-02
        -0.16768E-02
        -0.79772E-02
        -0.36355E-02
        -0.28868E-02
        -0.10203E-01
        -0.67501E-02
        -0.99557E-02
         0.50140E-02
         0.21320E-01
         0.12726E-01
         0.18419E-02
         0.21574E-01
         0.39946E-02
        -0.14488E-02
         0.11153E-02
         0.52699E-02
         0.87832E-03
         0.47040E-02
         0.32224E-02
        -0.18884E-02
         0.15155E-02
        -0.67865E-02
         0.14502E-02
         0.52793E-03
         0.86956E-03
        -0.90781E-03
        -0.64626E-02
         0.42853E-02
         0.10137E-02
         0.29004E-02
         0.24947E-02
        -0.92613E-03
         0.35518E-02
         0.66839E-02
         0.16500E-01
         0.14737E-01
         0.12747E-01
         0.93203E-02
        -0.20471E-02
        -0.46997E-02
        -0.59538E-02
        -0.75574E-02
        -0.15314E-01
        -0.89461E-02
        -0.58494E-02
        -0.72277E-02
        -0.84931E-02
        -0.89544E-02
        -0.47107E-03
         0.11033E-01
        -0.16105E-01
         0.37563E-01
         0.48385E-01
         0.62288E-01
         0.74415E-01
         0.72770E-01
         0.63718E-01
         0.61183E-01
         0.60426E-01
         0.38046E-01
         0.12752E-01
         0.50189E-02
         0.44672E-02
        -0.16613E-02
        -0.17082E-01
        -0.34208E-01
        -0.47310E-01
        -0.61197E-01
        -0.67802E-01
        -0.59554E-01
        -0.56332E-01
        -0.55897E-01
        -0.39006E-01
        -0.20114E-01
        -0.18951E-01
        -0.15763E-01
        -0.98752E-02
        -0.91784E-02
        -0.25095E-02
        -0.11418E-01
        -0.52567E-02
        -0.42968E-02
        -0.15089E-01
        -0.10014E-01
        -0.14694E-01
         0.73332E-02
         0.29939E-01
         0.18147E-01
         0.26827E-02
         0.30470E-01
         0.59418E-02
        -0.21616E-02
         0.16580E-02
         0.77331E-02
         0.12883E-02
         0.67164E-02
         0.46538E-02
        -0.26980E-02
         0.22405E-02
        -0.10116E-01
         0.21615E-02
         0.78174E-03
         0.12963E-02
        -0.13468E-02
        -0.96143E-02
         0.63746E-02
         0.15025E-02
         0.43293E-02
         0.37180E-02
        -0.12829E-02
         0.51260E-02
         0.96464E-02
         0.23823E-01
         0.21586E-01
         0.18735E-01
         0.13510E-01
        -0.29838E-02
        -0.68647E-02
        -0.85743E-02
        -0.10845E-01
        -0.21341E-01
        -0.12793E-01
        -0.84662E-02
        -0.10514E-01
        -0.12298E-01
        -0.12657E-01
        -0.66806E-03
         0.13704E-01
        -0.19997E-01
         0.46643E-01
         0.60256E-01
         0.77508E-01
         0.92806E-01
         0.91757E-01
         0.81023E-01
         0.77655E-01
         0.76236E-01
         0.48064E-01
         0.16086E-01
         0.63993E-02
         0.57241E-02
        -0.20856E-02
        -0.21340E-01
        -0.42608E-01
        -0.58585E-01
        -0.75707E-01
        -0.83975E-01
        -0.74543E-01
        -0.70830E-01
        -0.70019E-01
        -0.49019E-01
        -0.25195E-01
        -0.23650E-01
  
SCALARS                      strain_xz  double 1
LOOKUP_TABLE default
         0.10458E-03
        -0.79704E-03
        -0.25071E-02
         0.15652E-03
        -0.17391E-09
         0.61664E-10
         0.20619E-09
         0.41180E-10
        -0.74128E-02
        -0.48329E-02
         0.61674E-09
         0.55552E-09
         0.34824E-03
        -0.14258E-02
        -0.76065E-10
        -0.35633E-09
        -0.23227E-03
        -0.13614E-02
        -0.25739E-09
        -0.38334E-09
        -0.21320E-02
        -0.37623E-02
        -0.33013E-02
        -0.25597E-09
        -0.11804E-09
         0.20622E-09
        -0.39686E-02
        -0.34269E-02
        -0.47915E-09
        -0.38009E-09
         0.54610E-03
        -0.13501E-02
         0.10278E-03
         0.48783E-10
        -0.18852E-09
        -0.11614E-09
         0.17268E-02
         0.94096E-03
        -0.27989E-09
        -0.29801E-09
         0.36223E-02
         0.56134E-02
        -0.63135E-09
        -0.46559E-09
         0.35532E-02
         0.18147E-02
        -0.69333E-09
        -0.33372E-09
        -0.12973E-02
        -0.20948E-09
         0.23490E-02
        -0.58310E-10
        -0.14692E-02
        -0.40932E-09
         0.11192E-02
        -0.10827E-09
         0.48938E-02
         0.12484E-02
        -0.92753E-10
        -0.22420E-09
        -0.58449E-04
         0.16827E-02
         0.18551E-09
         0.12722E-09
        -0.40713E-03
        -0.18660E-10
        -0.14364E-02
         0.12274E-09
        -0.10656E-01
        -0.73933E-02
         0.76715E-09
         0.55639E-09
        -0.48742E-02
         0.40513E-09
         0.14455E-02
        -0.28025E-09
         0.45667E-02
        -0.55003E-10
         0.96314E-02
        -0.85333E-10
         0.12385E-01
         0.85397E-02
        -0.31273E-09
        -0.35766E-09
         0.70597E-02
        -0.38464E-09
         0.43167E-02
        -0.55379E-09
         0.28209E-02
        -0.35322E-09
         0.46042E-02
         0.34601E-02
        -0.15075E-09
         0.20673E-09
        -0.77238E-03
         0.24249E-09
        -0.20824E-02
         0.10182E-09
        -0.50796E-02
         0.25144E-09
        -0.75412E-02
        -0.50968E-02
         0.57975E-09
         0.60497E-09
        -0.19964E-01
        -0.21234E-01
         0.10712E-08
         0.10557E-08
        -0.19877E-01
         0.91516E-09
        -0.17298E-01
         0.68391E-09
        -0.12976E-01
         0.37584E-09
        -0.10283E-01
         0.40190E-10
        -0.41013E-02
        -0.14314E-09
         0.54974E-02
        -0.11452E-09
         0.13171E-01
        -0.11256E-09
         0.19549E-01
        -0.25384E-09
         0.25202E-01
        -0.48293E-09
         0.27916E-01
        -0.57629E-09
         0.26308E-01
        -0.54374E-09
         0.23118E-01
        -0.59128E-09
         0.19349E-01
        -0.76739E-09
         0.16270E-01
        -0.90491E-09
         0.14372E-01
        -0.84120E-09
         0.13370E-01
        -0.68365E-09
         0.86034E-02
        -0.32274E-09
         0.75660E-03
         0.61628E-10
        -0.47117E-02
         0.14962E-09
        -0.72020E-02
         0.24467E-09
        -0.11311E-01
         0.47883E-09
        -0.14932E-01
         0.78572E-09
        -0.19002E-01
         0.94400E-09
        -0.20888E-01
         0.96554E-09
        -0.21431E-02
         0.11250E-02
         0.13184E-02
        -0.26259E-02
         0.10365E-01
         0.79425E-02
         0.12129E-02
        -0.17714E-02
        -0.90130E-03
        -0.16180E-02
         0.90299E-03
         0.39174E-02
         0.81443E-02
        -0.26040E-02
        -0.31429E-02
         0.34965E-02
         0.29402E-02
        -0.13552E-02
        -0.21427E-02
        -0.22985E-02
        -0.12616E-01
        -0.13399E-01
        -0.12158E-01
        -0.37736E-02
         0.15060E-02
        -0.11226E-02
        -0.36347E-02
        -0.40728E-03
        -0.41901E-02
        -0.28572E-02
         0.31249E-02
         0.61971E-03
        -0.14726E-02
        -0.47950E-03
         0.15498E-01
         0.98108E-02
         0.88505E-02
        -0.62193E-02
        -0.35441E-02
        -0.76250E-02
        -0.15754E-01
        -0.14537E-01
        -0.14201E-01
        -0.10454E-01
        -0.75406E-02
        -0.59530E-02
         0.11094E-02
         0.45925E-02
         0.13289E-02
         0.42422E-02
         0.11408E-01
         0.95223E-02
         0.45932E-01
         0.47929E-01
         0.42893E-01
         0.36441E-01
         0.27153E-01
         0.13884E-01
        -0.82640E-03
        -0.99272E-02
        -0.15117E-01
        -0.25966E-01
        -0.42375E-01
        -0.51124E-01
        -0.46639E-01
        -0.44655E-01
        -0.47063E-01
        -0.46968E-01
        -0.42679E-01
        -0.37501E-01
        -0.19183E-01
         0.30263E-02
         0.11590E-01
         0.12917E-01
         0.21887E-01
         0.35060E-01
         0.45271E-01
         0.47499E-01
        -0.35517E-02
         0.72909E-03
        -0.13880E-02
        -0.40415E-02
         0.82901E-02
         0.70845E-02
         0.20641E-02
        -0.45059E-02
        -0.20704E-02
        -0.42837E-02
        -0.86539E-03
         0.31573E-02
         0.10387E-01
        -0.79654E-02
        -0.82503E-02
         0.69778E-02
         0.38846E-02
        -0.23267E-02
        -0.15658E-02
        -0.27498E-02
        -0.16315E-01
        -0.15549E-01
        -0.15344E-01
        -0.37113E-02
         0.21079E-02
         0.14193E-02
        -0.76972E-02
         0.10220E-02
        -0.25760E-02
        -0.35128E-02
         0.53610E-02
         0.34690E-02
        -0.34770E-02
        -0.30009E-02
         0.14785E-01
         0.81600E-02
         0.93601E-02
        -0.91494E-02
        -0.15318E-02
        -0.44413E-02
        -0.16316E-01
        -0.16784E-01
        -0.16406E-01
        -0.11862E-01
        -0.91351E-02
        -0.53450E-02
         0.57767E-02
         0.68197E-02
        -0.90149E-03
         0.10854E-02
         0.11126E-01
         0.98006E-02
         0.61791E-01
         0.62268E-01
         0.55894E-01
         0.46101E-01
         0.34397E-01
         0.15841E-01
        -0.39333E-02
        -0.12745E-01
        -0.16790E-01
        -0.30777E-01
        -0.54667E-01
        -0.64491E-01
        -0.54087E-01
        -0.51458E-01
        -0.56689E-01
        -0.58380E-01
        -0.53283E-01
        -0.50397E-01
        -0.25679E-01
         0.66741E-02
         0.14762E-01
         0.14956E-01
         0.26590E-01
         0.46040E-01
         0.58928E-01
         0.58743E-01
        -0.35584E-02
         0.73180E-03
        -0.13906E-02
        -0.40442E-02
         0.82821E-02
         0.70780E-02
         0.20772E-02
        -0.44945E-02
        -0.20726E-02
        -0.42803E-02
        -0.84787E-03
         0.31649E-02
         0.10393E-01
        -0.79457E-02
        -0.82459E-02
         0.69850E-02
         0.38931E-02
        -0.23202E-02
        -0.15650E-02
        -0.27449E-02
        -0.16314E-01
        -0.15547E-01
        -0.15343E-01
        -0.37115E-02
         0.21127E-02
         0.14217E-02
        -0.76995E-02
         0.10028E-02
        -0.25941E-02
        -0.35151E-02
         0.53688E-02
         0.34685E-02
        -0.34625E-02
        -0.30022E-02
         0.14792E-01
         0.81563E-02
         0.93571E-02
        -0.91641E-02
        -0.15465E-02
        -0.44553E-02
        -0.16327E-01
        -0.16794E-01
        -0.16407E-01
        -0.11861E-01
        -0.91318E-02
        -0.53422E-02
         0.57756E-02
         0.68220E-02
        -0.89490E-03
         0.10817E-02
         0.11118E-01
         0.97861E-02
         0.61769E-01
         0.62252E-01
         0.55889E-01
         0.46102E-01
         0.34387E-01
         0.15836E-01
        -0.39377E-02
        -0.12753E-01
        -0.16776E-01
        -0.30764E-01
        -0.54658E-01
        -0.64492E-01
        -0.54081E-01
        -0.51455E-01
        -0.56696E-01
        -0.58392E-01
        -0.53292E-01
        -0.50407E-01
        -0.25672E-01
         0.66771E-02
         0.14751E-01
         0.14950E-01
         0.26571E-01
         0.46011E-01
         0.58899E-01
         0.58717E-01
        -0.35651E-02
         0.73446E-03
        -0.13933E-02
        -0.40469E-02
         0.82739E-02
         0.70716E-02
         0.20904E-02
        -0.44831E-02
        -0.20748E-02
        -0.42767E-02
        -0.83039E-03
         0.31726E-02
         0.10399E-01
        -0.79261E-02
        -0.82415E-02
         0.69925E-02
         0.39018E-02
        -0.23137E-02
        -0.15642E-02
        -0.27403E-02
        -0.16313E-01
        -0.15546E-01
        -0.15342E-01
        -0.37117E-02
         0.21178E-02
         0.14243E-02
        -0.77017E-02
         0.98383E-03
        -0.26123E-02
        -0.35173E-02
         0.53768E-02
         0.34683E-02
        -0.34480E-02
        -0.30036E-02
         0.14800E-01
         0.81527E-02
         0.93540E-02
        -0.91787E-02
        -0.15612E-02
        -0.44694E-02
        -0.16337E-01
        -0.16804E-01
        -0.16408E-01
        -0.11859E-01
        -0.91286E-02
        -0.53396E-02
         0.57745E-02
         0.68243E-02
        -0.88816E-03
         0.10779E-02
         0.11112E-01
         0.97718E-02
         0.61748E-01
         0.62236E-01
         0.55884E-01
         0.46102E-01
         0.34376E-01
         0.15832E-01
        -0.39422E-02
        -0.12761E-01
        -0.16762E-01
        -0.30752E-01
        -0.54650E-01
        -0.64493E-01
        -0.54077E-01
        -0.51452E-01
        -0.56703E-01
        -0.58405E-01
        -0.53302E-01
        -0.50417E-01
        -0.25664E-01
         0.66802E-02
         0.14741E-01
         0.14945E-01
         0.26551E-01
         0.45983E-01
         0.58870E-01
         0.58691E-01
        -0.35719E-02
         0.73722E-03
        -0.13958E-02
        -0.40496E-02
         0.82658E-02
         0.70650E-02
         0.21034E-02
        -0.44716E-02
        -0.20766E-02
        -0.42725E-02
        -0.81296E-03
         0.31804E-02
         0.10406E-01
        -0.79066E-02
        -0.82371E-02
         0.70005E-02
         0.39109E-02
        -0.23072E-02
        -0.15636E-02
        -0.27354E-02
        -0.16312E-01
        -0.15545E-01
        -0.15342E-01
        -0.37119E-02
         0.21238E-02
         0.14274E-02
        -0.77036E-02
         0.96544E-03
        -0.26305E-02
        -0.35194E-02
         0.53855E-02
         0.34686E-02
        -0.34333E-02
        -0.30049E-02
         0.14807E-01
         0.81491E-02
         0.93510E-02
        -0.91933E-02
        -0.15758E-02
        -0.44834E-02
        -0.16348E-01
        -0.16814E-01
        -0.16410E-01
        -0.11858E-01
        -0.91251E-02
        -0.53368E-02
         0.57737E-02
         0.68266E-02
        -0.88140E-03
         0.10741E-02
         0.11104E-01
         0.97572E-02
         0.61727E-01
         0.62220E-01
         0.55880E-01
         0.46102E-01
         0.34366E-01
         0.15827E-01
        -0.39468E-02
        -0.12769E-01
        -0.16748E-01
        -0.30740E-01
        -0.54642E-01
        -0.64495E-01
        -0.54073E-01
        -0.51450E-01
        -0.56712E-01
        -0.58420E-01
        -0.53312E-01
        -0.50427E-01
        -0.25657E-01
         0.66832E-02
         0.14730E-01
         0.14939E-01
         0.26531E-01
         0.45955E-01
         0.58841E-01
         0.58664E-01
        -0.35786E-02
         0.73997E-03
        -0.13984E-02
        -0.40522E-02
         0.82578E-02
         0.70585E-02
         0.21166E-02
        -0.44600E-02
        -0.20782E-02
        -0.42676E-02
        -0.79548E-03
         0.31881E-02
         0.10412E-01
        -0.78869E-02
        -0.82327E-02
         0.70092E-02
         0.39203E-02
        -0.23006E-02
        -0.15627E-02
        -0.27304E-02
        -0.16311E-01
        -0.15544E-01
        -0.15343E-01
        -0.37121E-02
         0.21308E-02
         0.14310E-02
        -0.77051E-02
         0.94764E-03
        -0.26486E-02
        -0.35213E-02
         0.53947E-02
         0.34695E-02
        -0.34187E-02
        -0.30062E-02
         0.14814E-01
         0.81454E-02
         0.93481E-02
        -0.92078E-02
        -0.15904E-02
        -0.44976E-02
        -0.16359E-01
        -0.16826E-01
        -0.16413E-01
        -0.11857E-01
        -0.91214E-02
        -0.53337E-02
         0.57730E-02
         0.68292E-02
        -0.87469E-03
         0.10703E-02
         0.11097E-01
         0.97427E-02
         0.61706E-01
         0.62204E-01
         0.55874E-01
         0.46102E-01
         0.34355E-01
         0.15822E-01
        -0.39512E-02
        -0.12777E-01
        -0.16734E-01
        -0.30728E-01
        -0.54633E-01
        -0.64498E-01
        -0.54070E-01
        -0.51448E-01
        -0.56720E-01
        -0.58438E-01
        -0.53324E-01
        -0.50437E-01
        -0.25650E-01
         0.66863E-02
         0.14719E-01
         0.14933E-01
         0.26512E-01
         0.45927E-01
         0.58811E-01
         0.58638E-01
        -0.35850E-02
         0.74296E-03
        -0.14007E-02
        -0.40548E-02
         0.82497E-02
         0.70520E-02
         0.21298E-02
        -0.44483E-02
        -0.20798E-02
        -0.42626E-02
        -0.77800E-03
         0.31959E-02
         0.10418E-01
        -0.78673E-02
        -0.82282E-02
         0.70181E-02
         0.39298E-02
        -0.22941E-02
        -0.15618E-02
        -0.27257E-02
        -0.16311E-01
        -0.15543E-01
        -0.15344E-01
        -0.37124E-02
         0.21377E-02
         0.14347E-02
        -0.77066E-02
         0.92995E-03
        -0.26668E-02
        -0.35236E-02
         0.54039E-02
         0.34702E-02
        -0.34038E-02
        -0.30074E-02
         0.14822E-01
         0.81421E-02
         0.93453E-02
        -0.92224E-02
        -0.16050E-02
        -0.45118E-02
        -0.16370E-01
        -0.16837E-01
        -0.16417E-01
        -0.11857E-01
        -0.91181E-02
        -0.53310E-02
         0.57722E-02
         0.68316E-02
        -0.86777E-03
         0.10668E-02
         0.11091E-01
         0.97286E-02
         0.61685E-01
         0.62188E-01
         0.55869E-01
         0.46103E-01
         0.34344E-01
         0.15817E-01
        -0.39556E-02
        -0.12785E-01
        -0.16720E-01
        -0.30715E-01
        -0.54624E-01
        -0.64500E-01
        -0.54069E-01
        -0.51446E-01
        -0.56730E-01
        -0.58455E-01
        -0.53336E-01
        -0.50446E-01
        -0.25643E-01
         0.66890E-02
         0.14708E-01
         0.14927E-01
         0.26493E-01
         0.45899E-01
         0.58782E-01
         0.58612E-01
        -0.35909E-02
         0.74654E-03
        -0.14025E-02
        -0.40574E-02
         0.82419E-02
         0.70456E-02
         0.21432E-02
        -0.44363E-02
        -0.20814E-02
        -0.42578E-02
        -0.76043E-03
         0.32036E-02
         0.10425E-01
        -0.78476E-02
        -0.82236E-02
         0.70269E-02
         0.39389E-02
        -0.22875E-02
        -0.15611E-02
        -0.27211E-02
        -0.16311E-01
        -0.15543E-01
        -0.15345E-01
        -0.37128E-02
         0.21439E-02
         0.14380E-02
        -0.77082E-02
         0.91184E-03
        -0.26852E-02
        -0.35262E-02
         0.54125E-02
         0.34704E-02
        -0.33886E-02
        -0.30083E-02
         0.14830E-01
         0.81391E-02
         0.93428E-02
        -0.92368E-02
        -0.16197E-02
        -0.45262E-02
        -0.16381E-01
        -0.16849E-01
        -0.16421E-01
        -0.11857E-01
        -0.91151E-02
        -0.53286E-02
         0.57709E-02
         0.68339E-02
        -0.86028E-03
         0.10641E-02
         0.11085E-01
         0.97145E-02
         0.61664E-01
         0.62172E-01
         0.55864E-01
         0.46103E-01
         0.34334E-01
         0.15813E-01
        -0.39599E-02
        -0.12793E-01
        -0.16706E-01
        -0.30703E-01
        -0.54615E-01
        -0.64503E-01
        -0.54067E-01
        -0.51445E-01
        -0.56739E-01
        -0.58473E-01
        -0.53348E-01
        -0.50455E-01
        -0.25636E-01
         0.66913E-02
         0.14697E-01
         0.14921E-01
         0.26474E-01
         0.45871E-01
         0.58753E-01
         0.58586E-01
        -0.35965E-02
         0.75032E-03
        -0.14040E-02
        -0.40598E-02
         0.82343E-02
         0.70391E-02
         0.21568E-02
        -0.44241E-02
        -0.20831E-02
        -0.42533E-02
        -0.74282E-03
         0.32113E-02
         0.10431E-01
        -0.78279E-02
        -0.82190E-02
         0.70357E-02
         0.39478E-02
        -0.22808E-02
        -0.15603E-02
        -0.27168E-02
        -0.16311E-01
        -0.15542E-01
        -0.15347E-01
        -0.37132E-02
         0.21496E-02
         0.14411E-02
        -0.77099E-02
         0.89363E-03
        -0.27038E-02
        -0.35290E-02
         0.54210E-02
         0.34701E-02
        -0.33733E-02
        -0.30090E-02
         0.14838E-01
         0.81365E-02
         0.93406E-02
        -0.92512E-02
        -0.16344E-02
        -0.45406E-02
        -0.16393E-01
        -0.16861E-01
        -0.16425E-01
        -0.11857E-01
        -0.91124E-02
        -0.53266E-02
         0.57694E-02
         0.68361E-02
        -0.85254E-03
         0.10618E-02
         0.11079E-01
         0.97007E-02
         0.61642E-01
         0.62156E-01
         0.55859E-01
         0.46103E-01
         0.34323E-01
         0.15808E-01
        -0.39643E-02
        -0.12801E-01
        -0.16691E-01
        -0.30691E-01
        -0.54606E-01
        -0.64506E-01
        -0.54064E-01
        -0.51443E-01
        -0.56748E-01
        -0.58491E-01
        -0.53361E-01
        -0.50463E-01
        -0.25628E-01
         0.66934E-02
         0.14685E-01
         0.14916E-01
         0.26455E-01
         0.45843E-01
         0.58724E-01
         0.58560E-01
        -0.36021E-02
         0.75413E-03
        -0.14055E-02
        -0.40622E-02
         0.82265E-02
         0.70325E-02
         0.21703E-02
        -0.44120E-02
        -0.20848E-02
        -0.42488E-02
        -0.72527E-03
         0.32190E-02
         0.10438E-01
        -0.78083E-02
        -0.82145E-02
         0.70445E-02
         0.39567E-02
        -0.22742E-02
        -0.15594E-02
        -0.27123E-02
        -0.16310E-01
        -0.15542E-01
        -0.15348E-01
        -0.37137E-02
         0.21554E-02
         0.14441E-02
        -0.77117E-02
         0.87545E-03
        -0.27224E-02
        -0.35318E-02
         0.54294E-02
         0.34699E-02
        -0.33580E-02
        -0.30097E-02
         0.14846E-01
         0.81336E-02
         0.93383E-02
        -0.92656E-02
        -0.16491E-02
        -0.45549E-02
        -0.16404E-01
        -0.16873E-01
        -0.16429E-01
        -0.11857E-01
        -0.91098E-02
        -0.53246E-02
         0.57679E-02
         0.68382E-02
        -0.84479E-03
         0.10596E-02
         0.11073E-01
         0.96867E-02
         0.61621E-01
         0.62140E-01
         0.55853E-01
         0.46103E-01
         0.34312E-01
         0.15803E-01
        -0.39687E-02
        -0.12808E-01
        -0.16677E-01
        -0.30679E-01
        -0.54597E-01
        -0.64508E-01
        -0.54062E-01
        -0.51441E-01
        -0.56757E-01
        -0.58509E-01
        -0.53373E-01
        -0.50472E-01
        -0.25620E-01
         0.66955E-02
         0.14674E-01
         0.14910E-01
         0.26436E-01
         0.45815E-01
         0.58695E-01
         0.58534E-01
        -0.36078E-02
         0.75799E-03
        -0.14070E-02
        -0.40647E-02
         0.82187E-02
         0.70260E-02
         0.21839E-02
        -0.43999E-02
        -0.20866E-02
        -0.42443E-02
        -0.70771E-03
         0.32267E-02
         0.10444E-01
        -0.77888E-02
        -0.82099E-02
         0.70532E-02
         0.39656E-02
        -0.22677E-02
        -0.15586E-02
        -0.27079E-02
        -0.16310E-01
        -0.15541E-01
        -0.15349E-01
        -0.37142E-02
         0.21611E-02
         0.14472E-02
        -0.77135E-02
         0.85738E-03
        -0.27410E-02
        -0.35346E-02
         0.54378E-02
         0.34697E-02
        -0.33427E-02
        -0.30105E-02
         0.14854E-01
         0.81310E-02
         0.93361E-02
        -0.92800E-02
        -0.16639E-02
        -0.45695E-02
        -0.16415E-01
        -0.16885E-01
        -0.16433E-01
        -0.11857E-01
        -0.91071E-02
        -0.53224E-02
         0.57664E-02
         0.68404E-02
        -0.83711E-03
         0.10572E-02
         0.11067E-01
         0.96727E-02
         0.61600E-01
         0.62124E-01
         0.55848E-01
         0.46103E-01
         0.34302E-01
         0.15798E-01
        -0.39730E-02
        -0.12816E-01
        -0.16663E-01
        -0.30667E-01
        -0.54589E-01
        -0.64511E-01
        -0.54060E-01
        -0.51439E-01
        -0.56766E-01
        -0.58527E-01
        -0.53385E-01
        -0.50481E-01
        -0.25613E-01
         0.66976E-02
         0.14662E-01
         0.14904E-01
         0.26417E-01
         0.45788E-01
         0.58666E-01
         0.58508E-01
        -0.36134E-02
         0.76181E-03
        -0.14085E-02
        -0.40671E-02
         0.82112E-02
         0.70197E-02
         0.21974E-02
        -0.43878E-02
        -0.20883E-02
        -0.42398E-02
        -0.69013E-03
         0.32346E-02
         0.10451E-01
        -0.77692E-02
        -0.82052E-02
         0.70619E-02
         0.39745E-02
        -0.22611E-02
        -0.15579E-02
        -0.27034E-02
        -0.16310E-01
        -0.15541E-01
        -0.15351E-01
        -0.37148E-02
         0.21668E-02
         0.14502E-02
        -0.77154E-02
         0.83928E-03
        -0.27595E-02
        -0.35373E-02
         0.54462E-02
         0.34694E-02
        -0.33274E-02
        -0.30112E-02
         0.14862E-01
         0.81282E-02
         0.93339E-02
        -0.92944E-02
        -0.16787E-02
        -0.45838E-02
        -0.16427E-01
        -0.16896E-01
        -0.16437E-01
        -0.11856E-01
        -0.91044E-02
        -0.53205E-02
         0.57649E-02
         0.68426E-02
        -0.82935E-03
         0.10548E-02
         0.11062E-01
         0.96589E-02
         0.61578E-01
         0.62108E-01
         0.55843E-01
         0.46103E-01
         0.34291E-01
         0.15793E-01
        -0.39772E-02
        -0.12824E-01
        -0.16649E-01
        -0.30655E-01
        -0.54580E-01
        -0.64513E-01
        -0.54058E-01
        -0.51438E-01
        -0.56775E-01
        -0.58545E-01
        -0.53397E-01
        -0.50490E-01
        -0.25606E-01
         0.66996E-02
         0.14650E-01
         0.14898E-01
         0.26398E-01
         0.45760E-01
         0.58637E-01
         0.58482E-01
        -0.36190E-02
         0.76562E-03
        -0.14100E-02
        -0.40695E-02
         0.82034E-02
         0.70131E-02
         0.22109E-02
        -0.43757E-02
        -0.20900E-02
        -0.42354E-02
        -0.67259E-03
         0.32423E-02
         0.10457E-01
        -0.77498E-02
        -0.82006E-02
         0.70707E-02
         0.39834E-02
        -0.22545E-02
        -0.15571E-02
        -0.26990E-02
        -0.16310E-01
        -0.15540E-01
        -0.15352E-01
        -0.37153E-02
         0.21724E-02
         0.14533E-02
        -0.77172E-02
         0.82127E-03
        -0.27778E-02
        -0.35402E-02
         0.54547E-02
         0.34692E-02
        -0.33121E-02
        -0.30119E-02
         0.14870E-01
         0.81254E-02
         0.93316E-02
        -0.93088E-02
        -0.16935E-02
        -0.45984E-02
        -0.16438E-01
        -0.16908E-01
        -0.16441E-01
        -0.11856E-01
        -0.91018E-02
        -0.53186E-02
         0.57634E-02
         0.68448E-02
        -0.82158E-03
         0.10526E-02
         0.11056E-01
         0.96449E-02
         0.61557E-01
         0.62092E-01
         0.55837E-01
         0.46103E-01
         0.34280E-01
         0.15788E-01
        -0.39815E-02
        -0.12831E-01
        -0.16635E-01
        -0.30642E-01
        -0.54571E-01
        -0.64516E-01
        -0.54056E-01
        -0.51436E-01
        -0.56784E-01
        -0.58563E-01
        -0.53409E-01
        -0.50498E-01
        -0.25598E-01
         0.67017E-02
         0.14639E-01
         0.14892E-01
         0.26379E-01
         0.45732E-01
         0.58608E-01
         0.58456E-01
        -0.36246E-02
         0.76947E-03
        -0.14114E-02
        -0.40719E-02
         0.81957E-02
         0.70066E-02
         0.22244E-02
        -0.43635E-02
        -0.20916E-02
        -0.42308E-02
        -0.65511E-03
         0.32501E-02
         0.10464E-01
        -0.77302E-02
        -0.81959E-02
         0.70794E-02
         0.39923E-02
        -0.22479E-02
        -0.15564E-02
        -0.26946E-02
        -0.16309E-01
        -0.15540E-01
        -0.15353E-01
        -0.37159E-02
         0.21780E-02
         0.14563E-02
        -0.77189E-02
         0.80323E-03
        -0.27963E-02
        -0.35429E-02
         0.54631E-02
         0.34689E-02
        -0.32967E-02
        -0.30127E-02
         0.14878E-01
         0.81229E-02
         0.93295E-02
        -0.93230E-02
        -0.17084E-02
        -0.46128E-02
        -0.16449E-01
        -0.16920E-01
        -0.16445E-01
        -0.11856E-01
        -0.90992E-02
        -0.53163E-02
         0.57619E-02
         0.68470E-02
        -0.81378E-03
         0.10503E-02
         0.11050E-01
         0.96308E-02
         0.61536E-01
         0.62077E-01
         0.55832E-01
         0.46103E-01
         0.34270E-01
         0.15784E-01
        -0.39858E-02
        -0.12839E-01
        -0.16621E-01
        -0.30630E-01
        -0.54562E-01
        -0.64519E-01
        -0.54054E-01
        -0.51434E-01
        -0.56794E-01
        -0.58581E-01
        -0.53421E-01
        -0.50507E-01
        -0.25591E-01
         0.67037E-02
         0.14627E-01
         0.14887E-01
         0.26361E-01
         0.45705E-01
         0.58580E-01
         0.58430E-01
        -0.36303E-02
         0.77326E-03
        -0.14129E-02
        -0.40743E-02
         0.81882E-02
         0.70001E-02
         0.22378E-02
        -0.43514E-02
        -0.20933E-02
        -0.42262E-02
        -0.63766E-03
         0.32578E-02
         0.10471E-01
        -0.77108E-02
        -0.81912E-02
         0.70881E-02
         0.40011E-02
        -0.22413E-02
        -0.15557E-02
        -0.26902E-02
        -0.16309E-01
        -0.15539E-01
        -0.15355E-01
        -0.37164E-02
         0.21835E-02
         0.14594E-02
        -0.77206E-02
         0.78529E-03
        -0.28148E-02
        -0.35456E-02
         0.54714E-02
         0.34687E-02
        -0.32813E-02
        -0.30134E-02
         0.14886E-01
         0.81201E-02
         0.93272E-02
        -0.93371E-02
        -0.17232E-02
        -0.46274E-02
        -0.16461E-01
        -0.16931E-01
        -0.16449E-01
        -0.11856E-01
        -0.90965E-02
        -0.53144E-02
         0.57604E-02
         0.68491E-02
        -0.80600E-03
         0.10479E-02
         0.11044E-01
         0.96170E-02
         0.61514E-01
         0.62061E-01
         0.55827E-01
         0.46103E-01
         0.34259E-01
         0.15779E-01
        -0.39901E-02
        -0.12846E-01
        -0.16607E-01
        -0.30618E-01
        -0.54553E-01
        -0.64521E-01
        -0.54051E-01
        -0.51433E-01
        -0.56803E-01
        -0.58599E-01
        -0.53433E-01
        -0.50516E-01
        -0.25583E-01
         0.67056E-02
         0.14616E-01
         0.14881E-01
         0.26342E-01
         0.45677E-01
         0.58551E-01
         0.58403E-01
        -0.36359E-02
         0.77703E-03
        -0.14143E-02
        -0.40767E-02
         0.81805E-02
         0.69936E-02
         0.22513E-02
        -0.43393E-02
        -0.20950E-02
        -0.42217E-02
        -0.62021E-03
         0.32657E-02
         0.10477E-01
        -0.76913E-02
        -0.81865E-02
         0.70968E-02
         0.40100E-02
        -0.22348E-02
        -0.15549E-02
        -0.26857E-02
        -0.16309E-01
        -0.15539E-01
        -0.15356E-01
        -0.37169E-02
         0.21891E-02
         0.14624E-02
        -0.77223E-02
         0.76736E-03
        -0.28333E-02
        -0.35483E-02
         0.54798E-02
         0.34683E-02
        -0.32659E-02
        -0.30141E-02
         0.14894E-01
         0.81176E-02
         0.93251E-02
        -0.93512E-02
        -0.17381E-02
        -0.46419E-02
        -0.16472E-01
        -0.16943E-01
        -0.16453E-01
        -0.11856E-01
        -0.90938E-02
        -0.53125E-02
         0.57588E-02
         0.68513E-02
        -0.79810E-03
         0.10456E-02
         0.11038E-01
         0.96030E-02
         0.61493E-01
         0.62045E-01
         0.55821E-01
         0.46103E-01
         0.34249E-01
         0.15774E-01
        -0.39943E-02
        -0.12854E-01
        -0.16593E-01
        -0.30606E-01
        -0.54544E-01
        -0.64524E-01
        -0.54049E-01
        -0.51431E-01
        -0.56812E-01
        -0.58617E-01
        -0.53445E-01
        -0.50524E-01
        -0.25576E-01
         0.67076E-02
         0.14604E-01
         0.14875E-01
         0.26323E-01
         0.45649E-01
         0.58522E-01
         0.58377E-01
        -0.36416E-02
         0.78089E-03
        -0.14158E-02
        -0.40791E-02
         0.81728E-02
         0.69872E-02
         0.22647E-02
        -0.43271E-02
        -0.20966E-02
        -0.42172E-02
        -0.60275E-03
         0.32734E-02
         0.10484E-01
        -0.76719E-02
        -0.81817E-02
         0.71055E-02
         0.40188E-02
        -0.22283E-02
        -0.15542E-02
        -0.26813E-02
        -0.16309E-01
        -0.15538E-01
        -0.15357E-01
        -0.37175E-02
         0.21945E-02
         0.14654E-02
        -0.77240E-02
         0.74945E-03
        -0.28517E-02
        -0.35509E-02
         0.54882E-02
         0.34681E-02
        -0.32505E-02
        -0.30148E-02
         0.14903E-01
         0.81149E-02
         0.93229E-02
        -0.93653E-02
        -0.17530E-02
        -0.46563E-02
        -0.16483E-01
        -0.16955E-01
        -0.16457E-01
        -0.11856E-01
        -0.90913E-02
        -0.53103E-02
         0.57573E-02
         0.68535E-02
        -0.79028E-03
         0.10433E-02
         0.11033E-01
         0.95889E-02
         0.61472E-01
         0.62030E-01
         0.55816E-01
         0.46103E-01
         0.34238E-01
         0.15769E-01
        -0.39984E-02
        -0.12861E-01
        -0.16579E-01
        -0.30593E-01
        -0.54535E-01
        -0.64527E-01
        -0.54047E-01
        -0.51429E-01
        -0.56821E-01
        -0.58634E-01
        -0.53457E-01
        -0.50533E-01
        -0.25568E-01
         0.67095E-02
         0.14593E-01
         0.14870E-01
         0.26304E-01
         0.45621E-01
         0.58493E-01
         0.58351E-01
        -0.36472E-02
         0.78469E-03
        -0.14173E-02
        -0.40815E-02
         0.81653E-02
         0.69807E-02
         0.22781E-02
        -0.43150E-02
        -0.20982E-02
        -0.42124E-02
        -0.58530E-03
         0.32812E-02
         0.10490E-01
        -0.76524E-02
        -0.81769E-02
         0.71142E-02
         0.40277E-02
        -0.22217E-02
        -0.15534E-02
        -0.26768E-02
        -0.16308E-01
        -0.15538E-01
        -0.15359E-01
        -0.37181E-02
         0.21998E-02
         0.14684E-02
        -0.77256E-02
         0.73136E-03
        -0.28700E-02
        -0.35536E-02
         0.54966E-02
         0.34679E-02
        -0.32352E-02
        -0.30156E-02
         0.14911E-01
         0.81122E-02
         0.93206E-02
        -0.93793E-02
        -0.17681E-02
        -0.46709E-02
        -0.16494E-01
        -0.16966E-01
        -0.16460E-01
        -0.11856E-01
        -0.90885E-02
        -0.53083E-02
         0.57558E-02
         0.68557E-02
        -0.78249E-03
         0.10409E-02
         0.11027E-01
         0.95751E-02
         0.61450E-01
         0.62014E-01
         0.55810E-01
         0.46103E-01
         0.34227E-01
         0.15764E-01
        -0.40024E-02
        -0.12869E-01
        -0.16565E-01
        -0.30581E-01
        -0.54526E-01
        -0.64530E-01
        -0.54045E-01
        -0.51428E-01
        -0.56830E-01
        -0.58652E-01
        -0.53470E-01
        -0.50542E-01
        -0.25561E-01
         0.67115E-02
         0.14581E-01
         0.14864E-01
         0.26285E-01
         0.45594E-01
         0.58464E-01
         0.58325E-01
        -0.36529E-02
         0.78848E-03
        -0.14187E-02
        -0.40838E-02
         0.81576E-02
         0.69742E-02
         0.22915E-02
        -0.43029E-02
        -0.20997E-02
        -0.42072E-02
        -0.56788E-03
         0.32890E-02
         0.10497E-01
        -0.76329E-02
        -0.81719E-02
         0.71229E-02
         0.40365E-02
        -0.22152E-02
        -0.15529E-02
        -0.26725E-02
        -0.16308E-01
        -0.15537E-01
        -0.15360E-01
        -0.37186E-02
         0.22048E-02
         0.14716E-02
        -0.77264E-02
         0.71283E-03
        -0.28883E-02
        -0.35565E-02
         0.55050E-02
         0.34676E-02
        -0.32198E-02
        -0.30164E-02
         0.14919E-01
         0.81097E-02
         0.93185E-02
        -0.93929E-02
        -0.17837E-02
        -0.46852E-02
        -0.16504E-01
        -0.16977E-01
        -0.16464E-01
        -0.11856E-01
        -0.90859E-02
        -0.53062E-02
         0.57543E-02
         0.68580E-02
        -0.77472E-03
         0.10386E-02
         0.11021E-01
         0.95611E-02
         0.61429E-01
         0.61998E-01
         0.55805E-01
         0.46103E-01
         0.34217E-01
         0.15759E-01
        -0.40066E-02
        -0.12876E-01
        -0.16551E-01
        -0.30569E-01
        -0.54517E-01
        -0.64535E-01
        -0.54044E-01
        -0.51426E-01
        -0.56839E-01
        -0.58670E-01
        -0.53482E-01
        -0.50550E-01
        -0.25553E-01
         0.67135E-02
         0.14570E-01
         0.14858E-01
         0.26266E-01
         0.45566E-01
         0.58435E-01
         0.58299E-01
        -0.36585E-02
         0.79225E-03
        -0.14201E-02
        -0.40861E-02
         0.81499E-02
         0.69677E-02
         0.23049E-02
        -0.42907E-02
        -0.21010E-02
        -0.42014E-02
        -0.55051E-03
         0.32968E-02
         0.10503E-01
        -0.76132E-02
        -0.81669E-02
         0.71316E-02
         0.40452E-02
        -0.22086E-02
        -0.15522E-02
        -0.26681E-02
        -0.16308E-01
        -0.15536E-01
        -0.15361E-01
        -0.37192E-02
         0.22094E-02
         0.14745E-02
        -0.77268E-02
         0.69373E-03
        -0.29067E-02
        -0.35592E-02
         0.55134E-02
         0.34673E-02
        -0.32043E-02
        -0.30171E-02
         0.14927E-01
         0.81070E-02
         0.93164E-02
        -0.94063E-02
        -0.17996E-02
        -0.46997E-02
        -0.16514E-01
        -0.16987E-01
        -0.16467E-01
        -0.11856E-01
        -0.90833E-02
        -0.53043E-02
         0.57528E-02
         0.68602E-02
        -0.76686E-03
         0.10363E-02
         0.11015E-01
         0.95469E-02
         0.61408E-01
         0.61983E-01
         0.55800E-01
         0.46103E-01
         0.34206E-01
         0.15754E-01
        -0.40106E-02
        -0.12883E-01
        -0.16537E-01
        -0.30555E-01
        -0.54508E-01
        -0.64541E-01
        -0.54045E-01
        -0.51425E-01
        -0.56848E-01
        -0.58688E-01
        -0.53494E-01
        -0.50559E-01
        -0.25546E-01
         0.67154E-02
         0.14558E-01
         0.14852E-01
         0.26248E-01
         0.45538E-01
         0.58406E-01
         0.58273E-01
        -0.36642E-02
         0.79605E-03
        -0.14216E-02
        -0.40885E-02
         0.81424E-02
         0.69614E-02
         0.23181E-02
        -0.42786E-02
        -0.21022E-02
        -0.41956E-02
        -0.53326E-03
         0.33045E-02
         0.10510E-01
        -0.75935E-02
        -0.81618E-02
         0.71403E-02
         0.40539E-02
        -0.22022E-02
        -0.15515E-02
        -0.26638E-02
        -0.16307E-01
        -0.15536E-01
        -0.15363E-01
        -0.37198E-02
         0.22138E-02
         0.14775E-02
        -0.77269E-02
         0.67457E-03
        -0.29249E-02
        -0.35619E-02
         0.55219E-02
         0.34670E-02
        -0.31891E-02
        -0.30179E-02
         0.14936E-01
         0.81045E-02
         0.93141E-02
        -0.94195E-02
        -0.18157E-02
        -0.47137E-02
        -0.16523E-01
        -0.16996E-01
        -0.16469E-01
        -0.11856E-01
        -0.90806E-02
        -0.53023E-02
         0.57514E-02
         0.68625E-02
        -0.75909E-03
         0.10339E-02
         0.11010E-01
         0.95332E-02
         0.61386E-01
         0.61967E-01
         0.55794E-01
         0.46103E-01
         0.34196E-01
         0.15749E-01
        -0.40146E-02
        -0.12890E-01
        -0.16524E-01
        -0.30542E-01
        -0.54498E-01
        -0.64548E-01
        -0.54045E-01
        -0.51423E-01
        -0.56857E-01
        -0.58706E-01
        -0.53506E-01
        -0.50567E-01
        -0.25538E-01
         0.67175E-02
         0.14547E-01
         0.14847E-01
         0.26229E-01
         0.45511E-01
         0.58377E-01
         0.58247E-01
        -0.36828E-02
         0.80193E-03
        -0.14283E-02
        -0.41053E-02
         0.81621E-02
         0.69791E-02
         0.23381E-02
        -0.42831E-02
        -0.21107E-02
        -0.42057E-02
        -0.52008E-03
         0.33212E-02
         0.10550E-01
        -0.76023E-02
        -0.81854E-02
         0.71736E-02
         0.40766E-02
        -0.22040E-02
        -0.15558E-02
        -0.26682E-02
        -0.16360E-01
        -0.15587E-01
        -0.15413E-01
        -0.37332E-02
         0.22257E-02
         0.14854E-02
        -0.77552E-02
         0.65899E-03
        -0.29520E-02
        -0.35768E-02
         0.55494E-02
         0.34787E-02
        -0.31864E-02
        -0.30296E-02
         0.14993E-01
         0.81296E-02
         0.93433E-02
        -0.94649E-02
        -0.18368E-02
        -0.47428E-02
        -0.16588E-01
        -0.17063E-01
        -0.16528E-01
        -0.11895E-01
        -0.91079E-02
        -0.53169E-02
         0.57697E-02
         0.68889E-02
        -0.75480E-03
         0.10350E-02
         0.11041E-01
         0.95525E-02
         0.61550E-01
         0.62134E-01
         0.55956E-01
         0.46240E-01
         0.34288E-01
         0.15791E-01
        -0.40322E-02
        -0.12936E-01
        -0.16562E-01
        -0.30625E-01
        -0.54661E-01
        -0.64751E-01
        -0.54205E-01
        -0.51571E-01
        -0.57026E-01
        -0.58884E-01
        -0.53665E-01
        -0.50719E-01
        -0.25607E-01
         0.67411E-02
         0.14581E-01
         0.14884E-01
         0.26288E-01
         0.45619E-01
         0.58519E-01
         0.58390E-01
        -0.54745E-02
         0.11999E-02
        -0.21188E-02
        -0.61129E-02
         0.11670E-01
         0.10075E-01
         0.34882E-02
        -0.63223E-02
        -0.31277E-02
        -0.61975E-02
        -0.74954E-03
         0.46654E-02
         0.15044E-01
        -0.11053E-01
        -0.11551E-01
         0.10673E-01
         0.60484E-02
        -0.32757E-02
        -0.22818E-02
        -0.39216E-02
        -0.23316E-01
        -0.22498E-01
        -0.22031E-01
        -0.55194E-02
         0.33128E-02
         0.22160E-02
        -0.11375E-01
         0.96316E-03
        -0.44187E-02
        -0.53162E-02
         0.82602E-02
         0.51611E-02
        -0.47333E-02
        -0.45110E-02
         0.21042E-01
         0.11728E-01
         0.13485E-01
        -0.13672E-01
        -0.26997E-02
        -0.69771E-02
        -0.24041E-01
        -0.24916E-01
        -0.24119E-01
        -0.17124E-01
        -0.13067E-01
        -0.74082E-02
         0.82487E-02
         0.99827E-02
        -0.10918E-02
         0.14980E-02
         0.15602E-01
         0.13746E-01
         0.76512E-01
         0.77114E-01
         0.69477E-01
         0.57586E-01
         0.42661E-01
         0.19687E-01
        -0.50920E-02
        -0.16454E-01
        -0.21011E-01
        -0.38632E-01
        -0.69054E-01
        -0.81677E-01
        -0.69149E-01
        -0.66005E-01
        -0.72057E-01
        -0.73560E-01
        -0.66833E-01
        -0.62802E-01
        -0.31672E-01
         0.83549E-02
         0.18248E-01
         0.18711E-01
         0.32925E-01
         0.57337E-01
         0.73328E-01
         0.72905E-01
  
SCALARS                      strain_xy  double 1
LOOKUP_TABLE default
        -0.66976E-06
        -0.15575E-05
        -0.13435E-04
         0.47905E-06
        -0.14554E-19
         0.14223E-20
         0.21384E-19
         0.32575E-20
        -0.14082E-03
         0.62078E-04
         0.95188E-19
         0.75484E-19
         0.51942E-05
        -0.10771E-05
         0.84018E-20
        -0.25234E-20
         0.15375E-05
         0.26071E-04
         0.41828E-21
         0.63740E-20
        -0.19580E-04
        -0.12288E-03
        -0.12297E-03
         0.64813E-19
         0.51614E-19
        -0.75373E-19
        -0.12800E-04
        -0.10513E-03
         0.87269E-19
         0.13430E-18
        -0.41096E-05
         0.78703E-05
         0.65269E-06
        -0.46062E-20
         0.18171E-19
        -0.23241E-21
        -0.36013E-04
        -0.16468E-04
         0.48632E-19
         0.40287E-19
        -0.70148E-04
        -0.62471E-04
         0.82904E-19
         0.55872E-19
        -0.68708E-04
        -0.12664E-04
        -0.30201E-20
         0.22485E-19
         0.17712E-04
         0.66451E-20
        -0.43116E-05
        -0.14982E-21
         0.10685E-05
         0.50226E-19
         0.52626E-05
         0.77287E-20
         0.75097E-04
        -0.37241E-05
         0.17962E-21
        -0.88118E-21
         0.53205E-06
        -0.53337E-04
         0.48947E-20
         0.12555E-19
         0.23074E-05
        -0.99381E-21
         0.33006E-04
         0.79634E-20
        -0.17387E-03
        -0.63025E-04
         0.61511E-20
        -0.58903E-19
        -0.14123E-03
        -0.94180E-19
         0.54814E-04
         0.63080E-19
         0.17255E-03
         0.93980E-20
         0.30180E-03
         0.12221E-19
         0.59065E-03
         0.32471E-03
         0.28731E-19
        -0.72853E-20
         0.40764E-04
        -0.87669E-21
        -0.13018E-03
        -0.79070E-19
        -0.19063E-03
        -0.88288E-19
        -0.41743E-03
        -0.18986E-03
        -0.55888E-19
         0.62035E-19
         0.30622E-04
         0.56485E-19
         0.75583E-04
         0.24264E-19
         0.17625E-03
         0.64425E-19
         0.43319E-03
         0.24758E-03
         0.13814E-18
         0.69070E-19
        -0.70307E-03
         0.29631E-03
        -0.89752E-19
         0.10991E-18
        -0.17096E-02
        -0.25508E-18
        -0.22449E-02
        -0.27884E-18
        -0.19591E-02
        -0.18924E-18
        -0.16429E-02
        -0.20073E-19
        -0.70507E-03
         0.56578E-19
         0.91803E-03
         0.35030E-19
         0.20604E-02
         0.32023E-19
         0.27253E-02
         0.68707E-19
         0.27070E-02
         0.83537E-19
         0.22680E-02
         0.32912E-19
         0.12334E-02
         0.20066E-19
        -0.85360E-04
         0.32797E-19
        -0.10468E-02
         0.21985E-19
        -0.16977E-02
        -0.78400E-19
        -0.23165E-02
        -0.20572E-18
        -0.20461E-02
        -0.26107E-18
        -0.12992E-02
        -0.16157E-18
        -0.14165E-03
         0.30826E-19
         0.96304E-03
         0.65333E-19
         0.13974E-02
         0.10412E-18
         0.17008E-02
         0.20504E-18
         0.15250E-02
         0.26605E-18
         0.14252E-02
         0.18902E-18
         0.11831E-02
         0.14949E-18
        -0.64037E-05
         0.17510E-05
         0.17896E-05
        -0.10967E-05
         0.14517E-04
         0.11738E-04
         0.19074E-06
        -0.42616E-05
        -0.18395E-05
        -0.48801E-05
        -0.14415E-05
        -0.26721E-04
        -0.37815E-04
         0.14017E-05
         0.21625E-04
        -0.27600E-05
         0.20598E-05
         0.60825E-06
         0.12721E-05
        -0.10292E-05
         0.52047E-05
         0.45482E-05
        -0.13920E-04
         0.36372E-06
         0.31003E-05
         0.34174E-06
         0.57650E-07
         0.11288E-06
         0.14152E-05
        -0.46276E-05
        -0.24098E-05
         0.52283E-06
         0.82589E-06
        -0.65871E-07
        -0.35746E-05
        -0.12205E-04
        -0.24632E-04
         0.37526E-04
         0.19546E-04
         0.35686E-04
         0.69640E-04
         0.15843E-04
        -0.12559E-04
        -0.25386E-04
        -0.30383E-04
        -0.39444E-04
         0.47957E-05
         0.14141E-04
         0.43680E-05
         0.14891E-04
         0.47207E-04
         0.17886E-04
        -0.16584E-03
         0.20712E-03
        -0.50251E-03
        -0.58928E-03
        -0.56006E-03
        -0.34108E-03
         0.20460E-04
         0.22255E-03
         0.32233E-03
         0.52350E-03
         0.55238E-03
         0.29074E-03
         0.11631E-03
         0.49033E-04
        -0.79010E-04
        -0.31132E-03
        -0.52005E-03
        -0.59793E-03
        -0.37284E-03
         0.67350E-04
         0.24229E-03
         0.25523E-03
         0.40254E-03
         0.44945E-03
         0.33785E-03
         0.31083E-03
        -0.18503E-04
         0.23956E-05
        -0.42204E-05
        -0.29147E-05
         0.32739E-04
         0.12583E-04
         0.29071E-05
        -0.22186E-04
        -0.66850E-05
        -0.19838E-04
         0.21188E-05
        -0.33458E-04
        -0.65206E-04
         0.71857E-05
         0.86139E-04
        -0.13786E-04
         0.23258E-05
         0.13299E-05
         0.40341E-05
         0.13697E-05
         0.36233E-04
         0.24516E-04
        -0.14026E-04
         0.28632E-05
         0.65735E-05
        -0.10948E-05
         0.14898E-05
        -0.36773E-06
        -0.14805E-05
        -0.10928E-04
        -0.11415E-04
        -0.19456E-05
         0.47852E-05
         0.35859E-05
         0.84241E-05
        -0.14173E-04
        -0.31040E-04
         0.72597E-04
         0.10718E-04
         0.27386E-04
         0.73915E-04
        -0.18788E-04
        -0.37827E-04
        -0.34164E-04
        -0.33877E-04
        -0.40492E-04
         0.25464E-04
         0.19879E-04
        -0.33027E-05
         0.46944E-05
         0.49859E-04
         0.32954E-05
        -0.34543E-03
         0.49794E-03
        -0.10402E-02
        -0.11088E-02
        -0.10678E-02
        -0.59020E-03
         0.14353E-03
         0.40609E-03
         0.51266E-03
         0.92983E-03
         0.10371E-02
         0.40324E-03
         0.13473E-03
         0.10983E-03
        -0.56041E-04
        -0.48962E-03
        -0.89529E-03
        -0.11787E-02
        -0.78157E-03
         0.22526E-03
         0.43746E-03
         0.41900E-03
         0.74275E-03
         0.90547E-03
         0.60208E-03
         0.56829E-03
        -0.18550E-04
         0.24049E-05
        -0.42304E-05
        -0.29381E-05
         0.32712E-04
         0.12581E-04
         0.29292E-05
        -0.22167E-04
        -0.67044E-05
        -0.19896E-04
         0.20771E-05
        -0.33536E-04
        -0.65262E-04
         0.71682E-05
         0.86203E-04
        -0.13801E-04
         0.23521E-05
         0.13243E-05
         0.40348E-05
         0.13596E-05
         0.36319E-04
         0.24537E-04
        -0.14028E-04
         0.28620E-05
         0.66182E-05
        -0.10946E-05
         0.15078E-05
        -0.36284E-06
        -0.14811E-05
        -0.10958E-04
        -0.11433E-04
        -0.19411E-05
         0.47758E-05
         0.35934E-05
         0.83492E-05
        -0.14175E-04
        -0.31028E-04
         0.72825E-04
         0.10844E-04
         0.27504E-04
         0.74019E-04
        -0.18748E-04
        -0.37867E-04
        -0.34176E-04
        -0.33866E-04
        -0.40471E-04
         0.25461E-04
         0.19874E-04
        -0.32742E-05
         0.46721E-05
         0.49806E-04
         0.32407E-05
        -0.34499E-03
         0.49784E-03
        -0.10403E-02
        -0.11088E-02
        -0.10674E-02
        -0.58983E-03
         0.14363E-03
         0.40622E-03
         0.51212E-03
         0.92920E-03
         0.10367E-02
         0.40344E-03
         0.13470E-03
         0.11005E-03
        -0.55592E-04
        -0.48998E-03
        -0.89585E-03
        -0.11792E-02
        -0.78134E-03
         0.22535E-03
         0.43711E-03
         0.41882E-03
         0.74201E-03
         0.90427E-03
         0.60112E-03
         0.56729E-03
        -0.18597E-04
         0.24142E-05
        -0.42405E-05
        -0.29617E-05
         0.32683E-04
         0.12580E-04
         0.29515E-05
        -0.22148E-04
        -0.67234E-05
        -0.19953E-04
         0.20355E-05
        -0.33614E-04
        -0.65318E-04
         0.71498E-05
         0.86266E-04
        -0.13817E-04
         0.23788E-05
         0.13185E-05
         0.40356E-05
         0.13496E-05
         0.36406E-04
         0.24557E-04
        -0.14032E-04
         0.28604E-05
         0.66637E-05
        -0.10943E-05
         0.15270E-05
        -0.35808E-06
        -0.14807E-05
        -0.10987E-04
        -0.11452E-04
        -0.19358E-05
         0.47663E-05
         0.36008E-05
         0.82738E-05
        -0.14179E-04
        -0.31016E-04
         0.73054E-04
         0.10971E-04
         0.27623E-04
         0.74126E-04
        -0.18703E-04
        -0.37907E-04
        -0.34194E-04
        -0.33858E-04
        -0.40453E-04
         0.25459E-04
         0.19868E-04
        -0.32452E-05
         0.46493E-05
         0.49754E-04
         0.31864E-05
        -0.34455E-03
         0.49774E-03
        -0.10404E-02
        -0.11088E-02
        -0.10669E-02
        -0.58945E-03
         0.14374E-03
         0.40635E-03
         0.51158E-03
         0.92858E-03
         0.10364E-02
         0.40365E-03
         0.13468E-03
         0.11027E-03
        -0.55140E-04
        -0.49036E-03
        -0.89643E-03
        -0.11797E-02
        -0.78111E-03
         0.22544E-03
         0.43676E-03
         0.41864E-03
         0.74127E-03
         0.90308E-03
         0.60016E-03
         0.56629E-03
        -0.18643E-04
         0.24237E-05
        -0.42505E-05
        -0.29854E-05
         0.32654E-04
         0.12579E-04
         0.29739E-05
        -0.22129E-04
        -0.67416E-05
        -0.20006E-04
         0.19940E-05
        -0.33695E-04
        -0.65375E-04
         0.71322E-05
         0.86330E-04
        -0.13834E-04
         0.24062E-05
         0.13128E-05
         0.40368E-05
         0.13390E-05
         0.36496E-04
         0.24576E-04
        -0.14045E-04
         0.28578E-05
         0.67113E-05
        -0.10937E-05
         0.15468E-05
        -0.35412E-06
        -0.14775E-05
        -0.11014E-04
        -0.11471E-04
        -0.19291E-05
         0.47564E-05
         0.36082E-05
         0.81985E-05
        -0.14182E-04
        -0.31004E-04
         0.73284E-04
         0.11098E-04
         0.27745E-04
         0.74243E-04
        -0.18644E-04
        -0.37942E-04
        -0.34224E-04
        -0.33855E-04
        -0.40433E-04
         0.25460E-04
         0.19863E-04
        -0.32162E-05
         0.46266E-05
         0.49699E-04
         0.31323E-05
        -0.34411E-03
         0.49764E-03
        -0.10405E-02
        -0.11088E-02
        -0.10665E-02
        -0.58907E-03
         0.14384E-03
         0.40648E-03
         0.51104E-03
         0.92795E-03
         0.10360E-02
         0.40390E-03
         0.13468E-03
         0.11048E-03
        -0.54685E-04
        -0.49078E-03
        -0.89710E-03
        -0.11803E-02
        -0.78088E-03
         0.22553E-03
         0.43641E-03
         0.41846E-03
         0.74054E-03
         0.90188E-03
         0.59921E-03
         0.56529E-03
        -0.18690E-04
         0.24332E-05
        -0.42605E-05
        -0.30090E-05
         0.32627E-04
         0.12577E-04
         0.29962E-05
        -0.22108E-04
        -0.67589E-05
        -0.20054E-04
         0.19523E-05
        -0.33773E-04
        -0.65432E-04
         0.71150E-05
         0.86394E-04
        -0.13852E-04
         0.24344E-05
         0.13070E-05
         0.40377E-05
         0.13279E-05
         0.36589E-04
         0.24593E-04
        -0.14064E-04
         0.28539E-05
         0.67611E-05
        -0.10927E-05
         0.15687E-05
        -0.35087E-06
        -0.14713E-05
        -0.11038E-04
        -0.11491E-04
        -0.19204E-05
         0.47464E-05
         0.36157E-05
         0.81227E-05
        -0.14185E-04
        -0.30993E-04
         0.73514E-04
         0.11225E-04
         0.27869E-04
         0.74372E-04
        -0.18569E-04
        -0.37972E-04
        -0.34268E-04
        -0.33858E-04
        -0.40414E-04
         0.25463E-04
         0.19860E-04
        -0.31875E-05
         0.46040E-05
         0.49648E-04
         0.30781E-05
        -0.34366E-03
         0.49754E-03
        -0.10406E-02
        -0.11088E-02
        -0.10660E-02
        -0.58869E-03
         0.14394E-03
         0.40661E-03
         0.51050E-03
         0.92732E-03
         0.10357E-02
         0.40419E-03
         0.13468E-03
         0.11070E-03
        -0.54230E-04
        -0.49123E-03
        -0.89784E-03
        -0.11808E-02
        -0.78066E-03
         0.22561E-03
         0.43606E-03
         0.41828E-03
         0.73981E-03
         0.90068E-03
         0.59825E-03
         0.56429E-03
        -0.18734E-04
         0.24433E-05
        -0.42696E-05
        -0.30328E-05
         0.32599E-04
         0.12576E-04
         0.30182E-05
        -0.22084E-04
        -0.67762E-05
        -0.20101E-04
         0.19107E-05
        -0.33852E-04
        -0.65488E-04
         0.70984E-05
         0.86456E-04
        -0.13871E-04
         0.24630E-05
         0.13013E-05
         0.40385E-05
         0.13169E-05
         0.36683E-04
         0.24610E-04
        -0.14086E-04
         0.28498E-05
         0.68103E-05
        -0.10915E-05
         0.15922E-05
        -0.34788E-06
        -0.14639E-05
        -0.11062E-04
        -0.11510E-04
        -0.19107E-05
         0.47364E-05
         0.36232E-05
         0.80465E-05
        -0.14189E-04
        -0.30984E-04
         0.73745E-04
         0.11354E-04
         0.27995E-04
         0.74504E-04
        -0.18489E-04
        -0.38000E-04
        -0.34316E-04
        -0.33867E-04
        -0.40401E-04
         0.25466E-04
         0.19858E-04
        -0.31584E-05
         0.45830E-05
         0.49596E-04
         0.30241E-05
        -0.34322E-03
         0.49744E-03
        -0.10407E-02
        -0.11088E-02
        -0.10655E-02
        -0.58831E-03
         0.14404E-03
         0.40673E-03
         0.50997E-03
         0.92669E-03
         0.10353E-02
         0.40451E-03
         0.13470E-03
         0.11091E-03
        -0.53775E-04
        -0.49170E-03
        -0.89862E-03
        -0.11814E-02
        -0.78043E-03
         0.22569E-03
         0.43571E-03
         0.41810E-03
         0.73908E-03
         0.89949E-03
         0.59730E-03
         0.56330E-03
        -0.18775E-04
         0.24550E-05
        -0.42771E-05
        -0.30572E-05
         0.32572E-04
         0.12575E-04
         0.30398E-05
        -0.22056E-04
        -0.67940E-05
        -0.20145E-04
         0.18691E-05
        -0.33933E-04
        -0.65551E-04
         0.70862E-05
         0.86519E-04
        -0.13891E-04
         0.24922E-05
         0.12955E-05
         0.40398E-05
         0.13059E-05
         0.36777E-04
         0.24627E-04
        -0.14109E-04
         0.28458E-05
         0.68564E-05
        -0.10899E-05
         0.16200E-05
        -0.34483E-06
        -0.14559E-05
        -0.11087E-04
        -0.11528E-04
        -0.18999E-05
         0.47261E-05
         0.36307E-05
         0.79699E-05
        -0.14195E-04
        -0.30976E-04
         0.73978E-04
         0.11484E-04
         0.28123E-04
         0.74639E-04
        -0.18407E-04
        -0.38028E-04
        -0.34365E-04
        -0.33878E-04
        -0.40391E-04
         0.25470E-04
         0.19861E-04
        -0.31278E-05
         0.45657E-05
         0.49548E-04
         0.29697E-05
        -0.34278E-03
         0.49734E-03
        -0.10408E-02
        -0.11089E-02
        -0.10651E-02
        -0.58793E-03
         0.14414E-03
         0.40686E-03
         0.50943E-03
         0.92606E-03
         0.10350E-02
         0.40482E-03
         0.13471E-03
         0.11113E-03
        -0.53320E-04
        -0.49218E-03
        -0.89940E-03
        -0.11820E-02
        -0.78018E-03
         0.22575E-03
         0.43535E-03
         0.41793E-03
         0.73836E-03
         0.89830E-03
         0.59635E-03
         0.56230E-03
        -0.18814E-04
         0.24673E-05
        -0.42838E-05
        -0.30819E-05
         0.32546E-04
         0.12573E-04
         0.30612E-05
        -0.22026E-04
        -0.68122E-05
        -0.20188E-04
         0.18274E-05
        -0.34013E-04
        -0.65613E-04
         0.70747E-05
         0.86582E-04
        -0.13911E-04
         0.25216E-05
         0.12897E-05
         0.40408E-05
         0.12950E-05
         0.36871E-04
         0.24645E-04
        -0.14131E-04
         0.28419E-05
         0.69012E-05
        -0.10882E-05
         0.16488E-05
        -0.34168E-06
        -0.14478E-05
        -0.11112E-04
        -0.11544E-04
        -0.18885E-05
         0.47157E-05
         0.36382E-05
         0.78927E-05
        -0.14202E-04
        -0.30971E-04
         0.74212E-04
         0.11614E-04
         0.28251E-04
         0.74775E-04
        -0.18326E-04
        -0.38056E-04
        -0.34415E-04
        -0.33891E-04
        -0.40385E-04
         0.25475E-04
         0.19866E-04
        -0.30967E-05
         0.45499E-05
         0.49502E-04
         0.29155E-05
        -0.34234E-03
         0.49724E-03
        -0.10409E-02
        -0.11089E-02
        -0.10646E-02
        -0.58755E-03
         0.14423E-03
         0.40698E-03
         0.50890E-03
         0.92543E-03
         0.10347E-02
         0.40514E-03
         0.13472E-03
         0.11135E-03
        -0.52863E-04
        -0.49265E-03
        -0.90017E-03
        -0.11826E-02
        -0.77993E-03
         0.22581E-03
         0.43499E-03
         0.41776E-03
         0.73764E-03
         0.89711E-03
         0.59539E-03
         0.56130E-03
        -0.18853E-04
         0.24796E-05
        -0.42904E-05
        -0.31066E-05
         0.32519E-04
         0.12571E-04
         0.30824E-05
        -0.21995E-04
        -0.68305E-05
        -0.20231E-04
         0.17858E-05
        -0.34093E-04
        -0.65676E-04
         0.70642E-05
         0.86645E-04
        -0.13931E-04
         0.25512E-05
         0.12839E-05
         0.40417E-05
         0.12841E-05
         0.36964E-04
         0.24663E-04
        -0.14153E-04
         0.28382E-05
         0.69459E-05
        -0.10864E-05
         0.16784E-05
        -0.33834E-06
        -0.14395E-05
        -0.11138E-04
        -0.11561E-04
        -0.18772E-05
         0.47051E-05
         0.36457E-05
         0.78151E-05
        -0.14208E-04
        -0.30965E-04
         0.74446E-04
         0.11746E-04
         0.28379E-04
         0.74911E-04
        -0.18244E-04
        -0.38084E-04
        -0.34466E-04
        -0.33905E-04
        -0.40379E-04
         0.25480E-04
         0.19871E-04
        -0.30657E-05
         0.45348E-05
         0.49458E-04
         0.28612E-05
        -0.34190E-03
         0.49714E-03
        -0.10410E-02
        -0.11089E-02
        -0.10642E-02
        -0.58717E-03
         0.14433E-03
         0.40710E-03
         0.50836E-03
         0.92480E-03
         0.10343E-02
         0.40545E-03
         0.13474E-03
         0.11157E-03
        -0.52408E-04
        -0.49312E-03
        -0.90095E-03
        -0.11831E-02
        -0.77968E-03
         0.22587E-03
         0.43463E-03
         0.41759E-03
         0.73691E-03
         0.89592E-03
         0.59445E-03
         0.56031E-03
        -0.18892E-04
         0.24921E-05
        -0.42970E-05
        -0.31312E-05
         0.32493E-04
         0.12569E-04
         0.31038E-05
        -0.21965E-04
        -0.68488E-05
        -0.20274E-04
         0.17441E-05
        -0.34173E-04
        -0.65741E-04
         0.70527E-05
         0.86708E-04
        -0.13951E-04
         0.25811E-05
         0.12782E-05
         0.40426E-05
         0.12731E-05
         0.37058E-04
         0.24680E-04
        -0.14175E-04
         0.28344E-05
         0.69908E-05
        -0.10847E-05
         0.17071E-05
        -0.33487E-06
        -0.14309E-05
        -0.11163E-04
        -0.11577E-04
        -0.18658E-05
         0.46944E-05
         0.36532E-05
         0.77374E-05
        -0.14215E-04
        -0.30960E-04
         0.74681E-04
         0.11878E-04
         0.28508E-04
         0.75047E-04
        -0.18163E-04
        -0.38112E-04
        -0.34516E-04
        -0.33918E-04
        -0.40372E-04
         0.25485E-04
         0.19877E-04
        -0.30349E-05
         0.45187E-05
         0.49410E-04
         0.28073E-05
        -0.34145E-03
         0.49704E-03
        -0.10411E-02
        -0.11089E-02
        -0.10637E-02
        -0.58678E-03
         0.14443E-03
         0.40722E-03
         0.50783E-03
         0.92417E-03
         0.10340E-02
         0.40576E-03
         0.13476E-03
         0.11179E-03
        -0.51954E-04
        -0.49359E-03
        -0.90173E-03
        -0.11837E-02
        -0.77943E-03
         0.22592E-03
         0.43426E-03
         0.41741E-03
         0.73619E-03
         0.89474E-03
         0.59351E-03
         0.55931E-03
        -0.18931E-04
         0.25045E-05
        -0.43038E-05
        -0.31558E-05
         0.32467E-04
         0.12568E-04
         0.31253E-05
        -0.21933E-04
        -0.68671E-05
        -0.20317E-04
         0.17023E-05
        -0.34254E-04
        -0.65804E-04
         0.70419E-05
         0.86771E-04
        -0.13971E-04
         0.26111E-05
         0.12724E-05
         0.40439E-05
         0.12621E-05
         0.37151E-04
         0.24697E-04
        -0.14197E-04
         0.28307E-05
         0.70355E-05
        -0.10829E-05
         0.17365E-05
        -0.33118E-06
        -0.14221E-05
        -0.11188E-04
        -0.11594E-04
        -0.18545E-05
         0.46837E-05
         0.36607E-05
         0.76593E-05
        -0.14221E-04
        -0.30956E-04
         0.74917E-04
         0.12010E-04
         0.28636E-04
         0.75182E-04
        -0.18082E-04
        -0.38139E-04
        -0.34564E-04
        -0.33931E-04
        -0.40366E-04
         0.25490E-04
         0.19882E-04
        -0.30039E-05
         0.45031E-05
         0.49366E-04
         0.27534E-05
        -0.34101E-03
         0.49693E-03
        -0.10411E-02
        -0.11089E-02
        -0.10632E-02
        -0.58641E-03
         0.14452E-03
         0.40734E-03
         0.50730E-03
         0.92354E-03
         0.10337E-02
         0.40607E-03
         0.13477E-03
         0.11201E-03
        -0.51498E-04
        -0.49406E-03
        -0.90250E-03
        -0.11842E-02
        -0.77918E-03
         0.22598E-03
         0.43390E-03
         0.41724E-03
         0.73547E-03
         0.89355E-03
         0.59257E-03
         0.55832E-03
        -0.18970E-04
         0.25168E-05
        -0.43102E-05
        -0.31806E-05
         0.32441E-04
         0.12566E-04
         0.31466E-05
        -0.21902E-04
        -0.68854E-05
        -0.20360E-04
         0.16605E-05
        -0.34334E-04
        -0.65866E-04
         0.70310E-05
         0.86832E-04
        -0.13991E-04
         0.26412E-05
         0.12666E-05
         0.40449E-05
         0.12513E-05
         0.37245E-04
         0.24713E-04
        -0.14220E-04
         0.28271E-05
         0.70803E-05
        -0.10811E-05
         0.17651E-05
        -0.32737E-06
        -0.14129E-05
        -0.11214E-04
        -0.11611E-04
        -0.18431E-05
         0.46727E-05
         0.36683E-05
         0.75808E-05
        -0.14228E-04
        -0.30950E-04
         0.75153E-04
         0.12144E-04
         0.28766E-04
         0.75318E-04
        -0.18001E-04
        -0.38167E-04
        -0.34614E-04
        -0.33944E-04
        -0.40361E-04
         0.25495E-04
         0.19888E-04
        -0.29729E-05
         0.44880E-05
         0.49321E-04
         0.26996E-05
        -0.34057E-03
         0.49683E-03
        -0.10412E-02
        -0.11089E-02
        -0.10628E-02
        -0.58603E-03
         0.14461E-03
         0.40747E-03
         0.50676E-03
         0.92290E-03
         0.10333E-02
         0.40638E-03
         0.13479E-03
         0.11222E-03
        -0.51040E-04
        -0.49453E-03
        -0.90328E-03
        -0.11848E-02
        -0.77893E-03
         0.22603E-03
         0.43354E-03
         0.41707E-03
         0.73475E-03
         0.89237E-03
         0.59163E-03
         0.55733E-03
        -0.19009E-04
         0.25293E-05
        -0.43167E-05
        -0.32055E-05
         0.32414E-04
         0.12565E-04
         0.31680E-05
        -0.21870E-04
        -0.69036E-05
        -0.20402E-04
         0.16188E-05
        -0.34414E-04
        -0.65930E-04
         0.70192E-05
         0.86895E-04
        -0.14011E-04
         0.26715E-05
         0.12608E-05
         0.40460E-05
         0.12405E-05
         0.37338E-04
         0.24730E-04
        -0.14241E-04
         0.28235E-05
         0.71249E-05
        -0.10793E-05
         0.17946E-05
        -0.32336E-06
        -0.14037E-05
        -0.11239E-04
        -0.11627E-04
        -0.18317E-05
         0.46615E-05
         0.36758E-05
         0.75020E-05
        -0.14235E-04
        -0.30945E-04
         0.75387E-04
         0.12278E-04
         0.28895E-04
         0.75455E-04
        -0.17919E-04
        -0.38194E-04
        -0.34665E-04
        -0.33959E-04
        -0.40352E-04
         0.25500E-04
         0.19893E-04
        -0.29419E-05
         0.44723E-05
         0.49273E-04
         0.26461E-05
        -0.34012E-03
         0.49673E-03
        -0.10413E-02
        -0.11089E-02
        -0.10623E-02
        -0.58565E-03
         0.14470E-03
         0.40758E-03
         0.50623E-03
         0.92226E-03
         0.10330E-02
         0.40669E-03
         0.13480E-03
         0.11244E-03
        -0.50583E-04
        -0.49500E-03
        -0.90406E-03
        -0.11853E-02
        -0.77869E-03
         0.22609E-03
         0.43317E-03
         0.41690E-03
         0.73403E-03
         0.89119E-03
         0.59070E-03
         0.55634E-03
        -0.19048E-04
         0.25416E-05
        -0.43232E-05
        -0.32304E-05
         0.32389E-04
         0.12563E-04
         0.31894E-05
        -0.21838E-04
        -0.69219E-05
        -0.20443E-04
         0.15771E-05
        -0.34494E-04
        -0.65993E-04
         0.70082E-05
         0.86956E-04
        -0.14031E-04
         0.27019E-05
         0.12551E-05
         0.40474E-05
         0.12297E-05
         0.37432E-04
         0.24747E-04
        -0.14264E-04
         0.28199E-05
         0.71697E-05
        -0.10774E-05
         0.18234E-05
        -0.31922E-06
        -0.13942E-05
        -0.11264E-04
        -0.11644E-04
        -0.18203E-05
         0.46503E-05
         0.36834E-05
         0.74229E-05
        -0.14242E-04
        -0.30939E-04
         0.75623E-04
         0.12413E-04
         0.29025E-04
         0.75591E-04
        -0.17837E-04
        -0.38222E-04
        -0.34714E-04
        -0.33972E-04
        -0.40347E-04
         0.25506E-04
         0.19898E-04
        -0.29110E-05
         0.44568E-05
         0.49229E-04
         0.25932E-05
        -0.33968E-03
         0.49662E-03
        -0.10413E-02
        -0.11089E-02
        -0.10619E-02
        -0.58526E-03
         0.14480E-03
         0.40769E-03
         0.50569E-03
         0.92161E-03
         0.10326E-02
         0.40700E-03
         0.13482E-03
         0.11266E-03
        -0.50128E-04
        -0.49548E-03
        -0.90484E-03
        -0.11859E-02
        -0.77844E-03
         0.22614E-03
         0.43281E-03
         0.41673E-03
         0.73331E-03
         0.89000E-03
         0.58977E-03
         0.55534E-03
        -0.19088E-04
         0.25538E-05
        -0.43298E-05
        -0.32552E-05
         0.32362E-04
         0.12561E-04
         0.32108E-05
        -0.21806E-04
        -0.69402E-05
        -0.20485E-04
         0.15353E-05
        -0.34576E-04
        -0.66056E-04
         0.69962E-05
         0.87017E-04
        -0.14051E-04
         0.27326E-05
         0.12494E-05
         0.40484E-05
         0.12188E-05
         0.37526E-04
         0.24763E-04
        -0.14285E-04
         0.28164E-05
         0.72145E-05
        -0.10756E-05
         0.18526E-05
        -0.31488E-06
        -0.13846E-05
        -0.11289E-04
        -0.11660E-04
        -0.18088E-05
         0.46390E-05
         0.36909E-05
         0.73436E-05
        -0.14249E-04
        -0.30934E-04
         0.75859E-04
         0.12548E-04
         0.29154E-04
         0.75728E-04
        -0.17755E-04
        -0.38250E-04
        -0.34764E-04
        -0.33985E-04
        -0.40341E-04
         0.25510E-04
         0.19904E-04
        -0.28797E-05
         0.44414E-05
         0.49183E-04
         0.25399E-05
        -0.33924E-03
         0.49652E-03
        -0.10414E-02
        -0.11089E-02
        -0.10614E-02
        -0.58488E-03
         0.14488E-03
         0.40780E-03
         0.50516E-03
         0.92097E-03
         0.10323E-02
         0.40731E-03
         0.13483E-03
         0.11288E-03
        -0.49671E-04
        -0.49595E-03
        -0.90562E-03
        -0.11865E-02
        -0.77819E-03
         0.22619E-03
         0.43245E-03
         0.41657E-03
         0.73259E-03
         0.88882E-03
         0.58884E-03
         0.55435E-03
        -0.19127E-04
         0.25662E-05
        -0.43363E-05
        -0.32800E-05
         0.32336E-04
         0.12559E-04
         0.32322E-05
        -0.21774E-04
        -0.69587E-05
        -0.20526E-04
         0.14934E-05
        -0.34657E-04
        -0.66120E-04
         0.69850E-05
         0.87076E-04
        -0.14071E-04
         0.27635E-05
         0.12437E-05
         0.40495E-05
         0.12081E-05
         0.37620E-04
         0.24779E-04
        -0.14307E-04
         0.28129E-05
         0.72591E-05
        -0.10737E-05
         0.18811E-05
        -0.31038E-06
        -0.13747E-05
        -0.11315E-04
        -0.11676E-04
        -0.17975E-05
         0.46275E-05
         0.36986E-05
         0.72637E-05
        -0.14255E-04
        -0.30929E-04
         0.76095E-04
         0.12684E-04
         0.29283E-04
         0.75863E-04
        -0.17673E-04
        -0.38278E-04
        -0.34812E-04
        -0.34000E-04
        -0.40334E-04
         0.25515E-04
         0.19909E-04
        -0.28488E-05
         0.44258E-05
         0.49137E-04
         0.24868E-05
        -0.33879E-03
         0.49641E-03
        -0.10415E-02
        -0.11089E-02
        -0.10610E-02
        -0.58449E-03
         0.14497E-03
         0.40791E-03
         0.50463E-03
         0.92033E-03
         0.10320E-02
         0.40762E-03
         0.13485E-03
         0.11310E-03
        -0.49214E-04
        -0.49641E-03
        -0.90640E-03
        -0.11870E-02
        -0.77794E-03
         0.22624E-03
         0.43209E-03
         0.41640E-03
         0.73187E-03
         0.88764E-03
         0.58791E-03
         0.55336E-03
        -0.19166E-04
         0.25785E-05
        -0.43429E-05
        -0.33050E-05
         0.32310E-04
         0.12557E-04
         0.32538E-05
        -0.21741E-04
        -0.69769E-05
        -0.20567E-04
         0.14515E-05
        -0.34738E-04
        -0.66184E-04
         0.69728E-05
         0.87136E-04
        -0.14091E-04
         0.27947E-05
         0.12380E-05
         0.40507E-05
         0.11975E-05
         0.37713E-04
         0.24794E-04
        -0.14329E-04
         0.28095E-05
         0.73034E-05
        -0.10717E-05
         0.19103E-05
        -0.30564E-06
        -0.13646E-05
        -0.11339E-04
        -0.11693E-04
        -0.17861E-05
         0.46160E-05
         0.37063E-05
         0.71836E-05
        -0.14262E-04
        -0.30923E-04
         0.76332E-04
         0.12822E-04
         0.29414E-04
         0.75998E-04
        -0.17592E-04
        -0.38305E-04
        -0.34862E-04
        -0.34013E-04
        -0.40329E-04
         0.25521E-04
         0.19915E-04
        -0.28180E-05
         0.44102E-05
         0.49092E-04
         0.24344E-05
        -0.33835E-03
         0.49631E-03
        -0.10416E-02
        -0.11089E-02
        -0.10605E-02
        -0.58411E-03
         0.14505E-03
         0.40802E-03
         0.50410E-03
         0.91968E-03
         0.10316E-02
         0.40794E-03
         0.13485E-03
         0.11331E-03
        -0.48759E-04
        -0.49688E-03
        -0.90718E-03
        -0.11876E-02
        -0.77769E-03
         0.22629E-03
         0.43173E-03
         0.41623E-03
         0.73114E-03
         0.88646E-03
         0.58699E-03
         0.55237E-03
        -0.19205E-04
         0.25908E-05
        -0.43493E-05
        -0.33300E-05
         0.32284E-04
         0.12556E-04
         0.32751E-05
        -0.21708E-04
        -0.69948E-05
        -0.20604E-04
         0.14095E-05
        -0.34819E-04
        -0.66246E-04
         0.69612E-05
         0.87194E-04
        -0.14111E-04
         0.28262E-05
         0.12323E-05
         0.40524E-05
         0.11873E-05
         0.37806E-04
         0.24809E-04
        -0.14351E-04
         0.28059E-05
         0.73468E-05
        -0.10699E-05
         0.19391E-05
        -0.30055E-06
        -0.13542E-05
        -0.11364E-04
        -0.11709E-04
        -0.17745E-05
         0.46042E-05
         0.37140E-05
         0.71032E-05
        -0.14269E-04
        -0.30918E-04
         0.76568E-04
         0.12964E-04
         0.29540E-04
         0.76127E-04
        -0.17508E-04
        -0.38333E-04
        -0.34912E-04
        -0.34027E-04
        -0.40322E-04
         0.25525E-04
         0.19921E-04
        -0.27873E-05
         0.43948E-05
         0.49048E-04
         0.23819E-05
        -0.33790E-03
         0.49620E-03
        -0.10416E-02
        -0.11090E-02
        -0.10600E-02
        -0.58373E-03
         0.14514E-03
         0.40813E-03
         0.50357E-03
         0.91901E-03
         0.10313E-02
         0.40827E-03
         0.13486E-03
         0.11353E-03
        -0.48304E-04
        -0.49735E-03
        -0.90796E-03
        -0.11881E-02
        -0.77745E-03
         0.22634E-03
         0.43137E-03
         0.41606E-03
         0.73042E-03
         0.88528E-03
         0.58607E-03
         0.55138E-03
        -0.19244E-04
         0.26030E-05
        -0.43557E-05
        -0.33550E-05
         0.32257E-04
         0.12553E-04
         0.32966E-05
        -0.21675E-04
        -0.70122E-05
        -0.20639E-04
         0.13676E-05
        -0.34899E-04
        -0.66310E-04
         0.69493E-05
         0.87251E-04
        -0.14131E-04
         0.28581E-05
         0.12265E-05
         0.40536E-05
         0.11775E-05
         0.37900E-04
         0.24822E-04
        -0.14373E-04
         0.28025E-05
         0.73889E-05
        -0.10679E-05
         0.19690E-05
        -0.29506E-06
        -0.13437E-05
        -0.11387E-04
        -0.11726E-04
        -0.17631E-05
         0.45922E-05
         0.37216E-05
         0.70222E-05
        -0.14276E-04
        -0.30913E-04
         0.76803E-04
         0.13108E-04
         0.29667E-04
         0.76252E-04
        -0.17424E-04
        -0.38361E-04
        -0.34961E-04
        -0.34041E-04
        -0.40316E-04
         0.25531E-04
         0.19926E-04
        -0.27565E-05
         0.43794E-05
         0.49001E-04
         0.23292E-05
        -0.33746E-03
         0.49609E-03
        -0.10417E-02
        -0.11090E-02
        -0.10596E-02
        -0.58335E-03
         0.14522E-03
         0.40824E-03
         0.50305E-03
         0.91831E-03
         0.10310E-02
         0.40861E-03
         0.13485E-03
         0.11374E-03
        -0.47847E-04
        -0.49782E-03
        -0.90874E-03
        -0.11887E-02
        -0.77720E-03
         0.22639E-03
         0.43101E-03
         0.41589E-03
         0.72970E-03
         0.88411E-03
         0.58516E-03
         0.55039E-03
        -0.19283E-04
         0.26152E-05
        -0.43624E-05
        -0.33800E-05
         0.32232E-04
         0.12552E-04
         0.33181E-05
        -0.21641E-04
        -0.70296E-05
        -0.20673E-04
         0.13259E-05
        -0.34979E-04
        -0.66373E-04
         0.69367E-05
         0.87307E-04
        -0.14151E-04
         0.28903E-05
         0.12209E-05
         0.40547E-05
         0.11679E-05
         0.37993E-04
         0.24836E-04
        -0.14394E-04
         0.27993E-05
         0.74307E-05
        -0.10661E-05
         0.19981E-05
        -0.28930E-06
        -0.13332E-05
        -0.11409E-04
        -0.11742E-04
        -0.17519E-05
         0.45804E-05
         0.37295E-05
         0.69420E-05
        -0.14283E-04
        -0.30906E-04
         0.77036E-04
         0.13255E-04
         0.29790E-04
         0.76373E-04
        -0.17341E-04
        -0.38389E-04
        -0.35010E-04
        -0.34054E-04
        -0.40311E-04
         0.25536E-04
         0.19932E-04
        -0.27259E-05
         0.43637E-05
         0.48957E-04
         0.22771E-05
        -0.33701E-03
         0.49599E-03
        -0.10418E-02
        -0.11090E-02
        -0.10591E-02
        -0.58296E-03
         0.14530E-03
         0.40833E-03
         0.50253E-03
         0.91759E-03
         0.10307E-02
         0.40895E-03
         0.13484E-03
         0.11396E-03
        -0.47389E-04
        -0.49828E-03
        -0.90952E-03
        -0.11892E-02
        -0.77695E-03
         0.22645E-03
         0.43065E-03
         0.41571E-03
         0.72898E-03
         0.88294E-03
         0.58425E-03
         0.54941E-03
        -0.19479E-04
         0.26468E-05
        -0.44058E-05
        -0.34316E-05
         0.32466E-04
         0.12650E-04
         0.33652E-05
        -0.21790E-04
        -0.71025E-05
        -0.20876E-04
         0.13003E-05
        -0.35318E-04
        -0.66952E-04
         0.69826E-05
         0.88083E-04
        -0.14285E-04
         0.29445E-05
         0.12254E-05
         0.40876E-05
         0.11684E-05
         0.38374E-04
         0.25045E-04
        -0.14513E-04
         0.28205E-05
         0.75309E-05
        -0.10739E-05
         0.20416E-05
        -0.28573E-06
        -0.13362E-05
        -0.11526E-04
        -0.11855E-04
        -0.17580E-05
         0.46071E-05
         0.37677E-05
         0.69245E-05
        -0.14397E-04
        -0.31139E-04
         0.77892E-04
         0.13499E-04
         0.30148E-04
         0.77107E-04
        -0.17420E-04
        -0.38735E-04
        -0.35309E-04
        -0.34320E-04
        -0.40607E-04
         0.25737E-04
         0.20091E-04
        -0.27199E-05
         0.43828E-05
         0.49302E-04
         0.22437E-05
        -0.33927E-03
         0.49994E-03
        -0.10503E-02
        -0.11179E-02
        -0.10673E-02
        -0.58740E-03
         0.14667E-03
         0.41188E-03
         0.50634E-03
         0.92488E-03
         0.10392E-02
         0.41257E-03
         0.13585E-03
         0.11502E-03
        -0.47307E-04
        -0.50235E-03
        -0.91693E-03
        -0.11990E-02
        -0.78304E-03
         0.22840E-03
         0.43375E-03
         0.41875E-03
         0.73403E-03
         0.88879E-03
         0.58794E-03
         0.55273E-03
        -0.43414E-04
         0.59640E-05
        -0.97864E-05
        -0.77130E-05
         0.67137E-04
         0.26666E-04
         0.75498E-05
        -0.48059E-04
        -0.15754E-04
        -0.45878E-04
         0.27717E-05
        -0.70550E-04
        -0.13771E-03
         0.14958E-04
         0.17785E-03
        -0.31891E-04
         0.65792E-05
         0.27296E-05
         0.88826E-05
         0.25446E-05
         0.78911E-04
         0.52771E-04
        -0.29936E-04
         0.62224E-05
         0.16885E-04
        -0.24093E-05
         0.44856E-05
        -0.62968E-06
        -0.30014E-05
        -0.25762E-04
        -0.26482E-04
        -0.39020E-05
         0.10304E-04
         0.84370E-05
         0.13617E-04
        -0.30292E-04
        -0.65550E-04
         0.16451E-03
         0.29423E-04
         0.65983E-04
         0.16401E-03
        -0.37514E-04
        -0.83489E-04
        -0.73931E-04
        -0.71380E-04
        -0.79749E-04
         0.53178E-04
         0.42562E-04
        -0.57794E-05
         0.92791E-05
         0.99562E-04
         0.46257E-05
        -0.53343E-03
         0.78416E-03
        -0.16488E-02
        -0.17644E-02
        -0.16827E-02
        -0.93098E-03
         0.23812E-03
         0.67912E-03
         0.83122E-03
         0.15014E-02
         0.16909E-02
         0.66850E-03
         0.22458E-03
         0.19154E-03
        -0.76209E-04
        -0.79632E-03
        -0.14449E-02
        -0.18701E-02
        -0.12202E-02
         0.35709E-03
         0.69108E-03
         0.67288E-03
         0.11713E-02
         0.14277E-02
         0.93837E-03
         0.87566E-03
  
SCALARS                      strain_eq  double 1
LOOKUP_TABLE default
         0.28208E+01
         0.27746E+01
         0.28040E+01
         0.28565E+01
         0.17953E-08
         0.19907E-08
         0.19341E-08
         0.17403E-08
         0.27734E+01
         0.27888E+01
         0.19579E-08
         0.18724E-08
         0.27077E+01
         0.27052E+01
         0.21421E-08
         0.20399E-08
         0.28488E+01
         0.27089E+01
         0.15980E-08
         0.17973E-08
         0.26574E+01
         0.26177E+01
         0.26812E+01
         0.22062E-08
         0.21045E-08
         0.20933E-08
         0.26191E+01
         0.25609E+01
         0.21370E-08
         0.19408E-08
         0.28462E+01
         0.27854E+01
         0.29053E+01
         0.17389E-08
         0.16329E-08
         0.15642E-08
         0.28111E+01
         0.27335E+01
         0.18958E-08
         0.17283E-08
         0.27804E+01
         0.27206E+01
         0.17634E-08
         0.15213E-08
         0.28311E+01
         0.28535E+01
         0.19042E-08
         0.19747E-08
         0.26725E+01
         0.17066E-08
         0.28491E+01
         0.19843E-08
         0.26022E+01
         0.18658E-08
         0.25839E+01
         0.17222E-08
         0.25843E+01
         0.26493E+01
         0.17452E-08
         0.17161E-08
         0.28450E+01
         0.28217E+01
         0.17608E-08
         0.19932E-08
         0.28596E+01
         0.16901E-08
         0.28319E+01
         0.18510E-08
         0.27594E+01
         0.27516E+01
         0.19800E-08
         0.19787E-08
         0.27350E+01
         0.20024E-08
         0.25403E+01
         0.16006E-08
         0.25301E+01
         0.14898E-08
         0.25354E+01
         0.15519E-08
         0.25641E+01
         0.25929E+01
         0.15011E-08
         0.15591E-08
         0.26517E+01
         0.14683E-08
         0.28300E+01
         0.19715E-08
         0.28024E+01
         0.20076E-08
         0.27801E+01
         0.27670E+01
         0.20058E-08
         0.19676E-08
         0.27822E+01
         0.17657E-08
         0.27932E+01
         0.17288E-08
         0.27834E+01
         0.18699E-08
         0.27803E+01
         0.27900E+01
         0.19224E-08
         0.19171E-08
         0.27271E+01
         0.27540E+01
         0.18279E-08
         0.17644E-08
         0.27228E+01
         0.17752E-08
         0.27538E+01
         0.17332E-08
         0.27236E+01
         0.17311E-08
         0.26574E+01
         0.16229E-08
         0.25937E+01
         0.13733E-08
         0.25552E+01
         0.11604E-08
         0.25513E+01
         0.11254E-08
         0.25524E+01
         0.11991E-08
         0.25940E+01
         0.12369E-08
         0.26727E+01
         0.11587E-08
         0.27588E+01
         0.10575E-08
         0.28085E+01
         0.10945E-08
         0.28579E+01
         0.12974E-08
         0.28905E+01
         0.15146E-08
         0.28896E+01
         0.16143E-08
         0.28092E+01
         0.17236E-08
         0.27529E+01
         0.18114E-08
         0.27347E+01
         0.16901E-08
         0.27651E+01
         0.14880E-08
         0.27803E+01
         0.14851E-08
         0.27534E+01
         0.16342E-08
         0.27532E+01
         0.17341E-08
         0.27735E+01
         0.16779E-08
         0.27997E+01
         0.16405E-08
         0.37350E+00
         0.37662E+00
         0.37620E+00
         0.37201E+00
         0.37966E+00
         0.37593E+00
         0.38033E+00
         0.37808E+00
         0.37271E+00
         0.37615E+00
         0.38268E+00
         0.38372E+00
         0.38174E+00
         0.38137E+00
         0.38294E+00
         0.37223E+00
         0.37302E+00
         0.37074E+00
         0.37694E+00
         0.37586E+00
         0.37762E+00
         0.37664E+00
         0.37845E+00
         0.37778E+00
         0.37598E+00
         0.37608E+00
         0.37914E+00
         0.37885E+00
         0.38103E+00
         0.37774E+00
         0.37262E+00
         0.37665E+00
         0.37264E+00
         0.37532E+00
         0.38415E+00
         0.38141E+00
         0.38016E+00
         0.38181E+00
         0.38192E+00
         0.38423E+00
         0.38608E+00
         0.38187E+00
         0.37762E+00
         0.37812E+00
         0.38032E+00
         0.38410E+00
         0.38081E+00
         0.37724E+00
         0.37748E+00
         0.38025E+00
         0.38308E+00
         0.37933E+00
         0.39215E+00
         0.38980E+00
         0.39051E+00
         0.39009E+00
         0.39065E+00
         0.39267E+00
         0.39391E+00
         0.39368E+00
         0.39331E+00
         0.39370E+00
         0.39406E+00
         0.39045E+00
         0.38816E+00
         0.38727E+00
         0.38654E+00
         0.38602E+00
         0.38631E+00
         0.38789E+00
         0.39161E+00
         0.39103E+00
         0.38933E+00
         0.38905E+00
         0.38934E+00
         0.39045E+00
         0.38873E+00
         0.38814E+00
         0.12755E-01
         0.76642E-02
         0.72292E-02
         0.49573E-02
         0.13246E-01
         0.91585E-02
         0.40426E-02
         0.12545E-01
         0.78584E-02
         0.11821E-01
         0.57636E-02
         0.24836E-01
         0.18859E-01
         0.94325E-02
         0.26012E-01
         0.92683E-02
         0.46954E-02
         0.29957E-02
         0.62408E-02
         0.33786E-02
         0.19531E-01
         0.18324E-01
         0.17844E-01
         0.46437E-02
         0.76286E-02
         0.24257E-02
         0.88993E-02
         0.14454E-02
         0.32594E-02
         0.82745E-02
         0.79176E-02
         0.42114E-02
         0.51284E-02
         0.44365E-02
         0.17123E-01
         0.10247E-01
         0.13264E-01
         0.21213E-01
         0.16318E-01
         0.15188E-01
         0.21571E-01
         0.19554E-01
         0.19684E-01
         0.15238E-01
         0.13608E-01
         0.18616E-01
         0.12204E-01
         0.10377E-01
         0.85572E-02
         0.10105E-01
         0.16523E-01
         0.11344E-01
         0.72550E-01
         0.74286E-01
         0.77652E-01
         0.77088E-01
         0.82178E-01
         0.88235E-01
         0.84668E-01
         0.75284E-01
         0.73364E-01
         0.78517E-01
         0.76951E-01
         0.75903E-01
         0.62743E-01
         0.59644E-01
         0.65525E-01
         0.70186E-01
         0.72837E-01
         0.79544E-01
         0.76512E-01
         0.78584E-01
         0.70758E-01
         0.67183E-01
         0.71649E-01
         0.70043E-01
         0.72077E-01
         0.71470E-01
         0.12765E-01
         0.76659E-02
         0.72333E-02
         0.49644E-02
         0.13240E-01
         0.91532E-02
         0.40549E-02
         0.12557E-01
         0.78720E-02
         0.11856E-01
         0.57635E-02
         0.24835E-01
         0.18867E-01
         0.94104E-02
         0.26039E-01
         0.92757E-02
         0.47086E-02
         0.29881E-02
         0.62444E-02
         0.33712E-02
         0.19533E-01
         0.18322E-01
         0.17843E-01
         0.46436E-02
         0.76614E-02
         0.24251E-02
         0.89022E-02
         0.14301E-02
         0.32749E-02
         0.82891E-02
         0.79252E-02
         0.42101E-02
         0.51197E-02
         0.44405E-02
         0.17131E-01
         0.10244E-01
         0.13261E-01
         0.21246E-01
         0.16354E-01
         0.15209E-01
         0.21585E-01
         0.19564E-01
         0.19687E-01
         0.15238E-01
         0.13606E-01
         0.18615E-01
         0.12204E-01
         0.10376E-01
         0.85450E-02
         0.10091E-01
         0.16513E-01
         0.11326E-01
         0.72524E-01
         0.74268E-01
         0.77652E-01
         0.77089E-01
         0.82164E-01
         0.88205E-01
         0.84632E-01
         0.75264E-01
         0.73345E-01
         0.78494E-01
         0.76938E-01
         0.75906E-01
         0.62737E-01
         0.59641E-01
         0.65532E-01
         0.70203E-01
         0.72855E-01
         0.79560E-01
         0.76508E-01
         0.78580E-01
         0.70751E-01
         0.67179E-01
         0.71624E-01
         0.69997E-01
         0.72037E-01
         0.71432E-01
         0.12775E-01
         0.76677E-02
         0.72374E-02
         0.49715E-02
         0.13234E-01
         0.91482E-02
         0.40672E-02
         0.12569E-01
         0.78856E-02
         0.11890E-01
         0.57634E-02
         0.24834E-01
         0.18874E-01
         0.93883E-02
         0.26066E-01
         0.92833E-02
         0.47219E-02
         0.29805E-02
         0.62481E-02
         0.33639E-02
         0.19534E-01
         0.18321E-01
         0.17842E-01
         0.46434E-02
         0.76940E-02
         0.24244E-02
         0.89051E-02
         0.14154E-02
         0.32903E-02
         0.83032E-02
         0.79329E-02
         0.42087E-02
         0.51110E-02
         0.44445E-02
         0.17139E-01
         0.10241E-01
         0.13258E-01
         0.21279E-01
         0.16391E-01
         0.15230E-01
         0.21600E-01
         0.19575E-01
         0.19689E-01
         0.15239E-01
         0.13603E-01
         0.18614E-01
         0.12204E-01
         0.10376E-01
         0.85329E-02
         0.10077E-01
         0.16504E-01
         0.11309E-01
         0.72498E-01
         0.74251E-01
         0.77651E-01
         0.77089E-01
         0.82151E-01
         0.88176E-01
         0.84597E-01
         0.75244E-01
         0.73327E-01
         0.78470E-01
         0.76925E-01
         0.75909E-01
         0.62731E-01
         0.59639E-01
         0.65540E-01
         0.70220E-01
         0.72874E-01
         0.79578E-01
         0.76504E-01
         0.78575E-01
         0.70743E-01
         0.67174E-01
         0.71600E-01
         0.69951E-01
         0.71996E-01
         0.71394E-01
         0.12784E-01
         0.76694E-02
         0.72416E-02
         0.49787E-02
         0.13228E-01
         0.91429E-02
         0.40796E-02
         0.12581E-01
         0.78992E-02
         0.11924E-01
         0.57634E-02
         0.24834E-01
         0.18882E-01
         0.93662E-02
         0.26093E-01
         0.92916E-02
         0.47358E-02
         0.29729E-02
         0.62521E-02
         0.33562E-02
         0.19537E-01
         0.18320E-01
         0.17843E-01
         0.46429E-02
         0.77259E-02
         0.24233E-02
         0.89075E-02
         0.14024E-02
         0.33048E-02
         0.83160E-02
         0.79410E-02
         0.42076E-02
         0.51023E-02
         0.44486E-02
         0.17146E-01
         0.10238E-01
         0.13254E-01
         0.21313E-01
         0.16428E-01
         0.15252E-01
         0.21615E-01
         0.19586E-01
         0.19693E-01
         0.15240E-01
         0.13602E-01
         0.18614E-01
         0.12205E-01
         0.10375E-01
         0.85208E-02
         0.10063E-01
         0.16495E-01
         0.11291E-01
         0.72471E-01
         0.74233E-01
         0.77651E-01
         0.77090E-01
         0.82137E-01
         0.88146E-01
         0.84562E-01
         0.75224E-01
         0.73308E-01
         0.78446E-01
         0.76912E-01
         0.75913E-01
         0.62727E-01
         0.59637E-01
         0.65549E-01
         0.70240E-01
         0.72896E-01
         0.79596E-01
         0.76500E-01
         0.78571E-01
         0.70735E-01
         0.67170E-01
         0.71575E-01
         0.69905E-01
         0.71956E-01
         0.71356E-01
         0.12794E-01
         0.76711E-02
         0.72457E-02
         0.49858E-02
         0.13222E-01
         0.91377E-02
         0.40919E-02
         0.12593E-01
         0.79127E-02
         0.11957E-01
         0.57636E-02
         0.24833E-01
         0.18890E-01
         0.93442E-02
         0.26120E-01
         0.93005E-02
         0.47502E-02
         0.29652E-02
         0.62562E-02
         0.33484E-02
         0.19540E-01
         0.18320E-01
         0.17844E-01
         0.46422E-02
         0.77570E-02
         0.24217E-02
         0.89097E-02
         0.13911E-02
         0.33185E-02
         0.83275E-02
         0.79493E-02
         0.42067E-02
         0.50936E-02
         0.44526E-02
         0.17154E-01
         0.10235E-01
         0.13251E-01
         0.21346E-01
         0.16466E-01
         0.15276E-01
         0.21632E-01
         0.19597E-01
         0.19697E-01
         0.15243E-01
         0.13601E-01
         0.18615E-01
         0.12207E-01
         0.10375E-01
         0.85089E-02
         0.10049E-01
         0.16486E-01
         0.11274E-01
         0.72445E-01
         0.74215E-01
         0.77651E-01
         0.77090E-01
         0.82123E-01
         0.88116E-01
         0.84527E-01
         0.75204E-01
         0.73289E-01
         0.78423E-01
         0.76900E-01
         0.75917E-01
         0.62724E-01
         0.59636E-01
         0.65559E-01
         0.70263E-01
         0.72920E-01
         0.79615E-01
         0.76496E-01
         0.78566E-01
         0.70728E-01
         0.67166E-01
         0.71551E-01
         0.69859E-01
         0.71915E-01
         0.71318E-01
         0.12803E-01
         0.76724E-02
         0.72496E-02
         0.49929E-02
         0.13216E-01
         0.91325E-02
         0.41039E-02
         0.12604E-01
         0.79262E-02
         0.11989E-01
         0.57642E-02
         0.24832E-01
         0.18897E-01
         0.93221E-02
         0.26146E-01
         0.93097E-02
         0.47647E-02
         0.29575E-02
         0.62603E-02
         0.33408E-02
         0.19543E-01
         0.18320E-01
         0.17845E-01
         0.46415E-02
         0.77875E-02
         0.24198E-02
         0.89117E-02
         0.13806E-02
         0.33320E-02
         0.83386E-02
         0.79575E-02
         0.42055E-02
         0.50848E-02
         0.44566E-02
         0.17162E-01
         0.10233E-01
         0.13249E-01
         0.21379E-01
         0.16505E-01
         0.15300E-01
         0.21649E-01
         0.19608E-01
         0.19702E-01
         0.15247E-01
         0.13602E-01
         0.18617E-01
         0.12208E-01
         0.10375E-01
         0.84975E-02
         0.10036E-01
         0.16477E-01
         0.11257E-01
         0.72419E-01
         0.74197E-01
         0.77650E-01
         0.77091E-01
         0.82110E-01
         0.88086E-01
         0.84491E-01
         0.75183E-01
         0.73271E-01
         0.78399E-01
         0.76887E-01
         0.75923E-01
         0.62722E-01
         0.59635E-01
         0.65569E-01
         0.70286E-01
         0.72945E-01
         0.79635E-01
         0.76492E-01
         0.78561E-01
         0.70720E-01
         0.67162E-01
         0.71526E-01
         0.69813E-01
         0.71875E-01
         0.71280E-01
         0.12811E-01
         0.76727E-02
         0.72535E-02
         0.50002E-02
         0.13211E-01
         0.91275E-02
         0.41155E-02
         0.12614E-01
         0.79400E-02
         0.12020E-01
         0.57657E-02
         0.24833E-01
         0.18906E-01
         0.93003E-02
         0.26174E-01
         0.93189E-02
         0.47790E-02
         0.29497E-02
         0.62645E-02
         0.33333E-02
         0.19547E-01
         0.18320E-01
         0.17847E-01
         0.46409E-02
         0.78170E-02
         0.24176E-02
         0.89141E-02
         0.13704E-02
         0.33457E-02
         0.83496E-02
         0.79651E-02
         0.42034E-02
         0.50760E-02
         0.44605E-02
         0.17170E-01
         0.10231E-01
         0.13247E-01
         0.21413E-01
         0.16544E-01
         0.15324E-01
         0.21666E-01
         0.19620E-01
         0.19707E-01
         0.15251E-01
         0.13603E-01
         0.18619E-01
         0.12211E-01
         0.10376E-01
         0.84877E-02
         0.10023E-01
         0.16469E-01
         0.11240E-01
         0.72393E-01
         0.74180E-01
         0.77649E-01
         0.77091E-01
         0.82096E-01
         0.88056E-01
         0.84455E-01
         0.75163E-01
         0.73252E-01
         0.78375E-01
         0.76875E-01
         0.75928E-01
         0.62720E-01
         0.59633E-01
         0.65578E-01
         0.70310E-01
         0.72970E-01
         0.79653E-01
         0.76487E-01
         0.78557E-01
         0.70714E-01
         0.67159E-01
         0.71502E-01
         0.69768E-01
         0.71835E-01
         0.71242E-01
         0.12819E-01
         0.76727E-02
         0.72572E-02
         0.50074E-02
         0.13205E-01
         0.91222E-02
         0.41267E-02
         0.12622E-01
         0.79540E-02
         0.12050E-01
         0.57677E-02
         0.24833E-01
         0.18914E-01
         0.92786E-02
         0.26201E-01
         0.93282E-02
         0.47931E-02
         0.29419E-02
         0.62687E-02
         0.33261E-02
         0.19550E-01
         0.18320E-01
         0.17849E-01
         0.46403E-02
         0.78460E-02
         0.24153E-02
         0.89165E-02
         0.13606E-02
         0.33599E-02
         0.83607E-02
         0.79724E-02
         0.42009E-02
         0.50672E-02
         0.44644E-02
         0.17178E-01
         0.10230E-01
         0.13245E-01
         0.21447E-01
         0.16583E-01
         0.15348E-01
         0.21683E-01
         0.19632E-01
         0.19713E-01
         0.15255E-01
         0.13604E-01
         0.18622E-01
         0.12214E-01
         0.10378E-01
         0.84787E-02
         0.10010E-01
         0.16461E-01
         0.11223E-01
         0.72366E-01
         0.74162E-01
         0.77648E-01
         0.77092E-01
         0.82083E-01
         0.88026E-01
         0.84420E-01
         0.75143E-01
         0.73234E-01
         0.78351E-01
         0.76862E-01
         0.75932E-01
         0.62718E-01
         0.59632E-01
         0.65588E-01
         0.70333E-01
         0.72996E-01
         0.79672E-01
         0.76481E-01
         0.78552E-01
         0.70707E-01
         0.67156E-01
         0.71477E-01
         0.69722E-01
         0.71794E-01
         0.71204E-01
         0.12827E-01
         0.76727E-02
         0.72609E-02
         0.50146E-02
         0.13200E-01
         0.91170E-02
         0.41380E-02
         0.12631E-01
         0.79681E-02
         0.12080E-01
         0.57695E-02
         0.24833E-01
         0.18923E-01
         0.92571E-02
         0.26228E-01
         0.93375E-02
         0.48072E-02
         0.29342E-02
         0.62728E-02
         0.33187E-02
         0.19553E-01
         0.18320E-01
         0.17851E-01
         0.46399E-02
         0.78750E-02
         0.24130E-02
         0.89190E-02
         0.13511E-02
         0.33742E-02
         0.83718E-02
         0.79797E-02
         0.41985E-02
         0.50584E-02
         0.44682E-02
         0.17186E-01
         0.10228E-01
         0.13243E-01
         0.21481E-01
         0.16622E-01
         0.15372E-01
         0.21700E-01
         0.19644E-01
         0.19718E-01
         0.15260E-01
         0.13605E-01
         0.18625E-01
         0.12217E-01
         0.10380E-01
         0.84697E-02
         0.99975E-02
         0.16454E-01
         0.11206E-01
         0.72340E-01
         0.74145E-01
         0.77647E-01
         0.77092E-01
         0.82069E-01
         0.87996E-01
         0.84384E-01
         0.75123E-01
         0.73216E-01
         0.78327E-01
         0.76850E-01
         0.75937E-01
         0.62715E-01
         0.59631E-01
         0.65598E-01
         0.70357E-01
         0.73021E-01
         0.79690E-01
         0.76476E-01
         0.78547E-01
         0.70701E-01
         0.67153E-01
         0.71452E-01
         0.69677E-01
         0.71754E-01
         0.71166E-01
         0.12835E-01
         0.76726E-02
         0.72645E-02
         0.50219E-02
         0.13194E-01
         0.91117E-02
         0.41492E-02
         0.12640E-01
         0.79821E-02
         0.12111E-01
         0.57717E-02
         0.24833E-01
         0.18931E-01
         0.92355E-02
         0.26256E-01
         0.93467E-02
         0.48214E-02
         0.29264E-02
         0.62769E-02
         0.33114E-02
         0.19557E-01
         0.18320E-01
         0.17853E-01
         0.46394E-02
         0.79040E-02
         0.24108E-02
         0.89216E-02
         0.13420E-02
         0.33885E-02
         0.83829E-02
         0.79870E-02
         0.41959E-02
         0.50497E-02
         0.44721E-02
         0.17195E-01
         0.10226E-01
         0.13241E-01
         0.21515E-01
         0.16661E-01
         0.15396E-01
         0.21717E-01
         0.19656E-01
         0.19723E-01
         0.15264E-01
         0.13607E-01
         0.18628E-01
         0.12220E-01
         0.10381E-01
         0.84606E-02
         0.99846E-02
         0.16445E-01
         0.11190E-01
         0.72314E-01
         0.74127E-01
         0.77646E-01
         0.77092E-01
         0.82056E-01
         0.87966E-01
         0.84348E-01
         0.75103E-01
         0.73197E-01
         0.78302E-01
         0.76837E-01
         0.75942E-01
         0.62713E-01
         0.59630E-01
         0.65608E-01
         0.70380E-01
         0.73046E-01
         0.79709E-01
         0.76471E-01
         0.78542E-01
         0.70695E-01
         0.67149E-01
         0.71427E-01
         0.69631E-01
         0.71714E-01
         0.71129E-01
         0.12843E-01
         0.76724E-02
         0.72682E-02
         0.50291E-02
         0.13188E-01
         0.91067E-02
         0.41606E-02
         0.12648E-01
         0.79961E-02
         0.12141E-01
         0.57739E-02
         0.24833E-01
         0.18940E-01
         0.92140E-02
         0.26283E-01
         0.93559E-02
         0.48355E-02
         0.29188E-02
         0.62811E-02
         0.33040E-02
         0.19560E-01
         0.18320E-01
         0.17855E-01
         0.46390E-02
         0.79329E-02
         0.24085E-02
         0.89242E-02
         0.13330E-02
         0.34030E-02
         0.83940E-02
         0.79943E-02
         0.41934E-02
         0.50411E-02
         0.44760E-02
         0.17203E-01
         0.10225E-01
         0.13239E-01
         0.21550E-01
         0.16700E-01
         0.15420E-01
         0.21735E-01
         0.19668E-01
         0.19728E-01
         0.15268E-01
         0.13608E-01
         0.18631E-01
         0.12223E-01
         0.10383E-01
         0.84517E-02
         0.99720E-02
         0.16438E-01
         0.11173E-01
         0.72287E-01
         0.74110E-01
         0.77645E-01
         0.77093E-01
         0.82042E-01
         0.87936E-01
         0.84312E-01
         0.75082E-01
         0.73179E-01
         0.78278E-01
         0.76825E-01
         0.75947E-01
         0.62710E-01
         0.59629E-01
         0.65618E-01
         0.70403E-01
         0.73071E-01
         0.79727E-01
         0.76466E-01
         0.78537E-01
         0.70688E-01
         0.67146E-01
         0.71402E-01
         0.69586E-01
         0.71674E-01
         0.71091E-01
         0.12851E-01
         0.76724E-02
         0.72718E-02
         0.50364E-02
         0.13183E-01
         0.91015E-02
         0.41719E-02
         0.12657E-01
         0.80102E-02
         0.12171E-01
         0.57762E-02
         0.24833E-01
         0.18948E-01
         0.91926E-02
         0.26310E-01
         0.93652E-02
         0.48497E-02
         0.29110E-02
         0.62852E-02
         0.32967E-02
         0.19563E-01
         0.18320E-01
         0.17857E-01
         0.46387E-02
         0.79617E-02
         0.24064E-02
         0.89268E-02
         0.13245E-02
         0.34175E-02
         0.84050E-02
         0.80016E-02
         0.41910E-02
         0.50324E-02
         0.44799E-02
         0.17212E-01
         0.10223E-01
         0.13238E-01
         0.21584E-01
         0.16739E-01
         0.15444E-01
         0.21752E-01
         0.19680E-01
         0.19733E-01
         0.15273E-01
         0.13609E-01
         0.18634E-01
         0.12226E-01
         0.10385E-01
         0.84428E-02
         0.99594E-02
         0.16430E-01
         0.11156E-01
         0.72261E-01
         0.74092E-01
         0.77644E-01
         0.77093E-01
         0.82029E-01
         0.87906E-01
         0.84276E-01
         0.75062E-01
         0.73161E-01
         0.78254E-01
         0.76812E-01
         0.75952E-01
         0.62708E-01
         0.59628E-01
         0.65628E-01
         0.70427E-01
         0.73096E-01
         0.79746E-01
         0.76461E-01
         0.78532E-01
         0.70682E-01
         0.67143E-01
         0.71378E-01
         0.69540E-01
         0.71635E-01
         0.71053E-01
         0.12859E-01
         0.76723E-02
         0.72755E-02
         0.50437E-02
         0.13177E-01
         0.90963E-02
         0.41833E-02
         0.12665E-01
         0.80243E-02
         0.12201E-01
         0.57786E-02
         0.24833E-01
         0.18957E-01
         0.91710E-02
         0.26338E-01
         0.93743E-02
         0.48639E-02
         0.29032E-02
         0.62893E-02
         0.32894E-02
         0.19567E-01
         0.18320E-01
         0.17859E-01
         0.46383E-02
         0.79905E-02
         0.24042E-02
         0.89294E-02
         0.13161E-02
         0.34323E-02
         0.84160E-02
         0.80089E-02
         0.41884E-02
         0.50237E-02
         0.44837E-02
         0.17220E-01
         0.10222E-01
         0.13236E-01
         0.21618E-01
         0.16779E-01
         0.15468E-01
         0.21769E-01
         0.19692E-01
         0.19738E-01
         0.15277E-01
         0.13611E-01
         0.18637E-01
         0.12229E-01
         0.10387E-01
         0.84339E-02
         0.99467E-02
         0.16422E-01
         0.11139E-01
         0.72234E-01
         0.74075E-01
         0.77643E-01
         0.77093E-01
         0.82015E-01
         0.87876E-01
         0.84239E-01
         0.75042E-01
         0.73143E-01
         0.78229E-01
         0.76799E-01
         0.75957E-01
         0.62705E-01
         0.59627E-01
         0.65638E-01
         0.70450E-01
         0.73121E-01
         0.79764E-01
         0.76456E-01
         0.78528E-01
         0.70676E-01
         0.67140E-01
         0.71353E-01
         0.69495E-01
         0.71595E-01
         0.71015E-01
         0.12867E-01
         0.76723E-02
         0.72792E-02
         0.50510E-02
         0.13172E-01
         0.90911E-02
         0.41947E-02
         0.12674E-01
         0.80383E-02
         0.12230E-01
         0.57811E-02
         0.24833E-01
         0.18966E-01
         0.91496E-02
         0.26365E-01
         0.93835E-02
         0.48782E-02
         0.28954E-02
         0.62935E-02
         0.32822E-02
         0.19570E-01
         0.18320E-01
         0.17861E-01
         0.46379E-02
         0.80193E-02
         0.24020E-02
         0.89318E-02
         0.13081E-02
         0.34472E-02
         0.84270E-02
         0.80161E-02
         0.41860E-02
         0.50152E-02
         0.44876E-02
         0.17229E-01
         0.10220E-01
         0.13234E-01
         0.21652E-01
         0.16818E-01
         0.15492E-01
         0.21786E-01
         0.19703E-01
         0.19743E-01
         0.15281E-01
         0.13612E-01
         0.18640E-01
         0.12232E-01
         0.10388E-01
         0.84248E-02
         0.99341E-02
         0.16414E-01
         0.11123E-01
         0.72208E-01
         0.74058E-01
         0.77642E-01
         0.77094E-01
         0.82002E-01
         0.87846E-01
         0.84203E-01
         0.75021E-01
         0.73124E-01
         0.78204E-01
         0.76787E-01
         0.75962E-01
         0.62703E-01
         0.59626E-01
         0.65648E-01
         0.70474E-01
         0.73146E-01
         0.79783E-01
         0.76451E-01
         0.78523E-01
         0.70669E-01
         0.67137E-01
         0.71328E-01
         0.69449E-01
         0.71555E-01
         0.70977E-01
         0.12875E-01
         0.76723E-02
         0.72828E-02
         0.50584E-02
         0.13166E-01
         0.90859E-02
         0.42061E-02
         0.12682E-01
         0.80525E-02
         0.12260E-01
         0.57836E-02
         0.24834E-01
         0.18974E-01
         0.91281E-02
         0.26393E-01
         0.93927E-02
         0.48925E-02
         0.28877E-02
         0.62976E-02
         0.32748E-02
         0.19573E-01
         0.18320E-01
         0.17863E-01
         0.46375E-02
         0.80481E-02
         0.23998E-02
         0.89343E-02
         0.13004E-02
         0.34622E-02
         0.84379E-02
         0.80234E-02
         0.41835E-02
         0.50066E-02
         0.44915E-02
         0.17237E-01
         0.10219E-01
         0.13232E-01
         0.21686E-01
         0.16857E-01
         0.15516E-01
         0.21804E-01
         0.19715E-01
         0.19748E-01
         0.15286E-01
         0.13614E-01
         0.18643E-01
         0.12235E-01
         0.10390E-01
         0.84158E-02
         0.99213E-02
         0.16407E-01
         0.11106E-01
         0.72181E-01
         0.74040E-01
         0.77641E-01
         0.77094E-01
         0.81988E-01
         0.87816E-01
         0.84167E-01
         0.75000E-01
         0.73106E-01
         0.78179E-01
         0.76774E-01
         0.75967E-01
         0.62701E-01
         0.59625E-01
         0.65658E-01
         0.70497E-01
         0.73172E-01
         0.79801E-01
         0.76446E-01
         0.78518E-01
         0.70663E-01
         0.67134E-01
         0.71303E-01
         0.69403E-01
         0.71515E-01
         0.70939E-01
         0.12882E-01
         0.76721E-02
         0.72865E-02
         0.50657E-02
         0.13161E-01
         0.90809E-02
         0.42175E-02
         0.12691E-01
         0.80667E-02
         0.12290E-01
         0.57862E-02
         0.24834E-01
         0.18983E-01
         0.91068E-02
         0.26420E-01
         0.94019E-02
         0.49068E-02
         0.28801E-02
         0.63017E-02
         0.32676E-02
         0.19577E-01
         0.18320E-01
         0.17865E-01
         0.46372E-02
         0.80768E-02
         0.23977E-02
         0.89368E-02
         0.12929E-02
         0.34774E-02
         0.84489E-02
         0.80306E-02
         0.41810E-02
         0.49982E-02
         0.44955E-02
         0.17246E-01
         0.10217E-01
         0.13231E-01
         0.21721E-01
         0.16897E-01
         0.15540E-01
         0.21821E-01
         0.19727E-01
         0.19753E-01
         0.15290E-01
         0.13615E-01
         0.18646E-01
         0.12238E-01
         0.10392E-01
         0.84070E-02
         0.99087E-02
         0.16399E-01
         0.11089E-01
         0.72155E-01
         0.74023E-01
         0.77640E-01
         0.77095E-01
         0.81975E-01
         0.87785E-01
         0.84130E-01
         0.74980E-01
         0.73088E-01
         0.78154E-01
         0.76762E-01
         0.75973E-01
         0.62698E-01
         0.59623E-01
         0.65668E-01
         0.70520E-01
         0.73197E-01
         0.79820E-01
         0.76441E-01
         0.78513E-01
         0.70657E-01
         0.67131E-01
         0.71278E-01
         0.69358E-01
         0.71475E-01
         0.70902E-01
         0.12890E-01
         0.76720E-02
         0.72902E-02
         0.50731E-02
         0.13155E-01
         0.90757E-02
         0.42290E-02
         0.12700E-01
         0.80809E-02
         0.12320E-01
         0.57890E-02
         0.24834E-01
         0.18991E-01
         0.90853E-02
         0.26448E-01
         0.94112E-02
         0.49212E-02
         0.28724E-02
         0.63059E-02
         0.32603E-02
         0.19580E-01
         0.18319E-01
         0.17866E-01
         0.46370E-02
         0.81055E-02
         0.23955E-02
         0.89391E-02
         0.12856E-02
         0.34925E-02
         0.84596E-02
         0.80379E-02
         0.41786E-02
         0.49898E-02
         0.44994E-02
         0.17254E-01
         0.10216E-01
         0.13229E-01
         0.21755E-01
         0.16936E-01
         0.15564E-01
         0.21837E-01
         0.19739E-01
         0.19758E-01
         0.15294E-01
         0.13617E-01
         0.18649E-01
         0.12241E-01
         0.10394E-01
         0.83982E-02
         0.98960E-02
         0.16391E-01
         0.11072E-01
         0.72128E-01
         0.74005E-01
         0.77638E-01
         0.77095E-01
         0.81961E-01
         0.87755E-01
         0.84093E-01
         0.74959E-01
         0.73070E-01
         0.78129E-01
         0.76750E-01
         0.75978E-01
         0.62696E-01
         0.59622E-01
         0.65678E-01
         0.70543E-01
         0.73222E-01
         0.79838E-01
         0.76436E-01
         0.78508E-01
         0.70650E-01
         0.67128E-01
         0.71253E-01
         0.69312E-01
         0.71435E-01
         0.70864E-01
         0.12898E-01
         0.76719E-02
         0.72938E-02
         0.50804E-02
         0.13150E-01
         0.90705E-02
         0.42404E-02
         0.12708E-01
         0.80951E-02
         0.12350E-01
         0.57917E-02
         0.24834E-01
         0.19000E-01
         0.90638E-02
         0.26475E-01
         0.94204E-02
         0.49355E-02
         0.28646E-02
         0.63101E-02
         0.32533E-02
         0.19583E-01
         0.18319E-01
         0.17869E-01
         0.46366E-02
         0.81340E-02
         0.23935E-02
         0.89407E-02
         0.12782E-02
         0.35079E-02
         0.84699E-02
         0.80452E-02
         0.41761E-02
         0.49813E-02
         0.45034E-02
         0.17263E-01
         0.10214E-01
         0.13227E-01
         0.21789E-01
         0.16975E-01
         0.15586E-01
         0.21853E-01
         0.19749E-01
         0.19763E-01
         0.15298E-01
         0.13618E-01
         0.18652E-01
         0.12244E-01
         0.10395E-01
         0.83892E-02
         0.98833E-02
         0.16383E-01
         0.11055E-01
         0.72102E-01
         0.73988E-01
         0.77637E-01
         0.77095E-01
         0.81948E-01
         0.87725E-01
         0.84057E-01
         0.74939E-01
         0.73051E-01
         0.78102E-01
         0.76738E-01
         0.75986E-01
         0.62695E-01
         0.59621E-01
         0.65688E-01
         0.70567E-01
         0.73247E-01
         0.79856E-01
         0.76431E-01
         0.78503E-01
         0.70644E-01
         0.67125E-01
         0.71228E-01
         0.69267E-01
         0.71396E-01
         0.70826E-01
         0.12906E-01
         0.76719E-02
         0.72974E-02
         0.50878E-02
         0.13144E-01
         0.90653E-02
         0.42519E-02
         0.12716E-01
         0.81094E-02
         0.12379E-01
         0.57945E-02
         0.24834E-01
         0.19009E-01
         0.90421E-02
         0.26502E-01
         0.94295E-02
         0.49499E-02
         0.28569E-02
         0.63142E-02
         0.32463E-02
         0.19587E-01
         0.18319E-01
         0.17870E-01
         0.46363E-02
         0.81625E-02
         0.23913E-02
         0.89417E-02
         0.12708E-02
         0.35234E-02
         0.84796E-02
         0.80525E-02
         0.41736E-02
         0.49730E-02
         0.45073E-02
         0.17271E-01
         0.10213E-01
         0.13225E-01
         0.21824E-01
         0.17014E-01
         0.15609E-01
         0.21868E-01
         0.19759E-01
         0.19767E-01
         0.15303E-01
         0.13620E-01
         0.18655E-01
         0.12247E-01
         0.10397E-01
         0.83804E-02
         0.98705E-02
         0.16375E-01
         0.11038E-01
         0.72075E-01
         0.73971E-01
         0.77636E-01
         0.77095E-01
         0.81934E-01
         0.87695E-01
         0.84020E-01
         0.74918E-01
         0.73033E-01
         0.78075E-01
         0.76725E-01
         0.75995E-01
         0.62696E-01
         0.59621E-01
         0.65698E-01
         0.70590E-01
         0.73272E-01
         0.79874E-01
         0.76425E-01
         0.78498E-01
         0.70638E-01
         0.67121E-01
         0.71202E-01
         0.69222E-01
         0.71356E-01
         0.70788E-01
         0.12914E-01
         0.76719E-02
         0.73013E-02
         0.50953E-02
         0.13139E-01
         0.90604E-02
         0.42635E-02
         0.12725E-01
         0.81238E-02
         0.12408E-01
         0.57975E-02
         0.24835E-01
         0.19017E-01
         0.90204E-02
         0.26529E-01
         0.94387E-02
         0.49644E-02
         0.28493E-02
         0.63185E-02
         0.32395E-02
         0.19590E-01
         0.18318E-01
         0.17872E-01
         0.46361E-02
         0.81909E-02
         0.23894E-02
         0.89425E-02
         0.12634E-02
         0.35389E-02
         0.84891E-02
         0.80598E-02
         0.41713E-02
         0.49648E-02
         0.45114E-02
         0.17280E-01
         0.10211E-01
         0.13223E-01
         0.21859E-01
         0.17053E-01
         0.15630E-01
         0.21883E-01
         0.19768E-01
         0.19771E-01
         0.15307E-01
         0.13621E-01
         0.18658E-01
         0.12250E-01
         0.10399E-01
         0.83715E-02
         0.98579E-02
         0.16368E-01
         0.11022E-01
         0.72049E-01
         0.73954E-01
         0.77634E-01
         0.77096E-01
         0.81921E-01
         0.87664E-01
         0.83983E-01
         0.74898E-01
         0.73014E-01
         0.78047E-01
         0.76713E-01
         0.76005E-01
         0.62696E-01
         0.59620E-01
         0.65708E-01
         0.70613E-01
         0.73297E-01
         0.79893E-01
         0.76421E-01
         0.78493E-01
         0.70632E-01
         0.67118E-01
         0.71177E-01
         0.69177E-01
         0.71317E-01
         0.70751E-01
         0.13176E-01
         0.80645E-02
         0.77083E-02
         0.55608E-02
         0.13470E-01
         0.94460E-02
         0.50007E-02
         0.13048E-01
         0.84760E-02
         0.12757E-01
         0.64851E-02
         0.25159E-01
         0.19334E-01
         0.95034E-02
         0.26888E-01
         0.97366E-02
         0.55275E-02
         0.35228E-02
         0.68061E-02
         0.41373E-02
         0.19861E-01
         0.18599E-01
         0.18134E-01
         0.52111E-02
         0.86547E-02
         0.32843E-02
         0.94375E-02
         0.30784E-02
         0.45515E-02
         0.89520E-02
         0.83978E-02
         0.47876E-02
         0.54318E-02
         0.50726E-02
         0.17624E-01
         0.10606E-01
         0.13552E-01
         0.22222E-01
         0.17443E-01
         0.16014E-01
         0.22217E-01
         0.20084E-01
         0.20058E-01
         0.15579E-01
         0.13930E-01
         0.18982E-01
         0.12608E-01
         0.10755E-01
         0.87653E-02
         0.10227E-01
         0.16683E-01
         0.11364E-01
         0.72549E-01
         0.74452E-01
         0.78167E-01
         0.77612E-01
         0.82453E-01
         0.88224E-01
         0.84536E-01
         0.75441E-01
         0.73559E-01
         0.78610E-01
         0.77269E-01
         0.76543E-01
         0.63139E-01
         0.60031E-01
         0.66140E-01
         0.71071E-01
         0.73767E-01
         0.80413E-01
         0.76953E-01
         0.79033E-01
         0.71108E-01
         0.67572E-01
         0.71636E-01
         0.69611E-01
         0.71754E-01
         0.71188E-01
         0.31255E-01
         0.28156E-01
         0.27583E-01
         0.24428E-01
         0.34079E-01
         0.29749E-01
         0.28447E-01
         0.33754E-01
         0.26938E-01
         0.33476E-01
         0.31515E-01
         0.48863E-01
         0.41199E-01
         0.33861E-01
         0.51595E-01
         0.27493E-01
         0.26348E-01
         0.22581E-01
         0.27694E-01
         0.27796E-01
         0.39908E-01
         0.39306E-01
         0.37442E-01
         0.26043E-01
         0.30802E-01
         0.24529E-01
         0.33773E-01
         0.30624E-01
         0.31164E-01
         0.31844E-01
         0.26710E-01
         0.25771E-01
         0.24528E-01
         0.25327E-01
         0.39440E-01
         0.32100E-01
         0.34424E-01
         0.46592E-01
         0.41638E-01
         0.40112E-01
         0.46193E-01
         0.43020E-01
         0.41788E-01
         0.34624E-01
         0.33926E-01
         0.40542E-01
         0.33667E-01
         0.30984E-01
         0.29194E-01
         0.30970E-01
         0.37760E-01
         0.31808E-01
         0.10303E+00
         0.10446E+00
         0.10913E+00
         0.10810E+00
         0.11416E+00
         0.12206E+00
         0.11925E+00
         0.10950E+00
         0.10736E+00
         0.11314E+00
         0.11103E+00
         0.10867E+00
         0.91936E-01
         0.87505E-01
         0.93646E-01
         0.98644E-01
         0.10166E+00
         0.11025E+00
         0.10764E+00
         0.11018E+00
         0.10048E+00
         0.96188E-01
         0.10116E+00
         0.98982E-01
         0.10095E+00
         0.99959E-01
  
SCALARS                     nodal_mass  double 1
LOOKUP_TABLE default
         0.24608E-05
         0.19551E-05
         0.20945E-05
         0.35953E-05
         0.12304E-05
         0.97770E-06
         0.10472E-05
         0.17973E-05
         0.19315E-05
         0.24627E-05
         0.96570E-06
         0.12312E-05
         0.13823E-05
         0.16614E-05
         0.69133E-06
         0.83095E-06
         0.27274E-05
         0.20125E-05
         0.13635E-05
         0.10066E-05
         0.81737E-06
         0.15393E-05
         0.16929E-05
         0.40889E-06
         0.76975E-06
         0.84649E-06
         0.13859E-05
         0.17532E-05
         0.69345E-06
         0.87672E-06
         0.32470E-05
         0.25355E-05
         0.32225E-05
         0.16233E-05
         0.12675E-05
         0.16109E-05
         0.18980E-05
         0.21673E-05
         0.94902E-06
         0.10836E-05
         0.20482E-05
         0.22683E-05
         0.10242E-05
         0.11342E-05
         0.17426E-05
         0.10823E-05
         0.87140E-06
         0.54121E-06
         0.20598E-05
         0.10301E-05
         0.17103E-05
         0.85523E-06
         0.17977E-05
         0.89958E-06
         0.18362E-05
         0.91859E-06
         0.15911E-05
         0.19369E-05
         0.79575E-06
         0.96860E-06
         0.24553E-05
         0.17361E-05
         0.12277E-05
         0.86816E-06
         0.27409E-05
         0.13702E-05
         0.23792E-05
         0.11891E-05
         0.10821E-05
         0.16705E-05
         0.54106E-06
         0.83538E-06
         0.18955E-05
         0.94787E-06
         0.20026E-05
         0.10014E-05
         0.19316E-05
         0.96578E-06
         0.15181E-05
         0.75906E-06
         0.95443E-06
         0.15782E-05
         0.47723E-06
         0.78918E-06
         0.20886E-05
         0.10443E-05
         0.16867E-05
         0.84342E-06
         0.14838E-05
         0.74203E-06
         0.97224E-06
         0.16569E-05
         0.48620E-06
         0.82849E-06
         0.22482E-05
         0.11241E-05
         0.23568E-05
         0.11783E-05
         0.19018E-05
         0.95085E-06
         0.11709E-05
         0.20091E-05
         0.58544E-06
         0.10044E-05
         0.74681E-06
         0.94889E-06
         0.37348E-06
         0.47447E-06
         0.88885E-06
         0.44455E-06
         0.10466E-05
         0.52333E-06
         0.10205E-05
         0.51021E-06
         0.99108E-06
         0.49550E-06
         0.10560E-05
         0.52791E-06
         0.11142E-05
         0.55694E-06
         0.10497E-05
         0.52469E-06
         0.82085E-06
         0.41039E-06
         0.66950E-06
         0.33475E-06
         0.86397E-06
         0.43199E-06
         0.11504E-05
         0.57519E-06
         0.12637E-05
         0.63182E-06
         0.12132E-05
         0.60658E-06
         0.10948E-05
         0.54745E-06
         0.99429E-06
         0.49718E-06
         0.80759E-06
         0.40382E-06
         0.67982E-06
         0.33995E-06
         0.88797E-06
         0.44401E-06
         0.11753E-05
         0.58766E-06
         0.12140E-05
         0.60702E-06
         0.98236E-06
         0.49125E-06
         0.79766E-06
         0.39889E-06
         0.97540E-06
         0.48769E-06
         0.11548E-05
         0.57743E-06
         0.24609E-05
         0.19547E-05
         0.20946E-05
         0.35969E-05
         0.19318E-05
         0.24634E-05
         0.13815E-05
         0.16603E-05
         0.27283E-05
         0.20111E-05
         0.81658E-06
         0.15390E-05
         0.16927E-05
         0.13839E-05
         0.17528E-05
         0.32479E-05
         0.25367E-05
         0.32241E-05
         0.18980E-05
         0.21675E-05
         0.20481E-05
         0.22684E-05
         0.17424E-05
         0.10822E-05
         0.20589E-05
         0.17102E-05
         0.17950E-05
         0.18344E-05
         0.15904E-05
         0.19365E-05
         0.24555E-05
         0.17359E-05
         0.27423E-05
         0.23814E-05
         0.10820E-05
         0.16702E-05
         0.18953E-05
         0.20025E-05
         0.19317E-05
         0.15181E-05
         0.95442E-06
         0.15780E-05
         0.20884E-05
         0.16864E-05
         0.14835E-05
         0.97197E-06
         0.16567E-05
         0.22482E-05
         0.23571E-05
         0.19022E-05
         0.11709E-05
         0.20101E-05
         0.74658E-06
         0.94886E-06
         0.88841E-06
         0.10467E-05
         0.10207E-05
         0.99128E-06
         0.10565E-05
         0.11150E-05
         0.10503E-05
         0.82102E-06
         0.66954E-06
         0.86398E-06
         0.11506E-05
         0.12640E-05
         0.12133E-05
         0.10948E-05
         0.99421E-06
         0.80751E-06
         0.67970E-06
         0.88789E-06
         0.11752E-05
         0.12140E-05
         0.98215E-06
         0.79747E-06
         0.97551E-06
         0.11548E-05
         0.24611E-05
         0.19543E-05
         0.20949E-05
         0.35987E-05
         0.19321E-05
         0.24642E-05
         0.13808E-05
         0.16594E-05
         0.27293E-05
         0.20098E-05
         0.81582E-06
         0.15388E-05
         0.16927E-05
         0.13821E-05
         0.17525E-05
         0.32489E-05
         0.25379E-05
         0.32257E-05
         0.18982E-05
         0.21678E-05
         0.20480E-05
         0.22685E-05
         0.17423E-05
         0.10821E-05
         0.20580E-05
         0.17101E-05
         0.17924E-05
         0.18326E-05
         0.15898E-05
         0.19361E-05
         0.24558E-05
         0.17357E-05
         0.27438E-05
         0.23836E-05
         0.10821E-05
         0.16699E-05
         0.18951E-05
         0.20024E-05
         0.19318E-05
         0.15183E-05
         0.95445E-06
         0.15778E-05
         0.20884E-05
         0.16862E-05
         0.14831E-05
         0.97174E-06
         0.16566E-05
         0.22483E-05
         0.23575E-05
         0.19026E-05
         0.11709E-05
         0.20112E-05
         0.74636E-06
         0.94886E-06
         0.88800E-06
         0.10467E-05
         0.10210E-05
         0.99152E-06
         0.10570E-05
         0.11159E-05
         0.10509E-05
         0.82122E-06
         0.66961E-06
         0.86402E-06
         0.11507E-05
         0.12643E-05
         0.12135E-05
         0.10948E-05
         0.99417E-06
         0.80747E-06
         0.67961E-06
         0.88784E-06
         0.11752E-05
         0.12140E-05
         0.98197E-06
         0.79731E-06
         0.97565E-06
         0.11548E-05
         0.24612E-05
         0.19539E-05
         0.20950E-05
         0.36004E-05
         0.19324E-05
         0.24650E-05
         0.13801E-05
         0.16584E-05
         0.27303E-05
         0.20085E-05
         0.81504E-06
         0.15385E-05
         0.16925E-05
         0.13801E-05
         0.17521E-05
         0.32498E-05
         0.25390E-05
         0.32274E-05
         0.18982E-05
         0.21681E-05
         0.20479E-05
         0.22686E-05
         0.17421E-05
         0.10820E-05
         0.20571E-05
         0.17099E-05
         0.17897E-05
         0.18308E-05
         0.15891E-05
         0.19356E-05
         0.24561E-05
         0.17355E-05
         0.27453E-05
         0.23857E-05
         0.10820E-05
         0.16696E-05
         0.18948E-05
         0.20022E-05
         0.19320E-05
         0.15183E-05
         0.95445E-06
         0.15776E-05
         0.20883E-05
         0.16859E-05
         0.14828E-05
         0.97149E-06
         0.16564E-05
         0.22483E-05
         0.23578E-05
         0.19030E-05
         0.11710E-05
         0.20122E-05
         0.74613E-06
         0.94884E-06
         0.88756E-06
         0.10467E-05
         0.10212E-05
         0.99173E-06
         0.10574E-05
         0.11167E-05
         0.10515E-05
         0.82140E-06
         0.66966E-06
         0.86404E-06
         0.11509E-05
         0.12646E-05
         0.12136E-05
         0.10947E-05
         0.99410E-06
         0.80740E-06
         0.67950E-06
         0.88777E-06
         0.11752E-05
         0.12140E-05
         0.98177E-06
         0.79713E-06
         0.97576E-06
         0.11547E-05
         0.24613E-05
         0.19535E-05
         0.20952E-05
         0.36022E-05
         0.19327E-05
         0.24657E-05
         0.13794E-05
         0.16574E-05
         0.27313E-05
         0.20072E-05
         0.81426E-06
         0.15382E-05
         0.16924E-05
         0.13782E-05
         0.17517E-05
         0.32508E-05
         0.25402E-05
         0.32290E-05
         0.18983E-05
         0.21684E-05
         0.20479E-05
         0.22687E-05
         0.17420E-05
         0.10819E-05
         0.20563E-05
         0.17098E-05
         0.17870E-05
         0.18290E-05
         0.15884E-05
         0.19352E-05
         0.24563E-05
         0.17353E-05
         0.27467E-05
         0.23879E-05
         0.10820E-05
         0.16693E-05
         0.18946E-05
         0.20021E-05
         0.19321E-05
         0.15184E-05
         0.95445E-06
         0.15773E-05
         0.20882E-05
         0.16857E-05
         0.14824E-05
         0.97124E-06
         0.16563E-05
         0.22484E-05
         0.23582E-05
         0.19034E-05
         0.11710E-05
         0.20132E-05
         0.74590E-06
         0.94883E-06
         0.88713E-06
         0.10468E-05
         0.10215E-05
         0.99194E-06
         0.10579E-05
         0.11175E-05
         0.10521E-05
         0.82159E-06
         0.66972E-06
         0.86406E-06
         0.11510E-05
         0.12649E-05
         0.12138E-05
         0.10947E-05
         0.99404E-06
         0.80734E-06
         0.67940E-06
         0.88771E-06
         0.11752E-05
         0.12140E-05
         0.98157E-06
         0.79696E-06
         0.97588E-06
         0.11547E-05
         0.24615E-05
         0.19531E-05
         0.20954E-05
         0.36039E-05
         0.19331E-05
         0.24665E-05
         0.13787E-05
         0.16564E-05
         0.27322E-05
         0.20059E-05
         0.81349E-06
         0.15380E-05
         0.16923E-05
         0.13763E-05
         0.17514E-05
         0.32518E-05
         0.25414E-05
         0.32306E-05
         0.18984E-05
         0.21687E-05
         0.20478E-05
         0.22688E-05
         0.17418E-05
         0.10818E-05
         0.20554E-05
         0.17096E-05
         0.17843E-05
         0.18272E-05
         0.15878E-05
         0.19347E-05
         0.24566E-05
         0.17351E-05
         0.27482E-05
         0.23901E-05
         0.10820E-05
         0.16690E-05
         0.18943E-05
         0.20019E-05
         0.19322E-05
         0.15185E-05
         0.95446E-06
         0.15771E-05
         0.20881E-05
         0.16855E-05
         0.14821E-05
         0.97100E-06
         0.16562E-05
         0.22484E-05
         0.23586E-05
         0.19038E-05
         0.11710E-05
         0.20142E-05
         0.74568E-06
         0.94882E-06
         0.88671E-06
         0.10468E-05
         0.10217E-05
         0.99216E-06
         0.10583E-05
         0.11183E-05
         0.10528E-05
         0.82178E-06
         0.66977E-06
         0.86408E-06
         0.11512E-05
         0.12652E-05
         0.12139E-05
         0.10947E-05
         0.99398E-06
         0.80728E-06
         0.67930E-06
         0.88766E-06
         0.11752E-05
         0.12140E-05
         0.98138E-06
         0.79679E-06
         0.97601E-06
         0.11547E-05
         0.24616E-05
         0.19527E-05
         0.20956E-05
         0.36056E-05
         0.19334E-05
         0.24672E-05
         0.13779E-05
         0.16554E-05
         0.27332E-05
         0.20046E-05
         0.81271E-06
         0.15377E-05
         0.16922E-05
         0.13744E-05
         0.17510E-05
         0.32527E-05
         0.25425E-05
         0.32322E-05
         0.18984E-05
         0.21689E-05
         0.20477E-05
         0.22689E-05
         0.17416E-05
         0.10816E-05
         0.20545E-05
         0.17095E-05
         0.17817E-05
         0.18254E-05
         0.15871E-05
         0.19343E-05
         0.24568E-05
         0.17349E-05
         0.27496E-05
         0.23922E-05
         0.10820E-05
         0.16686E-05
         0.18941E-05
         0.20018E-05
         0.19324E-05
         0.15186E-05
         0.95446E-06
         0.15769E-05
         0.20880E-05
         0.16852E-05
         0.14817E-05
         0.97074E-06
         0.16560E-05
         0.22484E-05
         0.23589E-05
         0.19042E-05
         0.11710E-05
         0.20152E-05
         0.74544E-06
         0.94880E-06
         0.88627E-06
         0.10469E-05
         0.10219E-05
         0.99237E-06
         0.10588E-05
         0.11191E-05
         0.10534E-05
         0.82196E-06
         0.66982E-06
         0.86410E-06
         0.11513E-05
         0.12654E-05
         0.12140E-05
         0.10947E-05
         0.99391E-06
         0.80721E-06
         0.67919E-06
         0.88759E-06
         0.11751E-05
         0.12140E-05
         0.98118E-06
         0.79661E-06
         0.97612E-06
         0.11546E-05
         0.24618E-05
         0.19523E-05
         0.20957E-05
         0.36073E-05
         0.19337E-05
         0.24680E-05
         0.13772E-05
         0.16545E-05
         0.27341E-05
         0.20033E-05
         0.81194E-06
         0.15374E-05
         0.16921E-05
         0.13725E-05
         0.17506E-05
         0.32537E-05
         0.25437E-05
         0.32339E-05
         0.18985E-05
         0.21692E-05
         0.20476E-05
         0.22690E-05
         0.17414E-05
         0.10815E-05
         0.20536E-05
         0.17093E-05
         0.17790E-05
         0.18236E-05
         0.15864E-05
         0.19339E-05
         0.24571E-05
         0.17347E-05
         0.27511E-05
         0.23944E-05
         0.10820E-05
         0.16683E-05
         0.18938E-05
         0.20016E-05
         0.19325E-05
         0.15186E-05
         0.95446E-06
         0.15767E-05
         0.20878E-05
         0.16850E-05
         0.14814E-05
         0.97050E-06
         0.16559E-05
         0.22484E-05
         0.23593E-05
         0.19046E-05
         0.11711E-05
         0.20162E-05
         0.74522E-06
         0.94878E-06
         0.88584E-06
         0.10469E-05
         0.10222E-05
         0.99258E-06
         0.10593E-05
         0.11199E-05
         0.10540E-05
         0.82215E-06
         0.66988E-06
         0.86413E-06
         0.11515E-05
         0.12657E-05
         0.12142E-05
         0.10946E-05
         0.99385E-06
         0.80715E-06
         0.67909E-06
         0.88752E-06
         0.11751E-05
         0.12140E-05
         0.98098E-06
         0.79643E-06
         0.97624E-06
         0.11546E-05
         0.24619E-05
         0.19519E-05
         0.20959E-05
         0.36091E-05
         0.19340E-05
         0.24688E-05
         0.13765E-05
         0.16535E-05
         0.27351E-05
         0.20020E-05
         0.81117E-06
         0.15372E-05
         0.16920E-05
         0.13706E-05
         0.17503E-05
         0.32546E-05
         0.25448E-05
         0.32355E-05
         0.18986E-05
         0.21695E-05
         0.20475E-05
         0.22691E-05
         0.17413E-05
         0.10814E-05
         0.20527E-05
         0.17092E-05
         0.17763E-05
         0.18219E-05
         0.15858E-05
         0.19334E-05
         0.24573E-05
         0.17345E-05
         0.27525E-05
         0.23966E-05
         0.10820E-05
         0.16680E-05
         0.18936E-05
         0.20015E-05
         0.19326E-05
         0.15187E-05
         0.95447E-06
         0.15765E-05
         0.20878E-05
         0.16848E-05
         0.14810E-05
         0.97025E-06
         0.16557E-05
         0.22485E-05
         0.23597E-05
         0.19050E-05
         0.11711E-05
         0.20172E-05
         0.74499E-06
         0.94877E-06
         0.88541E-06
         0.10469E-05
         0.10224E-05
         0.99280E-06
         0.10597E-05
         0.11207E-05
         0.10546E-05
         0.82234E-06
         0.66994E-06
         0.86415E-06
         0.11517E-05
         0.12660E-05
         0.12143E-05
         0.10946E-05
         0.99379E-06
         0.80709E-06
         0.67898E-06
         0.88746E-06
         0.11751E-05
         0.12140E-05
         0.98079E-06
         0.79626E-06
         0.97636E-06
         0.11546E-05
         0.24621E-05
         0.19515E-05
         0.20961E-05
         0.36108E-05
         0.19343E-05
         0.24695E-05
         0.13758E-05
         0.16525E-05
         0.27361E-05
         0.20006E-05
         0.81039E-06
         0.15369E-05
         0.16919E-05
         0.13686E-05
         0.17499E-05
         0.32556E-05
         0.25460E-05
         0.32371E-05
         0.18986E-05
         0.21697E-05
         0.20474E-05
         0.22692E-05
         0.17411E-05
         0.10813E-05
         0.20519E-05
         0.17091E-05
         0.17736E-05
         0.18201E-05
         0.15851E-05
         0.19330E-05
         0.24575E-05
         0.17342E-05
         0.27540E-05
         0.23987E-05
         0.10820E-05
         0.16677E-05
         0.18933E-05
         0.20014E-05
         0.19328E-05
         0.15188E-05
         0.95448E-06
         0.15763E-05
         0.20876E-05
         0.16845E-05
         0.14807E-05
         0.97000E-06
         0.16556E-05
         0.22485E-05
         0.23600E-05
         0.19053E-05
         0.11711E-05
         0.20182E-05
         0.74476E-06
         0.94875E-06
         0.88498E-06
         0.10470E-05
         0.10227E-05
         0.99301E-06
         0.10602E-05
         0.11215E-05
         0.10553E-05
         0.82252E-06
         0.66999E-06
         0.86417E-06
         0.11518E-05
         0.12663E-05
         0.12145E-05
         0.10946E-05
         0.99373E-06
         0.80702E-06
         0.67888E-06
         0.88740E-06
         0.11751E-05
         0.12140E-05
         0.98058E-06
         0.79608E-06
         0.97648E-06
         0.11546E-05
         0.24622E-05
         0.19511E-05
         0.20963E-05
         0.36125E-05
         0.19346E-05
         0.24703E-05
         0.13751E-05
         0.16515E-05
         0.27370E-05
         0.19993E-05
         0.80962E-06
         0.15366E-05
         0.16917E-05
         0.13667E-05
         0.17495E-05
         0.32565E-05
         0.25471E-05
         0.32388E-05
         0.18987E-05
         0.21700E-05
         0.20473E-05
         0.22693E-05
         0.17409E-05
         0.10812E-05
         0.20510E-05
         0.17089E-05
         0.17710E-05
         0.18183E-05
         0.15844E-05
         0.19325E-05
         0.24578E-05
         0.17340E-05
         0.27554E-05
         0.24009E-05
         0.10820E-05
         0.16674E-05
         0.18931E-05
         0.20012E-05
         0.19329E-05
         0.15189E-05
         0.95448E-06
         0.15760E-05
         0.20875E-05
         0.16843E-05
         0.14803E-05
         0.96975E-06
         0.16555E-05
         0.22485E-05
         0.23604E-05
         0.19057E-05
         0.11712E-05
         0.20192E-05
         0.74453E-06
         0.94874E-06
         0.88455E-06
         0.10470E-05
         0.10229E-05
         0.99322E-06
         0.10606E-05
         0.11223E-05
         0.10559E-05
         0.82270E-06
         0.67004E-06
         0.86419E-06
         0.11520E-05
         0.12666E-05
         0.12146E-05
         0.10945E-05
         0.99366E-06
         0.80696E-06
         0.67877E-06
         0.88733E-06
         0.11751E-05
         0.12140E-05
         0.98038E-06
         0.79590E-06
         0.97660E-06
         0.11545E-05
         0.24623E-05
         0.19507E-05
         0.20964E-05
         0.36142E-05
         0.19349E-05
         0.24710E-05
         0.13743E-05
         0.16505E-05
         0.27380E-05
         0.19980E-05
         0.80885E-06
         0.15364E-05
         0.16916E-05
         0.13648E-05
         0.17492E-05
         0.32575E-05
         0.25483E-05
         0.32404E-05
         0.18988E-05
         0.21703E-05
         0.20473E-05
         0.22694E-05
         0.17407E-05
         0.10811E-05
         0.20501E-05
         0.17088E-05
         0.17683E-05
         0.18165E-05
         0.15837E-05
         0.19321E-05
         0.24580E-05
         0.17338E-05
         0.27569E-05
         0.24031E-05
         0.10820E-05
         0.16670E-05
         0.18928E-05
         0.20011E-05
         0.19330E-05
         0.15189E-05
         0.95448E-06
         0.15758E-05
         0.20874E-05
         0.16840E-05
         0.14800E-05
         0.96950E-06
         0.16553E-05
         0.22485E-05
         0.23608E-05
         0.19061E-05
         0.11712E-05
         0.20202E-05
         0.74430E-06
         0.94872E-06
         0.88412E-06
         0.10470E-05
         0.10231E-05
         0.99344E-06
         0.10611E-05
         0.11231E-05
         0.10565E-05
         0.82289E-06
         0.67009E-06
         0.86422E-06
         0.11521E-05
         0.12669E-05
         0.12147E-05
         0.10945E-05
         0.99360E-06
         0.80690E-06
         0.67867E-06
         0.88727E-06
         0.11750E-05
         0.12140E-05
         0.98019E-06
         0.79573E-06
         0.97672E-06
         0.11545E-05
         0.24625E-05
         0.19503E-05
         0.20966E-05
         0.36160E-05
         0.19352E-05
         0.24718E-05
         0.13736E-05
         0.16496E-05
         0.27389E-05
         0.19967E-05
         0.80807E-06
         0.15361E-05
         0.16915E-05
         0.13629E-05
         0.17488E-05
         0.32584E-05
         0.25495E-05
         0.32420E-05
         0.18988E-05
         0.21705E-05
         0.20472E-05
         0.22695E-05
         0.17406E-05
         0.10810E-05
         0.20492E-05
         0.17086E-05
         0.17656E-05
         0.18147E-05
         0.15831E-05
         0.19317E-05
         0.24583E-05
         0.17336E-05
         0.27583E-05
         0.24053E-05
         0.10820E-05
         0.16667E-05
         0.18926E-05
         0.20009E-05
         0.19331E-05
         0.15190E-05
         0.95449E-06
         0.15756E-05
         0.20873E-05
         0.16838E-05
         0.14796E-05
         0.96925E-06
         0.16552E-05
         0.22486E-05
         0.23611E-05
         0.19065E-05
         0.11712E-05
         0.20212E-05
         0.74407E-06
         0.94870E-06
         0.88368E-06
         0.10471E-05
         0.10234E-05
         0.99365E-06
         0.10616E-05
         0.11239E-05
         0.10571E-05
         0.82307E-06
         0.67014E-06
         0.86424E-06
         0.11523E-05
         0.12672E-05
         0.12149E-05
         0.10945E-05
         0.99354E-06
         0.80683E-06
         0.67856E-06
         0.88721E-06
         0.11750E-05
         0.12140E-05
         0.97999E-06
         0.79555E-06
         0.97684E-06
         0.11545E-05
         0.24626E-05
         0.19499E-05
         0.20968E-05
         0.36177E-05
         0.19355E-05
         0.24725E-05
         0.13729E-05
         0.16486E-05
         0.27399E-05
         0.19954E-05
         0.80730E-06
         0.15358E-05
         0.16914E-05
         0.13610E-05
         0.17484E-05
         0.32594E-05
         0.25506E-05
         0.32437E-05
         0.18989E-05
         0.21708E-05
         0.20471E-05
         0.22696E-05
         0.17404E-05
         0.10808E-05
         0.20483E-05
         0.17085E-05
         0.17629E-05
         0.18129E-05
         0.15824E-05
         0.19312E-05
         0.24585E-05
         0.17334E-05
         0.27598E-05
         0.24074E-05
         0.10820E-05
         0.16664E-05
         0.18923E-05
         0.20008E-05
         0.19333E-05
         0.15191E-05
         0.95449E-06
         0.15754E-05
         0.20872E-05
         0.16835E-05
         0.14793E-05
         0.96901E-06
         0.16550E-05
         0.22486E-05
         0.23615E-05
         0.19069E-05
         0.11713E-05
         0.20222E-05
         0.74384E-06
         0.94869E-06
         0.88325E-06
         0.10471E-05
         0.10236E-05
         0.99386E-06
         0.10620E-05
         0.11247E-05
         0.10577E-05
         0.82326E-06
         0.67020E-06
         0.86426E-06
         0.11524E-05
         0.12674E-05
         0.12150E-05
         0.10944E-05
         0.99348E-06
         0.80677E-06
         0.67846E-06
         0.88714E-06
         0.11750E-05
         0.12140E-05
         0.97979E-06
         0.79538E-06
         0.97696E-06
         0.11544E-05
         0.24628E-05
         0.19495E-05
         0.20970E-05
         0.36194E-05
         0.19358E-05
         0.24733E-05
         0.13722E-05
         0.16476E-05
         0.27409E-05
         0.19941E-05
         0.80652E-06
         0.15355E-05
         0.16913E-05
         0.13591E-05
         0.17481E-05
         0.32604E-05
         0.25518E-05
         0.32453E-05
         0.18990E-05
         0.21711E-05
         0.20470E-05
         0.22697E-05
         0.17402E-05
         0.10807E-05
         0.20474E-05
         0.17084E-05
         0.17603E-05
         0.18111E-05
         0.15817E-05
         0.19308E-05
         0.24588E-05
         0.17332E-05
         0.27613E-05
         0.24096E-05
         0.10819E-05
         0.16661E-05
         0.18921E-05
         0.20006E-05
         0.19334E-05
         0.15192E-05
         0.95450E-06
         0.15752E-05
         0.20871E-05
         0.16833E-05
         0.14789E-05
         0.96876E-06
         0.16549E-05
         0.22486E-05
         0.23619E-05
         0.19073E-05
         0.11713E-05
         0.20232E-05
         0.74362E-06
         0.94868E-06
         0.88282E-06
         0.10472E-05
         0.10238E-05
         0.99408E-06
         0.10625E-05
         0.11255E-05
         0.10584E-05
         0.82345E-06
         0.67025E-06
         0.86428E-06
         0.11526E-05
         0.12677E-05
         0.12152E-05
         0.10944E-05
         0.99342E-06
         0.80671E-06
         0.67836E-06
         0.88709E-06
         0.11750E-05
         0.12140E-05
         0.97959E-06
         0.79521E-06
         0.97708E-06
         0.11544E-05
         0.24629E-05
         0.19491E-05
         0.20972E-05
         0.36212E-05
         0.19361E-05
         0.24741E-05
         0.13715E-05
         0.16466E-05
         0.27418E-05
         0.19928E-05
         0.80575E-06
         0.15353E-05
         0.16912E-05
         0.13572E-05
         0.17477E-05
         0.32613E-05
         0.25529E-05
         0.32469E-05
         0.18990E-05
         0.21714E-05
         0.20469E-05
         0.22698E-05
         0.17400E-05
         0.10806E-05
         0.20466E-05
         0.17082E-05
         0.17576E-05
         0.18093E-05
         0.15810E-05
         0.19303E-05
         0.24590E-05
         0.17330E-05
         0.27627E-05
         0.24118E-05
         0.10819E-05
         0.16658E-05
         0.18919E-05
         0.20005E-05
         0.19335E-05
         0.15192E-05
         0.95450E-06
         0.15750E-05
         0.20870E-05
         0.16831E-05
         0.14786E-05
         0.96851E-06
         0.16548E-05
         0.22487E-05
         0.23622E-05
         0.19077E-05
         0.11713E-05
         0.20242E-05
         0.74339E-06
         0.94866E-06
         0.88239E-06
         0.10472E-05
         0.10241E-05
         0.99429E-06
         0.10630E-05
         0.11263E-05
         0.10590E-05
         0.82363E-06
         0.67030E-06
         0.86430E-06
         0.11527E-05
         0.12680E-05
         0.12153E-05
         0.10944E-05
         0.99335E-06
         0.80665E-06
         0.67825E-06
         0.88702E-06
         0.11749E-05
         0.12140E-05
         0.97939E-06
         0.79503E-06
         0.97720E-06
         0.11544E-05
         0.24631E-05
         0.19487E-05
         0.20973E-05
         0.36229E-05
         0.19364E-05
         0.24748E-05
         0.13707E-05
         0.16456E-05
         0.27428E-05
         0.19915E-05
         0.80498E-06
         0.15350E-05
         0.16911E-05
         0.13553E-05
         0.17473E-05
         0.32623E-05
         0.25541E-05
         0.32486E-05
         0.18991E-05
         0.21716E-05
         0.20468E-05
         0.22699E-05
         0.17399E-05
         0.10805E-05
         0.20457E-05
         0.17081E-05
         0.17549E-05
         0.18075E-05
         0.15804E-05
         0.19299E-05
         0.24592E-05
         0.17328E-05
         0.27642E-05
         0.24140E-05
         0.10819E-05
         0.16654E-05
         0.18916E-05
         0.20003E-05
         0.19337E-05
         0.15193E-05
         0.95450E-06
         0.15748E-05
         0.20869E-05
         0.16828E-05
         0.14782E-05
         0.96826E-06
         0.16546E-05
         0.22487E-05
         0.23626E-05
         0.19081E-05
         0.11714E-05
         0.20253E-05
         0.74316E-06
         0.94864E-06
         0.88196E-06
         0.10472E-05
         0.10243E-05
         0.99450E-06
         0.10634E-05
         0.11271E-05
         0.10596E-05
         0.82381E-06
         0.67036E-06
         0.86432E-06
         0.11529E-05
         0.12683E-05
         0.12154E-05
         0.10943E-05
         0.99329E-06
         0.80658E-06
         0.67815E-06
         0.88696E-06
         0.11749E-05
         0.12140E-05
         0.97919E-06
         0.79485E-06
         0.97732E-06
         0.11544E-05
         0.24632E-05
         0.19483E-05
         0.20975E-05
         0.36246E-05
         0.19368E-05
         0.24756E-05
         0.13700E-05
         0.16447E-05
         0.27437E-05
         0.19902E-05
         0.80421E-06
         0.15347E-05
         0.16910E-05
         0.13534E-05
         0.17470E-05
         0.32632E-05
         0.25552E-05
         0.32502E-05
         0.18992E-05
         0.21719E-05
         0.20467E-05
         0.22700E-05
         0.17397E-05
         0.10804E-05
         0.20448E-05
         0.17079E-05
         0.17523E-05
         0.18057E-05
         0.15797E-05
         0.19295E-05
         0.24595E-05
         0.17326E-05
         0.27656E-05
         0.24161E-05
         0.10819E-05
         0.16651E-05
         0.18914E-05
         0.20002E-05
         0.19338E-05
         0.15194E-05
         0.95451E-06
         0.15745E-05
         0.20868E-05
         0.16826E-05
         0.14779E-05
         0.96801E-06
         0.16545E-05
         0.22487E-05
         0.23630E-05
         0.19085E-05
         0.11714E-05
         0.20263E-05
         0.74293E-06
         0.94863E-06
         0.88153E-06
         0.10473E-05
         0.10245E-05
         0.99472E-06
         0.10639E-05
         0.11279E-05
         0.10602E-05
         0.82400E-06
         0.67041E-06
         0.86435E-06
         0.11530E-05
         0.12686E-05
         0.12156E-05
         0.10943E-05
         0.99323E-06
         0.80652E-06
         0.67804E-06
         0.88690E-06
         0.11749E-05
         0.12140E-05
         0.97900E-06
         0.79468E-06
         0.97744E-06
         0.11543E-05
         0.24633E-05
         0.19479E-05
         0.20977E-05
         0.36264E-05
         0.19371E-05
         0.24763E-05
         0.13693E-05
         0.16437E-05
         0.27447E-05
         0.19888E-05
         0.80343E-06
         0.15345E-05
         0.16908E-05
         0.13515E-05
         0.17466E-05
         0.32642E-05
         0.25564E-05
         0.32518E-05
         0.18992E-05
         0.21722E-05
         0.20466E-05
         0.22701E-05
         0.17395E-05
         0.10803E-05
         0.20439E-05
         0.17078E-05
         0.17496E-05
         0.18039E-05
         0.15790E-05
         0.19290E-05
         0.24597E-05
         0.17323E-05
         0.27671E-05
         0.24183E-05
         0.10819E-05
         0.16648E-05
         0.18911E-05
         0.20001E-05
         0.19339E-05
         0.15195E-05
         0.95452E-06
         0.15743E-05
         0.20867E-05
         0.16823E-05
         0.14775E-05
         0.96776E-06
         0.16543E-05
         0.22487E-05
         0.23633E-05
         0.19089E-05
         0.11714E-05
         0.20273E-05
         0.74270E-06
         0.94861E-06
         0.88109E-06
         0.10473E-05
         0.10248E-05
         0.99493E-06
         0.10643E-05
         0.11287E-05
         0.10609E-05
         0.82418E-06
         0.67046E-06
         0.86437E-06
         0.11532E-05
         0.12689E-05
         0.12157E-05
         0.10943E-05
         0.99316E-06
         0.80646E-06
         0.67794E-06
         0.88683E-06
         0.11749E-05
         0.12140E-05
         0.97879E-06
         0.79450E-06
         0.97755E-06
         0.11543E-05
         0.24635E-05
         0.19475E-05
         0.20979E-05
         0.36281E-05
         0.19374E-05
         0.24771E-05
         0.13686E-05
         0.16427E-05
         0.27456E-05
         0.19875E-05
         0.80266E-06
         0.15342E-05
         0.16907E-05
         0.13496E-05
         0.17463E-05
         0.32651E-05
         0.25575E-05
         0.32534E-05
         0.18993E-05
         0.21724E-05
         0.20466E-05
         0.22702E-05
         0.17393E-05
         0.10802E-05
         0.20430E-05
         0.17076E-05
         0.17469E-05
         0.18021E-05
         0.15784E-05
         0.19286E-05
         0.24600E-05
         0.17321E-05
         0.27685E-05
         0.24205E-05
         0.10819E-05
         0.16645E-05
         0.18909E-05
         0.19999E-05
         0.19341E-05
         0.15195E-05
         0.95452E-06
         0.15741E-05
         0.20866E-05
         0.16821E-05
         0.14772E-05
         0.96751E-06
         0.16542E-05
         0.22488E-05
         0.23637E-05
         0.19092E-05
         0.11715E-05
         0.20283E-05
         0.74247E-06
         0.94860E-06
         0.88066E-06
         0.10473E-05
         0.10250E-05
         0.99514E-06
         0.10648E-05
         0.11295E-05
         0.10615E-05
         0.82437E-06
         0.67052E-06
         0.86439E-06
         0.11533E-05
         0.12691E-05
         0.12159E-05
         0.10942E-05
         0.99310E-06
         0.80639E-06
         0.67783E-06
         0.88676E-06
         0.11748E-05
         0.12140E-05
         0.97859E-06
         0.79433E-06
         0.97767E-06
         0.11543E-05
         0.24636E-05
         0.19471E-05
         0.20980E-05
         0.36298E-05
         0.19377E-05
         0.24779E-05
         0.13679E-05
         0.16417E-05
         0.27466E-05
         0.19862E-05
         0.80189E-06
         0.15339E-05
         0.16906E-05
         0.13477E-05
         0.17459E-05
         0.32661E-05
         0.25587E-05
         0.32551E-05
         0.18994E-05
         0.21727E-05
         0.20465E-05
         0.22703E-05
         0.17392E-05
         0.10800E-05
         0.20421E-05
         0.17075E-05
         0.17443E-05
         0.18003E-05
         0.15777E-05
         0.19281E-05
         0.24602E-05
         0.17319E-05
         0.27700E-05
         0.24227E-05
         0.10819E-05
         0.16642E-05
         0.18906E-05
         0.19998E-05
         0.19342E-05
         0.15196E-05
         0.95453E-06
         0.15739E-05
         0.20865E-05
         0.16819E-05
         0.14768E-05
         0.96727E-06
         0.16541E-05
         0.22488E-05
         0.23640E-05
         0.19096E-05
         0.11715E-05
         0.20293E-05
         0.74225E-06
         0.94859E-06
         0.88023E-06
         0.10474E-05
         0.10253E-05
         0.99535E-06
         0.10653E-05
         0.11303E-05
         0.10621E-05
         0.82456E-06
         0.67057E-06
         0.86441E-06
         0.11535E-05
         0.12694E-05
         0.12160E-05
         0.10942E-05
         0.99304E-06
         0.80633E-06
         0.67773E-06
         0.88671E-06
         0.11748E-05
         0.12140E-05
         0.97840E-06
         0.79415E-06
         0.97780E-06
         0.11542E-05
         0.24637E-05
         0.19466E-05
         0.20982E-05
         0.36315E-05
         0.19380E-05
         0.24786E-05
         0.13671E-05
         0.16407E-05
         0.27475E-05
         0.19849E-05
         0.80110E-06
         0.15336E-05
         0.16905E-05
         0.13457E-05
         0.17455E-05
         0.32669E-05
         0.25598E-05
         0.32567E-05
         0.18994E-05
         0.21729E-05
         0.20464E-05
         0.22703E-05
         0.17390E-05
         0.10799E-05
         0.20412E-05
         0.17073E-05
         0.17416E-05
         0.17985E-05
         0.15770E-05
         0.19277E-05
         0.24604E-05
         0.17317E-05
         0.27714E-05
         0.24248E-05
         0.10819E-05
         0.16638E-05
         0.18903E-05
         0.19996E-05
         0.19343E-05
         0.15196E-05
         0.95451E-06
         0.15737E-05
         0.20864E-05
         0.16816E-05
         0.14765E-05
         0.96700E-06
         0.16539E-05
         0.22488E-05
         0.23644E-05
         0.19100E-05
         0.11715E-05
         0.20303E-05
         0.74200E-06
         0.94855E-06
         0.87978E-06
         0.10474E-05
         0.10255E-05
         0.99555E-06
         0.10657E-05
         0.11311E-05
         0.10627E-05
         0.82472E-06
         0.67061E-06
         0.86442E-06
         0.11536E-05
         0.12697E-05
         0.12161E-05
         0.10941E-05
         0.99295E-06
         0.80625E-06
         0.67761E-06
         0.88662E-06
         0.11748E-05
         0.12140E-05
         0.97818E-06
         0.79396E-06
         0.97790E-06
         0.11542E-05
         0.24639E-05
         0.19463E-05
         0.20984E-05
         0.36333E-05
         0.19383E-05
         0.24794E-05
         0.13664E-05
         0.16398E-05
         0.27485E-05
         0.19836E-05
         0.80034E-06
         0.15334E-05
         0.16904E-05
         0.13439E-05
         0.17452E-05
         0.32679E-05
         0.25610E-05
         0.32583E-05
         0.18995E-05
         0.21732E-05
         0.20463E-05
         0.22704E-05
         0.17388E-05
         0.10798E-05
         0.20404E-05
         0.17072E-05
         0.17389E-05
         0.17967E-05
         0.15763E-05
         0.19272E-05
         0.24607E-05
         0.17315E-05
         0.27729E-05
         0.24270E-05
         0.10819E-05
         0.16635E-05
         0.18901E-05
         0.19995E-05
         0.19345E-05
         0.15197E-05
         0.95453E-06
         0.15735E-05
         0.20863E-05
         0.16814E-05
         0.14761E-05
         0.96677E-06
         0.16538E-05
         0.22488E-05
         0.23647E-05
         0.19104E-05
         0.11716E-05
         0.20313E-05
         0.74179E-06
         0.94855E-06
         0.87936E-06
         0.10475E-05
         0.10257E-05
         0.99577E-06
         0.10662E-05
         0.11319E-05
         0.10633E-05
         0.82492E-06
         0.67068E-06
         0.86446E-06
         0.11538E-05
         0.12700E-05
         0.12163E-05
         0.10941E-05
         0.99291E-06
         0.80620E-06
         0.67752E-06
         0.88657E-06
         0.11748E-05
         0.12140E-05
         0.97800E-06
         0.79380E-06
         0.97803E-06
         0.11542E-05
         0.12320E-05
         0.97306E-06
         0.10493E-05
         0.18171E-05
         0.96926E-06
         0.12399E-05
         0.68306E-06
         0.81967E-06
         0.13745E-05
         0.99152E-06
         0.39999E-06
         0.76665E-06
         0.84519E-06
         0.67148E-06
         0.87252E-06
         0.16343E-05
         0.12808E-05
         0.16296E-05
         0.94981E-06
         0.10867E-05
         0.10232E-05
         0.11353E-05
         0.86940E-06
         0.53990E-06
         0.10200E-05
         0.85360E-06
         0.86884E-06
         0.89793E-06
         0.78802E-06
         0.96354E-06
         0.12305E-05
         0.86572E-06
         0.13869E-05
         0.12141E-05
         0.54095E-06
         0.83170E-06
         0.94503E-06
         0.99975E-06
         0.96729E-06
         0.75992E-06
         0.47728E-06
         0.78670E-06
         0.10432E-05
         0.84065E-06
         0.73800E-06
         0.48334E-06
         0.82688E-06
         0.11245E-05
         0.11825E-05
         0.95534E-06
         0.58581E-06
         0.10159E-05
         0.37085E-06
         0.47429E-06
         0.43959E-06
         0.52375E-06
         0.51294E-06
         0.49796E-06
         0.53322E-06
         0.56619E-06
         0.53185E-06
         0.41252E-06
         0.33536E-06
         0.43225E-06
         0.57696E-06
         0.63509E-06
         0.60820E-06
         0.54708E-06
         0.49646E-06
         0.40310E-06
         0.33875E-06
         0.44329E-06
         0.58740E-06
         0.60700E-06
         0.48897E-06
         0.39687E-06
         0.48906E-06
         0.57710E-06
  
SCALARS                 Poissons_ratio  double 1
LOOKUP_TABLE default
         0.30000E+00
         0.30000E+00
         0.30000E+00
         0.30000E+00
         0.30000E+00
         0.30000E+00
         0.30000E+00
         0.30000E+00
         0.30000E+00
         0.30000E+00
         0.30000E+00
         0.30000E+00
         0.30000E+00
         0.30000E+00
         0.30000E+00
         0.30000E+00
         0.30000E+00
         0.30000E+00
         0.30000E+00
         0.30000E+00
         0.30000E+00
         0.30000E+00
         0.30000E+00
         0.30000E+00
         0.30000E+00
         0.30000E+00
         0.30000E+00
         0.30000E+00
         0.30000E+00
         0.30000E+00
         0.30000E+00
         0.30000E+00
         0.30000E+00
         0.30000E+00
         0.30000E+00
         0.30000E+00
         0.30000E+00
         0.30000E+00
         0.30000E+00
         0.30000E+00
         0.30000E+00
         0.30000E+00
         0.30000E+00
         0.30000E+00
         0.30000E+00
         0.30000E+00
         0.30000E+00
         0.30000E+00
         0.30000E+00
         0.30000E+00
         0.30000E+00
         0.30000E+00
         0.30000E+00
         0.30000E+00
         0.30000E+00
         0.30000E+00
         0.30000E+00
         0.30000E+00
         0.30000E+00
         0.30000E+00
         0.30000E+00
         0.30000E+00
         0.30000E+00
         0.30000E+00
         0.30000E+00
         0.30000E+00
         0.30000E+00
         0.30000E+00
         0.30000E+00
         0.30000E+00
         0.30000E+00
         0.30000E+00
         0.30000E+00
         0.30000E+00
         0.30000E+00
         0.30000E+00
         0.30000E+00
         0.30000E+00
         0.30000E+00
         0.30000E+00
         0.30000E+00
         0.30000E+00
         0.30000E+00
         0.30000E+00
         0.30000E+00
         0.30000E+00
         0.30000E+00
         0.30000E+00
         0.30000E+00
         0.30000E+00
         0.30000E+00
         0.30000E+00
         0.30000E+00
         0.30000E+00
         0.30000E+00
         0.30000E+00
         0.30000E+00
         0.30000E+00
         0.30000E+00
         0.30000E+00
         0.30000E+00
         0.30000E+00
         0.30000E+00
         0.30000E+00
         0.30000E+00
         0.30000E+00
         0.30000E+00
         0.30000E+00
         0.30000E+00
         0.30000E+00
         0.30000E+00
         0.30000E+00
         0.30000E+00
         0.30000E+00
         0.30000E+00
         0.30000E+00
         0.30000E+00
         0.30000E+00
         0.30000E+00
         0.30000E+00
         0.30000E+00
         0.30000E+00
         0.30000E+00
         0.30000E+00
         0.30000E+00
         0.30000E+00
         0.30000E+00
         0.30000E+00
         0.30000E+00
         0.30000E+00
         0.30000E+00
         0.30000E+00
         0.30000E+00
         0.30000E+00
         0.30000E+00
         0.30000E+00
         0.30000E+00
         0.30000E+00
         0.30000E+00
         0.30000E+00
         0.30000E+00
         0.30000E+00
         0.30000E+00
         0.30000E+00
         0.30000E+00
         0.30000E+00
         0.30000E+00
         0.30000E+00
         0.30000E+00
         0.30000E+00
         0.30000E+00
         0.30000E+00
         0.30000E+00
         0.30000E+00
         0.30000E+00
         0.30000E+00
         0.30000E+00
         0.30000E+00
         0.30000E+00
         0.30000E+00
         0.30000E+00
         0.30000E+00
         0.30000E+00
         0.30000E+00
         0.30000E+00
         0.30000E+00
         0.30000E+00
         0.30000E+00
         0.30000E+00
         0.30000E+00
         0.30000E+00
         0.30000E+00
         0.30000E+00
         0.30000E+00
         0.30000E+00
         0.30000E+00
         0.30000E+00
         0.30000E+00
         0.30000E+00
         0.30000E+00
         0.30000E+00
         0.30000E+00
         0.30000E+00
         0.30000E+00
         0.30000E+00
         0.30000E+00
         0.30000E+00
         0.30000E+00
         0.30000E+00
         0.30000E+00
         0.30000E+00
         0.30000E+00
         0.30000E+00
         0.30000E+00
         0.30000E+00
         0.30000E+00
         0.30000E+00
         0.30000E+00
         0.30000E+00
         0.30000E+00
         0.30000E+00
         0.30000E+00
         0.30000E+00
         0.30000E+00
         0.30000E+00
         0.30000E+00
         0.30000E+00
         0.30000E+00
         0.30000E+00
         0.30000E+00
         0.30000E+00
         0.30000E+00
         0.30000E+00
         0.30000E+00
         0.30000E+00
         0.30000E+00
         0.30000E+00
         0.30000E+00
         0.30000E+00
         0.30000E+00
         0.30000E+00
         0.30000E+00
         0.30000E+00
         0.30000E+00
         0.30000E+00
         0.30000E+00
         0.30000E+00
         0.30000E+00
         0.30000E+00
         0.30000E+00
         0.30000E+00
         0.30000E+00
         0.30000E+00
         0.30000E+00
         0.30000E+00
         0.30000E+00
         0.30000E+00
         0.30000E+00
         0.30000E+00
         0.30000E+00
         0.30000E+00
         0.30000E+00
         0.30000E+00
         0.30000E+00
         0.30000E+00
         0.30000E+00
         0.30000E+00
         0.30000E+00
         0.30000E+00
         0.30000E+00
         0.30000E+00
         0.30000E+00
         0.30000E+00
         0.30000E+00
         0.30000E+00
         0.30000E+00
         0.30000E+00
         0.30000E+00
         0.30000E+00
         0.30000E+00
         0.30000E+00
         0.30000E+00
         0.30000E+00
         0.30000E+00
         0.30000E+00
         0.30000E+00
         0.30000E+00
         0.30000E+00
         0.30000E+00
         0.30000E+00
         0.30000E+00
         0.30000E+00
         0.30000E+00
         0.30000E+00
         0.30000E+00
         0.30000E+00
         0.30000E+00
         0.30000E+00
         0.30000E+00
         0.30000E+00
         0.30000E+00
         0.30000E+00
         0.30000E+00
         0.30000E+00
         0.30000E+00
         0.30000E+00
         0.30000E+00
         0.30000E+00
         0.30000E+00
         0.30000E+00
         0.30000E+00
         0.30000E+00
         0.30000E+00
         0.30000E+00
         0.30000E+00
         0.30000E+00
         0.30000E+00
         0.30000E+00
         0.30000E+00
         0.30000E+00
         0.30000E+00
         0.30000E+00
         0.30000E+00
         0.30000E+00
         0.30000E+00
         0.30000E+00
         0.30000E+00
         0.30000E+00
         0.30000E+00
         0.30000E+00
         0.30000E+00
         0.30000E+00
         0.30000E+00
         0.30000E+00
         0.30000E+00
         0.30000E+00
         0.30000E+00
         0.30000E+00
         0.30000E+00
         0.30000E+00
         0.30000E+00
         0.30000E+00
         0.30000E+00
         0.30000E+00
         0.30000E+00
         0.30000E+00
         0.30000E+00
         0.30000E+00
         0.30000E+00
         0.30000E+00
         0.30000E+00
         0.30000E+00
         0.30000E+00
         0.30000E+00
         0.30000E+00
         0.30000E+00
         0.30000E+00
         0.30000E+00
         0.30000E+00
         0.30000E+00
         0.30000E+00
         0.30000E+00
         0.30000E+00
         0.30000E+00
         0.30000E+00
         0.30000E+00
         0.30000E+00
         0.30000E+00
         0.30000E+00
         0.30000E+00
         0.30000E+00
         0.30000E+00
         0.30000E+00
         0.30000E+00
         0.30000E+00
         0.30000E+00
         0.30000E+00
         0.30000E+00
         0.30000E+00
         0.30000E+00
         0.30000E+00
         0.30000E+00
         0.30000E+00
         0.30000E+00
         0.30000E+00
         0.30000E+00
         0.30000E+00
         0.30000E+00
         0.30000E+00
         0.30000E+00
         0.30000E+00
         0.30000E+00
         0.30000E+00
         0.30000E+00
         0.30000E+00
         0.30000E+00
         0.30000E+00
         0.30000E+00
         0.30000E+00
         0.30000E+00
         0.30000E+00
         0.30000E+00
         0.30000E+00
         0.30000E+00
         0.30000E+00
         0.30000E+00
         0.30000E+00
         0.30000E+00
         0.30000E+00
         0.30000E+00
         0.30000E+00
         0.30000E+00
         0.30000E+00
         0.30000E+00
         0.30000E+00
         0.30000E+00
         0.30000E+00
         0.30000E+00
         0.30000E+00
         0.30000E+00
         0.30000E+00
         0.30000E+00
         0.30000E+00
         0.30000E+00
         0.30000E+00
         0.30000E+00
         0.30000E+00
         0.30000E+00
         0.30000E+00
         0.30000E+00
         0.30000E+00
         0.30000E+00
         0.30000E+00
         0.30000E+00
         0.30000E+00
         0.30000E+00
         0.30000E+00
         0.30000E+00
         0.30000E+00
         0.30000E+00
         0.30000E+00
         0.30000E+00
         0.30000E+00
         0.30000E+00
         0.30000E+00
         0.30000E+00
         0.30000E+00
         0.30000E+00
         0.30000E+00
         0.30000E+00
         0.30000E+00
         0.30000E+00
         0.30000E+00
         0.30000E+00
         0.30000E+00
         0.30000E+00
         0.30000E+00
         0.30000E+00
         0.30000E+00
         0.30000E+00
         0.30000E+00
         0.30000E+00
         0.30000E+00
         0.30000E+00
         0.30000E+00
         0.30000E+00
         0.30000E+00
         0.30000E+00
         0.30000E+00
         0.30000E+00
         0.30000E+00
         0.30000E+00
         0.30000E+00
         0.30000E+00
         0.30000E+00
         0.30000E+00
         0.30000E+00
         0.30000E+00
         0.30000E+00
         0.30000E+00
         0.30000E+00
         0.30000E+00
         0.30000E+00
         0.30000E+00
         0.30000E+00
         0.30000E+00
         0.30000E+00
         0.30000E+00
         0.30000E+00
         0.30000E+00
         0.30000E+00
         0.30000E+00
         0.30000E+00
         0.30000E+00
         0.30000E+00
         0.30000E+00
         0.30000E+00
         0.30000E+00
         0.30000E+00
         0.30000E+00
         0.30000E+00
         0.30000E+00
         0.30000E+00
         0.30000E+00
         0.30000E+00
         0.30000E+00
         0.30000E+00
         0.30000E+00
         0.30000E+00
         0.30000E+00
         0.30000E+00
         0.30000E+00
         0.30000E+00
         0.30000E+00
         0.30000E+00
         0.30000E+00
         0.30000E+00
         0.30000E+00
         0.30000E+00
         0.30000E+00
         0.30000E+00
         0.30000E+00
         0.30000E+00
         0.30000E+00
         0.30000E+00
         0.30000E+00
         0.30000E+00
         0.30000E+00
         0.30000E+00
         0.30000E+00
         0.30000E+00
         0.30000E+00
         0.30000E+00
         0.30000E+00
         0.30000E+00
         0.30000E+00
         0.30000E+00
         0.30000E+00
         0.30000E+00
         0.30000E+00
         0.30000E+00
         0.30000E+00
         0.30000E+00
         0.30000E+00
         0.30000E+00
         0.30000E+00
         0.30000E+00
         0.30000E+00
         0.30000E+00
         0.30000E+00
         0.30000E+00
         0.30000E+00
         0.30000E+00
         0.30000E+00
         0.30000E+00
         0.30000E+00
         0.30000E+00
         0.30000E+00
         0.30000E+00
         0.30000E+00
         0.30000E+00
         0.30000E+00
         0.30000E+00
         0.30000E+00
         0.30000E+00
         0.30000E+00
         0.30000E+00
         0.30000E+00
         0.30000E+00
         0.30000E+00
         0.30000E+00
         0.30000E+00
         0.30000E+00
         0.30000E+00
         0.30000E+00
         0.30000E+00
         0.30000E+00
         0.30000E+00
         0.30000E+00
         0.30000E+00
         0.30000E+00
         0.30000E+00
         0.30000E+00
         0.30000E+00
         0.30000E+00
         0.30000E+00
         0.30000E+00
         0.30000E+00
         0.30000E+00
         0.30000E+00
         0.30000E+00
         0.30000E+00
         0.30000E+00
         0.30000E+00
         0.30000E+00
         0.30000E+00
         0.30000E+00
         0.30000E+00
         0.30000E+00
         0.30000E+00
         0.30000E+00
         0.30000E+00
         0.30000E+00
         0.30000E+00
         0.30000E+00
         0.30000E+00
         0.30000E+00
         0.30000E+00
         0.30000E+00
         0.30000E+00
         0.30000E+00
         0.30000E+00
         0.30000E+00
         0.30000E+00
         0.30000E+00
         0.30000E+00
         0.30000E+00
         0.30000E+00
         0.30000E+00
         0.30000E+00
         0.30000E+00
         0.30000E+00
         0.30000E+00
         0.30000E+00
         0.30000E+00
         0.30000E+00
         0.30000E+00
         0.30000E+00
         0.30000E+00
         0.30000E+00
         0.30000E+00
         0.30000E+00
         0.30000E+00
         0.30000E+00
         0.30000E+00
         0.30000E+00
         0.30000E+00
         0.30000E+00
         0.30000E+00
         0.30000E+00
         0.30000E+00
         0.30000E+00
         0.30000E+00
         0.30000E+00
         0.30000E+00
         0.30000E+00
         0.30000E+00
         0.30000E+00
         0.30000E+00
         0.30000E+00
         0.30000E+00
         0.30000E+00
         0.30000E+00
         0.30000E+00
         0.30000E+00
         0.30000E+00
         0.30000E+00
         0.30000E+00
         0.30000E+00
         0.30000E+00
         0.30000E+00
         0.30000E+00
         0.30000E+00
         0.30000E+00
         0.30000E+00
         0.30000E+00
         0.30000E+00
         0.30000E+00
         0.30000E+00
         0.30000E+00
         0.30000E+00
         0.30000E+00
         0.30000E+00
         0.30000E+00
         0.30000E+00
         0.30000E+00
         0.30000E+00
         0.30000E+00
         0.30000E+00
         0.30000E+00
         0.30000E+00
         0.30000E+00
         0.30000E+00
         0.30000E+00
         0.30000E+00
         0.30000E+00
         0.30000E+00
         0.30000E+00
         0.30000E+00
         0.30000E+00
         0.30000E+00
         0.30000E+00
         0.30000E+00
         0.30000E+00
         0.30000E+00
         0.30000E+00
         0.30000E+00
         0.30000E+00
         0.30000E+00
         0.30000E+00
         0.30000E+00
         0.30000E+00
         0.30000E+00
         0.30000E+00
         0.30000E+00
         0.30000E+00
         0.30000E+00
         0.30000E+00
         0.30000E+00
         0.30000E+00
         0.30000E+00
         0.30000E+00
         0.30000E+00
         0.30000E+00
         0.30000E+00
         0.30000E+00
         0.30000E+00
         0.30000E+00
         0.30000E+00
         0.30000E+00
         0.30000E+00
         0.30000E+00
         0.30000E+00
         0.30000E+00
         0.30000E+00
         0.30000E+00
         0.30000E+00
         0.30000E+00
         0.30000E+00
         0.30000E+00
         0.30000E+00
         0.30000E+00
         0.30000E+00
         0.30000E+00
         0.30000E+00
         0.30000E+00
         0.30000E+00
         0.30000E+00
         0.30000E+00
         0.30000E+00
         0.30000E+00
         0.30000E+00
         0.30000E+00
         0.30000E+00
         0.30000E+00
         0.30000E+00
         0.30000E+00
         0.30000E+00
         0.30000E+00
         0.30000E+00
         0.30000E+00
         0.30000E+00
         0.30000E+00
         0.30000E+00
         0.30000E+00
         0.30000E+00
         0.30000E+00
         0.30000E+00
         0.30000E+00
         0.30000E+00
         0.30000E+00
         0.30000E+00
         0.30000E+00
         0.30000E+00
         0.30000E+00
         0.30000E+00
         0.30000E+00
         0.30000E+00
         0.30000E+00
         0.30000E+00
         0.30000E+00
         0.30000E+00
         0.30000E+00
         0.30000E+00
         0.30000E+00
         0.30000E+00
         0.30000E+00
         0.30000E+00
         0.30000E+00
         0.30000E+00
         0.30000E+00
         0.30000E+00
         0.30000E+00
         0.30000E+00
         0.30000E+00
         0.30000E+00
         0.30000E+00
         0.30000E+00
         0.30000E+00
         0.30000E+00
         0.30000E+00
         0.30000E+00
         0.30000E+00
         0.30000E+00
         0.30000E+00
         0.30000E+00
         0.30000E+00
         0.30000E+00
         0.30000E+00
         0.30000E+00
         0.30000E+00
         0.30000E+00
         0.30000E+00
         0.30000E+00
         0.30000E+00
         0.30000E+00
         0.30000E+00
         0.30000E+00
         0.30000E+00
         0.30000E+00
         0.30000E+00
         0.30000E+00
         0.30000E+00
         0.30000E+00
         0.30000E+00
         0.30000E+00
         0.30000E+00
         0.30000E+00
         0.30000E+00
         0.30000E+00
         0.30000E+00
         0.30000E+00
         0.30000E+00
         0.30000E+00
         0.30000E+00
         0.30000E+00
         0.30000E+00
         0.30000E+00
         0.30000E+00
         0.30000E+00
         0.30000E+00
         0.30000E+00
         0.30000E+00
         0.30000E+00
         0.30000E+00
         0.30000E+00
         0.30000E+00
         0.30000E+00
         0.30000E+00
         0.30000E+00
         0.30000E+00
         0.30000E+00
         0.30000E+00
         0.30000E+00
         0.30000E+00
         0.30000E+00
         0.30000E+00
         0.30000E+00
         0.30000E+00
         0.30000E+00
         0.30000E+00
         0.30000E+00
         0.30000E+00
         0.30000E+00
         0.30000E+00
         0.30000E+00
         0.30000E+00
         0.30000E+00
         0.30000E+00
         0.30000E+00
         0.30000E+00
         0.30000E+00
         0.30000E+00
         0.30000E+00
         0.30000E+00
         0.30000E+00
         0.30000E+00
         0.30000E+00
         0.30000E+00
         0.30000E+00
         0.30000E+00
         0.30000E+00
         0.30000E+00
         0.30000E+00
         0.30000E+00
         0.30000E+00
         0.30000E+00
         0.30000E+00
         0.30000E+00
         0.30000E+00
         0.30000E+00
         0.30000E+00
         0.30000E+00
         0.30000E+00
         0.30000E+00
         0.30000E+00
         0.30000E+00
         0.30000E+00
         0.30000E+00
         0.30000E+00
         0.30000E+00
         0.30000E+00
         0.30000E+00
         0.30000E+00
         0.30000E+00
         0.30000E+00
         0.30000E+00
         0.30000E+00
         0.30000E+00
         0.30000E+00
         0.30000E+00
         0.30000E+00
         0.30000E+00
         0.30000E+00
         0.30000E+00
         0.30000E+00
         0.30000E+00
         0.30000E+00
         0.30000E+00
         0.30000E+00
         0.30000E+00
         0.30000E+00
         0.30000E+00
         0.30000E+00
         0.30000E+00
         0.30000E+00
         0.30000E+00
         0.30000E+00
         0.30000E+00
         0.30000E+00
         0.30000E+00
         0.30000E+00
         0.30000E+00
         0.30000E+00
         0.30000E+00
         0.30000E+00
         0.30000E+00
         0.30000E+00
         0.30000E+00
         0.30000E+00
         0.30000E+00
         0.30000E+00
         0.30000E+00
         0.30000E+00
         0.30000E+00
         0.30000E+00
         0.30000E+00
         0.30000E+00
         0.30000E+00
         0.30000E+00
         0.30000E+00
         0.30000E+00
         0.30000E+00
         0.30000E+00
         0.30000E+00
         0.30000E+00
         0.30000E+00
         0.30000E+00
         0.30000E+00
         0.30000E+00
         0.30000E+00
         0.30000E+00
         0.30000E+00
         0.30000E+00
         0.30000E+00
         0.30000E+00
         0.30000E+00
         0.30000E+00
         0.30000E+00
         0.30000E+00
         0.30000E+00
         0.30000E+00
         0.30000E+00
         0.30000E+00
         0.30000E+00
         0.30000E+00
         0.30000E+00
         0.30000E+00
         0.30000E+00
         0.30000E+00
         0.30000E+00
         0.30000E+00
         0.30000E+00
         0.30000E+00
         0.30000E+00
         0.30000E+00
         0.30000E+00
         0.30000E+00
         0.30000E+00
         0.30000E+00
         0.30000E+00
         0.30000E+00
         0.30000E+00
         0.30000E+00
         0.30000E+00
         0.30000E+00
         0.30000E+00
         0.30000E+00
         0.30000E+00
         0.30000E+00
         0.30000E+00
         0.30000E+00
         0.30000E+00
         0.30000E+00
         0.30000E+00
         0.30000E+00
         0.30000E+00
         0.30000E+00
         0.30000E+00
         0.30000E+00
         0.30000E+00
         0.30000E+00
         0.30000E+00
         0.30000E+00
         0.30000E+00
         0.30000E+00
         0.30000E+00
         0.30000E+00
         0.30000E+00
         0.30000E+00
         0.30000E+00
         0.30000E+00
         0.30000E+00
         0.30000E+00
         0.30000E+00
         0.30000E+00
         0.30000E+00
         0.30000E+00
         0.30000E+00
         0.30000E+00
         0.30000E+00
         0.30000E+00
         0.30000E+00
         0.30000E+00
         0.30000E+00
         0.30000E+00
         0.30000E+00
         0.30000E+00
         0.30000E+00
         0.30000E+00
         0.30000E+00
         0.30000E+00
         0.30000E+00
         0.30000E+00
         0.30000E+00
         0.30000E+00
         0.30000E+00
         0.30000E+00
         0.30000E+00
         0.30000E+00
         0.30000E+00
         0.30000E+00
         0.30000E+00
         0.30000E+00
         0.30000E+00
         0.30000E+00
         0.30000E+00
         0.30000E+00
         0.30000E+00
         0.30000E+00
         0.30000E+00
         0.30000E+00
         0.30000E+00
         0.30000E+00
         0.30000E+00
         0.30000E+00
         0.30000E+00
         0.30000E+00
         0.30000E+00
         0.30000E+00
         0.30000E+00
         0.30000E+00
         0.30000E+00
         0.30000E+00
         0.30000E+00
         0.30000E+00
         0.30000E+00
         0.30000E+00
         0.30000E+00
         0.30000E+00
         0.30000E+00
         0.30000E+00
         0.30000E+00
         0.30000E+00
         0.30000E+00
         0.30000E+00
         0.30000E+00
         0.30000E+00
         0.30000E+00
         0.30000E+00
         0.30000E+00
         0.30000E+00
         0.30000E+00
         0.30000E+00
         0.30000E+00
         0.30000E+00
         0.30000E+00
         0.30000E+00
         0.30000E+00
         0.30000E+00
         0.30000E+00
         0.30000E+00
         0.30000E+00
         0.30000E+00
         0.30000E+00
         0.30000E+00
         0.30000E+00
         0.30000E+00
         0.30000E+00
         0.30000E+00
         0.30000E+00
         0.30000E+00
         0.30000E+00
         0.30000E+00
         0.30000E+00
         0.30000E+00
         0.30000E+00
         0.30000E+00
         0.30000E+00
         0.30000E+00
         0.30000E+00
         0.30000E+00
         0.30000E+00
         0.30000E+00
         0.30000E+00
         0.30000E+00
         0.30000E+00
         0.30000E+00
         0.30000E+00
         0.30000E+00
         0.30000E+00
         0.30000E+00
         0.30000E+00
         0.30000E+00
         0.30000E+00
         0.30000E+00
         0.30000E+00
         0.30000E+00
         0.30000E+00
         0.30000E+00
         0.30000E+00
         0.30000E+00
         0.30000E+00
         0.30000E+00
         0.30000E+00
         0.30000E+00
         0.30000E+00
         0.30000E+00
         0.30000E+00
         0.30000E+00
         0.30000E+00
         0.30000E+00
         0.30000E+00
         0.30000E+00
         0.30000E+00
         0.30000E+00
         0.30000E+00
         0.30000E+00
         0.30000E+00
         0.30000E+00
         0.30000E+00
         0.30000E+00
         0.30000E+00
         0.30000E+00
         0.30000E+00
         0.30000E+00
         0.30000E+00
         0.30000E+00
         0.30000E+00
         0.30000E+00
         0.30000E+00
         0.30000E+00
         0.30000E+00
         0.30000E+00
         0.30000E+00
         0.30000E+00
         0.30000E+00
         0.30000E+00
         0.30000E+00
         0.30000E+00
         0.30000E+00
         0.30000E+00
         0.30000E+00
         0.30000E+00
         0.30000E+00
         0.30000E+00
         0.30000E+00
         0.30000E+00
         0.30000E+00
         0.30000E+00
         0.30000E+00
         0.30000E+00
         0.30000E+00
         0.30000E+00
         0.30000E+00
         0.30000E+00
         0.30000E+00
         0.30000E+00
         0.30000E+00
         0.30000E+00
         0.30000E+00
         0.30000E+00
         0.30000E+00
         0.30000E+00
         0.30000E+00
         0.30000E+00
         0.30000E+00
         0.30000E+00
         0.30000E+00
         0.30000E+00
         0.30000E+00
         0.30000E+00
         0.30000E+00
         0.30000E+00
         0.30000E+00
         0.30000E+00
         0.30000E+00
         0.30000E+00
         0.30000E+00
         0.30000E+00
         0.30000E+00
         0.30000E+00
         0.30000E+00
         0.30000E+00
         0.30000E+00
         0.30000E+00
         0.30000E+00
         0.30000E+00
         0.30000E+00
         0.30000E+00
         0.30000E+00
         0.30000E+00
         0.30000E+00
         0.30000E+00
         0.30000E+00
         0.30000E+00
         0.30000E+00
         0.30000E+00
         0.30000E+00
         0.30000E+00
         0.30000E+00
         0.30000E+00
         0.30000E+00
         0.30000E+00
         0.30000E+00
         0.30000E+00
         0.30000E+00
         0.30000E+00
         0.30000E+00
         0.30000E+00
         0.30000E+00
         0.30000E+00
         0.30000E+00
         0.30000E+00
         0.30000E+00
         0.30000E+00
         0.30000E+00
         0.30000E+00
         0.30000E+00
         0.30000E+00
         0.30000E+00
         0.30000E+00
         0.30000E+00
         0.30000E+00
         0.30000E+00
         0.30000E+00
         0.30000E+00
         0.30000E+00
         0.30000E+00
         0.30000E+00
         0.30000E+00
         0.30000E+00
         0.30000E+00
         0.30000E+00
         0.30000E+00
         0.30000E+00
         0.30000E+00
         0.30000E+00
         0.30000E+00
         0.30000E+00
         0.30000E+00
         0.30000E+00
         0.30000E+00
         0.30000E+00
         0.30000E+00
         0.30000E+00
         0.30000E+00
         0.30000E+00
         0.30000E+00
         0.30000E+00
         0.30000E+00
         0.30000E+00
         0.30000E+00
         0.30000E+00
         0.30000E+00
         0.30000E+00
         0.30000E+00
         0.30000E+00
         0.30000E+00
         0.30000E+00
         0.30000E+00
         0.30000E+00
         0.30000E+00
         0.30000E+00
         0.30000E+00
         0.30000E+00
         0.30000E+00
         0.30000E+00
         0.30000E+00
         0.30000E+00
         0.30000E+00
         0.30000E+00
         0.30000E+00
         0.30000E+00
         0.30000E+00
         0.30000E+00
         0.30000E+00
         0.30000E+00
         0.30000E+00
         0.30000E+00
         0.30000E+00
         0.30000E+00
         0.30000E+00
         0.30000E+00
         0.30000E+00
         0.30000E+00
         0.30000E+00
         0.30000E+00
         0.30000E+00
         0.30000E+00
         0.30000E+00
         0.30000E+00
         0.30000E+00
         0.30000E+00
         0.30000E+00
         0.30000E+00
         0.30000E+00
         0.30000E+00
         0.30000E+00
         0.30000E+00
         0.30000E+00
         0.30000E+00
         0.30000E+00
         0.30000E+00
         0.30000E+00
         0.30000E+00
         0.30000E+00
         0.30000E+00
         0.30000E+00
         0.30000E+00
         0.30000E+00
         0.30000E+00
         0.30000E+00
         0.30000E+00
         0.30000E+00
         0.30000E+00
         0.30000E+00
         0.30000E+00
         0.30000E+00
         0.30000E+00
         0.30000E+00
         0.30000E+00
         0.30000E+00
         0.30000E+00
         0.30000E+00
         0.30000E+00
         0.30000E+00
         0.30000E+00
         0.30000E+00
         0.30000E+00
         0.30000E+00
         0.30000E+00
         0.30000E+00
         0.30000E+00
         0.30000E+00
         0.30000E+00
         0.30000E+00
         0.30000E+00
         0.30000E+00
         0.30000E+00
         0.30000E+00
         0.30000E+00
         0.30000E+00
         0.30000E+00
         0.30000E+00
         0.30000E+00
         0.30000E+00
         0.30000E+00
         0.30000E+00
         0.30000E+00
         0.30000E+00
         0.30000E+00
         0.30000E+00
         0.30000E+00
         0.30000E+00
         0.30000E+00
         0.30000E+00
         0.30000E+00
         0.30000E+00
         0.30000E+00
         0.30000E+00
         0.30000E+00
         0.30000E+00
         0.30000E+00
         0.30000E+00
         0.30000E+00
         0.30000E+00
         0.30000E+00
         0.30000E+00
         0.30000E+00
         0.30000E+00
         0.30000E+00
         0.30000E+00
         0.30000E+00
         0.30000E+00
         0.30000E+00
         0.30000E+00
         0.30000E+00
         0.30000E+00
         0.30000E+00
         0.30000E+00
         0.30000E+00
         0.30000E+00
         0.30000E+00
         0.30000E+00
         0.30000E+00
         0.30000E+00
         0.30000E+00
         0.30000E+00
         0.30000E+00
         0.30000E+00
         0.30000E+00
         0.30000E+00
         0.30000E+00
         0.30000E+00
         0.30000E+00
         0.30000E+00
         0.30000E+00
         0.30000E+00
         0.30000E+00
         0.30000E+00
         0.30000E+00
         0.30000E+00
         0.30000E+00
         0.30000E+00
         0.30000E+00
         0.30000E+00
         0.30000E+00
         0.30000E+00
         0.30000E+00
         0.30000E+00
         0.30000E+00
         0.30000E+00
         0.30000E+00
         0.30000E+00
         0.30000E+00
         0.30000E+00
         0.30000E+00
         0.30000E+00
         0.30000E+00
         0.30000E+00
         0.30000E+00
         0.30000E+00
         0.30000E+00
         0.30000E+00
         0.30000E+00
         0.30000E+00
         0.30000E+00
         0.30000E+00
         0.30000E+00
         0.30000E+00
         0.30000E+00
         0.30000E+00
         0.30000E+00
         0.30000E+00
         0.30000E+00
         0.30000E+00
         0.30000E+00
         0.30000E+00
         0.30000E+00
         0.30000E+00
         0.30000E+00
         0.30000E+00
         0.30000E+00
         0.30000E+00
         0.30000E+00
         0.30000E+00
         0.30000E+00
         0.30000E+00
         0.30000E+00
         0.30000E+00
         0.30000E+00
         0.30000E+00
         0.30000E+00
         0.30000E+00
         0.30000E+00
         0.30000E+00
         0.30000E+00
         0.30000E+00
         0.30000E+00
         0.30000E+00
         0.30000E+00
         0.30000E+00
         0.30000E+00
         0.30000E+00
         0.30000E+00
         0.30000E+00
         0.30000E+00
         0.30000E+00
         0.30000E+00
         0.30000E+00
         0.30000E+00
         0.30000E+00
         0.30000E+00
         0.30000E+00
         0.30000E+00
         0.30000E+00
         0.30000E+00
         0.30000E+00
         0.30000E+00
         0.30000E+00
         0.30000E+00
         0.30000E+00
         0.30000E+00
         0.30000E+00
         0.30000E+00
         0.30000E+00
         0.30000E+00
         0.30000E+00
         0.30000E+00
         0.30000E+00
         0.30000E+00
         0.30000E+00
         0.30000E+00
         0.30000E+00
         0.30000E+00
         0.30000E+00
         0.30000E+00
         0.30000E+00
         0.30000E+00
         0.30000E+00
         0.30000E+00
         0.30000E+00
         0.30000E+00
         0.30000E+00
         0.30000E+00
         0.30000E+00
         0.30000E+00
         0.30000E+00
         0.30000E+00
         0.30000E+00
         0.30000E+00
         0.30000E+00
         0.30000E+00
         0.30000E+00
         0.30000E+00
         0.30000E+00
         0.30000E+00
         0.30000E+00
         0.30000E+00
         0.30000E+00
         0.30000E+00
         0.30000E+00
         0.30000E+00
         0.30000E+00
         0.30000E+00
         0.30000E+00
         0.30000E+00
         0.30000E+00
         0.30000E+00
         0.30000E+00
         0.30000E+00
         0.30000E+00
         0.30000E+00
         0.30000E+00
         0.30000E+00
         0.30000E+00
         0.30000E+00
         0.30000E+00
         0.30000E+00
         0.30000E+00
         0.30000E+00
         0.30000E+00
         0.30000E+00
         0.30000E+00
         0.30000E+00
         0.30000E+00
         0.30000E+00
         0.30000E+00
         0.30000E+00
         0.30000E+00
         0.30000E+00
         0.30000E+00
         0.30000E+00
         0.30000E+00
         0.30000E+00
         0.30000E+00
         0.30000E+00
         0.30000E+00
         0.30000E+00
         0.30000E+00
         0.30000E+00
         0.30000E+00
         0.30000E+00
         0.30000E+00
         0.30000E+00
         0.30000E+00
         0.30000E+00
         0.30000E+00
         0.30000E+00
         0.30000E+00
         0.30000E+00
         0.30000E+00
         0.30000E+00
         0.30000E+00
         0.30000E+00
         0.30000E+00
         0.30000E+00
         0.30000E+00
         0.30000E+00
         0.30000E+00
         0.30000E+00
         0.30000E+00
         0.30000E+00
         0.30000E+00
         0.30000E+00
         0.30000E+00
         0.30000E+00
         0.30000E+00
         0.30000E+00
         0.30000E+00
         0.30000E+00
         0.30000E+00
         0.30000E+00
         0.30000E+00
         0.30000E+00
         0.30000E+00
         0.30000E+00
         0.30000E+00
         0.30000E+00
         0.30000E+00
         0.30000E+00
         0.30000E+00
         0.30000E+00
         0.30000E+00
         0.30000E+00
         0.30000E+00
         0.30000E+00
         0.30000E+00
         0.30000E+00
         0.30000E+00
         0.30000E+00
         0.30000E+00
         0.30000E+00
         0.30000E+00
         0.30000E+00
         0.30000E+00
         0.30000E+00
         0.30000E+00
         0.30000E+00
         0.30000E+00
         0.30000E+00
         0.30000E+00
         0.30000E+00
         0.30000E+00
         0.30000E+00
         0.30000E+00
         0.30000E+00
         0.30000E+00
         0.30000E+00
         0.30000E+00
         0.30000E+00
         0.30000E+00
         0.30000E+00
         0.30000E+00
         0.30000E+00
         0.30000E+00
         0.30000E+00
         0.30000E+00
         0.30000E+00
         0.30000E+00
         0.30000E+00
         0.30000E+00
         0.30000E+00
         0.30000E+00
         0.30000E+00
         0.30000E+00
         0.30000E+00
         0.30000E+00
         0.30000E+00
         0.30000E+00
         0.30000E+00
         0.30000E+00
         0.30000E+00
         0.30000E+00
         0.30000E+00
         0.30000E+00
         0.30000E+00
         0.30000E+00
         0.30000E+00
         0.30000E+00
         0.30000E+00
         0.30000E+00
         0.30000E+00
         0.30000E+00
         0.30000E+00
         0.30000E+00
         0.30000E+00
         0.30000E+00
         0.30000E+00
         0.30000E+00
         0.30000E+00
         0.30000E+00
         0.30000E+00
         0.30000E+00
         0.30000E+00
         0.30000E+00
         0.30000E+00
         0.30000E+00
         0.30000E+00
         0.30000E+00
         0.30000E+00
         0.30000E+00
         0.30000E+00
         0.30000E+00
         0.30000E+00
         0.30000E+00
         0.30000E+00
         0.30000E+00
         0.30000E+00
         0.30000E+00
         0.30000E+00
         0.30000E+00
         0.30000E+00
         0.30000E+00
         0.30000E+00
         0.30000E+00
         0.30000E+00
         0.30000E+00
         0.30000E+00
         0.30000E+00
         0.30000E+00
         0.30000E+00
         0.30000E+00
         0.30000E+00
         0.30000E+00
         0.30000E+00
         0.30000E+00
         0.30000E+00
         0.30000E+00
         0.30000E+00
         0.30000E+00
         0.30000E+00
         0.30000E+00
         0.30000E+00
         0.30000E+00
         0.30000E+00
         0.30000E+00
         0.30000E+00
         0.30000E+00
         0.30000E+00
         0.30000E+00
         0.30000E+00
         0.30000E+00
         0.30000E+00
         0.30000E+00
         0.30000E+00
         0.30000E+00
         0.30000E+00
         0.30000E+00
         0.30000E+00
         0.30000E+00
         0.30000E+00
         0.30000E+00
         0.30000E+00
         0.30000E+00
         0.30000E+00
         0.30000E+00
         0.30000E+00
         0.30000E+00
         0.30000E+00
         0.30000E+00
         0.30000E+00
         0.30000E+00
         0.30000E+00
         0.30000E+00
         0.30000E+00
         0.30000E+00
         0.30000E+00
         0.30000E+00
         0.30000E+00
         0.30000E+00
         0.30000E+00
         0.30000E+00
         0.30000E+00
         0.30000E+00
         0.30000E+00
         0.30000E+00
         0.30000E+00
         0.30000E+00
         0.30000E+00
         0.30000E+00
         0.30000E+00
         0.30000E+00
         0.30000E+00
         0.30000E+00
         0.30000E+00
         0.30000E+00
         0.30000E+00
         0.30000E+00
         0.30000E+00
         0.30000E+00
         0.30000E+00
         0.30000E+00
         0.30000E+00
         0.30000E+00
         0.30000E+00
         0.30000E+00
         0.30000E+00
         0.30000E+00
         0.30000E+00
         0.30000E+00
         0.30000E+00
         0.30000E+00
         0.30000E+00
         0.30000E+00
         0.30000E+00
         0.30000E+00
         0.30000E+00
         0.30000E+00
         0.30000E+00
         0.30000E+00
         0.30000E+00
         0.30000E+00
         0.30000E+00
         0.30000E+00
         0.30000E+00
         0.30000E+00
         0.30000E+00
         0.30000E+00
         0.30000E+00
         0.30000E+00
         0.30000E+00
         0.30000E+00
         0.30000E+00
         0.30000E+00
         0.30000E+00
         0.30000E+00
         0.30000E+00
         0.30000E+00
         0.30000E+00
         0.30000E+00
         0.30000E+00
         0.30000E+00
         0.30000E+00
         0.30000E+00
         0.30000E+00
         0.30000E+00
         0.30000E+00
         0.30000E+00
         0.30000E+00
         0.30000E+00
         0.30000E+00
         0.30000E+00
         0.30000E+00
         0.30000E+00
         0.30000E+00
         0.30000E+00
         0.30000E+00
         0.30000E+00
         0.30000E+00
         0.30000E+00
         0.30000E+00
         0.30000E+00
         0.30000E+00
         0.30000E+00
         0.30000E+00
         0.30000E+00
         0.30000E+00
         0.30000E+00
         0.30000E+00
         0.30000E+00
         0.30000E+00
         0.30000E+00
         0.30000E+00
         0.30000E+00
         0.30000E+00
         0.30000E+00
         0.30000E+00
         0.30000E+00
         0.30000E+00
         0.30000E+00
         0.30000E+00
         0.30000E+00
         0.30000E+00
         0.30000E+00
         0.30000E+00
         0.30000E+00
         0.30000E+00
         0.30000E+00
         0.30000E+00
         0.30000E+00
         0.30000E+00
         0.30000E+00
         0.30000E+00
         0.30000E+00
         0.30000E+00
         0.30000E+00
         0.30000E+00
         0.30000E+00
         0.30000E+00
         0.30000E+00
         0.30000E+00
         0.30000E+00
         0.30000E+00
         0.30000E+00
         0.30000E+00
         0.30000E+00
         0.30000E+00
         0.30000E+00
         0.30000E+00
         0.30000E+00
         0.30000E+00
         0.30000E+00
         0.30000E+00
         0.30000E+00
         0.30000E+00
         0.30000E+00
         0.30000E+00
         0.30000E+00
         0.30000E+00
         0.30000E+00
         0.30000E+00
         0.30000E+00
         0.30000E+00
         0.30000E+00
         0.30000E+00
         0.30000E+00
         0.30000E+00
         0.30000E+00
         0.30000E+00
         0.30000E+00
         0.30000E+00
         0.30000E+00
         0.30000E+00
         0.30000E+00
         0.30000E+00
         0.30000E+00
         0.30000E+00
         0.30000E+00
         0.30000E+00
         0.30000E+00
         0.30000E+00
         0.30000E+00
         0.30000E+00
         0.30000E+00
         0.30000E+00
         0.30000E+00
         0.30000E+00
         0.30000E+00
         0.30000E+00
         0.30000E+00
         0.30000E+00
         0.30000E+00
         0.30000E+00
         0.30000E+00
         0.30000E+00
         0.30000E+00
         0.30000E+00
         0.30000E+00
         0.30000E+00
         0.30000E+00
         0.30000E+00
         0.30000E+00
         0.30000E+00
         0.30000E+00
         0.30000E+00
         0.30000E+00
         0.30000E+00
         0.30000E+00
  
SCALARS                 Youngs_modulus  double 1
LOOKUP_TABLE default
         0.78200E+11
         0.78200E+11
         0.78200E+11
         0.78200E+11
         0.78200E+11
         0.78200E+11
         0.78200E+11
         0.78200E+11
         0.78200E+11
         0.78200E+11
         0.78200E+11
         0.78200E+11
         0.78200E+11
         0.78200E+11
         0.78200E+11
         0.78200E+11
         0.78200E+11
         0.78200E+11
         0.78200E+11
         0.78200E+11
         0.78200E+11
         0.78200E+11
         0.78200E+11
         0.78200E+11
         0.78200E+11
         0.78200E+11
         0.78200E+11
         0.78200E+11
         0.78200E+11
         0.78200E+11
         0.78200E+11
         0.78200E+11
         0.78200E+11
         0.78200E+11
         0.78200E+11
         0.78200E+11
         0.78200E+11
         0.78200E+11
         0.78200E+11
         0.78200E+11
         0.78200E+11
         0.78200E+11
         0.78200E+11
         0.78200E+11
         0.78200E+11
         0.78200E+11
         0.78200E+11
         0.78200E+11
         0.78200E+11
         0.78200E+11
         0.78200E+11
         0.78200E+11
         0.78200E+11
         0.78200E+11
         0.78200E+11
         0.78200E+11
         0.78200E+11
         0.78200E+11
         0.78200E+11
         0.78200E+11
         0.78200E+11
         0.78200E+11
         0.78200E+11
         0.78200E+11
         0.78200E+11
         0.78200E+11
         0.78200E+11
         0.78200E+11
         0.78200E+11
         0.78200E+11
         0.78200E+11
         0.78200E+11
         0.78200E+11
         0.78200E+11
         0.78200E+11
         0.78200E+11
         0.78200E+11
         0.78200E+11
         0.78200E+11
         0.78200E+11
         0.78200E+11
         0.78200E+11
         0.78200E+11
         0.78200E+11
         0.78200E+11
         0.78200E+11
         0.78200E+11
         0.78200E+11
         0.78200E+11
         0.78200E+11
         0.78200E+11
         0.78200E+11
         0.78200E+11
         0.78200E+11
         0.78200E+11
         0.78200E+11
         0.78200E+11
         0.78200E+11
         0.78200E+11
         0.78200E+11
         0.78200E+11
         0.78200E+11
         0.78200E+11
         0.78200E+11
         0.78200E+11
         0.78200E+11
         0.78200E+11
         0.78200E+11
         0.78200E+11
         0.78200E+11
         0.78200E+11
         0.78200E+11
         0.78200E+11
         0.78200E+11
         0.78200E+11
         0.78200E+11
         0.78200E+11
         0.78200E+11
         0.78200E+11
         0.78200E+11
         0.78200E+11
         0.78200E+11
         0.78200E+11
         0.78200E+11
         0.78200E+11
         0.78200E+11
         0.78200E+11
         0.78200E+11
         0.78200E+11
         0.78200E+11
         0.78200E+11
         0.78200E+11
         0.78200E+11
         0.78200E+11
         0.78200E+11
         0.78200E+11
         0.78200E+11
         0.78200E+11
         0.78200E+11
         0.78200E+11
         0.78200E+11
         0.78200E+11
         0.78200E+11
         0.78200E+11
         0.78200E+11
         0.78200E+11
         0.78200E+11
         0.78200E+11
         0.78200E+11
         0.78200E+11
         0.78200E+11
         0.78200E+11
         0.78200E+11
         0.78200E+11
         0.78200E+11
         0.78200E+11
         0.78200E+11
         0.78200E+11
         0.78200E+11
         0.78200E+11
         0.78200E+11
         0.78200E+11
         0.78200E+11
         0.78200E+11
         0.78200E+11
         0.78200E+11
         0.78200E+11
         0.78200E+11
         0.78200E+11
         0.78200E+11
         0.78200E+11
         0.78200E+11
         0.78200E+11
         0.78200E+11
         0.78200E+11
         0.78200E+11
         0.78200E+11
         0.78200E+11
         0.78200E+11
         0.78200E+11
         0.78200E+11
         0.78200E+11
         0.78200E+11
         0.78200E+11
         0.78200E+11
         0.78200E+11
         0.78200E+11
         0.78200E+11
         0.78200E+11
         0.78200E+11
         0.78200E+11
         0.78200E+11
         0.78200E+11
         0.78200E+11
         0.78200E+11
         0.78200E+11
         0.78200E+11
         0.78200E+11
         0.78200E+11
         0.78200E+11
         0.78200E+11
         0.78200E+11
         0.78200E+11
         0.78200E+11
         0.78200E+11
         0.78200E+11
         0.78200E+11
         0.78200E+11
         0.78200E+11
         0.78200E+11
         0.78200E+11
         0.78200E+11
         0.78200E+11
         0.78200E+11
         0.78200E+11
         0.78200E+11
         0.78200E+11
         0.78200E+11
         0.78200E+11
         0.78200E+11
         0.78200E+11
         0.78200E+11
         0.78200E+11
         0.78200E+11
         0.78200E+11
         0.78200E+11
         0.78200E+11
         0.78200E+11
         0.78200E+11
         0.78200E+11
         0.78200E+11
         0.78200E+11
         0.78200E+11
         0.78200E+11
         0.78200E+11
         0.78200E+11
         0.78200E+11
         0.78200E+11
         0.78200E+11
         0.78200E+11
         0.78200E+11
         0.78200E+11
         0.78200E+11
         0.78200E+11
         0.78200E+11
         0.78200E+11
         0.78200E+11
         0.78200E+11
         0.78200E+11
         0.78200E+11
         0.78200E+11
         0.78200E+11
         0.78200E+11
         0.78200E+11
         0.78200E+11
         0.78200E+11
         0.78200E+11
         0.78200E+11
         0.78200E+11
         0.78200E+11
         0.78200E+11
         0.78200E+11
         0.78200E+11
         0.78200E+11
         0.78200E+11
         0.78200E+11
         0.78200E+11
         0.78200E+11
         0.78200E+11
         0.78200E+11
         0.78200E+11
         0.78200E+11
         0.78200E+11
         0.78200E+11
         0.78200E+11
         0.78200E+11
         0.78200E+11
         0.78200E+11
         0.78200E+11
         0.78200E+11
         0.78200E+11
         0.78200E+11
         0.78200E+11
         0.78200E+11
         0.78200E+11
         0.78200E+11
         0.78200E+11
         0.78200E+11
         0.78200E+11
         0.78200E+11
         0.78200E+11
         0.78200E+11
         0.78200E+11
         0.78200E+11
         0.78200E+11
         0.78200E+11
         0.78200E+11
         0.78200E+11
         0.78200E+11
         0.78200E+11
         0.78200E+11
         0.78200E+11
         0.78200E+11
         0.78200E+11
         0.78200E+11
         0.78200E+11
         0.78200E+11
         0.78200E+11
         0.78200E+11
         0.78200E+11
         0.78200E+11
         0.78200E+11
         0.78200E+11
         0.78200E+11
         0.78200E+11
         0.78200E+11
         0.78200E+11
         0.78200E+11
         0.78200E+11
         0.78200E+11
         0.78200E+11
         0.78200E+11
         0.78200E+11
         0.78200E+11
         0.78200E+11
         0.78200E+11
         0.78200E+11
         0.78200E+11
         0.78200E+11
         0.78200E+11
         0.78200E+11
         0.78200E+11
         0.78200E+11
         0.78200E+11
         0.78200E+11
         0.78200E+11
         0.78200E+11
         0.78200E+11
         0.78200E+11
         0.78200E+11
         0.78200E+11
         0.78200E+11
         0.78200E+11
         0.78200E+11
         0.78200E+11
         0.78200E+11
         0.78200E+11
         0.78200E+11
         0.78200E+11
         0.78200E+11
         0.78200E+11
         0.78200E+11
         0.78200E+11
         0.78200E+11
         0.78200E+11
         0.78200E+11
         0.78200E+11
         0.78200E+11
         0.78200E+11
         0.78200E+11
         0.78200E+11
         0.78200E+11
         0.78200E+11
         0.78200E+11
         0.78200E+11
         0.78200E+11
         0.78200E+11
         0.78200E+11
         0.78200E+11
         0.78200E+11
         0.78200E+11
         0.78200E+11
         0.78200E+11
         0.78200E+11
         0.78200E+11
         0.78200E+11
         0.78200E+11
         0.78200E+11
         0.78200E+11
         0.78200E+11
         0.78200E+11
         0.78200E+11
         0.78200E+11
         0.78200E+11
         0.78200E+11
         0.78200E+11
         0.78200E+11
         0.78200E+11
         0.78200E+11
         0.78200E+11
         0.78200E+11
         0.78200E+11
         0.78200E+11
         0.78200E+11
         0.78200E+11
         0.78200E+11
         0.78200E+11
         0.78200E+11
         0.78200E+11
         0.78200E+11
         0.78200E+11
         0.78200E+11
         0.78200E+11
         0.78200E+11
         0.78200E+11
         0.78200E+11
         0.78200E+11
         0.78200E+11
         0.78200E+11
         0.78200E+11
         0.78200E+11
         0.78200E+11
         0.78200E+11
         0.78200E+11
         0.78200E+11
         0.78200E+11
         0.78200E+11
         0.78200E+11
         0.78200E+11
         0.78200E+11
         0.78200E+11
         0.78200E+11
         0.78200E+11
         0.78200E+11
         0.78200E+11
         0.78200E+11
         0.78200E+11
         0.78200E+11
         0.78200E+11
         0.78200E+11
         0.78200E+11
         0.78200E+11
         0.78200E+11
         0.78200E+11
         0.78200E+11
         0.78200E+11
         0.78200E+11
         0.78200E+11
         0.78200E+11
         0.78200E+11
         0.78200E+11
         0.78200E+11
         0.78200E+11
         0.78200E+11
         0.78200E+11
         0.78200E+11
         0.78200E+11
         0.78200E+11
         0.78200E+11
         0.78200E+11
         0.78200E+11
         0.78200E+11
         0.78200E+11
         0.78200E+11
         0.78200E+11
         0.78200E+11
         0.78200E+11
         0.78200E+11
         0.78200E+11
         0.78200E+11
         0.78200E+11
         0.78200E+11
         0.78200E+11
         0.78200E+11
         0.78200E+11
         0.78200E+11
         0.78200E+11
         0.78200E+11
         0.78200E+11
         0.78200E+11
         0.78200E+11
         0.78200E+11
         0.78200E+11
         0.78200E+11
         0.78200E+11
         0.78200E+11
         0.78200E+11
         0.78200E+11
         0.78200E+11
         0.78200E+11
         0.78200E+11
         0.78200E+11
         0.78200E+11
         0.78200E+11
         0.78200E+11
         0.78200E+11
         0.78200E+11
         0.78200E+11
         0.78200E+11
         0.78200E+11
         0.78200E+11
         0.78200E+11
         0.78200E+11
         0.78200E+11
         0.78200E+11
         0.78200E+11
         0.78200E+11
         0.78200E+11
         0.78200E+11
         0.78200E+11
         0.78200E+11
         0.78200E+11
         0.78200E+11
         0.78200E+11
         0.78200E+11
         0.78200E+11
         0.78200E+11
         0.78200E+11
         0.78200E+11
         0.78200E+11
         0.78200E+11
         0.78200E+11
         0.78200E+11
         0.78200E+11
         0.78200E+11
         0.78200E+11
         0.78200E+11
         0.78200E+11
         0.78200E+11
         0.78200E+11
         0.78200E+11
         0.78200E+11
         0.78200E+11
         0.78200E+11
         0.78200E+11
         0.78200E+11
         0.78200E+11
         0.78200E+11
         0.78200E+11
         0.78200E+11
         0.78200E+11
         0.78200E+11
         0.78200E+11
         0.78200E+11
         0.78200E+11
         0.78200E+11
         0.78200E+11
         0.78200E+11
         0.78200E+11
         0.78200E+11
         0.78200E+11
         0.78200E+11
         0.78200E+11
         0.78200E+11
         0.78200E+11
         0.78200E+11
         0.78200E+11
         0.78200E+11
         0.78200E+11
         0.78200E+11
         0.78200E+11
         0.78200E+11
         0.78200E+11
         0.78200E+11
         0.78200E+11
         0.78200E+11
         0.78200E+11
         0.78200E+11
         0.78200E+11
         0.78200E+11
         0.78200E+11
         0.78200E+11
         0.78200E+11
         0.78200E+11
         0.78200E+11
         0.78200E+11
         0.78200E+11
         0.78200E+11
         0.78200E+11
         0.78200E+11
         0.78200E+11
         0.78200E+11
         0.78200E+11
         0.78200E+11
         0.78200E+11
         0.78200E+11
         0.78200E+11
         0.78200E+11
         0.78200E+11
         0.78200E+11
         0.78200E+11
         0.78200E+11
         0.78200E+11
         0.78200E+11
         0.78200E+11
         0.78200E+11
         0.78200E+11
         0.78200E+11
         0.78200E+11
         0.78200E+11
         0.78200E+11
         0.78200E+11
         0.78200E+11
         0.78200E+11
         0.78200E+11
         0.78200E+11
         0.78200E+11
         0.78200E+11
         0.78200E+11
         0.78200E+11
         0.78200E+11
         0.78200E+11
         0.78200E+11
         0.78200E+11
         0.78200E+11
         0.78200E+11
         0.78200E+11
         0.78200E+11
         0.78200E+11
         0.78200E+11
         0.78200E+11
         0.78200E+11
         0.78200E+11
         0.78200E+11
         0.78200E+11
         0.78200E+11
         0.78200E+11
         0.78200E+11
         0.78200E+11
         0.78200E+11
         0.78200E+11
         0.78200E+11
         0.78200E+11
         0.78200E+11
         0.78200E+11
         0.78200E+11
         0.78200E+11
         0.78200E+11
         0.78200E+11
         0.78200E+11
         0.78200E+11
         0.78200E+11
         0.78200E+11
         0.78200E+11
         0.78200E+11
         0.78200E+11
         0.78200E+11
         0.78200E+11
         0.78200E+11
         0.78200E+11
         0.78200E+11
         0.78200E+11
         0.78200E+11
         0.78200E+11
         0.78200E+11
         0.78200E+11
         0.78200E+11
         0.78200E+11
         0.78200E+11
         0.78200E+11
         0.78200E+11
         0.78200E+11
         0.78200E+11
         0.78200E+11
         0.78200E+11
         0.78200E+11
         0.78200E+11
         0.78200E+11
         0.78200E+11
         0.78200E+11
         0.78200E+11
         0.78200E+11
         0.78200E+11
         0.78200E+11
         0.78200E+11
         0.78200E+11
         0.78200E+11
         0.78200E+11
         0.78200E+11
         0.78200E+11
         0.78200E+11
         0.78200E+11
         0.78200E+11
         0.78200E+11
         0.78200E+11
         0.78200E+11
         0.78200E+11
         0.78200E+11
         0.78200E+11
         0.78200E+11
         0.78200E+11
         0.78200E+11
         0.78200E+11
         0.78200E+11
         0.78200E+11
         0.78200E+11
         0.78200E+11
         0.78200E+11
         0.78200E+11
         0.78200E+11
         0.78200E+11
         0.78200E+11
         0.78200E+11
         0.78200E+11
         0.78200E+11
         0.78200E+11
         0.78200E+11
         0.78200E+11
         0.78200E+11
         0.78200E+11
         0.78200E+11
         0.78200E+11
         0.78200E+11
         0.78200E+11
         0.78200E+11
         0.78200E+11
         0.78200E+11
         0.78200E+11
         0.78200E+11
         0.78200E+11
         0.78200E+11
         0.78200E+11
         0.78200E+11
         0.78200E+11
         0.78200E+11
         0.78200E+11
         0.78200E+11
         0.78200E+11
         0.78200E+11
         0.78200E+11
         0.78200E+11
         0.78200E+11
         0.78200E+11
         0.78200E+11
         0.78200E+11
         0.78200E+11
         0.78200E+11
         0.78200E+11
         0.78200E+11
         0.78200E+11
         0.78200E+11
         0.78200E+11
         0.78200E+11
         0.78200E+11
         0.78200E+11
         0.78200E+11
         0.78200E+11
         0.78200E+11
         0.78200E+11
         0.78200E+11
         0.78200E+11
         0.78200E+11
         0.78200E+11
         0.78200E+11
         0.78200E+11
         0.78200E+11
         0.78200E+11
         0.78200E+11
         0.78200E+11
         0.78200E+11
         0.78200E+11
         0.78200E+11
         0.78200E+11
         0.78200E+11
         0.78200E+11
         0.78200E+11
         0.78200E+11
         0.78200E+11
         0.78200E+11
         0.78200E+11
         0.78200E+11
         0.78200E+11
         0.78200E+11
         0.78200E+11
         0.78200E+11
         0.78200E+11
         0.78200E+11
         0.78200E+11
         0.78200E+11
         0.78200E+11
         0.78200E+11
         0.78200E+11
         0.78200E+11
         0.78200E+11
         0.78200E+11
         0.78200E+11
         0.78200E+11
         0.78200E+11
         0.78200E+11
         0.78200E+11
         0.78200E+11
         0.78200E+11
         0.78200E+11
         0.78200E+11
         0.78200E+11
         0.78200E+11
         0.78200E+11
         0.78200E+11
         0.78200E+11
         0.78200E+11
         0.78200E+11
         0.78200E+11
         0.78200E+11
         0.78200E+11
         0.78200E+11
         0.78200E+11
         0.78200E+11
         0.78200E+11
         0.78200E+11
         0.78200E+11
         0.78200E+11
         0.78200E+11
         0.78200E+11
         0.78200E+11
         0.78200E+11
         0.78200E+11
         0.78200E+11
         0.78200E+11
         0.78200E+11
         0.78200E+11
         0.78200E+11
         0.78200E+11
         0.78200E+11
         0.78200E+11
         0.78200E+11
         0.78200E+11
         0.78200E+11
         0.78200E+11
         0.78200E+11
         0.78200E+11
         0.78200E+11
         0.78200E+11
         0.78200E+11
         0.78200E+11
         0.78200E+11
         0.78200E+11
         0.78200E+11
         0.78200E+11
         0.78200E+11
         0.78200E+11
         0.78200E+11
         0.78200E+11
         0.78200E+11
         0.78200E+11
         0.78200E+11
         0.78200E+11
         0.78200E+11
         0.78200E+11
         0.78200E+11
         0.78200E+11
         0.78200E+11
         0.78200E+11
         0.78200E+11
         0.78200E+11
         0.78200E+11
         0.78200E+11
         0.78200E+11
         0.78200E+11
         0.78200E+11
         0.78200E+11
         0.78200E+11
         0.78200E+11
         0.78200E+11
         0.78200E+11
         0.78200E+11
         0.78200E+11
         0.78200E+11
         0.78200E+11
         0.78200E+11
         0.78200E+11
         0.78200E+11
         0.78200E+11
         0.78200E+11
         0.78200E+11
         0.78200E+11
         0.78200E+11
         0.78200E+11
         0.78200E+11
         0.78200E+11
         0.78200E+11
         0.78200E+11
         0.78200E+11
         0.78200E+11
         0.78200E+11
         0.78200E+11
         0.78200E+11
         0.78200E+11
         0.78200E+11
         0.78200E+11
         0.78200E+11
         0.78200E+11
         0.78200E+11
         0.78200E+11
         0.78200E+11
         0.78200E+11
         0.78200E+11
         0.78200E+11
         0.78200E+11
         0.78200E+11
         0.78200E+11
         0.78200E+11
         0.78200E+11
         0.78200E+11
         0.78200E+11
         0.78200E+11
         0.78200E+11
         0.78200E+11
         0.78200E+11
         0.78200E+11
         0.78200E+11
         0.78200E+11
         0.78200E+11
         0.78200E+11
         0.78200E+11
         0.78200E+11
         0.78200E+11
         0.78200E+11
         0.78200E+11
         0.78200E+11
         0.78200E+11
         0.78200E+11
         0.78200E+11
         0.78200E+11
         0.78200E+11
         0.78200E+11
         0.78200E+11
         0.78200E+11
         0.78200E+11
         0.78200E+11
         0.78200E+11
         0.78200E+11
         0.78200E+11
         0.78200E+11
         0.78200E+11
         0.78200E+11
         0.78200E+11
         0.78200E+11
         0.78200E+11
         0.78200E+11
         0.78200E+11
         0.78200E+11
         0.78200E+11
         0.78200E+11
         0.78200E+11
         0.78200E+11
         0.78200E+11
         0.78200E+11
         0.78200E+11
         0.78200E+11
         0.78200E+11
         0.78200E+11
         0.78200E+11
         0.78200E+11
         0.78200E+11
         0.78200E+11
         0.78200E+11
         0.78200E+11
         0.78200E+11
         0.78200E+11
         0.78200E+11
         0.78200E+11
         0.78200E+11
         0.78200E+11
         0.78200E+11
         0.78200E+11
         0.78200E+11
         0.78200E+11
         0.78200E+11
         0.78200E+11
         0.78200E+11
         0.78200E+11
         0.78200E+11
         0.78200E+11
         0.78200E+11
         0.78200E+11
         0.78200E+11
         0.78200E+11
         0.78200E+11
         0.78200E+11
         0.78200E+11
         0.78200E+11
         0.78200E+11
         0.78200E+11
         0.78200E+11
         0.78200E+11
         0.78200E+11
         0.78200E+11
         0.78200E+11
         0.78200E+11
         0.78200E+11
         0.78200E+11
         0.78200E+11
         0.78200E+11
         0.78200E+11
         0.78200E+11
         0.78200E+11
         0.78200E+11
         0.78200E+11
         0.78200E+11
         0.78200E+11
         0.78200E+11
         0.78200E+11
         0.78200E+11
         0.78200E+11
         0.78200E+11
         0.78200E+11
         0.78200E+11
         0.78200E+11
         0.78200E+11
         0.78200E+11
         0.78200E+11
         0.78200E+11
         0.78200E+11
         0.78200E+11
         0.78200E+11
         0.78200E+11
         0.78200E+11
         0.78200E+11
         0.78200E+11
         0.78200E+11
         0.78200E+11
         0.78200E+11
         0.78200E+11
         0.78200E+11
         0.78200E+11
         0.78200E+11
         0.78200E+11
         0.78200E+11
         0.78200E+11
         0.78200E+11
         0.78200E+11
         0.78200E+11
         0.78200E+11
         0.78200E+11
         0.78200E+11
         0.78200E+11
         0.78200E+11
         0.78200E+11
         0.78200E+11
         0.78200E+11
         0.78200E+11
         0.78200E+11
         0.78200E+11
         0.78200E+11
         0.78200E+11
         0.78200E+11
         0.78200E+11
         0.78200E+11
         0.78200E+11
         0.78200E+11
         0.78200E+11
         0.78200E+11
         0.78200E+11
         0.78200E+11
         0.78200E+11
         0.78200E+11
         0.78200E+11
         0.78200E+11
         0.78200E+11
         0.78200E+11
         0.78200E+11
         0.78200E+11
         0.78200E+11
         0.78200E+11
         0.78200E+11
         0.78200E+11
         0.78200E+11
         0.78200E+11
         0.78200E+11
         0.78200E+11
         0.78200E+11
         0.78200E+11
         0.78200E+11
         0.78200E+11
         0.78200E+11
         0.78200E+11
         0.78200E+11
         0.78200E+11
         0.78200E+11
         0.78200E+11
         0.78200E+11
         0.78200E+11
         0.78200E+11
         0.78200E+11
         0.78200E+11
         0.78200E+11
         0.78200E+11
         0.78200E+11
         0.78200E+11
         0.78200E+11
         0.78200E+11
         0.78200E+11
         0.78200E+11
         0.78200E+11
         0.78200E+11
         0.78200E+11
         0.78200E+11
         0.78200E+11
         0.78200E+11
         0.78200E+11
         0.78200E+11
         0.78200E+11
         0.78200E+11
         0.78200E+11
         0.78200E+11
         0.78200E+11
         0.78200E+11
         0.78200E+11
         0.78200E+11
         0.78200E+11
         0.78200E+11
         0.78200E+11
         0.78200E+11
         0.78200E+11
         0.78200E+11
         0.78200E+11
         0.78200E+11
         0.78200E+11
         0.78200E+11
         0.78200E+11
         0.78200E+11
         0.78200E+11
         0.78200E+11
         0.78200E+11
         0.78200E+11
         0.78200E+11
         0.78200E+11
         0.78200E+11
         0.78200E+11
         0.78200E+11
         0.78200E+11
         0.78200E+11
         0.78200E+11
         0.78200E+11
         0.78200E+11
         0.78200E+11
         0.78200E+11
         0.78200E+11
         0.78200E+11
         0.78200E+11
         0.78200E+11
         0.78200E+11
         0.78200E+11
         0.78200E+11
         0.78200E+11
         0.78200E+11
         0.78200E+11
         0.78200E+11
         0.78200E+11
         0.78200E+11
         0.78200E+11
         0.78200E+11
         0.78200E+11
         0.78200E+11
         0.78200E+11
         0.78200E+11
         0.78200E+11
         0.78200E+11
         0.78200E+11
         0.78200E+11
         0.78200E+11
         0.78200E+11
         0.78200E+11
         0.78200E+11
         0.78200E+11
         0.78200E+11
         0.78200E+11
         0.78200E+11
         0.78200E+11
         0.78200E+11
         0.78200E+11
         0.78200E+11
         0.78200E+11
         0.78200E+11
         0.78200E+11
         0.78200E+11
         0.78200E+11
         0.78200E+11
         0.78200E+11
         0.78200E+11
         0.78200E+11
         0.78200E+11
         0.78200E+11
         0.78200E+11
         0.78200E+11
         0.78200E+11
         0.78200E+11
         0.78200E+11
         0.78200E+11
         0.78200E+11
         0.78200E+11
         0.78200E+11
         0.78200E+11
         0.78200E+11
         0.78200E+11
         0.78200E+11
         0.78200E+11
         0.78200E+11
         0.78200E+11
         0.78200E+11
         0.78200E+11
         0.78200E+11
         0.78200E+11
         0.78200E+11
         0.78200E+11
         0.78200E+11
         0.78200E+11
         0.78200E+11
         0.78200E+11
         0.78200E+11
         0.78200E+11
         0.78200E+11
         0.78200E+11
         0.78200E+11
         0.78200E+11
         0.78200E+11
         0.78200E+11
         0.78200E+11
         0.78200E+11
         0.78200E+11
         0.78200E+11
         0.78200E+11
         0.78200E+11
         0.78200E+11
         0.78200E+11
         0.78200E+11
         0.78200E+11
         0.78200E+11
         0.78200E+11
         0.78200E+11
         0.78200E+11
         0.78200E+11
         0.78200E+11
         0.78200E+11
         0.78200E+11
         0.78200E+11
         0.78200E+11
         0.78200E+11
         0.78200E+11
         0.78200E+11
         0.78200E+11
         0.78200E+11
         0.78200E+11
         0.78200E+11
         0.78200E+11
         0.78200E+11
         0.78200E+11
         0.78200E+11
         0.78200E+11
         0.78200E+11
         0.78200E+11
         0.78200E+11
         0.78200E+11
         0.78200E+11
         0.78200E+11
         0.78200E+11
         0.78200E+11
         0.78200E+11
         0.78200E+11
         0.78200E+11
         0.78200E+11
         0.78200E+11
         0.78200E+11
         0.78200E+11
         0.78200E+11
         0.78200E+11
         0.78200E+11
         0.78200E+11
         0.78200E+11
         0.78200E+11
         0.78200E+11
         0.78200E+11
         0.78200E+11
         0.78200E+11
         0.78200E+11
         0.78200E+11
         0.78200E+11
         0.78200E+11
         0.78200E+11
         0.78200E+11
         0.78200E+11
         0.78200E+11
         0.78200E+11
         0.78200E+11
         0.78200E+11
         0.78200E+11
         0.78200E+11
         0.78200E+11
         0.78200E+11
         0.78200E+11
         0.78200E+11
         0.78200E+11
         0.78200E+11
         0.78200E+11
         0.78200E+11
         0.78200E+11
         0.78200E+11
         0.78200E+11
         0.78200E+11
         0.78200E+11
         0.78200E+11
         0.78200E+11
         0.78200E+11
         0.78200E+11
         0.78200E+11
         0.78200E+11
         0.78200E+11
         0.78200E+11
         0.78200E+11
         0.78200E+11
         0.78200E+11
         0.78200E+11
         0.78200E+11
         0.78200E+11
         0.78200E+11
         0.78200E+11
         0.78200E+11
         0.78200E+11
         0.78200E+11
         0.78200E+11
         0.78200E+11
         0.78200E+11
         0.78200E+11
         0.78200E+11
         0.78200E+11
         0.78200E+11
         0.78200E+11
         0.78200E+11
         0.78200E+11
         0.78200E+11
         0.78200E+11
         0.78200E+11
         0.78200E+11
         0.78200E+11
         0.78200E+11
         0.78200E+11
         0.78200E+11
         0.78200E+11
         0.78200E+11
         0.78200E+11
         0.78200E+11
         0.78200E+11
         0.78200E+11
         0.78200E+11
         0.78200E+11
         0.78200E+11
         0.78200E+11
         0.78200E+11
         0.78200E+11
         0.78200E+11
         0.78200E+11
         0.78200E+11
         0.78200E+11
         0.78200E+11
         0.78200E+11
         0.78200E+11
         0.78200E+11
         0.78200E+11
         0.78200E+11
         0.78200E+11
         0.78200E+11
         0.78200E+11
         0.78200E+11
         0.78200E+11
         0.78200E+11
         0.78200E+11
         0.78200E+11
         0.78200E+11
         0.78200E+11
         0.78200E+11
         0.78200E+11
         0.78200E+11
         0.78200E+11
         0.78200E+11
         0.78200E+11
         0.78200E+11
         0.78200E+11
         0.78200E+11
         0.78200E+11
         0.78200E+11
         0.78200E+11
         0.78200E+11
         0.78200E+11
         0.78200E+11
         0.78200E+11
         0.78200E+11
         0.78200E+11
         0.78200E+11
         0.78200E+11
         0.78200E+11
         0.78200E+11
         0.78200E+11
         0.78200E+11
         0.78200E+11
         0.78200E+11
         0.78200E+11
         0.78200E+11
         0.78200E+11
         0.78200E+11
         0.78200E+11
         0.78200E+11
         0.78200E+11
         0.78200E+11
         0.78200E+11
         0.78200E+11
         0.78200E+11
         0.78200E+11
         0.78200E+11
         0.78200E+11
         0.78200E+11
         0.78200E+11
         0.78200E+11
         0.78200E+11
         0.78200E+11
         0.78200E+11
         0.78200E+11
         0.78200E+11
         0.78200E+11
         0.78200E+11
         0.78200E+11
         0.78200E+11
         0.78200E+11
         0.78200E+11
         0.78200E+11
         0.78200E+11
         0.78200E+11
         0.78200E+11
         0.78200E+11
         0.78200E+11
         0.78200E+11
         0.78200E+11
         0.78200E+11
         0.78200E+11
         0.78200E+11
         0.78200E+11
         0.78200E+11
         0.78200E+11
         0.78200E+11
         0.78200E+11
         0.78200E+11
         0.78200E+11
         0.78200E+11
         0.78200E+11
         0.78200E+11
         0.78200E+11
         0.78200E+11
         0.78200E+11
         0.78200E+11
         0.78200E+11
         0.78200E+11
         0.78200E+11
         0.78200E+11
         0.78200E+11
         0.78200E+11
         0.78200E+11
         0.78200E+11
         0.78200E+11
         0.78200E+11
         0.78200E+11
         0.78200E+11
         0.78200E+11
         0.78200E+11
         0.78200E+11
         0.78200E+11
         0.78200E+11
         0.78200E+11
         0.78200E+11
         0.78200E+11
         0.78200E+11
         0.78200E+11
         0.78200E+11
         0.78200E+11
         0.78200E+11
         0.78200E+11
         0.78200E+11
         0.78200E+11
         0.78200E+11
         0.78200E+11
         0.78200E+11
         0.78200E+11
         0.78200E+11
         0.78200E+11
         0.78200E+11
         0.78200E+11
         0.78200E+11
         0.78200E+11
         0.78200E+11
         0.78200E+11
         0.78200E+11
         0.78200E+11
         0.78200E+11
         0.78200E+11
         0.78200E+11
         0.78200E+11
         0.78200E+11
         0.78200E+11
         0.78200E+11
         0.78200E+11
         0.78200E+11
         0.78200E+11
         0.78200E+11
         0.78200E+11
         0.78200E+11
         0.78200E+11
         0.78200E+11
         0.78200E+11
         0.78200E+11
         0.78200E+11
         0.78200E+11
         0.78200E+11
         0.78200E+11
         0.78200E+11
         0.78200E+11
         0.78200E+11
         0.78200E+11
         0.78200E+11
         0.78200E+11
         0.78200E+11
         0.78200E+11
         0.78200E+11
         0.78200E+11
         0.78200E+11
         0.78200E+11
         0.78200E+11
         0.78200E+11
         0.78200E+11
         0.78200E+11
         0.78200E+11
         0.78200E+11
         0.78200E+11
         0.78200E+11
         0.78200E+11
         0.78200E+11
         0.78200E+11
         0.78200E+11
         0.78200E+11
         0.78200E+11
         0.78200E+11
         0.78200E+11
         0.78200E+11
         0.78200E+11
         0.78200E+11
         0.78200E+11
         0.78200E+11
         0.78200E+11
         0.78200E+11
         0.78200E+11
         0.78200E+11
         0.78200E+11
         0.78200E+11
         0.78200E+11
         0.78200E+11
         0.78200E+11
         0.78200E+11
         0.78200E+11
         0.78200E+11
         0.78200E+11
         0.78200E+11
         0.78200E+11
         0.78200E+11
         0.78200E+11
         0.78200E+11
         0.78200E+11
         0.78200E+11
         0.78200E+11
         0.78200E+11
         0.78200E+11
         0.78200E+11
         0.78200E+11
         0.78200E+11
         0.78200E+11
         0.78200E+11
         0.78200E+11
         0.78200E+11
         0.78200E+11
         0.78200E+11
         0.78200E+11
         0.78200E+11
         0.78200E+11
         0.78200E+11
         0.78200E+11
         0.78200E+11
         0.78200E+11
         0.78200E+11
         0.78200E+11
         0.78200E+11
         0.78200E+11
         0.78200E+11
         0.78200E+11
         0.78200E+11
         0.78200E+11
         0.78200E+11
         0.78200E+11
         0.78200E+11
         0.78200E+11
         0.78200E+11
         0.78200E+11
         0.78200E+11
         0.78200E+11
         0.78200E+11
         0.78200E+11
         0.78200E+11
         0.78200E+11
         0.78200E+11
         0.78200E+11
         0.78200E+11
         0.78200E+11
         0.78200E+11
         0.78200E+11
         0.78200E+11
         0.78200E+11
         0.78200E+11
         0.78200E+11
         0.78200E+11
         0.78200E+11
         0.78200E+11
         0.78200E+11
         0.78200E+11
         0.78200E+11
         0.78200E+11
         0.78200E+11
         0.78200E+11
         0.78200E+11
         0.78200E+11
         0.78200E+11
         0.78200E+11
         0.78200E+11
         0.78200E+11
         0.78200E+11
         0.78200E+11
         0.78200E+11
         0.78200E+11
         0.78200E+11
         0.78200E+11
         0.78200E+11
         0.78200E+11
         0.78200E+11
         0.78200E+11
         0.78200E+11
         0.78200E+11
         0.78200E+11
         0.78200E+11
         0.78200E+11
         0.78200E+11
         0.78200E+11
         0.78200E+11
         0.78200E+11
         0.78200E+11
         0.78200E+11
         0.78200E+11
         0.78200E+11
         0.78200E+11
         0.78200E+11
         0.78200E+11
         0.78200E+11
         0.78200E+11
         0.78200E+11
         0.78200E+11
         0.78200E+11
         0.78200E+11
         0.78200E+11
         0.78200E+11
         0.78200E+11
         0.78200E+11
         0.78200E+11
         0.78200E+11
         0.78200E+11
         0.78200E+11
         0.78200E+11
         0.78200E+11
         0.78200E+11
         0.78200E+11
         0.78200E+11
         0.78200E+11
         0.78200E+11
         0.78200E+11
         0.78200E+11
         0.78200E+11
         0.78200E+11
         0.78200E+11
         0.78200E+11
         0.78200E+11
         0.78200E+11
         0.78200E+11
         0.78200E+11
         0.78200E+11
         0.78200E+11
         0.78200E+11
         0.78200E+11
         0.78200E+11
         0.78200E+11
         0.78200E+11
         0.78200E+11
         0.78200E+11
         0.78200E+11
         0.78200E+11
         0.78200E+11
         0.78200E+11
         0.78200E+11
         0.78200E+11
         0.78200E+11
         0.78200E+11
         0.78200E+11
         0.78200E+11
         0.78200E+11
         0.78200E+11
         0.78200E+11
         0.78200E+11
         0.78200E+11
         0.78200E+11
         0.78200E+11
         0.78200E+11
         0.78200E+11
         0.78200E+11
         0.78200E+11
         0.78200E+11
         0.78200E+11
         0.78200E+11
         0.78200E+11
         0.78200E+11
         0.78200E+11
         0.78200E+11
         0.78200E+11
         0.78200E+11
         0.78200E+11
         0.78200E+11
         0.78200E+11
         0.78200E+11
         0.78200E+11
         0.78200E+11
         0.78200E+11
         0.78200E+11
         0.78200E+11
         0.78200E+11
         0.78200E+11
         0.78200E+11
         0.78200E+11
         0.78200E+11
         0.78200E+11
         0.78200E+11
         0.78200E+11
         0.78200E+11
         0.78200E+11
         0.78200E+11
         0.78200E+11
         0.78200E+11
         0.78200E+11
         0.78200E+11
         0.78200E+11
         0.78200E+11
         0.78200E+11
         0.78200E+11
         0.78200E+11
         0.78200E+11
         0.78200E+11
         0.78200E+11
         0.78200E+11
         0.78200E+11
         0.78200E+11
         0.78200E+11
         0.78200E+11
         0.78200E+11
         0.78200E+11
         0.78200E+11
         0.78200E+11
         0.78200E+11
         0.78200E+11
         0.78200E+11
         0.78200E+11
         0.78200E+11
         0.78200E+11
         0.78200E+11
         0.78200E+11
         0.78200E+11
         0.78200E+11
         0.78200E+11
         0.78200E+11
         0.78200E+11
         0.78200E+11
         0.78200E+11
         0.78200E+11
         0.78200E+11
         0.78200E+11
         0.78200E+11
         0.78200E+11
         0.78200E+11
         0.78200E+11
         0.78200E+11
         0.78200E+11
         0.78200E+11
         0.78200E+11
         0.78200E+11
         0.78200E+11
         0.78200E+11
         0.78200E+11
         0.78200E+11
         0.78200E+11
         0.78200E+11
         0.78200E+11
         0.78200E+11
         0.78200E+11
         0.78200E+11
         0.78200E+11
         0.78200E+11
         0.78200E+11
         0.78200E+11
         0.78200E+11
         0.78200E+11
         0.78200E+11
         0.78200E+11
         0.78200E+11
         0.78200E+11
         0.78200E+11
         0.78200E+11
         0.78200E+11
         0.78200E+11
         0.78200E+11
         0.78200E+11
         0.78200E+11
         0.78200E+11
         0.78200E+11
         0.78200E+11
         0.78200E+11
         0.78200E+11
         0.78200E+11
         0.78200E+11
         0.78200E+11
         0.78200E+11
         0.78200E+11
         0.78200E+11
         0.78200E+11
         0.78200E+11
         0.78200E+11
         0.78200E+11
         0.78200E+11
         0.78200E+11
         0.78200E+11
         0.78200E+11
         0.78200E+11
         0.78200E+11
         0.78200E+11
         0.78200E+11
         0.78200E+11
         0.78200E+11
         0.78200E+11
         0.78200E+11
         0.78200E+11
         0.78200E+11
         0.78200E+11
         0.78200E+11
         0.78200E+11
         0.78200E+11
         0.78200E+11
         0.78200E+11
         0.78200E+11
         0.78200E+11
         0.78200E+11
         0.78200E+11
         0.78200E+11
         0.78200E+11
         0.78200E+11
         0.78200E+11
         0.78200E+11
         0.78200E+11
         0.78200E+11
         0.78200E+11
         0.78200E+11
         0.78200E+11
         0.78200E+11
         0.78200E+11
         0.78200E+11
         0.78200E+11
         0.78200E+11
         0.78200E+11
         0.78200E+11
         0.78200E+11
         0.78200E+11
         0.78200E+11
         0.78200E+11
         0.78200E+11
         0.78200E+11
         0.78200E+11
         0.78200E+11
         0.78200E+11
         0.78200E+11
         0.78200E+11
         0.78200E+11
         0.78200E+11
         0.78200E+11
         0.78200E+11
         0.78200E+11
         0.78200E+11
         0.78200E+11
         0.78200E+11
         0.78200E+11
         0.78200E+11
         0.78200E+11
         0.78200E+11
         0.78200E+11
         0.78200E+11
         0.78200E+11
         0.78200E+11
         0.78200E+11
         0.78200E+11
         0.78200E+11
         0.78200E+11
         0.78200E+11
         0.78200E+11
         0.78200E+11
         0.78200E+11
         0.78200E+11
         0.78200E+11
         0.78200E+11
         0.78200E+11
         0.78200E+11
         0.78200E+11
         0.78200E+11
         0.78200E+11
         0.78200E+11
         0.78200E+11
         0.78200E+11
         0.78200E+11
         0.78200E+11
         0.78200E+11
         0.78200E+11
         0.78200E+11
         0.78200E+11
         0.78200E+11
         0.78200E+11
         0.78200E+11
         0.78200E+11
         0.78200E+11
         0.78200E+11
         0.78200E+11
         0.78200E+11
         0.78200E+11
         0.78200E+11
         0.78200E+11
         0.78200E+11
         0.78200E+11
         0.78200E+11
         0.78200E+11
         0.78200E+11
         0.78200E+11
         0.78200E+11
         0.78200E+11
         0.78200E+11
         0.78200E+11
         0.78200E+11
         0.78200E+11
         0.78200E+11
         0.78200E+11
         0.78200E+11
         0.78200E+11
         0.78200E+11
         0.78200E+11
         0.78200E+11
         0.78200E+11
         0.78200E+11
         0.78200E+11
  
SCALARS                        density  double 1
LOOKUP_TABLE default
         0.27000E+04
         0.27000E+04
         0.27000E+04
         0.27000E+04
         0.27000E+04
         0.27000E+04
         0.27000E+04
         0.27000E+04
         0.27000E+04
         0.27000E+04
         0.27000E+04
         0.27000E+04
         0.27000E+04
         0.27000E+04
         0.27000E+04
         0.27000E+04
         0.27000E+04
         0.27000E+04
         0.27000E+04
         0.27000E+04
         0.27000E+04
         0.27000E+04
         0.27000E+04
         0.27000E+04
         0.27000E+04
         0.27000E+04
         0.27000E+04
         0.27000E+04
         0.27000E+04
         0.27000E+04
         0.27000E+04
         0.27000E+04
         0.27000E+04
         0.27000E+04
         0.27000E+04
         0.27000E+04
         0.27000E+04
         0.27000E+04
         0.27000E+04
         0.27000E+04
         0.27000E+04
         0.27000E+04
         0.27000E+04
         0.27000E+04
         0.27000E+04
         0.27000E+04
         0.27000E+04
         0.27000E+04
         0.27000E+04
         0.27000E+04
         0.27000E+04
         0.27000E+04
         0.27000E+04
         0.27000E+04
         0.27000E+04
         0.27000E+04
         0.27000E+04
         0.27000E+04
         0.27000E+04
         0.27000E+04
         0.27000E+04
         0.27000E+04
         0.27000E+04
         0.27000E+04
         0.27000E+04
         0.27000E+04
         0.27000E+04
         0.27000E+04
         0.27000E+04
         0.27000E+04
         0.27000E+04
         0.27000E+04
         0.27000E+04
         0.27000E+04
         0.27000E+04
         0.27000E+04
         0.27000E+04
         0.27000E+04
         0.27000E+04
         0.27000E+04
         0.27000E+04
         0.27000E+04
         0.27000E+04
         0.27000E+04
         0.27000E+04
         0.27000E+04
         0.27000E+04
         0.27000E+04
         0.27000E+04
         0.27000E+04
         0.27000E+04
         0.27000E+04
         0.27000E+04
         0.27000E+04
         0.27000E+04
         0.27000E+04
         0.27000E+04
         0.27000E+04
         0.27000E+04
         0.27000E+04
         0.27000E+04
         0.27000E+04
         0.27000E+04
         0.27000E+04
         0.27000E+04
         0.27000E+04
         0.27000E+04
         0.27000E+04
         0.27000E+04
         0.27000E+04
         0.27000E+04
         0.27000E+04
         0.27000E+04
         0.27000E+04
         0.27000E+04
         0.27000E+04
         0.27000E+04
         0.27000E+04
         0.27000E+04
         0.27000E+04
         0.27000E+04
         0.27000E+04
         0.27000E+04
         0.27000E+04
         0.27000E+04
         0.27000E+04
         0.27000E+04
         0.27000E+04
         0.27000E+04
         0.27000E+04
         0.27000E+04
         0.27000E+04
         0.27000E+04
         0.27000E+04
         0.27000E+04
         0.27000E+04
         0.27000E+04
         0.27000E+04
         0.27000E+04
         0.27000E+04
         0.27000E+04
         0.27000E+04
         0.27000E+04
         0.27000E+04
         0.27000E+04
         0.27000E+04
         0.27000E+04
         0.27000E+04
         0.27000E+04
         0.27000E+04
         0.27000E+04
         0.27000E+04
         0.27000E+04
         0.27000E+04
         0.27000E+04
         0.27000E+04
         0.27000E+04
         0.27000E+04
         0.27000E+04
         0.27000E+04
         0.27000E+04
         0.27000E+04
         0.27000E+04
         0.27000E+04
         0.27000E+04
         0.27000E+04
         0.27000E+04
         0.27000E+04
         0.27000E+04
         0.27000E+04
         0.27000E+04
         0.27000E+04
         0.27000E+04
         0.27000E+04
         0.27000E+04
         0.27000E+04
         0.27000E+04
         0.27000E+04
         0.27000E+04
         0.27000E+04
         0.27000E+04
         0.27000E+04
         0.27000E+04
         0.27000E+04
         0.27000E+04
         0.27000E+04
         0.27000E+04
         0.27000E+04
         0.27000E+04
         0.27000E+04
         0.27000E+04
         0.27000E+04
         0.27000E+04
         0.27000E+04
         0.27000E+04
         0.27000E+04
         0.27000E+04
         0.27000E+04
         0.27000E+04
         0.27000E+04
         0.27000E+04
         0.27000E+04
         0.27000E+04
         0.27000E+04
         0.27000E+04
         0.27000E+04
         0.27000E+04
         0.27000E+04
         0.27000E+04
         0.27000E+04
         0.27000E+04
         0.27000E+04
         0.27000E+04
         0.27000E+04
         0.27000E+04
         0.27000E+04
         0.27000E+04
         0.27000E+04
         0.27000E+04
         0.27000E+04
         0.27000E+04
         0.27000E+04
         0.27000E+04
         0.27000E+04
         0.27000E+04
         0.27000E+04
         0.27000E+04
         0.27000E+04
         0.27000E+04
         0.27000E+04
         0.27000E+04
         0.27000E+04
         0.27000E+04
         0.27000E+04
         0.27000E+04
         0.27000E+04
         0.27000E+04
         0.27000E+04
         0.27000E+04
         0.27000E+04
         0.27000E+04
         0.27000E+04
         0.27000E+04
         0.27000E+04
         0.27000E+04
         0.27000E+04
         0.27000E+04
         0.27000E+04
         0.27000E+04
         0.27000E+04
         0.27000E+04
         0.27000E+04
         0.27000E+04
         0.27000E+04
         0.27000E+04
         0.27000E+04
         0.27000E+04
         0.27000E+04
         0.27000E+04
         0.27000E+04
         0.27000E+04
         0.27000E+04
         0.27000E+04
         0.27000E+04
         0.27000E+04
         0.27000E+04
         0.27000E+04
         0.27000E+04
         0.27000E+04
         0.27000E+04
         0.27000E+04
         0.27000E+04
         0.27000E+04
         0.27000E+04
         0.27000E+04
         0.27000E+04
         0.27000E+04
         0.27000E+04
         0.27000E+04
         0.27000E+04
         0.27000E+04
         0.27000E+04
         0.27000E+04
         0.27000E+04
         0.27000E+04
         0.27000E+04
         0.27000E+04
         0.27000E+04
         0.27000E+04
         0.27000E+04
         0.27000E+04
         0.27000E+04
         0.27000E+04
         0.27000E+04
         0.27000E+04
         0.27000E+04
         0.27000E+04
         0.27000E+04
         0.27000E+04
         0.27000E+04
         0.27000E+04
         0.27000E+04
         0.27000E+04
         0.27000E+04
         0.27000E+04
         0.27000E+04
         0.27000E+04
         0.27000E+04
         0.27000E+04
         0.27000E+04
         0.27000E+04
         0.27000E+04
         0.27000E+04
         0.27000E+04
         0.27000E+04
         0.27000E+04
         0.27000E+04
         0.27000E+04
         0.27000E+04
         0.27000E+04
         0.27000E+04
         0.27000E+04
         0.27000E+04
         0.27000E+04
         0.27000E+04
         0.27000E+04
         0.27000E+04
         0.27000E+04
         0.27000E+04
         0.27000E+04
         0.27000E+04
         0.27000E+04
         0.27000E+04
         0.27000E+04
         0.27000E+04
         0.27000E+04
         0.27000E+04
         0.27000E+04
         0.27000E+04
         0.27000E+04
         0.27000E+04
         0.27000E+04
         0.27000E+04
         0.27000E+04
         0.27000E+04
         0.27000E+04
         0.27000E+04
         0.27000E+04
         0.27000E+04
         0.27000E+04
         0.27000E+04
         0.27000E+04
         0.27000E+04
         0.27000E+04
         0.27000E+04
         0.27000E+04
         0.27000E+04
         0.27000E+04
         0.27000E+04
         0.27000E+04
         0.27000E+04
         0.27000E+04
         0.27000E+04
         0.27000E+04
         0.27000E+04
         0.27000E+04
         0.27000E+04
         0.27000E+04
         0.27000E+04
         0.27000E+04
         0.27000E+04
         0.27000E+04
         0.27000E+04
         0.27000E+04
         0.27000E+04
         0.27000E+04
         0.27000E+04
         0.27000E+04
         0.27000E+04
         0.27000E+04
         0.27000E+04
         0.27000E+04
         0.27000E+04
         0.27000E+04
         0.27000E+04
         0.27000E+04
         0.27000E+04
         0.27000E+04
         0.27000E+04
         0.27000E+04
         0.27000E+04
         0.27000E+04
         0.27000E+04
         0.27000E+04
         0.27000E+04
         0.27000E+04
         0.27000E+04
         0.27000E+04
         0.27000E+04
         0.27000E+04
         0.27000E+04
         0.27000E+04
         0.27000E+04
         0.27000E+04
         0.27000E+04
         0.27000E+04
         0.27000E+04
         0.27000E+04
         0.27000E+04
         0.27000E+04
         0.27000E+04
         0.27000E+04
         0.27000E+04
         0.27000E+04
         0.27000E+04
         0.27000E+04
         0.27000E+04
         0.27000E+04
         0.27000E+04
         0.27000E+04
         0.27000E+04
         0.27000E+04
         0.27000E+04
         0.27000E+04
         0.27000E+04
         0.27000E+04
         0.27000E+04
         0.27000E+04
         0.27000E+04
         0.27000E+04
         0.27000E+04
         0.27000E+04
         0.27000E+04
         0.27000E+04
         0.27000E+04
         0.27000E+04
         0.27000E+04
         0.27000E+04
         0.27000E+04
         0.27000E+04
         0.27000E+04
         0.27000E+04
         0.27000E+04
         0.27000E+04
         0.27000E+04
         0.27000E+04
         0.27000E+04
         0.27000E+04
         0.27000E+04
         0.27000E+04
         0.27000E+04
         0.27000E+04
         0.27000E+04
         0.27000E+04
         0.27000E+04
         0.27000E+04
         0.27000E+04
         0.27000E+04
         0.27000E+04
         0.27000E+04
         0.27000E+04
         0.27000E+04
         0.27000E+04
         0.27000E+04
         0.27000E+04
         0.27000E+04
         0.27000E+04
         0.27000E+04
         0.27000E+04
         0.27000E+04
         0.27000E+04
         0.27000E+04
         0.27000E+04
         0.27000E+04
         0.27000E+04
         0.27000E+04
         0.27000E+04
         0.27000E+04
         0.27000E+04
         0.27000E+04
         0.27000E+04
         0.27000E+04
         0.27000E+04
         0.27000E+04
         0.27000E+04
         0.27000E+04
         0.27000E+04
         0.27000E+04
         0.27000E+04
         0.27000E+04
         0.27000E+04
         0.27000E+04
         0.27000E+04
         0.27000E+04
         0.27000E+04
         0.27000E+04
         0.27000E+04
         0.27000E+04
         0.27000E+04
         0.27000E+04
         0.27000E+04
         0.27000E+04
         0.27000E+04
         0.27000E+04
         0.27000E+04
         0.27000E+04
         0.27000E+04
         0.27000E+04
         0.27000E+04
         0.27000E+04
         0.27000E+04
         0.27000E+04
         0.27000E+04
         0.27000E+04
         0.27000E+04
         0.27000E+04
         0.27000E+04
         0.27000E+04
         0.27000E+04
         0.27000E+04
         0.27000E+04
         0.27000E+04
         0.27000E+04
         0.27000E+04
         0.27000E+04
         0.27000E+04
         0.27000E+04
         0.27000E+04
         0.27000E+04
         0.27000E+04
         0.27000E+04
         0.27000E+04
         0.27000E+04
         0.27000E+04
         0.27000E+04
         0.27000E+04
         0.27000E+04
         0.27000E+04
         0.27000E+04
         0.27000E+04
         0.27000E+04
         0.27000E+04
         0.27000E+04
         0.27000E+04
         0.27000E+04
         0.27000E+04
         0.27000E+04
         0.27000E+04
         0.27000E+04
         0.27000E+04
         0.27000E+04
         0.27000E+04
         0.27000E+04
         0.27000E+04
         0.27000E+04
         0.27000E+04
         0.27000E+04
         0.27000E+04
         0.27000E+04
         0.27000E+04
         0.27000E+04
         0.27000E+04
         0.27000E+04
         0.27000E+04
         0.27000E+04
         0.27000E+04
         0.27000E+04
         0.27000E+04
         0.27000E+04
         0.27000E+04
         0.27000E+04
         0.27000E+04
         0.27000E+04
         0.27000E+04
         0.27000E+04
         0.27000E+04
         0.27000E+04
         0.27000E+04
         0.27000E+04
         0.27000E+04
         0.27000E+04
         0.27000E+04
         0.27000E+04
         0.27000E+04
         0.27000E+04
         0.27000E+04
         0.27000E+04
         0.27000E+04
         0.27000E+04
         0.27000E+04
         0.27000E+04
         0.27000E+04
         0.27000E+04
         0.27000E+04
         0.27000E+04
         0.27000E+04
         0.27000E+04
         0.27000E+04
         0.27000E+04
         0.27000E+04
         0.27000E+04
         0.27000E+04
         0.27000E+04
         0.27000E+04
         0.27000E+04
         0.27000E+04
         0.27000E+04
         0.27000E+04
         0.27000E+04
         0.27000E+04
         0.27000E+04
         0.27000E+04
         0.27000E+04
         0.27000E+04
         0.27000E+04
         0.27000E+04
         0.27000E+04
         0.27000E+04
         0.27000E+04
         0.27000E+04
         0.27000E+04
         0.27000E+04
         0.27000E+04
         0.27000E+04
         0.27000E+04
         0.27000E+04
         0.27000E+04
         0.27000E+04
         0.27000E+04
         0.27000E+04
         0.27000E+04
         0.27000E+04
         0.27000E+04
         0.27000E+04
         0.27000E+04
         0.27000E+04
         0.27000E+04
         0.27000E+04
         0.27000E+04
         0.27000E+04
         0.27000E+04
         0.27000E+04
         0.27000E+04
         0.27000E+04
         0.27000E+04
         0.27000E+04
         0.27000E+04
         0.27000E+04
         0.27000E+04
         0.27000E+04
         0.27000E+04
         0.27000E+04
         0.27000E+04
         0.27000E+04
         0.27000E+04
         0.27000E+04
         0.27000E+04
         0.27000E+04
         0.27000E+04
         0.27000E+04
         0.27000E+04
         0.27000E+04
         0.27000E+04
         0.27000E+04
         0.27000E+04
         0.27000E+04
         0.27000E+04
         0.27000E+04
         0.27000E+04
         0.27000E+04
         0.27000E+04
         0.27000E+04
         0.27000E+04
         0.27000E+04
         0.27000E+04
         0.27000E+04
         0.27000E+04
         0.27000E+04
         0.27000E+04
         0.27000E+04
         0.27000E+04
         0.27000E+04
         0.27000E+04
         0.27000E+04
         0.27000E+04
         0.27000E+04
         0.27000E+04
         0.27000E+04
         0.27000E+04
         0.27000E+04
         0.27000E+04
         0.27000E+04
         0.27000E+04
         0.27000E+04
         0.27000E+04
         0.27000E+04
         0.27000E+04
         0.27000E+04
         0.27000E+04
         0.27000E+04
         0.27000E+04
         0.27000E+04
         0.27000E+04
         0.27000E+04
         0.27000E+04
         0.27000E+04
         0.27000E+04
         0.27000E+04
         0.27000E+04
         0.27000E+04
         0.27000E+04
         0.27000E+04
         0.27000E+04
         0.27000E+04
         0.27000E+04
         0.27000E+04
         0.27000E+04
         0.27000E+04
         0.27000E+04
         0.27000E+04
         0.27000E+04
         0.27000E+04
         0.27000E+04
         0.27000E+04
         0.27000E+04
         0.27000E+04
         0.27000E+04
         0.27000E+04
         0.27000E+04
         0.27000E+04
         0.27000E+04
         0.27000E+04
         0.27000E+04
         0.27000E+04
         0.27000E+04
         0.27000E+04
         0.27000E+04
         0.27000E+04
         0.27000E+04
         0.27000E+04
         0.27000E+04
         0.27000E+04
         0.27000E+04
         0.27000E+04
         0.27000E+04
         0.27000E+04
         0.27000E+04
         0.27000E+04
         0.27000E+04
         0.27000E+04
         0.27000E+04
         0.27000E+04
         0.27000E+04
         0.27000E+04
         0.27000E+04
         0.27000E+04
         0.27000E+04
         0.27000E+04
         0.27000E+04
         0.27000E+04
         0.27000E+04
         0.27000E+04
         0.27000E+04
         0.27000E+04
         0.27000E+04
         0.27000E+04
         0.27000E+04
         0.27000E+04
         0.27000E+04
         0.27000E+04
         0.27000E+04
         0.27000E+04
         0.27000E+04
         0.27000E+04
         0.27000E+04
         0.27000E+04
         0.27000E+04
         0.27000E+04
         0.27000E+04
         0.27000E+04
         0.27000E+04
         0.27000E+04
         0.27000E+04
         0.27000E+04
         0.27000E+04
         0.27000E+04
         0.27000E+04
         0.27000E+04
         0.27000E+04
         0.27000E+04
         0.27000E+04
         0.27000E+04
         0.27000E+04
         0.27000E+04
         0.27000E+04
         0.27000E+04
         0.27000E+04
         0.27000E+04
         0.27000E+04
         0.27000E+04
         0.27000E+04
         0.27000E+04
         0.27000E+04
         0.27000E+04
         0.27000E+04
         0.27000E+04
         0.27000E+04
         0.27000E+04
         0.27000E+04
         0.27000E+04
         0.27000E+04
         0.27000E+04
         0.27000E+04
         0.27000E+04
         0.27000E+04
         0.27000E+04
         0.27000E+04
         0.27000E+04
         0.27000E+04
         0.27000E+04
         0.27000E+04
         0.27000E+04
         0.27000E+04
         0.27000E+04
         0.27000E+04
         0.27000E+04
         0.27000E+04
         0.27000E+04
         0.27000E+04
         0.27000E+04
         0.27000E+04
         0.27000E+04
         0.27000E+04
         0.27000E+04
         0.27000E+04
         0.27000E+04
         0.27000E+04
         0.27000E+04
         0.27000E+04
         0.27000E+04
         0.27000E+04
         0.27000E+04
         0.27000E+04
         0.27000E+04
         0.27000E+04
         0.27000E+04
         0.27000E+04
         0.27000E+04
         0.27000E+04
         0.27000E+04
         0.27000E+04
         0.27000E+04
         0.27000E+04
         0.27000E+04
         0.27000E+04
         0.27000E+04
         0.27000E+04
         0.27000E+04
         0.27000E+04
         0.27000E+04
         0.27000E+04
         0.27000E+04
         0.27000E+04
         0.27000E+04
         0.27000E+04
         0.27000E+04
         0.27000E+04
         0.27000E+04
         0.27000E+04
         0.27000E+04
         0.27000E+04
         0.27000E+04
         0.27000E+04
         0.27000E+04
         0.27000E+04
         0.27000E+04
         0.27000E+04
         0.27000E+04
         0.27000E+04
         0.27000E+04
         0.27000E+04
         0.27000E+04
         0.27000E+04
         0.27000E+04
         0.27000E+04
         0.27000E+04
         0.27000E+04
         0.27000E+04
         0.27000E+04
         0.27000E+04
         0.27000E+04
         0.27000E+04
         0.27000E+04
         0.27000E+04
         0.27000E+04
         0.27000E+04
         0.27000E+04
         0.27000E+04
         0.27000E+04
         0.27000E+04
         0.27000E+04
         0.27000E+04
         0.27000E+04
         0.27000E+04
         0.27000E+04
         0.27000E+04
         0.27000E+04
         0.27000E+04
         0.27000E+04
         0.27000E+04
         0.27000E+04
         0.27000E+04
         0.27000E+04
         0.27000E+04
         0.27000E+04
         0.27000E+04
         0.27000E+04
         0.27000E+04
         0.27000E+04
         0.27000E+04
         0.27000E+04
         0.27000E+04
         0.27000E+04
         0.27000E+04
         0.27000E+04
         0.27000E+04
         0.27000E+04
         0.27000E+04
         0.27000E+04
         0.27000E+04
         0.27000E+04
         0.27000E+04
         0.27000E+04
         0.27000E+04
         0.27000E+04
         0.27000E+04
         0.27000E+04
         0.27000E+04
         0.27000E+04
         0.27000E+04
         0.27000E+04
         0.27000E+04
         0.27000E+04
         0.27000E+04
         0.27000E+04
         0.27000E+04
         0.27000E+04
         0.27000E+04
         0.27000E+04
         0.27000E+04
         0.27000E+04
         0.27000E+04
         0.27000E+04
         0.27000E+04
         0.27000E+04
         0.27000E+04
         0.27000E+04
         0.27000E+04
         0.27000E+04
         0.27000E+04
         0.27000E+04
         0.27000E+04
         0.27000E+04
         0.27000E+04
         0.27000E+04
         0.27000E+04
         0.27000E+04
         0.27000E+04
         0.27000E+04
         0.27000E+04
         0.27000E+04
         0.27000E+04
         0.27000E+04
         0.27000E+04
         0.27000E+04
         0.27000E+04
         0.27000E+04
         0.27000E+04
         0.27000E+04
         0.27000E+04
         0.27000E+04
         0.27000E+04
         0.27000E+04
         0.27000E+04
         0.27000E+04
         0.27000E+04
         0.27000E+04
         0.27000E+04
         0.27000E+04
         0.27000E+04
         0.27000E+04
         0.27000E+04
         0.27000E+04
         0.27000E+04
         0.27000E+04
         0.27000E+04
         0.27000E+04
         0.27000E+04
         0.27000E+04
         0.27000E+04
         0.27000E+04
         0.27000E+04
         0.27000E+04
         0.27000E+04
         0.27000E+04
         0.27000E+04
         0.27000E+04
         0.27000E+04
         0.27000E+04
         0.27000E+04
         0.27000E+04
         0.27000E+04
         0.27000E+04
         0.27000E+04
         0.27000E+04
         0.27000E+04
         0.27000E+04
         0.27000E+04
         0.27000E+04
         0.27000E+04
         0.27000E+04
         0.27000E+04
         0.27000E+04
         0.27000E+04
         0.27000E+04
         0.27000E+04
         0.27000E+04
         0.27000E+04
         0.27000E+04
         0.27000E+04
         0.27000E+04
         0.27000E+04
         0.27000E+04
         0.27000E+04
         0.27000E+04
         0.27000E+04
         0.27000E+04
         0.27000E+04
         0.27000E+04
         0.27000E+04
         0.27000E+04
         0.27000E+04
         0.27000E+04
         0.27000E+04
         0.27000E+04
         0.27000E+04
         0.27000E+04
         0.27000E+04
         0.27000E+04
         0.27000E+04
         0.27000E+04
         0.27000E+04
         0.27000E+04
         0.27000E+04
         0.27000E+04
         0.27000E+04
         0.27000E+04
         0.27000E+04
         0.27000E+04
         0.27000E+04
         0.27000E+04
         0.27000E+04
         0.27000E+04
         0.27000E+04
         0.27000E+04
         0.27000E+04
         0.27000E+04
         0.27000E+04
         0.27000E+04
         0.27000E+04
         0.27000E+04
         0.27000E+04
         0.27000E+04
         0.27000E+04
         0.27000E+04
         0.27000E+04
         0.27000E+04
         0.27000E+04
         0.27000E+04
         0.27000E+04
         0.27000E+04
         0.27000E+04
         0.27000E+04
         0.27000E+04
         0.27000E+04
         0.27000E+04
         0.27000E+04
         0.27000E+04
         0.27000E+04
         0.27000E+04
         0.27000E+04
         0.27000E+04
         0.27000E+04
         0.27000E+04
         0.27000E+04
         0.27000E+04
         0.27000E+04
         0.27000E+04
         0.27000E+04
         0.27000E+04
         0.27000E+04
         0.27000E+04
         0.27000E+04
         0.27000E+04
         0.27000E+04
         0.27000E+04
         0.27000E+04
         0.27000E+04
         0.27000E+04
         0.27000E+04
         0.27000E+04
         0.27000E+04
         0.27000E+04
         0.27000E+04
         0.27000E+04
         0.27000E+04
         0.27000E+04
         0.27000E+04
         0.27000E+04
         0.27000E+04
         0.27000E+04
         0.27000E+04
         0.27000E+04
         0.27000E+04
         0.27000E+04
         0.27000E+04
         0.27000E+04
         0.27000E+04
         0.27000E+04
         0.27000E+04
         0.27000E+04
         0.27000E+04
         0.27000E+04
         0.27000E+04
         0.27000E+04
         0.27000E+04
         0.27000E+04
         0.27000E+04
         0.27000E+04
         0.27000E+04
         0.27000E+04
         0.27000E+04
         0.27000E+04
         0.27000E+04
         0.27000E+04
         0.27000E+04
         0.27000E+04
         0.27000E+04
         0.27000E+04
         0.27000E+04
         0.27000E+04
         0.27000E+04
         0.27000E+04
         0.27000E+04
         0.27000E+04
         0.27000E+04
         0.27000E+04
         0.27000E+04
         0.27000E+04
         0.27000E+04
         0.27000E+04
         0.27000E+04
         0.27000E+04
         0.27000E+04
         0.27000E+04
         0.27000E+04
         0.27000E+04
         0.27000E+04
         0.27000E+04
         0.27000E+04
         0.27000E+04
         0.27000E+04
         0.27000E+04
         0.27000E+04
         0.27000E+04
         0.27000E+04
         0.27000E+04
         0.27000E+04
         0.27000E+04
         0.27000E+04
         0.27000E+04
         0.27000E+04
         0.27000E+04
         0.27000E+04
         0.27000E+04
         0.27000E+04
         0.27000E+04
         0.27000E+04
         0.27000E+04
         0.27000E+04
         0.27000E+04
         0.27000E+04
         0.27000E+04
         0.27000E+04
         0.27000E+04
         0.27000E+04
         0.27000E+04
         0.27000E+04
         0.27000E+04
         0.27000E+04
         0.27000E+04
         0.27000E+04
         0.27000E+04
         0.27000E+04
         0.27000E+04
         0.27000E+04
         0.27000E+04
         0.27000E+04
         0.27000E+04
         0.27000E+04
         0.27000E+04
         0.27000E+04
         0.27000E+04
         0.27000E+04
         0.27000E+04
         0.27000E+04
         0.27000E+04
         0.27000E+04
         0.27000E+04
         0.27000E+04
         0.27000E+04
         0.27000E+04
         0.27000E+04
         0.27000E+04
         0.27000E+04
         0.27000E+04
         0.27000E+04
         0.27000E+04
         0.27000E+04
         0.27000E+04
         0.27000E+04
         0.27000E+04
         0.27000E+04
         0.27000E+04
         0.27000E+04
         0.27000E+04
         0.27000E+04
         0.27000E+04
         0.27000E+04
         0.27000E+04
         0.27000E+04
         0.27000E+04
         0.27000E+04
         0.27000E+04
         0.27000E+04
         0.27000E+04
         0.27000E+04
         0.27000E+04
         0.27000E+04
         0.27000E+04
         0.27000E+04
         0.27000E+04
         0.27000E+04
         0.27000E+04
         0.27000E+04
         0.27000E+04
         0.27000E+04
         0.27000E+04
         0.27000E+04
         0.27000E+04
         0.27000E+04
         0.27000E+04
         0.27000E+04
         0.27000E+04
         0.27000E+04
         0.27000E+04
         0.27000E+04
         0.27000E+04
         0.27000E+04
         0.27000E+04
         0.27000E+04
         0.27000E+04
         0.27000E+04
         0.27000E+04
         0.27000E+04
         0.27000E+04
         0.27000E+04
         0.27000E+04
         0.27000E+04
         0.27000E+04
         0.27000E+04
         0.27000E+04
         0.27000E+04
         0.27000E+04
         0.27000E+04
         0.27000E+04
         0.27000E+04
         0.27000E+04
         0.27000E+04
         0.27000E+04
         0.27000E+04
         0.27000E+04
         0.27000E+04
         0.27000E+04
         0.27000E+04
         0.27000E+04
         0.27000E+04
         0.27000E+04
         0.27000E+04
         0.27000E+04
         0.27000E+04
         0.27000E+04
         0.27000E+04
         0.27000E+04
         0.27000E+04
         0.27000E+04
         0.27000E+04
         0.27000E+04
         0.27000E+04
         0.27000E+04
         0.27000E+04
         0.27000E+04
         0.27000E+04
         0.27000E+04
         0.27000E+04
         0.27000E+04
         0.27000E+04
         0.27000E+04
         0.27000E+04
         0.27000E+04
         0.27000E+04
         0.27000E+04
         0.27000E+04
         0.27000E+04
         0.27000E+04
         0.27000E+04
         0.27000E+04
         0.27000E+04
         0.27000E+04
         0.27000E+04
         0.27000E+04
         0.27000E+04
         0.27000E+04
         0.27000E+04
         0.27000E+04
         0.27000E+04
         0.27000E+04
         0.27000E+04
         0.27000E+04
         0.27000E+04
         0.27000E+04
         0.27000E+04
         0.27000E+04
         0.27000E+04
         0.27000E+04
         0.27000E+04
         0.27000E+04
         0.27000E+04
         0.27000E+04
         0.27000E+04
         0.27000E+04
         0.27000E+04
         0.27000E+04
         0.27000E+04
         0.27000E+04
         0.27000E+04
         0.27000E+04
         0.27000E+04
         0.27000E+04
         0.27000E+04
         0.27000E+04
         0.27000E+04
         0.27000E+04
         0.27000E+04
         0.27000E+04
         0.27000E+04
         0.27000E+04
         0.27000E+04
         0.27000E+04
         0.27000E+04
         0.27000E+04
         0.27000E+04
         0.27000E+04
         0.27000E+04
         0.27000E+04
         0.27000E+04
         0.27000E+04
         0.27000E+04
         0.27000E+04
         0.27000E+04
         0.27000E+04
         0.27000E+04
         0.27000E+04
         0.27000E+04
         0.27000E+04
         0.27000E+04
         0.27000E+04
         0.27000E+04
         0.27000E+04
         0.27000E+04
         0.27000E+04
         0.27000E+04
         0.27000E+04
         0.27000E+04
         0.27000E+04
         0.27000E+04
         0.27000E+04
         0.27000E+04
         0.27000E+04
         0.27000E+04
         0.27000E+04
         0.27000E+04
         0.27000E+04
         0.27000E+04
         0.27000E+04
         0.27000E+04
         0.27000E+04
         0.27000E+04
         0.27000E+04
         0.27000E+04
         0.27000E+04
         0.27000E+04
         0.27000E+04
         0.27000E+04
         0.27000E+04
         0.27000E+04
         0.27000E+04
         0.27000E+04
         0.27000E+04
         0.27000E+04
         0.27000E+04
         0.27000E+04
         0.27000E+04
         0.27000E+04
         0.27000E+04
         0.27000E+04
         0.27000E+04
         0.27000E+04
         0.27000E+04
         0.27000E+04
         0.27000E+04
         0.27000E+04
         0.27000E+04
         0.27000E+04
         0.27000E+04
         0.27000E+04
         0.27000E+04
         0.27000E+04
         0.27000E+04
         0.27000E+04
         0.27000E+04
         0.27000E+04
         0.27000E+04
         0.27000E+04
         0.27000E+04
         0.27000E+04
         0.27000E+04
         0.27000E+04
         0.27000E+04
         0.27000E+04
         0.27000E+04
         0.27000E+04
         0.27000E+04
         0.27000E+04
         0.27000E+04
         0.27000E+04
         0.27000E+04
         0.27000E+04
         0.27000E+04
         0.27000E+04
         0.27000E+04
         0.27000E+04
         0.27000E+04
         0.27000E+04
         0.27000E+04
         0.27000E+04
         0.27000E+04
         0.27000E+04
         0.27000E+04
         0.27000E+04
         0.27000E+04
         0.27000E+04
         0.27000E+04
         0.27000E+04
         0.27000E+04
         0.27000E+04
         0.27000E+04
         0.27000E+04
         0.27000E+04
         0.27000E+04
         0.27000E+04
         0.27000E+04
         0.27000E+04
         0.27000E+04
         0.27000E+04
         0.27000E+04
         0.27000E+04
         0.27000E+04
         0.27000E+04
         0.27000E+04
         0.27000E+04
         0.27000E+04
         0.27000E+04
         0.27000E+04
         0.27000E+04
         0.27000E+04
         0.27000E+04
         0.27000E+04
         0.27000E+04
         0.27000E+04
         0.27000E+04
         0.27000E+04
         0.27000E+04
         0.27000E+04
         0.27000E+04
         0.27000E+04
         0.27000E+04
         0.27000E+04
         0.27000E+04
         0.27000E+04
         0.27000E+04
         0.27000E+04
         0.27000E+04
         0.27000E+04
         0.27000E+04
         0.27000E+04
         0.27000E+04
         0.27000E+04
         0.27000E+04
         0.27000E+04
         0.27000E+04
         0.27000E+04
         0.27000E+04
         0.27000E+04
         0.27000E+04
         0.27000E+04
         0.27000E+04
         0.27000E+04
         0.27000E+04
         0.27000E+04
         0.27000E+04
         0.27000E+04
         0.27000E+04
         0.27000E+04
         0.27000E+04
         0.27000E+04
         0.27000E+04
         0.27000E+04
         0.27000E+04
         0.27000E+04
         0.27000E+04
         0.27000E+04
         0.27000E+04
         0.27000E+04
         0.27000E+04
         0.27000E+04
         0.27000E+04
         0.27000E+04
         0.27000E+04
         0.27000E+04
         0.27000E+04
         0.27000E+04
         0.27000E+04
         0.27000E+04
         0.27000E+04
         0.27000E+04
         0.27000E+04
         0.27000E+04
         0.27000E+04
         0.27000E+04
         0.27000E+04
         0.27000E+04
         0.27000E+04
         0.27000E+04
         0.27000E+04
         0.27000E+04
         0.27000E+04
         0.27000E+04
         0.27000E+04
         0.27000E+04
         0.27000E+04
         0.27000E+04
         0.27000E+04
         0.27000E+04
         0.27000E+04
         0.27000E+04
         0.27000E+04
         0.27000E+04
         0.27000E+04
         0.27000E+04
         0.27000E+04
         0.27000E+04
         0.27000E+04
         0.27000E+04
         0.27000E+04
         0.27000E+04
         0.27000E+04
         0.27000E+04
         0.27000E+04
         0.27000E+04
         0.27000E+04
         0.27000E+04
         0.27000E+04
         0.27000E+04
         0.27000E+04
         0.27000E+04
         0.27000E+04
         0.27000E+04
         0.27000E+04
         0.27000E+04
         0.27000E+04
         0.27000E+04
         0.27000E+04
         0.27000E+04
         0.27000E+04
         0.27000E+04
         0.27000E+04
         0.27000E+04
         0.27000E+04
         0.27000E+04
         0.27000E+04
         0.27000E+04
         0.27000E+04
         0.27000E+04
         0.27000E+04
         0.27000E+04
         0.27000E+04
         0.27000E+04
         0.27000E+04
         0.27000E+04
         0.27000E+04
         0.27000E+04
         0.27000E+04
         0.27000E+04
         0.27000E+04
         0.27000E+04
         0.27000E+04
         0.27000E+04
         0.27000E+04
         0.27000E+04
         0.27000E+04
         0.27000E+04
         0.27000E+04
         0.27000E+04
         0.27000E+04
         0.27000E+04
         0.27000E+04
         0.27000E+04
         0.27000E+04
         0.27000E+04
         0.27000E+04
         0.27000E+04
         0.27000E+04
         0.27000E+04
         0.27000E+04
         0.27000E+04
         0.27000E+04
         0.27000E+04
         0.27000E+04
         0.27000E+04
         0.27000E+04
         0.27000E+04
         0.27000E+04
         0.27000E+04
         0.27000E+04
         0.27000E+04
         0.27000E+04
         0.27000E+04
         0.27000E+04
         0.27000E+04
         0.27000E+04
         0.27000E+04
         0.27000E+04
         0.27000E+04
         0.27000E+04
         0.27000E+04
         0.27000E+04
         0.27000E+04
         0.27000E+04
         0.27000E+04
         0.27000E+04
         0.27000E+04
         0.27000E+04
         0.27000E+04
         0.27000E+04
         0.27000E+04
         0.27000E+04
         0.27000E+04
         0.27000E+04
         0.27000E+04
         0.27000E+04
         0.27000E+04
         0.27000E+04
         0.27000E+04
         0.27000E+04
         0.27000E+04
         0.27000E+04
         0.27000E+04
         0.27000E+04
         0.27000E+04
         0.27000E+04
         0.27000E+04
         0.27000E+04
         0.27000E+04
         0.27000E+04
         0.27000E+04
         0.27000E+04
         0.27000E+04
         0.27000E+04
         0.27000E+04
         0.27000E+04
         0.27000E+04
         0.27000E+04
         0.27000E+04
         0.27000E+04
         0.27000E+04
         0.27000E+04
         0.27000E+04
         0.27000E+04
         0.27000E+04
         0.27000E+04
         0.27000E+04
         0.27000E+04
         0.27000E+04
         0.27000E+04
         0.27000E+04
         0.27000E+04
         0.27000E+04
         0.27000E+04
         0.27000E+04
         0.27000E+04
         0.27000E+04
         0.27000E+04
         0.27000E+04
         0.27000E+04
         0.27000E+04
         0.27000E+04
         0.27000E+04
         0.27000E+04
         0.27000E+04
         0.27000E+04
         0.27000E+04
         0.27000E+04
         0.27000E+04
         0.27000E+04
         0.27000E+04
         0.27000E+04
         0.27000E+04
         0.27000E+04
         0.27000E+04
         0.27000E+04
         0.27000E+04
         0.27000E+04
         0.27000E+04
         0.27000E+04
         0.27000E+04
         0.27000E+04
         0.27000E+04
         0.27000E+04
         0.27000E+04
         0.27000E+04
         0.27000E+04
         0.27000E+04
         0.27000E+04
         0.27000E+04
         0.27000E+04
         0.27000E+04
         0.27000E+04
         0.27000E+04
         0.27000E+04
         0.27000E+04
         0.27000E+04
         0.27000E+04
         0.27000E+04
         0.27000E+04
         0.27000E+04
         0.27000E+04
         0.27000E+04
         0.27000E+04
         0.27000E+04
         0.27000E+04
         0.27000E+04
         0.27000E+04
         0.27000E+04
         0.27000E+04
         0.27000E+04
         0.27000E+04
         0.27000E+04
         0.27000E+04
         0.27000E+04
         0.27000E+04
         0.27000E+04
         0.27000E+04
         0.27000E+04
         0.27000E+04
         0.27000E+04
         0.27000E+04
         0.27000E+04
         0.27000E+04
         0.27000E+04
         0.27000E+04
         0.27000E+04
         0.27000E+04
         0.27000E+04
         0.27000E+04
         0.27000E+04
         0.27000E+04
         0.27000E+04
         0.27000E+04
         0.27000E+04
         0.27000E+04
         0.27000E+04
         0.27000E+04
         0.27000E+04
         0.27000E+04
         0.27000E+04
         0.27000E+04
         0.27000E+04
         0.27000E+04
         0.27000E+04
         0.27000E+04
         0.27000E+04
         0.27000E+04
         0.27000E+04
         0.27000E+04
         0.27000E+04
         0.27000E+04
         0.27000E+04
         0.27000E+04
         0.27000E+04
         0.27000E+04
         0.27000E+04
         0.27000E+04
         0.27000E+04
         0.27000E+04
         0.27000E+04
         0.27000E+04
         0.27000E+04
         0.27000E+04
         0.27000E+04
         0.27000E+04
         0.27000E+04
         0.27000E+04
         0.27000E+04
         0.27000E+04
         0.27000E+04
         0.27000E+04
         0.27000E+04
         0.27000E+04
         0.27000E+04
         0.27000E+04
         0.27000E+04
         0.27000E+04
         0.27000E+04
         0.27000E+04
         0.27000E+04
         0.27000E+04
         0.27000E+04
         0.27000E+04
         0.27000E+04
         0.27000E+04
         0.27000E+04
         0.27000E+04
         0.27000E+04
         0.27000E+04
         0.27000E+04
         0.27000E+04
         0.27000E+04
         0.27000E+04
         0.27000E+04
         0.27000E+04
         0.27000E+04
         0.27000E+04
         0.27000E+04
         0.27000E+04
         0.27000E+04
         0.27000E+04
         0.27000E+04
         0.27000E+04
         0.27000E+04
         0.27000E+04
         0.27000E+04
         0.27000E+04
         0.27000E+04
         0.27000E+04
         0.27000E+04
         0.27000E+04
         0.27000E+04
         0.27000E+04
         0.27000E+04
         0.27000E+04
         0.27000E+04
         0.27000E+04
         0.27000E+04
         0.27000E+04
         0.27000E+04
         0.27000E+04
         0.27000E+04
         0.27000E+04
         0.27000E+04
         0.27000E+04
         0.27000E+04
         0.27000E+04
         0.27000E+04
         0.27000E+04
         0.27000E+04
         0.27000E+04
         0.27000E+04
         0.27000E+04
         0.27000E+04
         0.27000E+04
         0.27000E+04
         0.27000E+04
         0.27000E+04
         0.27000E+04
         0.27000E+04
         0.27000E+04
         0.27000E+04
         0.27000E+04
         0.27000E+04
         0.27000E+04
         0.27000E+04
         0.27000E+04
         0.27000E+04
         0.27000E+04
         0.27000E+04
         0.27000E+04
         0.27000E+04
         0.27000E+04
         0.27000E+04
         0.27000E+04
         0.27000E+04
         0.27000E+04
         0.27000E+04
         0.27000E+04
         0.27000E+04
         0.27000E+04
         0.27000E+04
         0.27000E+04
         0.27000E+04
         0.27000E+04
         0.27000E+04
         0.27000E+04
         0.27000E+04
         0.27000E+04
         0.27000E+04
         0.27000E+04
         0.27000E+04
         0.27000E+04
         0.27000E+04
         0.27000E+04
         0.27000E+04
         0.27000E+04
         0.27000E+04
         0.27000E+04
         0.27000E+04
         0.27000E+04
         0.27000E+04
         0.27000E+04
         0.27000E+04
