# vtk DataFile Version 2.0
               (MEGA VTK FILE)
ASCII
DATASET UNSTRUCTURED_GRID
POINTS       1950    double
  0.10378E-02  0.67292E-03 -0.18893E-01
  0.17452E-02  0.12308E-02 -0.18880E-01
  0.23177E-02  0.59151E-03 -0.18878E-01
  0.16698E-02 -0.33775E-03 -0.18902E-01
  0.10379E-02  0.67237E-03 -0.11750E-01
  0.17453E-02  0.12301E-02 -0.11750E-01
  0.23178E-02  0.59098E-03 -0.11750E-01
  0.16700E-02 -0.33851E-03 -0.11750E-01
  0.30377E-02  0.14882E-03 -0.18854E-01
  0.27791E-02 -0.67643E-03 -0.18883E-01
  0.30377E-02  0.14846E-03 -0.11750E-01
  0.27788E-02 -0.67692E-03 -0.11750E-01
  0.12850E-02  0.18412E-02 -0.18866E-01
  0.65139E-03  0.14576E-02 -0.18885E-01
  0.12851E-02  0.18410E-02 -0.11750E-01
  0.65164E-03  0.14566E-02 -0.11750E-01
  0.12757E-03  0.29933E-03 -0.18894E-01
 -0.12822E-03  0.11672E-02 -0.18898E-01
  0.12783E-03  0.29819E-03 -0.11750E-01
 -0.12804E-03  0.11655E-02 -0.11750E-01
  0.94500E-03  0.22748E-02 -0.18857E-01
  0.11327E-02  0.28286E-02 -0.18846E-01
  0.17490E-02  0.24238E-02 -0.18851E-01
  0.94533E-03  0.22746E-02 -0.11750E-01
  0.11330E-02  0.28291E-02 -0.11750E-01
  0.17494E-02  0.24236E-02 -0.11750E-01
  0.40588E-03  0.21685E-02 -0.18879E-01
  0.39779E-03  0.29366E-02 -0.18872E-01
  0.40594E-03  0.21684E-02 -0.11750E-01
  0.39781E-03  0.29369E-02 -0.11750E-01
 -0.76303E-03 -0.10033E-02 -0.18905E-01
 -0.86604E-03  0.78969E-04 -0.18911E-01
  0.46119E-03 -0.70318E-03 -0.18900E-01
 -0.76268E-03 -0.10032E-02 -0.11750E-01
 -0.86593E-03  0.78160E-04 -0.11750E-01
  0.46164E-03 -0.70391E-03 -0.11750E-01
 -0.18300E-02 -0.71196E-03 -0.18879E-01
 -0.18440E-02  0.82749E-04 -0.18905E-01
 -0.18297E-02 -0.71210E-03 -0.11750E-01
 -0.18441E-02  0.82626E-04 -0.11750E-01
 -0.27238E-02 -0.77865E-03 -0.18871E-01
 -0.28028E-02  0.40713E-04 -0.18893E-01
 -0.27238E-02 -0.77882E-03 -0.11750E-01
 -0.28031E-02  0.40439E-04 -0.11750E-01
 -0.25365E-02 -0.15195E-02 -0.18851E-01
 -0.19287E-02 -0.13230E-02 -0.18861E-01
 -0.25363E-02 -0.15195E-02 -0.11750E-01
 -0.19283E-02 -0.13231E-02 -0.11750E-01
 -0.99363E-03  0.98847E-03 -0.18913E-01
 -0.99377E-03  0.98712E-03 -0.11750E-01
 -0.14380E-02 -0.17325E-02 -0.18876E-01
 -0.14377E-02 -0.17325E-02 -0.11750E-01
 -0.31574E-03  0.20220E-02 -0.18903E-01
 -0.31594E-03  0.20217E-02 -0.11750E-01
 -0.11068E-02  0.18615E-02 -0.18911E-01
 -0.11071E-02  0.18616E-02 -0.11750E-01
 -0.18845E-02  0.17175E-02 -0.18889E-01
 -0.18713E-02  0.90940E-03 -0.18907E-01
 -0.18846E-02  0.17175E-02 -0.11750E-01
 -0.18714E-02  0.90916E-03 -0.11750E-01
 -0.15871E-03 -0.19800E-02 -0.18899E-01
 -0.94089E-03 -0.23489E-02 -0.18875E-01
 -0.15844E-03 -0.19800E-02 -0.11750E-01
 -0.94029E-03 -0.23489E-02 -0.11750E-01
  0.78856E-03 -0.17074E-02 -0.18897E-01
  0.78922E-03 -0.17074E-02 -0.11750E-01
  0.17211E-02 -0.14894E-02 -0.18888E-01
  0.17211E-02 -0.14892E-02 -0.11750E-01
  0.32050E-02  0.76036E-03 -0.18818E-01
  0.28046E-02  0.12477E-02 -0.18846E-01
  0.32047E-02  0.75936E-03 -0.11750E-01
  0.28047E-02  0.12473E-02 -0.11750E-01
  0.23059E-02  0.18665E-02 -0.18857E-01
  0.23060E-02  0.18664E-02 -0.11750E-01
 -0.40614E-03  0.29038E-02 -0.18887E-01
 -0.40627E-03  0.29049E-02 -0.11750E-01
 -0.12092E-02  0.27207E-02 -0.18884E-01
 -0.12092E-02  0.27212E-02 -0.11750E-01
 -0.19448E-02  0.24642E-02 -0.18858E-01
 -0.19448E-02  0.24645E-02 -0.11750E-01
 -0.25029E-02  0.22359E-02 -0.18827E-01
 -0.26371E-02  0.16503E-02 -0.18865E-01
 -0.25029E-02  0.22359E-02 -0.11750E-01
 -0.26372E-02  0.16503E-02 -0.11750E-01
 -0.27671E-02  0.87493E-03 -0.18896E-01
 -0.27674E-02  0.87466E-03 -0.11750E-01
 -0.21123E-02 -0.21373E-02 -0.18853E-01
 -0.21122E-02 -0.21373E-02 -0.11750E-01
 -0.16087E-02 -0.26931E-02 -0.18842E-01
 -0.16087E-02 -0.26931E-02 -0.11750E-01
 -0.11939E-02 -0.31291E-02 -0.18815E-01
 -0.58641E-03 -0.30382E-02 -0.18852E-01
 -0.11937E-02 -0.31291E-02 -0.11750E-01
 -0.58606E-03 -0.30382E-02 -0.11750E-01
  0.20912E-03 -0.28748E-02 -0.18878E-01
  0.20952E-03 -0.28748E-02 -0.11750E-01
  0.10586E-02 -0.26423E-02 -0.18874E-01
  0.10589E-02 -0.26420E-02 -0.11750E-01
  0.18413E-02 -0.23707E-02 -0.18854E-01
  0.18413E-02 -0.23705E-02 -0.11750E-01
  0.24544E-02 -0.21445E-02 -0.18825E-01
  0.26022E-02 -0.15105E-02 -0.18859E-01
  0.24543E-02 -0.21439E-02 -0.11750E-01
  0.26021E-02 -0.15106E-02 -0.11750E-01
  0.37964E-02  0.93572E-03 -0.18741E-01
  0.39100E-02  0.00000E+00 -0.18754E-01
  0.37964E-02  0.93572E-03 -0.11750E-01
  0.39100E-02  0.00000E+00 -0.11750E-01
  0.34621E-02  0.18171E-02 -0.18752E-01
  0.34621E-02  0.18171E-02 -0.11750E-01
  0.29267E-02  0.25928E-02 -0.18743E-01
  0.29267E-02  0.25928E-02 -0.11750E-01
  0.22211E-02  0.32179E-02 -0.18744E-01
  0.22211E-02  0.32179E-02 -0.11750E-01
  0.13865E-02  0.36559E-02 -0.18742E-01
  0.13865E-02  0.36559E-02 -0.11750E-01
  0.47130E-03  0.38815E-02 -0.18750E-01
  0.47130E-03  0.38815E-02 -0.11750E-01
 -0.47130E-03  0.38815E-02 -0.18753E-01
 -0.47130E-03  0.38815E-02 -0.11750E-01
 -0.13865E-02  0.36559E-02 -0.18751E-01
 -0.13865E-02  0.36559E-02 -0.11750E-01
 -0.22211E-02  0.32179E-02 -0.18750E-01
 -0.22211E-02  0.32179E-02 -0.11750E-01
 -0.29267E-02  0.25928E-02 -0.18738E-01
 -0.29267E-02  0.25928E-02 -0.11750E-01
 -0.34621E-02  0.18171E-02 -0.18753E-01
 -0.34621E-02  0.18171E-02 -0.11750E-01
 -0.37964E-02  0.93572E-03 -0.18758E-01
 -0.37964E-02  0.93572E-03 -0.11750E-01
 -0.39100E-02  0.22152E-17 -0.18757E-01
 -0.39100E-02 -0.47884E-18 -0.11750E-01
 -0.37964E-02 -0.93572E-03 -0.18751E-01
 -0.37964E-02 -0.93572E-03 -0.11750E-01
 -0.34621E-02 -0.18171E-02 -0.18745E-01
 -0.34621E-02 -0.18171E-02 -0.11750E-01
 -0.29267E-02 -0.25928E-02 -0.18742E-01
 -0.29267E-02 -0.25928E-02 -0.11750E-01
 -0.22211E-02 -0.32179E-02 -0.18751E-01
 -0.22211E-02 -0.32179E-02 -0.11750E-01
 -0.13865E-02 -0.36559E-02 -0.18742E-01
 -0.13865E-02 -0.36559E-02 -0.11750E-01
 -0.47130E-03 -0.38815E-02 -0.18756E-01
 -0.47130E-03 -0.38815E-02 -0.11750E-01
  0.47130E-03 -0.38815E-02 -0.18751E-01
  0.47130E-03 -0.38815E-02 -0.11750E-01
  0.13865E-02 -0.36559E-02 -0.18747E-01
  0.13865E-02 -0.36559E-02 -0.11750E-01
  0.22211E-02 -0.32179E-02 -0.18755E-01
  0.22211E-02 -0.32179E-02 -0.11750E-01
  0.29267E-02 -0.25928E-02 -0.18744E-01
  0.29267E-02 -0.25928E-02 -0.11750E-01
  0.34621E-02 -0.18171E-02 -0.18755E-01
  0.34621E-02 -0.18171E-02 -0.11750E-01
  0.37964E-02 -0.93572E-03 -0.18755E-01
  0.37964E-02 -0.93572E-03 -0.11750E-01
  0.10376E-02  0.67348E-03 -0.21240E-01
  0.17450E-02  0.12314E-02 -0.21238E-01
  0.23175E-02  0.59203E-03 -0.21238E-01
  0.16696E-02 -0.33700E-03 -0.21241E-01
  0.30377E-02  0.14918E-03 -0.21234E-01
  0.27795E-02 -0.67594E-03 -0.21238E-01
  0.12849E-02  0.18414E-02 -0.21236E-01
  0.65115E-03  0.14586E-02 -0.21238E-01
  0.12731E-03  0.30048E-03 -0.21241E-01
 -0.12841E-03  0.11690E-02 -0.21241E-01
  0.94467E-03  0.22749E-02 -0.21235E-01
  0.11323E-02  0.28282E-02 -0.21233E-01
  0.17487E-02  0.24239E-02 -0.21233E-01
  0.40583E-03  0.21685E-02 -0.21238E-01
  0.39777E-03  0.29364E-02 -0.21237E-01
 -0.76338E-03 -0.10035E-02 -0.21241E-01
 -0.86615E-03  0.79778E-04 -0.21243E-01
  0.46074E-03 -0.70245E-03 -0.21241E-01
 -0.18303E-02 -0.71182E-03 -0.21238E-01
 -0.18439E-02  0.82873E-04 -0.21242E-01
 -0.27238E-02 -0.77848E-03 -0.21237E-01
 -0.28025E-02  0.40986E-04 -0.21240E-01
 -0.25366E-02 -0.15194E-02 -0.21233E-01
 -0.19292E-02 -0.13228E-02 -0.21235E-01
 -0.99349E-03  0.98983E-03 -0.21243E-01
 -0.14384E-02 -0.17324E-02 -0.21237E-01
 -0.31554E-03  0.20223E-02 -0.21242E-01
 -0.11064E-02  0.18614E-02 -0.21243E-01
 -0.18845E-02  0.17175E-02 -0.21239E-01
 -0.18712E-02  0.90964E-03 -0.21242E-01
 -0.15899E-03 -0.19800E-02 -0.21241E-01
 -0.94149E-03 -0.23489E-02 -0.21237E-01
  0.78790E-03 -0.17074E-02 -0.21241E-01
  0.17210E-02 -0.14896E-02 -0.21239E-01
  0.32053E-02  0.76137E-03 -0.21229E-01
  0.28046E-02  0.12481E-02 -0.21233E-01
  0.23058E-02  0.18665E-02 -0.21234E-01
 -0.40600E-03  0.29027E-02 -0.21239E-01
 -0.12092E-02  0.27202E-02 -0.21239E-01
 -0.19447E-02  0.24640E-02 -0.21234E-01
 -0.25028E-02  0.22359E-02 -0.21230E-01
 -0.26370E-02  0.16503E-02 -0.21236E-01
 -0.27668E-02  0.87519E-03 -0.21241E-01
 -0.21125E-02 -0.21373E-02 -0.21234E-01
 -0.16088E-02 -0.26932E-02 -0.21232E-01
 -0.11940E-02 -0.31291E-02 -0.21229E-01
 -0.58676E-03 -0.30382E-02 -0.21233E-01
  0.20871E-03 -0.28748E-02 -0.21238E-01
  0.10583E-02 -0.26426E-02 -0.21237E-01
  0.18413E-02 -0.23709E-02 -0.21234E-01
  0.24545E-02 -0.21450E-02 -0.21230E-01
  0.26022E-02 -0.15104E-02 -0.21235E-01
  0.37964E-02  0.93572E-03 -0.21221E-01
  0.39100E-02  0.00000E+00 -0.21223E-01
  0.34621E-02  0.18171E-02 -0.21223E-01
  0.29267E-02  0.25928E-02 -0.21222E-01
  0.22211E-02  0.32179E-02 -0.21222E-01
  0.13865E-02  0.36559E-02 -0.21222E-01
  0.47130E-03  0.38815E-02 -0.21223E-01
 -0.47130E-03  0.38815E-02 -0.21223E-01
 -0.13865E-02  0.36559E-02 -0.21222E-01
 -0.22211E-02  0.32179E-02 -0.21222E-01
 -0.29267E-02  0.25928E-02 -0.21220E-01
 -0.34621E-02  0.18171E-02 -0.21223E-01
 -0.37964E-02  0.93572E-03 -0.21224E-01
 -0.39100E-02 -0.47884E-18 -0.21224E-01
 -0.37964E-02 -0.93572E-03 -0.21223E-01
 -0.34621E-02 -0.18171E-02 -0.21222E-01
 -0.29267E-02 -0.25928E-02 -0.21221E-01
 -0.22211E-02 -0.32179E-02 -0.21223E-01
 -0.13865E-02 -0.36559E-02 -0.21221E-01
 -0.47130E-03 -0.38815E-02 -0.21224E-01
  0.47130E-03 -0.38815E-02 -0.21223E-01
  0.13865E-02 -0.36559E-02 -0.21222E-01
  0.22211E-02 -0.32179E-02 -0.21223E-01
  0.29267E-02 -0.25928E-02 -0.21221E-01
  0.34621E-02 -0.18171E-02 -0.21223E-01
  0.37964E-02 -0.93572E-03 -0.21224E-01
  0.10375E-02  0.67403E-03 -0.20533E-01
  0.17448E-02  0.12321E-02 -0.20533E-01
  0.23174E-02  0.59255E-03 -0.20533E-01
  0.16694E-02 -0.33624E-03 -0.20533E-01
  0.30377E-02  0.14955E-03 -0.20533E-01
  0.27798E-02 -0.67544E-03 -0.20533E-01
  0.12848E-02  0.18415E-02 -0.20533E-01
  0.65090E-03  0.14596E-02 -0.20533E-01
  0.12705E-03  0.30163E-03 -0.20533E-01
 -0.12859E-03  0.11707E-02 -0.20533E-01
  0.94434E-03  0.22750E-02 -0.20533E-01
  0.11320E-02  0.28277E-02 -0.20533E-01
  0.17483E-02  0.24241E-02 -0.20533E-01
  0.40577E-03  0.21685E-02 -0.20533E-01
  0.39776E-03  0.29361E-02 -0.20533E-01
 -0.76374E-03 -0.10036E-02 -0.20533E-01
 -0.86626E-03  0.80588E-04 -0.20533E-01
  0.46029E-03 -0.70173E-03 -0.20533E-01
 -0.18306E-02 -0.71168E-03 -0.20533E-01
 -0.18438E-02  0.82996E-04 -0.20533E-01
 -0.27238E-02 -0.77831E-03 -0.20533E-01
 -0.28022E-02  0.41259E-04 -0.20533E-01
 -0.25368E-02 -0.15194E-02 -0.20533E-01
 -0.19296E-02 -0.13227E-02 -0.20533E-01
 -0.99334E-03  0.99119E-03 -0.20533E-01
 -0.14387E-02 -0.17324E-02 -0.20533E-01
 -0.31534E-03  0.20226E-02 -0.20533E-01
 -0.11061E-02  0.18613E-02 -0.20533E-01
 -0.18844E-02  0.17175E-02 -0.20533E-01
 -0.18710E-02  0.90988E-03 -0.20533E-01
 -0.15926E-03 -0.19801E-02 -0.20533E-01
 -0.94209E-03 -0.23490E-02 -0.20533E-01
  0.78724E-03 -0.17074E-02 -0.20533E-01
  0.17210E-02 -0.14899E-02 -0.20533E-01
  0.32056E-02  0.76237E-03 -0.20533E-01
  0.28046E-02  0.12485E-02 -0.20533E-01
  0.23057E-02  0.18666E-02 -0.20533E-01
 -0.40586E-03  0.29017E-02 -0.20533E-01
 -0.12092E-02  0.27198E-02 -0.20533E-01
 -0.19447E-02  0.24638E-02 -0.20533E-01
 -0.25028E-02  0.22359E-02 -0.20533E-01
 -0.26369E-02  0.16503E-02 -0.20533E-01
 -0.27665E-02  0.87545E-03 -0.20533E-01
 -0.21126E-02 -0.21374E-02 -0.20533E-01
 -0.16088E-02 -0.26932E-02 -0.20533E-01
 -0.11941E-02 -0.31291E-02 -0.20533E-01
 -0.58711E-03 -0.30382E-02 -0.20533E-01
  0.20830E-03 -0.28748E-02 -0.20533E-01
  0.10580E-02 -0.26428E-02 -0.20533E-01
  0.18414E-02 -0.23711E-02 -0.20533E-01
  0.24546E-02 -0.21456E-02 -0.20533E-01
  0.26023E-02 -0.15103E-02 -0.20533E-01
  0.37964E-02  0.93572E-03 -0.20533E-01
  0.39100E-02  0.00000E+00 -0.20533E-01
  0.34621E-02  0.18171E-02 -0.20533E-01
  0.29267E-02  0.25928E-02 -0.20533E-01
  0.22211E-02  0.32179E-02 -0.20533E-01
  0.13865E-02  0.36559E-02 -0.20533E-01
  0.47130E-03  0.38815E-02 -0.20533E-01
 -0.47130E-03  0.38815E-02 -0.20533E-01
 -0.13865E-02  0.36559E-02 -0.20533E-01
 -0.22211E-02  0.32179E-02 -0.20533E-01
 -0.29267E-02  0.25928E-02 -0.20533E-01
 -0.34621E-02  0.18171E-02 -0.20533E-01
 -0.37964E-02  0.93572E-03 -0.20533E-01
 -0.39100E-02  0.39516E-17 -0.20533E-01
 -0.37964E-02 -0.93572E-03 -0.20533E-01
 -0.34621E-02 -0.18171E-02 -0.20533E-01
 -0.29267E-02 -0.25928E-02 -0.20533E-01
 -0.22211E-02 -0.32179E-02 -0.20533E-01
 -0.13865E-02 -0.36559E-02 -0.20533E-01
 -0.47130E-03 -0.38815E-02 -0.20533E-01
  0.47130E-03 -0.38815E-02 -0.20533E-01
  0.13865E-02 -0.36559E-02 -0.20533E-01
  0.22211E-02 -0.32179E-02 -0.20533E-01
  0.29267E-02 -0.25928E-02 -0.20533E-01
  0.34621E-02 -0.18171E-02 -0.20533E-01
  0.37964E-02 -0.93572E-03 -0.20533E-01
  0.10374E-02  0.67459E-03 -0.19554E-01
  0.17446E-02  0.12328E-02 -0.19554E-01
  0.23173E-02  0.59308E-03 -0.19554E-01
  0.16692E-02 -0.33549E-03 -0.19554E-01
  0.30376E-02  0.14991E-03 -0.19554E-01
  0.27801E-02 -0.67495E-03 -0.19554E-01
  0.12847E-02  0.18417E-02 -0.19554E-01
  0.65065E-03  0.14606E-02 -0.19554E-01
  0.12678E-03  0.30278E-03 -0.19554E-01
 -0.12878E-03  0.11725E-02 -0.19554E-01
  0.94401E-03  0.22752E-02 -0.19554E-01
  0.11316E-02  0.28273E-02 -0.19554E-01
  0.17479E-02  0.24242E-02 -0.19554E-01
  0.40572E-03  0.21686E-02 -0.19554E-01
  0.39774E-03  0.29359E-02 -0.19554E-01
 -0.76409E-03 -0.10038E-02 -0.19554E-01
 -0.86637E-03  0.81397E-04 -0.19554E-01
  0.45985E-03 -0.70100E-03 -0.19554E-01
 -0.18309E-02 -0.71154E-03 -0.19554E-01
 -0.18437E-02  0.83120E-04 -0.19554E-01
 -0.27237E-02 -0.77814E-03 -0.19554E-01
 -0.28020E-02  0.41533E-04 -0.19554E-01
 -0.25369E-02 -0.15193E-02 -0.19554E-01
 -0.19300E-02 -0.13227E-02 -0.19554E-01
 -0.99320E-03  0.99254E-03 -0.19554E-01
 -0.14391E-02 -0.17324E-02 -0.19554E-01
 -0.31514E-03  0.20228E-02 -0.19554E-01
 -0.11057E-02  0.18611E-02 -0.19554E-01
 -0.18844E-02  0.17175E-02 -0.19554E-01
 -0.18709E-02  0.91012E-03 -0.19554E-01
 -0.15954E-03 -0.19801E-02 -0.19554E-01
 -0.94269E-03 -0.23490E-02 -0.19554E-01
  0.78658E-03 -0.17074E-02 -0.19554E-01
  0.17209E-02 -0.14901E-02 -0.19554E-01
  0.32060E-02  0.76338E-03 -0.19554E-01
  0.28046E-02  0.12490E-02 -0.19554E-01
  0.23056E-02  0.18666E-02 -0.19554E-01
 -0.40572E-03  0.29006E-02 -0.19554E-01
 -0.12092E-02  0.27193E-02 -0.19554E-01
 -0.19446E-02  0.24636E-02 -0.19554E-01
 -0.25028E-02  0.22359E-02 -0.19554E-01
 -0.26368E-02  0.16503E-02 -0.19554E-01
 -0.27662E-02  0.87571E-03 -0.19554E-01
 -0.21128E-02 -0.21374E-02 -0.19554E-01
 -0.16088E-02 -0.26932E-02 -0.19554E-01
 -0.11942E-02 -0.31291E-02 -0.19554E-01
 -0.58746E-03 -0.30382E-02 -0.19554E-01
  0.20790E-03 -0.28748E-02 -0.19554E-01
  0.10577E-02 -0.26431E-02 -0.19554E-01
  0.18414E-02 -0.23713E-02 -0.19554E-01
  0.24548E-02 -0.21461E-02 -0.19554E-01
  0.26024E-02 -0.15102E-02 -0.19554E-01
  0.37964E-02  0.93572E-03 -0.19554E-01
  0.39100E-02  0.00000E+00 -0.19554E-01
  0.34621E-02  0.18171E-02 -0.19554E-01
  0.29267E-02  0.25928E-02 -0.19554E-01
  0.22211E-02  0.32179E-02 -0.19554E-01
  0.13865E-02  0.36559E-02 -0.19554E-01
  0.47130E-03  0.38815E-02 -0.19554E-01
 -0.47130E-03  0.38815E-02 -0.19554E-01
 -0.13865E-02  0.36559E-02 -0.19554E-01
 -0.22211E-02  0.32179E-02 -0.19554E-01
 -0.29267E-02  0.25928E-02 -0.19554E-01
 -0.34621E-02  0.18171E-02 -0.19554E-01
 -0.37964E-02  0.93572E-03 -0.19554E-01
 -0.39100E-02 -0.47884E-18 -0.19554E-01
 -0.37964E-02 -0.93572E-03 -0.19554E-01
 -0.34621E-02 -0.18171E-02 -0.19554E-01
 -0.29267E-02 -0.25928E-02 -0.19554E-01
 -0.22211E-02 -0.32179E-02 -0.19554E-01
 -0.13865E-02 -0.36559E-02 -0.19554E-01
 -0.47130E-03 -0.38815E-02 -0.19554E-01
  0.47130E-03 -0.38815E-02 -0.19554E-01
  0.13865E-02 -0.36559E-02 -0.19554E-01
  0.22211E-02 -0.32179E-02 -0.19554E-01
  0.29267E-02 -0.25928E-02 -0.19554E-01
  0.34621E-02 -0.18171E-02 -0.19554E-01
  0.37964E-02 -0.93572E-03 -0.19554E-01
  0.10373E-02  0.67514E-03 -0.18575E-01
  0.17445E-02  0.12334E-02 -0.18575E-01
  0.23172E-02  0.59360E-03 -0.18575E-01
  0.16689E-02 -0.33474E-03 -0.18575E-01
  0.30376E-02  0.15027E-03 -0.18575E-01
  0.27805E-02 -0.67446E-03 -0.18575E-01
  0.12846E-02  0.18419E-02 -0.18575E-01
  0.65041E-03  0.14616E-02 -0.18575E-01
  0.12652E-03  0.30393E-03 -0.18575E-01
 -0.12896E-03  0.11742E-02 -0.18575E-01
  0.94367E-03  0.22753E-02 -0.18575E-01
  0.11313E-02  0.28269E-02 -0.18575E-01
  0.17475E-02  0.24244E-02 -0.18575E-01
  0.40566E-03  0.21686E-02 -0.18575E-01
  0.39772E-03  0.29356E-02 -0.18575E-01
 -0.76444E-03 -0.10039E-02 -0.18575E-01
 -0.86648E-03  0.82206E-04 -0.18575E-01
  0.45940E-03 -0.70028E-03 -0.18575E-01
 -0.18312E-02 -0.71140E-03 -0.18575E-01
 -0.18436E-02  0.83243E-04 -0.18575E-01
 -0.27237E-02 -0.77797E-03 -0.18575E-01
 -0.28017E-02  0.41806E-04 -0.18575E-01
 -0.25371E-02 -0.15193E-02 -0.18575E-01
 -0.19305E-02 -0.13226E-02 -0.18575E-01
 -0.99305E-03  0.99390E-03 -0.18575E-01
 -0.14394E-02 -0.17323E-02 -0.18575E-01
 -0.31494E-03  0.20231E-02 -0.18575E-01
 -0.11054E-02  0.18610E-02 -0.18575E-01
 -0.18843E-02  0.17175E-02 -0.18575E-01
 -0.18708E-02  0.91036E-03 -0.18575E-01
 -0.15981E-03 -0.19801E-02 -0.18575E-01
 -0.94328E-03 -0.23490E-02 -0.18575E-01
  0.78592E-03 -0.17074E-02 -0.18575E-01
  0.17209E-02 -0.14904E-02 -0.18575E-01
  0.32063E-02  0.76439E-03 -0.18575E-01
  0.28045E-02  0.12494E-02 -0.18575E-01
  0.23055E-02  0.18666E-02 -0.18575E-01
 -0.40558E-03  0.28995E-02 -0.18575E-01
 -0.12092E-02  0.27188E-02 -0.18575E-01
 -0.19446E-02  0.24633E-02 -0.18575E-01
 -0.25027E-02  0.22359E-02 -0.18575E-01
 -0.26367E-02  0.16503E-02 -0.18575E-01
 -0.27658E-02  0.87597E-03 -0.18575E-01
 -0.21129E-02 -0.21374E-02 -0.18575E-01
 -0.16089E-02 -0.26932E-02 -0.18575E-01
 -0.11943E-02 -0.31291E-02 -0.18575E-01
 -0.58781E-03 -0.30382E-02 -0.18575E-01
  0.20749E-03 -0.28748E-02 -0.18575E-01
  0.10574E-02 -0.26434E-02 -0.18575E-01
  0.18415E-02 -0.23715E-02 -0.18575E-01
  0.24549E-02 -0.21467E-02 -0.18575E-01
  0.26025E-02 -0.15101E-02 -0.18575E-01
  0.37964E-02  0.93572E-03 -0.18575E-01
  0.39100E-02  0.00000E+00 -0.18575E-01
  0.34621E-02  0.18171E-02 -0.18575E-01
  0.29267E-02  0.25928E-02 -0.18575E-01
  0.22211E-02  0.32179E-02 -0.18575E-01
  0.13865E-02  0.36559E-02 -0.18575E-01
  0.47130E-03  0.38815E-02 -0.18575E-01
 -0.47130E-03  0.38815E-02 -0.18575E-01
 -0.13865E-02  0.36559E-02 -0.18575E-01
 -0.22211E-02  0.32179E-02 -0.18575E-01
 -0.29267E-02  0.25928E-02 -0.18575E-01
 -0.34621E-02  0.18171E-02 -0.18575E-01
 -0.37964E-02  0.93572E-03 -0.18575E-01
 -0.39100E-02 -0.47884E-18 -0.18575E-01
 -0.37964E-02 -0.93572E-03 -0.18575E-01
 -0.34621E-02 -0.18171E-02 -0.18575E-01
 -0.29267E-02 -0.25928E-02 -0.18575E-01
 -0.22211E-02 -0.32179E-02 -0.18575E-01
 -0.13865E-02 -0.36559E-02 -0.18575E-01
 -0.47130E-03 -0.38815E-02 -0.18575E-01
  0.47130E-03 -0.38815E-02 -0.18575E-01
  0.13865E-02 -0.36559E-02 -0.18575E-01
  0.22211E-02 -0.32179E-02 -0.18575E-01
  0.29267E-02 -0.25928E-02 -0.18575E-01
  0.34621E-02 -0.18171E-02 -0.18575E-01
  0.37964E-02 -0.93572E-03 -0.18575E-01
  0.10372E-02  0.67570E-03 -0.17596E-01
  0.17443E-02  0.12341E-02 -0.17596E-01
  0.23171E-02  0.59412E-03 -0.17596E-01
  0.16687E-02 -0.33398E-03 -0.17596E-01
  0.30376E-02  0.15064E-03 -0.17596E-01
  0.27808E-02 -0.67396E-03 -0.17596E-01
  0.12845E-02  0.18421E-02 -0.17596E-01
  0.65016E-03  0.14626E-02 -0.17596E-01
  0.12626E-03  0.30507E-03 -0.17596E-01
 -0.12915E-03  0.11760E-02 -0.17596E-01
  0.94334E-03  0.22754E-02 -0.17596E-01
  0.11310E-02  0.28264E-02 -0.17596E-01
  0.17471E-02  0.24245E-02 -0.17596E-01
  0.40561E-03  0.21686E-02 -0.17596E-01
  0.39770E-03  0.29353E-02 -0.17596E-01
 -0.76480E-03 -0.10040E-02 -0.17596E-01
 -0.86659E-03  0.83015E-04 -0.17596E-01
  0.45895E-03 -0.69955E-03 -0.17596E-01
 -0.18315E-02 -0.71126E-03 -0.17596E-01
 -0.18435E-02  0.83367E-04 -0.17596E-01
 -0.27237E-02 -0.77780E-03 -0.17596E-01
 -0.28014E-02  0.42080E-04 -0.17596E-01
 -0.25372E-02 -0.15192E-02 -0.17596E-01
 -0.19309E-02 -0.13224E-02 -0.17596E-01
 -0.99291E-03  0.99526E-03 -0.17596E-01
 -0.14398E-02 -0.17323E-02 -0.17596E-01
 -0.31474E-03  0.20234E-02 -0.17596E-01
 -0.11051E-02  0.18609E-02 -0.17596E-01
 -0.18843E-02  0.17175E-02 -0.17596E-01
 -0.18706E-02  0.91060E-03 -0.17596E-01
 -0.16009E-03 -0.19801E-02 -0.17596E-01
 -0.94388E-03 -0.23490E-02 -0.17596E-01
  0.78526E-03 -0.17074E-02 -0.17596E-01
  0.17208E-02 -0.14906E-02 -0.17596E-01
  0.32066E-02  0.76539E-03 -0.17596E-01
  0.28045E-02  0.12498E-02 -0.17596E-01
  0.23053E-02  0.18667E-02 -0.17596E-01
 -0.40545E-03  0.28984E-02 -0.17596E-01
 -0.12092E-02  0.27184E-02 -0.17596E-01
 -0.19446E-02  0.24631E-02 -0.17596E-01
 -0.25027E-02  0.22359E-02 -0.17596E-01
 -0.26366E-02  0.16503E-02 -0.17596E-01
 -0.27655E-02  0.87623E-03 -0.17596E-01
 -0.21130E-02 -0.21374E-02 -0.17596E-01
 -0.16089E-02 -0.26932E-02 -0.17596E-01
 -0.11944E-02 -0.31291E-02 -0.17596E-01
 -0.58816E-03 -0.30382E-02 -0.17596E-01
  0.20709E-03 -0.28748E-02 -0.17596E-01
  0.10571E-02 -0.26436E-02 -0.17596E-01
  0.18415E-02 -0.23717E-02 -0.17596E-01
  0.24550E-02 -0.21472E-02 -0.17596E-01
  0.26025E-02 -0.15100E-02 -0.17596E-01
  0.37964E-02  0.93572E-03 -0.17596E-01
  0.39100E-02  0.00000E+00 -0.17596E-01
  0.34621E-02  0.18171E-02 -0.17596E-01
  0.29267E-02  0.25928E-02 -0.17596E-01
  0.22211E-02  0.32179E-02 -0.17596E-01
  0.13865E-02  0.36559E-02 -0.17596E-01
  0.47130E-03  0.38815E-02 -0.17596E-01
 -0.47130E-03  0.38815E-02 -0.17596E-01
 -0.13865E-02  0.36559E-02 -0.17596E-01
 -0.22211E-02  0.32179E-02 -0.17596E-01
 -0.29267E-02  0.25928E-02 -0.17596E-01
 -0.34621E-02  0.18171E-02 -0.17596E-01
 -0.37964E-02  0.93572E-03 -0.17596E-01
 -0.39100E-02 -0.47884E-18 -0.17596E-01
 -0.37964E-02 -0.93572E-03 -0.17596E-01
 -0.34621E-02 -0.18171E-02 -0.17596E-01
 -0.29267E-02 -0.25928E-02 -0.17596E-01
 -0.22211E-02 -0.32179E-02 -0.17596E-01
 -0.13865E-02 -0.36559E-02 -0.17596E-01
 -0.47130E-03 -0.38815E-02 -0.17596E-01
  0.47130E-03 -0.38815E-02 -0.17596E-01
  0.13865E-02 -0.36559E-02 -0.17596E-01
  0.22211E-02 -0.32179E-02 -0.17596E-01
  0.29267E-02 -0.25928E-02 -0.17596E-01
  0.34621E-02 -0.18171E-02 -0.17596E-01
  0.37964E-02 -0.93572E-03 -0.17596E-01
  0.10371E-02  0.67625E-03 -0.16617E-01
  0.17441E-02  0.12348E-02 -0.16617E-01
  0.23169E-02  0.59465E-03 -0.16617E-01
  0.16685E-02 -0.33323E-03 -0.16617E-01
  0.30376E-02  0.15100E-03 -0.16617E-01
  0.27812E-02 -0.67347E-03 -0.16617E-01
  0.12844E-02  0.18423E-02 -0.16617E-01
  0.64992E-03  0.14636E-02 -0.16617E-01
  0.12600E-03  0.30622E-03 -0.16617E-01
 -0.12933E-03  0.11777E-02 -0.16617E-01
  0.94301E-03  0.22755E-02 -0.16617E-01
  0.11306E-02  0.28260E-02 -0.16617E-01
  0.17467E-02  0.24247E-02 -0.16617E-01
  0.40556E-03  0.21687E-02 -0.16617E-01
  0.39769E-03  0.29351E-02 -0.16617E-01
 -0.76515E-03 -0.10042E-02 -0.16617E-01
 -0.86670E-03  0.83825E-04 -0.16617E-01
  0.45850E-03 -0.69882E-03 -0.16617E-01
 -0.18318E-02 -0.71112E-03 -0.16617E-01
 -0.18434E-02  0.83490E-04 -0.16617E-01
 -0.27236E-02 -0.77763E-03 -0.16617E-01
 -0.28011E-02  0.42353E-04 -0.16617E-01
 -0.25374E-02 -0.15192E-02 -0.16617E-01
 -0.19313E-02 -0.13223E-02 -0.16617E-01
 -0.99277E-03  0.99661E-03 -0.16617E-01
 -0.14401E-02 -0.17322E-02 -0.16617E-01
 -0.31454E-03  0.20237E-02 -0.16617E-01
 -0.11047E-02  0.18607E-02 -0.16617E-01
 -0.18842E-02  0.17175E-02 -0.16617E-01
 -0.18705E-02  0.91084E-03 -0.16617E-01
 -0.16036E-03 -0.19801E-02 -0.16617E-01
 -0.94448E-03 -0.23491E-02 -0.16617E-01
  0.78460E-03 -0.17074E-02 -0.16617E-01
  0.17208E-02 -0.14909E-02 -0.16617E-01
  0.32070E-02  0.76640E-03 -0.16617E-01
  0.28045E-02  0.12503E-02 -0.16617E-01
  0.23052E-02  0.18667E-02 -0.16617E-01
 -0.40531E-03  0.28974E-02 -0.16617E-01
 -0.12092E-02  0.27179E-02 -0.16617E-01
 -0.19445E-02  0.24629E-02 -0.16617E-01
 -0.25027E-02  0.22359E-02 -0.16617E-01
 -0.26366E-02  0.16503E-02 -0.16617E-01
 -0.27652E-02  0.87650E-03 -0.16617E-01
 -0.21132E-02 -0.21374E-02 -0.16617E-01
 -0.16090E-02 -0.26933E-02 -0.16617E-01
 -0.11946E-02 -0.31291E-02 -0.16617E-01
 -0.58851E-03 -0.30382E-02 -0.16617E-01
  0.20668E-03 -0.28749E-02 -0.16617E-01
  0.10567E-02 -0.26439E-02 -0.16617E-01
  0.18416E-02 -0.23719E-02 -0.16617E-01
  0.24551E-02 -0.21478E-02 -0.16617E-01
  0.26026E-02 -0.15099E-02 -0.16617E-01
  0.37964E-02  0.93572E-03 -0.16617E-01
  0.39100E-02  0.00000E+00 -0.16617E-01
  0.34621E-02  0.18171E-02 -0.16617E-01
  0.29267E-02  0.25928E-02 -0.16617E-01
  0.22211E-02  0.32179E-02 -0.16617E-01
  0.13865E-02  0.36559E-02 -0.16617E-01
  0.47130E-03  0.38815E-02 -0.16617E-01
 -0.47130E-03  0.38815E-02 -0.16617E-01
 -0.13865E-02  0.36559E-02 -0.16617E-01
 -0.22211E-02  0.32179E-02 -0.16617E-01
 -0.29267E-02  0.25928E-02 -0.16617E-01
 -0.34621E-02  0.18171E-02 -0.16617E-01
 -0.37964E-02  0.93572E-03 -0.16617E-01
 -0.39100E-02 -0.47884E-18 -0.16617E-01
 -0.37964E-02 -0.93572E-03 -0.16617E-01
 -0.34621E-02 -0.18171E-02 -0.16617E-01
 -0.29267E-02 -0.25928E-02 -0.16617E-01
 -0.22211E-02 -0.32179E-02 -0.16617E-01
 -0.13865E-02 -0.36559E-02 -0.16617E-01
 -0.47130E-03 -0.38815E-02 -0.16617E-01
  0.47130E-03 -0.38815E-02 -0.16617E-01
  0.13865E-02 -0.36559E-02 -0.16617E-01
  0.22211E-02 -0.32179E-02 -0.16617E-01
  0.29267E-02 -0.25928E-02 -0.16617E-01
  0.34621E-02 -0.18171E-02 -0.16617E-01
  0.37964E-02 -0.93572E-03 -0.16617E-01
  0.10370E-02  0.67680E-03 -0.15638E-01
  0.17439E-02  0.12354E-02 -0.15638E-01
  0.23168E-02  0.59517E-03 -0.15638E-01
  0.16683E-02 -0.33247E-03 -0.15638E-01
  0.30375E-02  0.15136E-03 -0.15638E-01
  0.27815E-02 -0.67298E-03 -0.15638E-01
  0.12843E-02  0.18425E-02 -0.15638E-01
  0.64967E-03  0.14646E-02 -0.15638E-01
  0.12573E-03  0.30737E-03 -0.15638E-01
 -0.12952E-03  0.11795E-02 -0.15638E-01
  0.94268E-03  0.22757E-02 -0.15638E-01
  0.11303E-02  0.28255E-02 -0.15638E-01
  0.17463E-02  0.24248E-02 -0.15638E-01
  0.40550E-03  0.21687E-02 -0.15638E-01
  0.39767E-03  0.29348E-02 -0.15638E-01
 -0.76551E-03 -0.10043E-02 -0.15638E-01
 -0.86680E-03  0.84634E-04 -0.15638E-01
  0.45806E-03 -0.69810E-03 -0.15638E-01
 -0.18321E-02 -0.71098E-03 -0.15638E-01
 -0.18433E-02  0.83614E-04 -0.15638E-01
 -0.27236E-02 -0.77746E-03 -0.15638E-01
 -0.28009E-02  0.42626E-04 -0.15638E-01
 -0.25375E-02 -0.15191E-02 -0.15638E-01
 -0.19317E-02 -0.13223E-02 -0.15638E-01
 -0.99262E-03  0.99797E-03 -0.15638E-01
 -0.14405E-02 -0.17322E-02 -0.15638E-01
 -0.31434E-03  0.20240E-02 -0.15638E-01
 -0.11044E-02  0.18606E-02 -0.15638E-01
 -0.18842E-02  0.17175E-02 -0.15638E-01
 -0.18704E-02  0.91108E-03 -0.15638E-01
 -0.16064E-03 -0.19802E-02 -0.15638E-01
 -0.94508E-03 -0.23491E-02 -0.15638E-01
  0.78394E-03 -0.17074E-02 -0.15638E-01
  0.17208E-02 -0.14911E-02 -0.15638E-01
  0.32073E-02  0.76740E-03 -0.15638E-01
  0.28045E-02  0.12507E-02 -0.15638E-01
  0.23051E-02  0.18668E-02 -0.15638E-01
 -0.40517E-03  0.28963E-02 -0.15638E-01
 -0.12092E-02  0.27174E-02 -0.15638E-01
 -0.19445E-02  0.24627E-02 -0.15638E-01
 -0.25026E-02  0.22358E-02 -0.15638E-01
 -0.26365E-02  0.16503E-02 -0.15638E-01
 -0.27649E-02  0.87676E-03 -0.15638E-01
 -0.21133E-02 -0.21374E-02 -0.15638E-01
 -0.16090E-02 -0.26933E-02 -0.15638E-01
 -0.11947E-02 -0.31291E-02 -0.15638E-01
 -0.58886E-03 -0.30382E-02 -0.15638E-01
  0.20627E-03 -0.28749E-02 -0.15638E-01
  0.10564E-02 -0.26442E-02 -0.15638E-01
  0.18416E-02 -0.23721E-02 -0.15638E-01
  0.24553E-02 -0.21483E-02 -0.15638E-01
  0.26027E-02 -0.15097E-02 -0.15638E-01
  0.37964E-02  0.93572E-03 -0.15638E-01
  0.39100E-02  0.00000E+00 -0.15638E-01
  0.34621E-02  0.18171E-02 -0.15638E-01
  0.29267E-02  0.25928E-02 -0.15638E-01
  0.22211E-02  0.32179E-02 -0.15638E-01
  0.13865E-02  0.36559E-02 -0.15638E-01
  0.47130E-03  0.38815E-02 -0.15638E-01
 -0.47130E-03  0.38815E-02 -0.15638E-01
 -0.13865E-02  0.36559E-02 -0.15638E-01
 -0.22211E-02  0.32179E-02 -0.15638E-01
 -0.29267E-02  0.25928E-02 -0.15638E-01
 -0.34621E-02  0.18171E-02 -0.15638E-01
 -0.37964E-02  0.93572E-03 -0.15638E-01
 -0.39100E-02 -0.47884E-18 -0.15638E-01
 -0.37964E-02 -0.93572E-03 -0.15638E-01
 -0.34621E-02 -0.18171E-02 -0.15638E-01
 -0.29267E-02 -0.25928E-02 -0.15638E-01
 -0.22211E-02 -0.32179E-02 -0.15638E-01
 -0.13865E-02 -0.36559E-02 -0.15638E-01
 -0.47130E-03 -0.38815E-02 -0.15638E-01
  0.47130E-03 -0.38815E-02 -0.15638E-01
  0.13865E-02 -0.36559E-02 -0.15638E-01
  0.22211E-02 -0.32179E-02 -0.15638E-01
  0.29267E-02 -0.25928E-02 -0.15638E-01
  0.34621E-02 -0.18171E-02 -0.15638E-01
  0.37964E-02 -0.93572E-03 -0.15638E-01
  0.10368E-02  0.67736E-03 -0.14658E-01
  0.17438E-02  0.12361E-02 -0.14658E-01
  0.23167E-02  0.59570E-03 -0.14658E-01
  0.16681E-02 -0.33172E-03 -0.14658E-01
  0.30375E-02  0.15173E-03 -0.14658E-01
  0.27819E-02 -0.67248E-03 -0.14658E-01
  0.12842E-02  0.18427E-02 -0.14658E-01
  0.64943E-03  0.14656E-02 -0.14658E-01
  0.12547E-03  0.30852E-03 -0.14658E-01
 -0.12970E-03  0.11812E-02 -0.14658E-01
  0.94235E-03  0.22758E-02 -0.14658E-01
  0.11300E-02  0.28251E-02 -0.14658E-01
  0.17459E-02  0.24249E-02 -0.14658E-01
  0.40545E-03  0.21688E-02 -0.14658E-01
  0.39766E-03  0.29345E-02 -0.14658E-01
 -0.76586E-03 -0.10044E-02 -0.14658E-01
 -0.86691E-03  0.85443E-04 -0.14658E-01
  0.45761E-03 -0.69737E-03 -0.14658E-01
 -0.18324E-02 -0.71084E-03 -0.14658E-01
 -0.18432E-02  0.83737E-04 -0.14658E-01
 -0.27236E-02 -0.77729E-03 -0.14658E-01
 -0.28006E-02  0.42899E-04 -0.14658E-01
 -0.25377E-02 -0.15191E-02 -0.14658E-01
 -0.19322E-02 -0.13222E-02 -0.14658E-01
 -0.99248E-03  0.99932E-03 -0.14658E-01
 -0.14408E-02 -0.17322E-02 -0.14658E-01
 -0.31414E-03  0.20243E-02 -0.14658E-01
 -0.11040E-02  0.18605E-02 -0.14658E-01
 -0.18841E-02  0.17175E-02 -0.14658E-01
 -0.18703E-02  0.91132E-03 -0.14658E-01
 -0.16091E-03 -0.19802E-02 -0.14658E-01
 -0.94568E-03 -0.23491E-02 -0.14658E-01
  0.78328E-03 -0.17074E-02 -0.14658E-01
  0.17207E-02 -0.14914E-02 -0.14658E-01
  0.32076E-02  0.76841E-03 -0.14658E-01
  0.28044E-02  0.12511E-02 -0.14658E-01
  0.23050E-02  0.18668E-02 -0.14658E-01
 -0.40503E-03  0.28952E-02 -0.14658E-01
 -0.12092E-02  0.27170E-02 -0.14658E-01
 -0.19445E-02  0.24624E-02 -0.14658E-01
 -0.25026E-02  0.22358E-02 -0.14658E-01
 -0.26364E-02  0.16503E-02 -0.14658E-01
 -0.27646E-02  0.87702E-03 -0.14658E-01
 -0.21134E-02 -0.21374E-02 -0.14658E-01
 -0.16091E-02 -0.26933E-02 -0.14658E-01
 -0.11948E-02 -0.31291E-02 -0.14658E-01
 -0.58921E-03 -0.30382E-02 -0.14658E-01
  0.20587E-03 -0.28749E-02 -0.14658E-01
  0.10561E-02 -0.26444E-02 -0.14658E-01
  0.18416E-02 -0.23723E-02 -0.14658E-01
  0.24554E-02 -0.21489E-02 -0.14658E-01
  0.26027E-02 -0.15096E-02 -0.14658E-01
  0.37964E-02  0.93572E-03 -0.14658E-01
  0.39100E-02  0.00000E+00 -0.14658E-01
  0.34621E-02  0.18171E-02 -0.14658E-01
  0.29267E-02  0.25928E-02 -0.14658E-01
  0.22211E-02  0.32179E-02 -0.14658E-01
  0.13865E-02  0.36559E-02 -0.14658E-01
  0.47130E-03  0.38815E-02 -0.14658E-01
 -0.47130E-03  0.38815E-02 -0.14658E-01
 -0.13865E-02  0.36559E-02 -0.14658E-01
 -0.22211E-02  0.32179E-02 -0.14658E-01
 -0.29267E-02  0.25928E-02 -0.14658E-01
 -0.34621E-02  0.18171E-02 -0.14658E-01
 -0.37964E-02  0.93572E-03 -0.14658E-01
 -0.39100E-02 -0.47884E-18 -0.14658E-01
 -0.37964E-02 -0.93572E-03 -0.14658E-01
 -0.34621E-02 -0.18171E-02 -0.14658E-01
 -0.29267E-02 -0.25928E-02 -0.14658E-01
 -0.22211E-02 -0.32179E-02 -0.14658E-01
 -0.13865E-02 -0.36559E-02 -0.14658E-01
 -0.47130E-03 -0.38815E-02 -0.14658E-01
  0.47130E-03 -0.38815E-02 -0.14658E-01
  0.13865E-02 -0.36559E-02 -0.14658E-01
  0.22211E-02 -0.32179E-02 -0.14658E-01
  0.29267E-02 -0.25928E-02 -0.14658E-01
  0.34621E-02 -0.18171E-02 -0.14658E-01
  0.37964E-02 -0.93572E-03 -0.14658E-01
  0.10367E-02  0.67791E-03 -0.13679E-01
  0.17436E-02  0.12368E-02 -0.13679E-01
  0.23166E-02  0.59622E-03 -0.13679E-01
  0.16679E-02 -0.33096E-03 -0.13679E-01
  0.30375E-02  0.15209E-03 -0.13679E-01
  0.27822E-02 -0.67199E-03 -0.13679E-01
  0.12841E-02  0.18429E-02 -0.13679E-01
  0.64918E-03  0.14666E-02 -0.13679E-01
  0.12521E-03  0.30967E-03 -0.13679E-01
 -0.12989E-03  0.11830E-02 -0.13679E-01
  0.94202E-03  0.22759E-02 -0.13679E-01
  0.11296E-02  0.28247E-02 -0.13679E-01
  0.17455E-02  0.24251E-02 -0.13679E-01
  0.40539E-03  0.21688E-02 -0.13679E-01
  0.39764E-03  0.29343E-02 -0.13679E-01
 -0.76621E-03 -0.10046E-02 -0.13679E-01
 -0.86702E-03  0.86253E-04 -0.13679E-01
  0.45716E-03 -0.69665E-03 -0.13679E-01
 -0.18326E-02 -0.71070E-03 -0.13679E-01
 -0.18431E-02  0.83861E-04 -0.13679E-01
 -0.27235E-02 -0.77712E-03 -0.13679E-01
 -0.28003E-02  0.43173E-04 -0.13679E-01
 -0.25379E-02 -0.15190E-02 -0.13679E-01
 -0.19326E-02 -0.13220E-02 -0.13679E-01
 -0.99233E-03  0.10007E-02 -0.13679E-01
 -0.14412E-02 -0.17321E-02 -0.13679E-01
 -0.31394E-03  0.20245E-02 -0.13679E-01
 -0.11037E-02  0.18603E-02 -0.13679E-01
 -0.18841E-02  0.17175E-02 -0.13679E-01
 -0.18701E-02  0.91156E-03 -0.13679E-01
 -0.16119E-03 -0.19802E-02 -0.13679E-01
 -0.94628E-03 -0.23491E-02 -0.13679E-01
  0.78262E-03 -0.17074E-02 -0.13679E-01
  0.17207E-02 -0.14916E-02 -0.13679E-01
  0.32079E-02  0.76941E-03 -0.13679E-01
  0.28044E-02  0.12515E-02 -0.13679E-01
  0.23049E-02  0.18668E-02 -0.13679E-01
 -0.40490E-03  0.28942E-02 -0.13679E-01
 -0.12093E-02  0.27165E-02 -0.13679E-01
 -0.19444E-02  0.24622E-02 -0.13679E-01
 -0.25026E-02  0.22358E-02 -0.13679E-01
 -0.26363E-02  0.16503E-02 -0.13679E-01
 -0.27643E-02  0.87728E-03 -0.13679E-01
 -0.21136E-02 -0.21374E-02 -0.13679E-01
 -0.16091E-02 -0.26933E-02 -0.13679E-01
 -0.11949E-02 -0.31291E-02 -0.13679E-01
 -0.58956E-03 -0.30382E-02 -0.13679E-01
  0.20546E-03 -0.28749E-02 -0.13679E-01
  0.10558E-02 -0.26447E-02 -0.13679E-01
  0.18417E-02 -0.23725E-02 -0.13679E-01
  0.24555E-02 -0.21494E-02 -0.13679E-01
  0.26028E-02 -0.15095E-02 -0.13679E-01
  0.37964E-02  0.93572E-03 -0.13679E-01
  0.39100E-02  0.00000E+00 -0.13679E-01
  0.34621E-02  0.18171E-02 -0.13679E-01
  0.29267E-02  0.25928E-02 -0.13679E-01
  0.22211E-02  0.32179E-02 -0.13679E-01
  0.13865E-02  0.36559E-02 -0.13679E-01
  0.47130E-03  0.38815E-02 -0.13679E-01
 -0.47130E-03  0.38815E-02 -0.13679E-01
 -0.13865E-02  0.36559E-02 -0.13679E-01
 -0.22211E-02  0.32179E-02 -0.13679E-01
 -0.29267E-02  0.25928E-02 -0.13679E-01
 -0.34621E-02  0.18171E-02 -0.13679E-01
 -0.37964E-02  0.93572E-03 -0.13679E-01
 -0.39100E-02 -0.47884E-18 -0.13679E-01
 -0.37964E-02 -0.93572E-03 -0.13679E-01
 -0.34621E-02 -0.18171E-02 -0.13679E-01
 -0.29267E-02 -0.25928E-02 -0.13679E-01
 -0.22211E-02 -0.32179E-02 -0.13679E-01
 -0.13865E-02 -0.36559E-02 -0.13679E-01
 -0.47130E-03 -0.38815E-02 -0.13679E-01
  0.47130E-03 -0.38815E-02 -0.13679E-01
  0.13865E-02 -0.36559E-02 -0.13679E-01
  0.22211E-02 -0.32179E-02 -0.13679E-01
  0.29267E-02 -0.25928E-02 -0.13679E-01
  0.34621E-02 -0.18171E-02 -0.13679E-01
  0.37964E-02 -0.93572E-03 -0.13679E-01
  0.10366E-02  0.67847E-03 -0.12700E-01
  0.17434E-02  0.12374E-02 -0.12700E-01
  0.23164E-02  0.59674E-03 -0.12700E-01
  0.16677E-02 -0.33021E-03 -0.12700E-01
  0.30375E-02  0.15245E-03 -0.12700E-01
  0.27825E-02 -0.67150E-03 -0.12700E-01
  0.12840E-02  0.18430E-02 -0.12700E-01
  0.64894E-03  0.14676E-02 -0.12700E-01
  0.12495E-03  0.31081E-03 -0.12700E-01
 -0.13007E-03  0.11847E-02 -0.12700E-01
  0.94169E-03  0.22761E-02 -0.12700E-01
  0.11293E-02  0.28242E-02 -0.12700E-01
  0.17451E-02  0.24252E-02 -0.12700E-01
  0.40534E-03  0.21688E-02 -0.12700E-01
  0.39762E-03  0.29340E-02 -0.12700E-01
 -0.76657E-03 -0.10047E-02 -0.12700E-01
 -0.86713E-03  0.87062E-04 -0.12700E-01
  0.45671E-03 -0.69592E-03 -0.12700E-01
 -0.18329E-02 -0.71056E-03 -0.12700E-01
 -0.18430E-02  0.83985E-04 -0.12700E-01
 -0.27235E-02 -0.77695E-03 -0.12700E-01
 -0.28001E-02  0.43446E-04 -0.12700E-01
 -0.25380E-02 -0.15190E-02 -0.12700E-01
 -0.19330E-02 -0.13219E-02 -0.12700E-01
 -0.99219E-03  0.10020E-02 -0.12700E-01
 -0.14415E-02 -0.17321E-02 -0.12700E-01
 -0.31374E-03  0.20248E-02 -0.12700E-01
 -0.11033E-02  0.18602E-02 -0.12700E-01
 -0.18840E-02  0.17175E-02 -0.12700E-01
 -0.18700E-02  0.91180E-03 -0.12700E-01
 -0.16146E-03 -0.19803E-02 -0.12700E-01
 -0.94687E-03 -0.23491E-02 -0.12700E-01
  0.78195E-03 -0.17073E-02 -0.12700E-01
  0.17207E-02 -0.14919E-02 -0.12700E-01
  0.32083E-02  0.77042E-03 -0.12700E-01
  0.28044E-02  0.12520E-02 -0.12700E-01
  0.23048E-02  0.18669E-02 -0.12700E-01
 -0.40476E-03  0.28931E-02 -0.12700E-01
 -0.12093E-02  0.27160E-02 -0.12700E-01
 -0.19444E-02  0.24620E-02 -0.12700E-01
 -0.25026E-02  0.22358E-02 -0.12700E-01
 -0.26362E-02  0.16503E-02 -0.12700E-01
 -0.27640E-02  0.87754E-03 -0.12700E-01
 -0.21137E-02 -0.21374E-02 -0.12700E-01
 -0.16091E-02 -0.26933E-02 -0.12700E-01
 -0.11950E-02 -0.31291E-02 -0.12700E-01
 -0.58991E-03 -0.30382E-02 -0.12700E-01
  0.20505E-03 -0.28749E-02 -0.12700E-01
  0.10555E-02 -0.26450E-02 -0.12700E-01
  0.18417E-02 -0.23727E-02 -0.12700E-01
  0.24556E-02 -0.21500E-02 -0.12700E-01
  0.26029E-02 -0.15094E-02 -0.12700E-01
  0.37964E-02  0.93572E-03 -0.12700E-01
  0.39100E-02  0.00000E+00 -0.12700E-01
  0.34621E-02  0.18171E-02 -0.12700E-01
  0.29267E-02  0.25928E-02 -0.12700E-01
  0.22211E-02  0.32179E-02 -0.12700E-01
  0.13865E-02  0.36559E-02 -0.12700E-01
  0.47130E-03  0.38815E-02 -0.12700E-01
 -0.47130E-03  0.38815E-02 -0.12700E-01
 -0.13865E-02  0.36559E-02 -0.12700E-01
 -0.22211E-02  0.32179E-02 -0.12700E-01
 -0.29267E-02  0.25928E-02 -0.12700E-01
 -0.34621E-02  0.18171E-02 -0.12700E-01
 -0.37964E-02  0.93572E-03 -0.12700E-01
 -0.39100E-02  0.39516E-17 -0.12700E-01
 -0.37964E-02 -0.93572E-03 -0.12700E-01
 -0.34621E-02 -0.18171E-02 -0.12700E-01
 -0.29267E-02 -0.25928E-02 -0.12700E-01
 -0.22211E-02 -0.32179E-02 -0.12700E-01
 -0.13865E-02 -0.36559E-02 -0.12700E-01
 -0.47130E-03 -0.38815E-02 -0.12700E-01
  0.47130E-03 -0.38815E-02 -0.12700E-01
  0.13865E-02 -0.36559E-02 -0.12700E-01
  0.22211E-02 -0.32179E-02 -0.12700E-01
  0.29267E-02 -0.25928E-02 -0.12700E-01
  0.34621E-02 -0.18171E-02 -0.12700E-01
  0.37964E-02 -0.93572E-03 -0.12700E-01
  0.10365E-02  0.67902E-03 -0.11721E-01
  0.17432E-02  0.12381E-02 -0.11721E-01
  0.23163E-02  0.59727E-03 -0.11721E-01
  0.16675E-02 -0.32945E-03 -0.11721E-01
  0.30374E-02  0.15282E-03 -0.11721E-01
  0.27829E-02 -0.67100E-03 -0.11721E-01
  0.12839E-02  0.18432E-02 -0.11721E-01
  0.64869E-03  0.14686E-02 -0.11721E-01
  0.12468E-03  0.31196E-03 -0.11721E-01
 -0.13026E-03  0.11865E-02 -0.11721E-01
  0.94135E-03  0.22762E-02 -0.11721E-01
  0.11289E-02  0.28238E-02 -0.11721E-01
  0.17447E-02  0.24254E-02 -0.11721E-01
  0.40528E-03  0.21688E-02 -0.11721E-01
  0.39760E-03  0.29337E-02 -0.11721E-01
 -0.76692E-03 -0.10049E-02 -0.11721E-01
 -0.86724E-03  0.87871E-04 -0.11721E-01
  0.45626E-03 -0.69519E-03 -0.11721E-01
 -0.18332E-02 -0.71042E-03 -0.11721E-01
 -0.18430E-02  0.84108E-04 -0.11721E-01
 -0.27235E-02 -0.77678E-03 -0.11721E-01
 -0.27998E-02  0.43720E-04 -0.11721E-01
 -0.25382E-02 -0.15189E-02 -0.11721E-01
 -0.19334E-02 -0.13219E-02 -0.11721E-01
 -0.99205E-03  0.10034E-02 -0.11721E-01
 -0.14419E-02 -0.17320E-02 -0.11721E-01
 -0.31354E-03  0.20251E-02 -0.11721E-01
 -0.11030E-02  0.18601E-02 -0.11721E-01
 -0.18840E-02  0.17175E-02 -0.11721E-01
 -0.18699E-02  0.91204E-03 -0.11721E-01
 -0.16174E-03 -0.19803E-02 -0.11721E-01
 -0.94747E-03 -0.23492E-02 -0.11721E-01
  0.78129E-03 -0.17073E-02 -0.11721E-01
  0.17206E-02 -0.14921E-02 -0.11721E-01
  0.32086E-02  0.77142E-03 -0.11721E-01
  0.28044E-02  0.12524E-02 -0.11721E-01
  0.23047E-02  0.18669E-02 -0.11721E-01
 -0.40462E-03  0.28920E-02 -0.11721E-01
 -0.12093E-02  0.27155E-02 -0.11721E-01
 -0.19444E-02  0.24618E-02 -0.11721E-01
 -0.25025E-02  0.22358E-02 -0.11721E-01
 -0.26361E-02  0.16503E-02 -0.11721E-01
 -0.27637E-02  0.87781E-03 -0.11721E-01
 -0.21139E-02 -0.21374E-02 -0.11721E-01
 -0.16092E-02 -0.26934E-02 -0.11721E-01
 -0.11951E-02 -0.31291E-02 -0.11721E-01
 -0.59025E-03 -0.30382E-02 -0.11721E-01
  0.20465E-03 -0.28749E-02 -0.11721E-01
  0.10552E-02 -0.26452E-02 -0.11721E-01
  0.18418E-02 -0.23729E-02 -0.11721E-01
  0.24558E-02 -0.21505E-02 -0.11721E-01
  0.26030E-02 -0.15093E-02 -0.11721E-01
  0.37964E-02  0.93572E-03 -0.11721E-01
  0.39100E-02  0.00000E+00 -0.11721E-01
  0.34621E-02  0.18171E-02 -0.11721E-01
  0.29267E-02  0.25928E-02 -0.11721E-01
  0.22211E-02  0.32179E-02 -0.11721E-01
  0.13865E-02  0.36559E-02 -0.11721E-01
  0.47130E-03  0.38815E-02 -0.11721E-01
 -0.47130E-03  0.38815E-02 -0.11721E-01
 -0.13865E-02  0.36559E-02 -0.11721E-01
 -0.22211E-02  0.32179E-02 -0.11721E-01
 -0.29267E-02  0.25928E-02 -0.11721E-01
 -0.34621E-02  0.18171E-02 -0.11721E-01
 -0.37964E-02  0.93572E-03 -0.11721E-01
 -0.39100E-02 -0.47884E-18 -0.11721E-01
 -0.37964E-02 -0.93572E-03 -0.11721E-01
 -0.34621E-02 -0.18171E-02 -0.11721E-01
 -0.29267E-02 -0.25928E-02 -0.11721E-01
 -0.22211E-02 -0.32179E-02 -0.11721E-01
 -0.13865E-02 -0.36559E-02 -0.11721E-01
 -0.47130E-03 -0.38815E-02 -0.11721E-01
  0.47130E-03 -0.38815E-02 -0.11721E-01
  0.13865E-02 -0.36559E-02 -0.11721E-01
  0.22211E-02 -0.32179E-02 -0.11721E-01
  0.29267E-02 -0.25928E-02 -0.11721E-01
  0.34621E-02 -0.18171E-02 -0.11721E-01
  0.37964E-02 -0.93572E-03 -0.11721E-01
  0.10364E-02  0.67958E-03 -0.10742E-01
  0.17430E-02  0.12387E-02 -0.10742E-01
  0.23162E-02  0.59779E-03 -0.10742E-01
  0.16672E-02 -0.32870E-03 -0.10742E-01
  0.30374E-02  0.15318E-03 -0.10742E-01
  0.27832E-02 -0.67051E-03 -0.10742E-01
  0.12838E-02  0.18434E-02 -0.10742E-01
  0.64845E-03  0.14696E-02 -0.10742E-01
  0.12442E-03  0.31311E-03 -0.10742E-01
 -0.13044E-03  0.11882E-02 -0.10742E-01
  0.94102E-03  0.22763E-02 -0.10742E-01
  0.11286E-02  0.28233E-02 -0.10742E-01
  0.17443E-02  0.24255E-02 -0.10742E-01
  0.40523E-03  0.21689E-02 -0.10742E-01
  0.39759E-03  0.29335E-02 -0.10742E-01
 -0.76727E-03 -0.10050E-02 -0.10742E-01
 -0.86735E-03  0.88681E-04 -0.10742E-01
  0.45582E-03 -0.69447E-03 -0.10742E-01
 -0.18335E-02 -0.71028E-03 -0.10742E-01
 -0.18429E-02  0.84232E-04 -0.10742E-01
 -0.27235E-02 -0.77661E-03 -0.10742E-01
 -0.27995E-02  0.43993E-04 -0.10742E-01
 -0.25383E-02 -0.15189E-02 -0.10742E-01
 -0.19339E-02 -0.13218E-02 -0.10742E-01
 -0.99190E-03  0.10048E-02 -0.10742E-01
 -0.14422E-02 -0.17320E-02 -0.10742E-01
 -0.31334E-03  0.20254E-02 -0.10742E-01
 -0.11026E-02  0.18599E-02 -0.10742E-01
 -0.18839E-02  0.17175E-02 -0.10742E-01
 -0.18697E-02  0.91228E-03 -0.10742E-01
 -0.16201E-03 -0.19803E-02 -0.10742E-01
 -0.94807E-03 -0.23492E-02 -0.10742E-01
  0.78063E-03 -0.17073E-02 -0.10742E-01
  0.17206E-02 -0.14923E-02 -0.10742E-01
  0.32089E-02  0.77243E-03 -0.10742E-01
  0.28043E-02  0.12528E-02 -0.10742E-01
  0.23046E-02  0.18670E-02 -0.10742E-01
 -0.40448E-03  0.28910E-02 -0.10742E-01
 -0.12093E-02  0.27151E-02 -0.10742E-01
 -0.19443E-02  0.24615E-02 -0.10742E-01
 -0.25025E-02  0.22358E-02 -0.10742E-01
 -0.26360E-02  0.16503E-02 -0.10742E-01
 -0.27633E-02  0.87807E-03 -0.10742E-01
 -0.21140E-02 -0.21374E-02 -0.10742E-01
 -0.16092E-02 -0.26934E-02 -0.10742E-01
 -0.11953E-02 -0.31291E-02 -0.10742E-01
 -0.59060E-03 -0.30382E-02 -0.10742E-01
  0.20424E-03 -0.28749E-02 -0.10742E-01
  0.10549E-02 -0.26455E-02 -0.10742E-01
  0.18418E-02 -0.23732E-02 -0.10742E-01
  0.24559E-02 -0.21511E-02 -0.10742E-01
  0.26030E-02 -0.15092E-02 -0.10742E-01
  0.37964E-02  0.93572E-03 -0.10742E-01
  0.39100E-02  0.00000E+00 -0.10742E-01
  0.34621E-02  0.18171E-02 -0.10742E-01
  0.29267E-02  0.25928E-02 -0.10742E-01
  0.22211E-02  0.32179E-02 -0.10742E-01
  0.13865E-02  0.36559E-02 -0.10742E-01
  0.47130E-03  0.38815E-02 -0.10742E-01
 -0.47130E-03  0.38815E-02 -0.10742E-01
 -0.13865E-02  0.36559E-02 -0.10742E-01
 -0.22211E-02  0.32179E-02 -0.10742E-01
 -0.29267E-02  0.25928E-02 -0.10742E-01
 -0.34621E-02  0.18171E-02 -0.10742E-01
 -0.37964E-02  0.93572E-03 -0.10742E-01
 -0.39100E-02  0.22152E-17 -0.10742E-01
 -0.37964E-02 -0.93572E-03 -0.10742E-01
 -0.34621E-02 -0.18171E-02 -0.10742E-01
 -0.29267E-02 -0.25928E-02 -0.10742E-01
 -0.22211E-02 -0.32179E-02 -0.10742E-01
 -0.13865E-02 -0.36559E-02 -0.10742E-01
 -0.47130E-03 -0.38815E-02 -0.10742E-01
  0.47130E-03 -0.38815E-02 -0.10742E-01
  0.13865E-02 -0.36559E-02 -0.10742E-01
  0.22211E-02 -0.32179E-02 -0.10742E-01
  0.29267E-02 -0.25928E-02 -0.10742E-01
  0.34621E-02 -0.18171E-02 -0.10742E-01
  0.37964E-02 -0.93572E-03 -0.10742E-01
  0.10363E-02  0.68013E-03 -0.97627E-02
  0.17429E-02  0.12394E-02 -0.97627E-02
  0.23161E-02  0.59831E-03 -0.97627E-02
  0.16670E-02 -0.32794E-03 -0.97627E-02
  0.30374E-02  0.15354E-03 -0.97627E-02
  0.27836E-02 -0.67002E-03 -0.97627E-02
  0.12837E-02  0.18436E-02 -0.97627E-02
  0.64820E-03  0.14706E-02 -0.97627E-02
  0.12416E-03  0.31426E-03 -0.97627E-02
 -0.13063E-03  0.11900E-02 -0.97627E-02
  0.94069E-03  0.22765E-02 -0.97627E-02
  0.11282E-02  0.28229E-02 -0.97627E-02
  0.17439E-02  0.24257E-02 -0.97627E-02
  0.40518E-03  0.21689E-02 -0.97627E-02
  0.39757E-03  0.29332E-02 -0.97627E-02
 -0.76763E-03 -0.10051E-02 -0.97627E-02
 -0.86746E-03  0.89490E-04 -0.97627E-02
  0.45537E-03 -0.69374E-03 -0.97627E-02
 -0.18338E-02 -0.71013E-03 -0.97627E-02
 -0.18428E-02  0.84355E-04 -0.97627E-02
 -0.27234E-02 -0.77644E-03 -0.97627E-02
 -0.27992E-02  0.44266E-04 -0.97627E-02
 -0.25385E-02 -0.15188E-02 -0.97627E-02
 -0.19343E-02 -0.13216E-02 -0.97627E-02
 -0.99176E-03  0.10061E-02 -0.97627E-02
 -0.14425E-02 -0.17320E-02 -0.97627E-02
 -0.31314E-03  0.20257E-02 -0.97627E-02
 -0.11023E-02  0.18598E-02 -0.97627E-02
 -0.18839E-02  0.17175E-02 -0.97627E-02
 -0.18696E-02  0.91252E-03 -0.97627E-02
 -0.16229E-03 -0.19803E-02 -0.97627E-02
 -0.94867E-03 -0.23492E-02 -0.97627E-02
  0.77997E-03 -0.17073E-02 -0.97627E-02
  0.17205E-02 -0.14926E-02 -0.97627E-02
  0.32092E-02  0.77343E-03 -0.97627E-02
  0.28043E-02  0.12533E-02 -0.97627E-02
  0.23044E-02  0.18670E-02 -0.97627E-02
 -0.40434E-03  0.28899E-02 -0.97627E-02
 -0.12093E-02  0.27146E-02 -0.97627E-02
 -0.19443E-02  0.24613E-02 -0.97627E-02
 -0.25025E-02  0.22358E-02 -0.97627E-02
 -0.26359E-02  0.16503E-02 -0.97627E-02
 -0.27630E-02  0.87833E-03 -0.97627E-02
 -0.21141E-02 -0.21374E-02 -0.97627E-02
 -0.16093E-02 -0.26934E-02 -0.97627E-02
 -0.11954E-02 -0.31291E-02 -0.97627E-02
 -0.59095E-03 -0.30382E-02 -0.97627E-02
  0.20384E-03 -0.28750E-02 -0.97627E-02
  0.10546E-02 -0.26458E-02 -0.97627E-02
  0.18419E-02 -0.23734E-02 -0.97627E-02
  0.24560E-02 -0.21516E-02 -0.97627E-02
  0.26031E-02 -0.15091E-02 -0.97627E-02
  0.37964E-02  0.93572E-03 -0.97627E-02
  0.39100E-02  0.00000E+00 -0.97627E-02
  0.34621E-02  0.18171E-02 -0.97627E-02
  0.29267E-02  0.25928E-02 -0.97627E-02
  0.22211E-02  0.32179E-02 -0.97627E-02
  0.13865E-02  0.36559E-02 -0.97627E-02
  0.47130E-03  0.38815E-02 -0.97627E-02
 -0.47130E-03  0.38815E-02 -0.97627E-02
 -0.13865E-02  0.36559E-02 -0.97627E-02
 -0.22211E-02  0.32179E-02 -0.97627E-02
 -0.29267E-02  0.25928E-02 -0.97627E-02
 -0.34621E-02  0.18171E-02 -0.97627E-02
 -0.37964E-02  0.93572E-03 -0.97627E-02
 -0.39100E-02 -0.47884E-18 -0.97627E-02
 -0.37964E-02 -0.93572E-03 -0.97627E-02
 -0.34621E-02 -0.18171E-02 -0.97627E-02
 -0.29267E-02 -0.25928E-02 -0.97627E-02
 -0.22211E-02 -0.32179E-02 -0.97627E-02
 -0.13865E-02 -0.36559E-02 -0.97627E-02
 -0.47130E-03 -0.38815E-02 -0.97627E-02
  0.47130E-03 -0.38815E-02 -0.97627E-02
  0.13865E-02 -0.36559E-02 -0.97627E-02
  0.22211E-02 -0.32179E-02 -0.97627E-02
  0.29267E-02 -0.25928E-02 -0.97627E-02
  0.34621E-02 -0.18171E-02 -0.97627E-02
  0.37964E-02 -0.93572E-03 -0.97627E-02
  0.10362E-02  0.68068E-03 -0.87835E-02
  0.17427E-02  0.12401E-02 -0.87835E-02
  0.23160E-02  0.59884E-03 -0.87835E-02
  0.16668E-02 -0.32719E-03 -0.87835E-02
  0.30373E-02  0.15391E-03 -0.87835E-02
  0.27839E-02 -0.66953E-03 -0.87835E-02
  0.12836E-02  0.18438E-02 -0.87835E-02
  0.64796E-03  0.14716E-02 -0.87835E-02
  0.12390E-03  0.31541E-03 -0.87835E-02
 -0.13082E-03  0.11917E-02 -0.87835E-02
  0.94036E-03  0.22766E-02 -0.87835E-02
  0.11279E-02  0.28225E-02 -0.87835E-02
  0.17435E-02  0.24258E-02 -0.87835E-02
  0.40512E-03  0.21690E-02 -0.87835E-02
  0.39755E-03  0.29330E-02 -0.87835E-02
 -0.76798E-03 -0.10053E-02 -0.87835E-02
 -0.86756E-03  0.90299E-04 -0.87835E-02
  0.45492E-03 -0.69302E-03 -0.87835E-02
 -0.18341E-02 -0.70999E-03 -0.87835E-02
 -0.18427E-02  0.84479E-04 -0.87835E-02
 -0.27234E-02 -0.77627E-03 -0.87835E-02
 -0.27990E-02  0.44540E-04 -0.87835E-02
 -0.25386E-02 -0.15188E-02 -0.87835E-02
 -0.19347E-02 -0.13215E-02 -0.87835E-02
 -0.99161E-03  0.10075E-02 -0.87835E-02
 -0.14429E-02 -0.17319E-02 -0.87835E-02
 -0.31294E-03  0.20260E-02 -0.87835E-02
 -0.11019E-02  0.18597E-02 -0.87835E-02
 -0.18838E-02  0.17175E-02 -0.87835E-02
 -0.18695E-02  0.91276E-03 -0.87835E-02
 -0.16256E-03 -0.19804E-02 -0.87835E-02
 -0.94927E-03 -0.23493E-02 -0.87835E-02
  0.77931E-03 -0.17073E-02 -0.87835E-02
  0.17205E-02 -0.14928E-02 -0.87835E-02
  0.32096E-02  0.77444E-03 -0.87835E-02
  0.28043E-02  0.12537E-02 -0.87835E-02
  0.23043E-02  0.18670E-02 -0.87835E-02
 -0.40420E-03  0.28888E-02 -0.87835E-02
 -0.12093E-02  0.27141E-02 -0.87835E-02
 -0.19443E-02  0.24611E-02 -0.87835E-02
 -0.25024E-02  0.22358E-02 -0.87835E-02
 -0.26358E-02  0.16503E-02 -0.87835E-02
 -0.27627E-02  0.87859E-03 -0.87835E-02
 -0.21143E-02 -0.21374E-02 -0.87835E-02
 -0.16093E-02 -0.26934E-02 -0.87835E-02
 -0.11955E-02 -0.31291E-02 -0.87835E-02
 -0.59130E-03 -0.30382E-02 -0.87835E-02
  0.20343E-03 -0.28750E-02 -0.87835E-02
  0.10543E-02 -0.26460E-02 -0.87835E-02
  0.18419E-02 -0.23736E-02 -0.87835E-02
  0.24561E-02 -0.21521E-02 -0.87835E-02
  0.26032E-02 -0.15090E-02 -0.87835E-02
  0.37964E-02  0.93572E-03 -0.87835E-02
  0.39100E-02  0.00000E+00 -0.87835E-02
  0.34621E-02  0.18171E-02 -0.87835E-02
  0.29267E-02  0.25928E-02 -0.87835E-02
  0.22211E-02  0.32179E-02 -0.87835E-02
  0.13865E-02  0.36559E-02 -0.87835E-02
  0.47130E-03  0.38815E-02 -0.87835E-02
 -0.47130E-03  0.38815E-02 -0.87835E-02
 -0.13865E-02  0.36559E-02 -0.87835E-02
 -0.22211E-02  0.32179E-02 -0.87835E-02
 -0.29267E-02  0.25928E-02 -0.87835E-02
 -0.34621E-02  0.18171E-02 -0.87835E-02
 -0.37964E-02  0.93572E-03 -0.87835E-02
 -0.39100E-02  0.22152E-17 -0.87835E-02
 -0.37964E-02 -0.93572E-03 -0.87835E-02
 -0.34621E-02 -0.18171E-02 -0.87835E-02
 -0.29267E-02 -0.25928E-02 -0.87835E-02
 -0.22211E-02 -0.32179E-02 -0.87835E-02
 -0.13865E-02 -0.36559E-02 -0.87835E-02
 -0.47130E-03 -0.38815E-02 -0.87835E-02
  0.47130E-03 -0.38815E-02 -0.87835E-02
  0.13865E-02 -0.36559E-02 -0.87835E-02
  0.22211E-02 -0.32179E-02 -0.87835E-02
  0.29267E-02 -0.25928E-02 -0.87835E-02
  0.34621E-02 -0.18171E-02 -0.87835E-02
  0.37964E-02 -0.93572E-03 -0.87835E-02
  0.10360E-02  0.68124E-03 -0.78043E-02
  0.17425E-02  0.12407E-02 -0.78043E-02
  0.23158E-02  0.59936E-03 -0.78043E-02
  0.16666E-02 -0.32643E-03 -0.78043E-02
  0.30373E-02  0.15427E-03 -0.78043E-02
  0.27842E-02 -0.66903E-03 -0.78043E-02
  0.12835E-02  0.18440E-02 -0.78043E-02
  0.64771E-03  0.14727E-02 -0.78043E-02
  0.12363E-03  0.31656E-03 -0.78043E-02
 -0.13100E-03  0.11935E-02 -0.78043E-02
  0.94003E-03  0.22767E-02 -0.78043E-02
  0.11276E-02  0.28220E-02 -0.78043E-02
  0.17432E-02  0.24260E-02 -0.78043E-02
  0.40507E-03  0.21690E-02 -0.78043E-02
  0.39754E-03  0.29327E-02 -0.78043E-02
 -0.76834E-03 -0.10054E-02 -0.78043E-02
 -0.86767E-03  0.91108E-04 -0.78043E-02
  0.45447E-03 -0.69229E-03 -0.78043E-02
 -0.18344E-02 -0.70985E-03 -0.78043E-02
 -0.18426E-02  0.84602E-04 -0.78043E-02
 -0.27234E-02 -0.77610E-03 -0.78043E-02
 -0.27987E-02  0.44813E-04 -0.78043E-02
 -0.25388E-02 -0.15187E-02 -0.78043E-02
 -0.19352E-02 -0.13215E-02 -0.78043E-02
 -0.99147E-03  0.10088E-02 -0.78043E-02
 -0.14433E-02 -0.17319E-02 -0.78043E-02
 -0.31274E-03  0.20262E-02 -0.78043E-02
 -0.11016E-02  0.18595E-02 -0.78043E-02
 -0.18838E-02  0.17175E-02 -0.78043E-02
 -0.18694E-02  0.91300E-03 -0.78043E-02
 -0.16284E-03 -0.19804E-02 -0.78043E-02
 -0.94986E-03 -0.23493E-02 -0.78043E-02
  0.77865E-03 -0.17073E-02 -0.78043E-02
  0.17205E-02 -0.14931E-02 -0.78043E-02
  0.32099E-02  0.77544E-03 -0.78043E-02
  0.28042E-02  0.12541E-02 -0.78043E-02
  0.23042E-02  0.18671E-02 -0.78043E-02
 -0.40407E-03  0.28877E-02 -0.78043E-02
 -0.12093E-02  0.27137E-02 -0.78043E-02
 -0.19442E-02  0.24609E-02 -0.78043E-02
 -0.25024E-02  0.22358E-02 -0.78043E-02
 -0.26358E-02  0.16503E-02 -0.78043E-02
 -0.27624E-02  0.87885E-03 -0.78043E-02
 -0.21144E-02 -0.21374E-02 -0.78043E-02
 -0.16094E-02 -0.26934E-02 -0.78043E-02
 -0.11956E-02 -0.31291E-02 -0.78043E-02
 -0.59165E-03 -0.30382E-02 -0.78043E-02
  0.20302E-03 -0.28750E-02 -0.78043E-02
  0.10540E-02 -0.26463E-02 -0.78043E-02
  0.18419E-02 -0.23738E-02 -0.78043E-02
  0.24563E-02 -0.21527E-02 -0.78043E-02
  0.26033E-02 -0.15088E-02 -0.78043E-02
  0.37964E-02  0.93572E-03 -0.78043E-02
  0.39100E-02  0.00000E+00 -0.78043E-02
  0.34621E-02  0.18171E-02 -0.78043E-02
  0.29267E-02  0.25928E-02 -0.78043E-02
  0.22211E-02  0.32179E-02 -0.78043E-02
  0.13865E-02  0.36559E-02 -0.78043E-02
  0.47130E-03  0.38815E-02 -0.78043E-02
 -0.47130E-03  0.38815E-02 -0.78043E-02
 -0.13865E-02  0.36559E-02 -0.78043E-02
 -0.22211E-02  0.32179E-02 -0.78043E-02
 -0.29267E-02  0.25928E-02 -0.78043E-02
 -0.34621E-02  0.18171E-02 -0.78043E-02
 -0.37964E-02  0.93572E-03 -0.78043E-02
 -0.39100E-02 -0.47884E-18 -0.78043E-02
 -0.37964E-02 -0.93572E-03 -0.78043E-02
 -0.34621E-02 -0.18171E-02 -0.78043E-02
 -0.29267E-02 -0.25928E-02 -0.78043E-02
 -0.22211E-02 -0.32179E-02 -0.78043E-02
 -0.13865E-02 -0.36559E-02 -0.78043E-02
 -0.47130E-03 -0.38815E-02 -0.78043E-02
  0.47130E-03 -0.38815E-02 -0.78043E-02
  0.13865E-02 -0.36559E-02 -0.78043E-02
  0.22211E-02 -0.32179E-02 -0.78043E-02
  0.29267E-02 -0.25928E-02 -0.78043E-02
  0.34621E-02 -0.18171E-02 -0.78043E-02
  0.37964E-02 -0.93572E-03 -0.78043E-02
  0.10359E-02  0.68179E-03 -0.68252E-02
  0.17423E-02  0.12414E-02 -0.68252E-02
  0.23157E-02  0.59988E-03 -0.68252E-02
  0.16664E-02 -0.32568E-03 -0.68252E-02
  0.30373E-02  0.15463E-03 -0.68252E-02
  0.27846E-02 -0.66854E-03 -0.68252E-02
  0.12834E-02  0.18442E-02 -0.68252E-02
  0.64747E-03  0.14736E-02 -0.68252E-02
  0.12337E-03  0.31770E-03 -0.68252E-02
 -0.13118E-03  0.11952E-02 -0.68252E-02
  0.93970E-03  0.22768E-02 -0.68252E-02
  0.11272E-02  0.28216E-02 -0.68252E-02
  0.17428E-02  0.24261E-02 -0.68252E-02
  0.40501E-03  0.21690E-02 -0.68252E-02
  0.39752E-03  0.29324E-02 -0.68252E-02
 -0.76869E-03 -0.10056E-02 -0.68252E-02
 -0.86778E-03  0.91918E-04 -0.68252E-02
  0.45402E-03 -0.69156E-03 -0.68252E-02
 -0.18347E-02 -0.70971E-03 -0.68252E-02
 -0.18425E-02  0.84726E-04 -0.68252E-02
 -0.27234E-02 -0.77593E-03 -0.68252E-02
 -0.27984E-02  0.45086E-04 -0.68252E-02
 -0.25389E-02 -0.15187E-02 -0.68252E-02
 -0.19356E-02 -0.13213E-02 -0.68252E-02
 -0.99133E-03  0.10102E-02 -0.68252E-02
 -0.14436E-02 -0.17318E-02 -0.68252E-02
 -0.31254E-03  0.20265E-02 -0.68252E-02
 -0.11013E-02  0.18594E-02 -0.68252E-02
 -0.18837E-02  0.17175E-02 -0.68252E-02
 -0.18692E-02  0.91324E-03 -0.68252E-02
 -0.16311E-03 -0.19804E-02 -0.68252E-02
 -0.95046E-03 -0.23493E-02 -0.68252E-02
  0.77799E-03 -0.17073E-02 -0.68252E-02
  0.17204E-02 -0.14933E-02 -0.68252E-02
  0.32102E-02  0.77645E-03 -0.68252E-02
  0.28042E-02  0.12545E-02 -0.68252E-02
  0.23041E-02  0.18671E-02 -0.68252E-02
 -0.40393E-03  0.28867E-02 -0.68252E-02
 -0.12093E-02  0.27132E-02 -0.68252E-02
 -0.19442E-02  0.24606E-02 -0.68252E-02
 -0.25024E-02  0.22358E-02 -0.68252E-02
 -0.26357E-02  0.16503E-02 -0.68252E-02
 -0.27621E-02  0.87912E-03 -0.68252E-02
 -0.21146E-02 -0.21374E-02 -0.68252E-02
 -0.16094E-02 -0.26935E-02 -0.68252E-02
 -0.11957E-02 -0.31291E-02 -0.68252E-02
 -0.59200E-03 -0.30381E-02 -0.68252E-02
  0.20262E-03 -0.28750E-02 -0.68252E-02
  0.10536E-02 -0.26466E-02 -0.68252E-02
  0.18420E-02 -0.23740E-02 -0.68252E-02
  0.24564E-02 -0.21533E-02 -0.68252E-02
  0.26033E-02 -0.15087E-02 -0.68252E-02
  0.37964E-02  0.93572E-03 -0.68252E-02
  0.39100E-02  0.00000E+00 -0.68252E-02
  0.34621E-02  0.18171E-02 -0.68252E-02
  0.29267E-02  0.25928E-02 -0.68252E-02
  0.22211E-02  0.32179E-02 -0.68252E-02
  0.13865E-02  0.36559E-02 -0.68252E-02
  0.47130E-03  0.38815E-02 -0.68252E-02
 -0.47130E-03  0.38815E-02 -0.68252E-02
 -0.13865E-02  0.36559E-02 -0.68252E-02
 -0.22211E-02  0.32179E-02 -0.68252E-02
 -0.29267E-02  0.25928E-02 -0.68252E-02
 -0.34621E-02  0.18171E-02 -0.68252E-02
 -0.37964E-02  0.93572E-03 -0.68252E-02
 -0.39100E-02 -0.47884E-18 -0.68252E-02
 -0.37964E-02 -0.93572E-03 -0.68252E-02
 -0.34621E-02 -0.18171E-02 -0.68252E-02
 -0.29267E-02 -0.25928E-02 -0.68252E-02
 -0.22211E-02 -0.32179E-02 -0.68252E-02
 -0.13865E-02 -0.36559E-02 -0.68252E-02
 -0.47130E-03 -0.38815E-02 -0.68252E-02
  0.47130E-03 -0.38815E-02 -0.68252E-02
  0.13865E-02 -0.36559E-02 -0.68252E-02
  0.22211E-02 -0.32179E-02 -0.68252E-02
  0.29267E-02 -0.25928E-02 -0.68252E-02
  0.34621E-02 -0.18171E-02 -0.68252E-02
  0.37964E-02 -0.93572E-03 -0.68252E-02
  0.10358E-02  0.68235E-03 -0.58460E-02
  0.17422E-02  0.12421E-02 -0.58460E-02
  0.23156E-02  0.60041E-03 -0.58460E-02
  0.16662E-02 -0.32493E-03 -0.58460E-02
  0.30373E-02  0.15500E-03 -0.58460E-02
  0.27849E-02 -0.66805E-03 -0.58460E-02
  0.12833E-02  0.18444E-02 -0.58460E-02
  0.64722E-03  0.14747E-02 -0.58460E-02
  0.12311E-03  0.31885E-03 -0.58460E-02
 -0.13137E-03  0.11970E-02 -0.58460E-02
  0.93937E-03  0.22770E-02 -0.58460E-02
  0.11269E-02  0.28211E-02 -0.58460E-02
  0.17424E-02  0.24262E-02 -0.58460E-02
  0.40496E-03  0.21691E-02 -0.58460E-02
  0.39750E-03  0.29322E-02 -0.58460E-02
 -0.76904E-03 -0.10057E-02 -0.58460E-02
 -0.86789E-03  0.92727E-04 -0.58460E-02
  0.45358E-03 -0.69084E-03 -0.58460E-02
 -0.18350E-02 -0.70957E-03 -0.58460E-02
 -0.18424E-02  0.84849E-04 -0.58460E-02
 -0.27233E-02 -0.77576E-03 -0.58460E-02
 -0.27981E-02  0.45359E-04 -0.58460E-02
 -0.25391E-02 -0.15186E-02 -0.58460E-02
 -0.19360E-02 -0.13212E-02 -0.58460E-02
 -0.99118E-03  0.10115E-02 -0.58460E-02
 -0.14440E-02 -0.17318E-02 -0.58460E-02
 -0.31234E-03  0.20268E-02 -0.58460E-02
 -0.11009E-02  0.18593E-02 -0.58460E-02
 -0.18836E-02  0.17175E-02 -0.58460E-02
 -0.18691E-02  0.91347E-03 -0.58460E-02
 -0.16339E-03 -0.19804E-02 -0.58460E-02
 -0.95106E-03 -0.23493E-02 -0.58460E-02
  0.77733E-03 -0.17073E-02 -0.58460E-02
  0.17204E-02 -0.14936E-02 -0.58460E-02
  0.32105E-02  0.77745E-03 -0.58460E-02
  0.28042E-02  0.12550E-02 -0.58460E-02
  0.23040E-02  0.18671E-02 -0.58460E-02
 -0.40379E-03  0.28856E-02 -0.58460E-02
 -0.12093E-02  0.27127E-02 -0.58460E-02
 -0.19441E-02  0.24604E-02 -0.58460E-02
 -0.25023E-02  0.22358E-02 -0.58460E-02
 -0.26356E-02  0.16503E-02 -0.58460E-02
 -0.27618E-02  0.87938E-03 -0.58460E-02
 -0.21147E-02 -0.21374E-02 -0.58460E-02
 -0.16094E-02 -0.26935E-02 -0.58460E-02
 -0.11958E-02 -0.31291E-02 -0.58460E-02
 -0.59235E-03 -0.30381E-02 -0.58460E-02
  0.20221E-03 -0.28750E-02 -0.58460E-02
  0.10533E-02 -0.26468E-02 -0.58460E-02
  0.18420E-02 -0.23742E-02 -0.58460E-02
  0.24565E-02 -0.21538E-02 -0.58460E-02
  0.26034E-02 -0.15086E-02 -0.58460E-02
  0.37964E-02  0.93572E-03 -0.58460E-02
  0.39100E-02  0.00000E+00 -0.58460E-02
  0.34621E-02  0.18171E-02 -0.58460E-02
  0.29267E-02  0.25928E-02 -0.58460E-02
  0.22211E-02  0.32179E-02 -0.58460E-02
  0.13865E-02  0.36559E-02 -0.58460E-02
  0.47130E-03  0.38815E-02 -0.58460E-02
 -0.47130E-03  0.38815E-02 -0.58460E-02
 -0.13865E-02  0.36559E-02 -0.58460E-02
 -0.22211E-02  0.32179E-02 -0.58460E-02
 -0.29267E-02  0.25928E-02 -0.58460E-02
 -0.34621E-02  0.18171E-02 -0.58460E-02
 -0.37964E-02  0.93572E-03 -0.58460E-02
 -0.39100E-02 -0.47884E-18 -0.58460E-02
 -0.37964E-02 -0.93572E-03 -0.58460E-02
 -0.34621E-02 -0.18171E-02 -0.58460E-02
 -0.29267E-02 -0.25928E-02 -0.58460E-02
 -0.22211E-02 -0.32179E-02 -0.58460E-02
 -0.13865E-02 -0.36559E-02 -0.58460E-02
 -0.47130E-03 -0.38815E-02 -0.58460E-02
  0.47130E-03 -0.38815E-02 -0.58460E-02
  0.13865E-02 -0.36559E-02 -0.58460E-02
  0.22211E-02 -0.32179E-02 -0.58460E-02
  0.29267E-02 -0.25928E-02 -0.58460E-02
  0.34621E-02 -0.18171E-02 -0.58460E-02
  0.37964E-02 -0.93572E-03 -0.58460E-02
  0.10357E-02  0.68290E-03 -0.48668E-02
  0.17420E-02  0.12427E-02 -0.48668E-02
  0.23155E-02  0.60093E-03 -0.48668E-02
  0.16660E-02 -0.32417E-03 -0.48668E-02
  0.30372E-02  0.15536E-03 -0.48668E-02
  0.27853E-02 -0.66755E-03 -0.48668E-02
  0.12832E-02  0.18445E-02 -0.48668E-02
  0.64698E-03  0.14757E-02 -0.48668E-02
  0.12285E-03  0.32000E-03 -0.48668E-02
 -0.13155E-03  0.11987E-02 -0.48668E-02
  0.93903E-03  0.22771E-02 -0.48668E-02
  0.11266E-02  0.28207E-02 -0.48668E-02
  0.17420E-02  0.24264E-02 -0.48668E-02
  0.40490E-03  0.21691E-02 -0.48668E-02
  0.39749E-03  0.29319E-02 -0.48668E-02
 -0.76940E-03 -0.10058E-02 -0.48668E-02
 -0.86800E-03  0.93536E-04 -0.48668E-02
  0.45313E-03 -0.69011E-03 -0.48668E-02
 -0.18353E-02 -0.70943E-03 -0.48668E-02
 -0.18423E-02  0.84973E-04 -0.48668E-02
 -0.27233E-02 -0.77559E-03 -0.48668E-02
 -0.27979E-02  0.45633E-04 -0.48668E-02
 -0.25393E-02 -0.15186E-02 -0.48668E-02
 -0.19365E-02 -0.13212E-02 -0.48668E-02
 -0.99104E-03  0.10129E-02 -0.48668E-02
 -0.14443E-02 -0.17318E-02 -0.48668E-02
 -0.31214E-03  0.20271E-02 -0.48668E-02
 -0.11006E-02  0.18592E-02 -0.48668E-02
 -0.18836E-02  0.17175E-02 -0.48668E-02
 -0.18690E-02  0.91371E-03 -0.48668E-02
 -0.16366E-03 -0.19805E-02 -0.48668E-02
 -0.95166E-03 -0.23493E-02 -0.48668E-02
  0.77667E-03 -0.17073E-02 -0.48668E-02
  0.17203E-02 -0.14938E-02 -0.48668E-02
  0.32109E-02  0.77846E-03 -0.48668E-02
  0.28042E-02  0.12554E-02 -0.48668E-02
  0.23039E-02  0.18672E-02 -0.48668E-02
 -0.40365E-03  0.28845E-02 -0.48668E-02
 -0.12093E-02  0.27122E-02 -0.48668E-02
 -0.19441E-02  0.24602E-02 -0.48668E-02
 -0.25023E-02  0.22358E-02 -0.48668E-02
 -0.26355E-02  0.16502E-02 -0.48668E-02
 -0.27615E-02  0.87964E-03 -0.48668E-02
 -0.21148E-02 -0.21374E-02 -0.48668E-02
 -0.16095E-02 -0.26935E-02 -0.48668E-02
 -0.11960E-02 -0.31291E-02 -0.48668E-02
 -0.59270E-03 -0.30381E-02 -0.48668E-02
  0.20180E-03 -0.28750E-02 -0.48668E-02
  0.10530E-02 -0.26471E-02 -0.48668E-02
  0.18421E-02 -0.23744E-02 -0.48668E-02
  0.24566E-02 -0.21543E-02 -0.48668E-02
  0.26035E-02 -0.15085E-02 -0.48668E-02
  0.37964E-02  0.93572E-03 -0.48668E-02
  0.39100E-02  0.00000E+00 -0.48668E-02
  0.34621E-02  0.18171E-02 -0.48668E-02
  0.29267E-02  0.25928E-02 -0.48668E-02
  0.22211E-02  0.32179E-02 -0.48668E-02
  0.13865E-02  0.36559E-02 -0.48668E-02
  0.47130E-03  0.38815E-02 -0.48668E-02
 -0.47130E-03  0.38815E-02 -0.48668E-02
 -0.13865E-02  0.36559E-02 -0.48668E-02
 -0.22211E-02  0.32179E-02 -0.48668E-02
 -0.29267E-02  0.25928E-02 -0.48668E-02
 -0.34621E-02  0.18171E-02 -0.48668E-02
 -0.37964E-02  0.93572E-03 -0.48668E-02
 -0.39100E-02 -0.47884E-18 -0.48668E-02
 -0.37964E-02 -0.93572E-03 -0.48668E-02
 -0.34621E-02 -0.18171E-02 -0.48668E-02
 -0.29267E-02 -0.25928E-02 -0.48668E-02
 -0.22211E-02 -0.32179E-02 -0.48668E-02
 -0.13865E-02 -0.36559E-02 -0.48668E-02
 -0.47130E-03 -0.38815E-02 -0.48668E-02
  0.47130E-03 -0.38815E-02 -0.48668E-02
  0.13865E-02 -0.36559E-02 -0.48668E-02
  0.22211E-02 -0.32179E-02 -0.48668E-02
  0.29267E-02 -0.25928E-02 -0.48668E-02
  0.34621E-02 -0.18171E-02 -0.48668E-02
  0.37964E-02 -0.93572E-03 -0.48668E-02
  0.10356E-02  0.68346E-03 -0.38877E-02
  0.17418E-02  0.12434E-02 -0.38877E-02
  0.23153E-02  0.60145E-03 -0.38877E-02
  0.16657E-02 -0.32342E-03 -0.38877E-02
  0.30372E-02  0.15572E-03 -0.38877E-02
  0.27856E-02 -0.66706E-03 -0.38877E-02
  0.12830E-02  0.18447E-02 -0.38877E-02
  0.64673E-03  0.14767E-02 -0.38877E-02
  0.12259E-03  0.32115E-03 -0.38877E-02
 -0.13174E-03  0.12005E-02 -0.38877E-02
  0.93870E-03  0.22772E-02 -0.38877E-02
  0.11262E-02  0.28203E-02 -0.38877E-02
  0.17416E-02  0.24265E-02 -0.38877E-02
  0.40485E-03  0.21691E-02 -0.38877E-02
  0.39747E-03  0.29316E-02 -0.38877E-02
 -0.76975E-03 -0.10060E-02 -0.38877E-02
 -0.86811E-03  0.94345E-04 -0.38877E-02
  0.45268E-03 -0.68939E-03 -0.38877E-02
 -0.18356E-02 -0.70929E-03 -0.38877E-02
 -0.18422E-02  0.85096E-04 -0.38877E-02
 -0.27233E-02 -0.77542E-03 -0.38877E-02
 -0.27976E-02  0.45906E-04 -0.38877E-02
 -0.25394E-02 -0.15185E-02 -0.38877E-02
 -0.19369E-02 -0.13211E-02 -0.38877E-02
 -0.99090E-03  0.10142E-02 -0.38877E-02
 -0.14446E-02 -0.17317E-02 -0.38877E-02
 -0.31194E-03  0.20274E-02 -0.38877E-02
 -0.11002E-02  0.18590E-02 -0.38877E-02
 -0.18835E-02  0.17175E-02 -0.38877E-02
 -0.18689E-02  0.91395E-03 -0.38877E-02
 -0.16394E-03 -0.19805E-02 -0.38877E-02
 -0.95226E-03 -0.23494E-02 -0.38877E-02
  0.77601E-03 -0.17073E-02 -0.38877E-02
  0.17203E-02 -0.14941E-02 -0.38877E-02
  0.32112E-02  0.77946E-03 -0.38877E-02
  0.28042E-02  0.12558E-02 -0.38877E-02
  0.23038E-02  0.18672E-02 -0.38877E-02
 -0.40352E-03  0.28835E-02 -0.38877E-02
 -0.12093E-02  0.27118E-02 -0.38877E-02
 -0.19441E-02  0.24600E-02 -0.38877E-02
 -0.25023E-02  0.22358E-02 -0.38877E-02
 -0.26354E-02  0.16502E-02 -0.38877E-02
 -0.27612E-02  0.87990E-03 -0.38877E-02
 -0.21150E-02 -0.21374E-02 -0.38877E-02
 -0.16095E-02 -0.26935E-02 -0.38877E-02
 -0.11961E-02 -0.31291E-02 -0.38877E-02
 -0.59305E-03 -0.30381E-02 -0.38877E-02
  0.20140E-03 -0.28750E-02 -0.38877E-02
  0.10527E-02 -0.26474E-02 -0.38877E-02
  0.18421E-02 -0.23746E-02 -0.38877E-02
  0.24568E-02 -0.21549E-02 -0.38877E-02
  0.26036E-02 -0.15084E-02 -0.38877E-02
  0.37964E-02  0.93572E-03 -0.38877E-02
  0.39100E-02  0.00000E+00 -0.38877E-02
  0.34621E-02  0.18171E-02 -0.38877E-02
  0.29267E-02  0.25928E-02 -0.38877E-02
  0.22211E-02  0.32179E-02 -0.38877E-02
  0.13865E-02  0.36559E-02 -0.38877E-02
  0.47130E-03  0.38815E-02 -0.38877E-02
 -0.47130E-03  0.38815E-02 -0.38877E-02
 -0.13865E-02  0.36559E-02 -0.38877E-02
 -0.22211E-02  0.32179E-02 -0.38877E-02
 -0.29267E-02  0.25928E-02 -0.38877E-02
 -0.34621E-02  0.18171E-02 -0.38877E-02
 -0.37964E-02  0.93572E-03 -0.38877E-02
 -0.39100E-02  0.22152E-17 -0.38877E-02
 -0.37964E-02 -0.93572E-03 -0.38877E-02
 -0.34621E-02 -0.18171E-02 -0.38877E-02
 -0.29267E-02 -0.25928E-02 -0.38877E-02
 -0.22211E-02 -0.32179E-02 -0.38877E-02
 -0.13865E-02 -0.36559E-02 -0.38877E-02
 -0.47130E-03 -0.38815E-02 -0.38877E-02
  0.47130E-03 -0.38815E-02 -0.38877E-02
  0.13865E-02 -0.36559E-02 -0.38877E-02
  0.22211E-02 -0.32179E-02 -0.38877E-02
  0.29267E-02 -0.25928E-02 -0.38877E-02
  0.34621E-02 -0.18171E-02 -0.38877E-02
  0.37964E-02 -0.93572E-03 -0.38877E-02
  0.10355E-02  0.68401E-03 -0.29085E-02
  0.17416E-02  0.12440E-02 -0.29085E-02
  0.23152E-02  0.60198E-03 -0.29085E-02
  0.16655E-02 -0.32266E-03 -0.29085E-02
  0.30372E-02  0.15609E-03 -0.29085E-02
  0.27860E-02 -0.66657E-03 -0.29085E-02
  0.12829E-02  0.18449E-02 -0.29085E-02
  0.64649E-03  0.14777E-02 -0.29085E-02
  0.12232E-03  0.32230E-03 -0.29085E-02
 -0.13193E-03  0.12022E-02 -0.29085E-02
  0.93837E-03  0.22774E-02 -0.29085E-02
  0.11259E-02  0.28198E-02 -0.29085E-02
  0.17412E-02  0.24267E-02 -0.29085E-02
  0.40480E-03  0.21692E-02 -0.29085E-02
  0.39745E-03  0.29314E-02 -0.29085E-02
 -0.77011E-03 -0.10061E-02 -0.29085E-02
 -0.86822E-03  0.95155E-04 -0.29085E-02
  0.45223E-03 -0.68866E-03 -0.29085E-02
 -0.18359E-02 -0.70915E-03 -0.29085E-02
 -0.18421E-02  0.85220E-04 -0.29085E-02
 -0.27232E-02 -0.77525E-03 -0.29085E-02
 -0.27973E-02  0.46180E-04 -0.29085E-02
 -0.25396E-02 -0.15185E-02 -0.29085E-02
 -0.19373E-02 -0.13210E-02 -0.29085E-02
 -0.99075E-03  0.10156E-02 -0.29085E-02
 -0.14450E-02 -0.17317E-02 -0.29085E-02
 -0.31173E-03  0.20277E-02 -0.29085E-02
 -0.10999E-02  0.18589E-02 -0.29085E-02
 -0.18835E-02  0.17175E-02 -0.29085E-02
 -0.18687E-02  0.91419E-03 -0.29085E-02
 -0.16421E-03 -0.19805E-02 -0.29085E-02
 -0.95285E-03 -0.23494E-02 -0.29085E-02
  0.77535E-03 -0.17073E-02 -0.29085E-02
  0.17202E-02 -0.14943E-02 -0.29085E-02
  0.32115E-02  0.78047E-03 -0.29085E-02
  0.28041E-02  0.12563E-02 -0.29085E-02
  0.23037E-02  0.18672E-02 -0.29085E-02
 -0.40338E-03  0.28824E-02 -0.29085E-02
 -0.12093E-02  0.27113E-02 -0.29085E-02
 -0.19440E-02  0.24597E-02 -0.29085E-02
 -0.25023E-02  0.22358E-02 -0.29085E-02
 -0.26353E-02  0.16502E-02 -0.29085E-02
 -0.27609E-02  0.88016E-03 -0.29085E-02
 -0.21151E-02 -0.21374E-02 -0.29085E-02
 -0.16096E-02 -0.26935E-02 -0.29085E-02
 -0.11962E-02 -0.31291E-02 -0.29085E-02
 -0.59340E-03 -0.30381E-02 -0.29085E-02
  0.20099E-03 -0.28751E-02 -0.29085E-02
  0.10524E-02 -0.26476E-02 -0.29085E-02
  0.18422E-02 -0.23748E-02 -0.29085E-02
  0.24569E-02 -0.21554E-02 -0.29085E-02
  0.26036E-02 -0.15083E-02 -0.29085E-02
  0.37964E-02  0.93572E-03 -0.29085E-02
  0.39100E-02  0.00000E+00 -0.29085E-02
  0.34621E-02  0.18171E-02 -0.29085E-02
  0.29267E-02  0.25928E-02 -0.29085E-02
  0.22211E-02  0.32179E-02 -0.29085E-02
  0.13865E-02  0.36559E-02 -0.29085E-02
  0.47130E-03  0.38815E-02 -0.29085E-02
 -0.47130E-03  0.38815E-02 -0.29085E-02
 -0.13865E-02  0.36559E-02 -0.29085E-02
 -0.22211E-02  0.32179E-02 -0.29085E-02
 -0.29267E-02  0.25928E-02 -0.29085E-02
 -0.34621E-02  0.18171E-02 -0.29085E-02
 -0.37964E-02  0.93572E-03 -0.29085E-02
 -0.39100E-02 -0.47884E-18 -0.29085E-02
 -0.37964E-02 -0.93572E-03 -0.29085E-02
 -0.34621E-02 -0.18171E-02 -0.29085E-02
 -0.29267E-02 -0.25928E-02 -0.29085E-02
 -0.22211E-02 -0.32179E-02 -0.29085E-02
 -0.13865E-02 -0.36559E-02 -0.29085E-02
 -0.47130E-03 -0.38815E-02 -0.29085E-02
  0.47130E-03 -0.38815E-02 -0.29085E-02
  0.13865E-02 -0.36559E-02 -0.29085E-02
  0.22211E-02 -0.32179E-02 -0.29085E-02
  0.29267E-02 -0.25928E-02 -0.29085E-02
  0.34621E-02 -0.18171E-02 -0.29085E-02
  0.37964E-02 -0.93572E-03 -0.29085E-02
  0.10354E-02  0.68457E-03 -0.19293E-02
  0.17414E-02  0.12447E-02 -0.19293E-02
  0.23151E-02  0.60250E-03 -0.19293E-02
  0.16653E-02 -0.32191E-03 -0.19293E-02
  0.30372E-02  0.15645E-03 -0.19293E-02
  0.27863E-02 -0.66607E-03 -0.19293E-02
  0.12829E-02  0.18451E-02 -0.19293E-02
  0.64624E-03  0.14787E-02 -0.19293E-02
  0.12206E-03  0.32345E-03 -0.19293E-02
 -0.13211E-03  0.12040E-02 -0.19293E-02
  0.93804E-03  0.22775E-02 -0.19293E-02
  0.11255E-02  0.28194E-02 -0.19293E-02
  0.17408E-02  0.24268E-02 -0.19293E-02
  0.40474E-03  0.21692E-02 -0.19293E-02
  0.39744E-03  0.29311E-02 -0.19293E-02
 -0.77046E-03 -0.10062E-02 -0.19293E-02
 -0.86832E-03  0.95964E-04 -0.19293E-02
  0.45179E-03 -0.68793E-03 -0.19293E-02
 -0.18362E-02 -0.70901E-03 -0.19293E-02
 -0.18420E-02  0.85343E-04 -0.19293E-02
 -0.27232E-02 -0.77507E-03 -0.19293E-02
 -0.27970E-02  0.46453E-04 -0.19293E-02
 -0.25397E-02 -0.15184E-02 -0.19293E-02
 -0.19377E-02 -0.13209E-02 -0.19293E-02
 -0.99061E-03  0.10169E-02 -0.19293E-02
 -0.14453E-02 -0.17316E-02 -0.19293E-02
 -0.31153E-03  0.20280E-02 -0.19293E-02
 -0.10995E-02  0.18588E-02 -0.19293E-02
 -0.18834E-02  0.17175E-02 -0.19293E-02
 -0.18686E-02  0.91443E-03 -0.19293E-02
 -0.16449E-03 -0.19806E-02 -0.19293E-02
 -0.95345E-03 -0.23494E-02 -0.19293E-02
  0.77469E-03 -0.17073E-02 -0.19293E-02
  0.17202E-02 -0.14945E-02 -0.19293E-02
  0.32119E-02  0.78148E-03 -0.19293E-02
  0.28041E-02  0.12567E-02 -0.19293E-02
  0.23036E-02  0.18673E-02 -0.19293E-02
 -0.40324E-03  0.28813E-02 -0.19293E-02
 -0.12093E-02  0.27108E-02 -0.19293E-02
 -0.19440E-02  0.24595E-02 -0.19293E-02
 -0.25022E-02  0.22358E-02 -0.19293E-02
 -0.26352E-02  0.16502E-02 -0.19293E-02
 -0.27606E-02  0.88043E-03 -0.19293E-02
 -0.21152E-02 -0.21374E-02 -0.19293E-02
 -0.16096E-02 -0.26936E-02 -0.19293E-02
 -0.11963E-02 -0.31291E-02 -0.19293E-02
 -0.59375E-03 -0.30381E-02 -0.19293E-02
  0.20059E-03 -0.28751E-02 -0.19293E-02
  0.10521E-02 -0.26479E-02 -0.19293E-02
  0.18422E-02 -0.23750E-02 -0.19293E-02
  0.24570E-02 -0.21560E-02 -0.19293E-02
  0.26037E-02 -0.15082E-02 -0.19293E-02
  0.37964E-02  0.93572E-03 -0.19293E-02
  0.39100E-02  0.00000E+00 -0.19293E-02
  0.34621E-02  0.18171E-02 -0.19293E-02
  0.29267E-02  0.25928E-02 -0.19293E-02
  0.22211E-02  0.32179E-02 -0.19293E-02
  0.13865E-02  0.36559E-02 -0.19293E-02
  0.47130E-03  0.38815E-02 -0.19293E-02
 -0.47130E-03  0.38815E-02 -0.19293E-02
 -0.13865E-02  0.36559E-02 -0.19293E-02
 -0.22211E-02  0.32179E-02 -0.19293E-02
 -0.29267E-02  0.25928E-02 -0.19293E-02
 -0.34621E-02  0.18171E-02 -0.19293E-02
 -0.37964E-02  0.93572E-03 -0.19293E-02
 -0.39100E-02 -0.47884E-18 -0.19293E-02
 -0.37964E-02 -0.93572E-03 -0.19293E-02
 -0.34621E-02 -0.18171E-02 -0.19293E-02
 -0.29267E-02 -0.25928E-02 -0.19293E-02
 -0.22211E-02 -0.32179E-02 -0.19293E-02
 -0.13865E-02 -0.36559E-02 -0.19293E-02
 -0.47130E-03 -0.38815E-02 -0.19293E-02
  0.47130E-03 -0.38815E-02 -0.19293E-02
  0.13865E-02 -0.36559E-02 -0.19293E-02
  0.22211E-02 -0.32179E-02 -0.19293E-02
  0.29267E-02 -0.25928E-02 -0.19293E-02
  0.34621E-02 -0.18171E-02 -0.19293E-02
  0.37964E-02 -0.93572E-03 -0.19293E-02
  0.10352E-02  0.68512E-03 -0.95019E-03
  0.17413E-02  0.12454E-02 -0.95019E-03
  0.23150E-02  0.60302E-03 -0.95019E-03
  0.16651E-02 -0.32115E-03 -0.95019E-03
  0.30371E-02  0.15681E-03 -0.95019E-03
  0.27866E-02 -0.66558E-03 -0.95019E-03
  0.12827E-02  0.18453E-02 -0.95019E-03
  0.64600E-03  0.14797E-02 -0.95019E-03
  0.12180E-03  0.32459E-03 -0.95019E-03
 -0.13230E-03  0.12058E-02 -0.95019E-03
  0.93771E-03  0.22776E-02 -0.95019E-03
  0.11252E-02  0.28189E-02 -0.95019E-03
  0.17404E-02  0.24270E-02 -0.95019E-03
  0.40469E-03  0.21693E-02 -0.95019E-03
  0.39742E-03  0.29308E-02 -0.95019E-03
 -0.77081E-03 -0.10064E-02 -0.95019E-03
 -0.86843E-03  0.96773E-04 -0.95019E-03
  0.45134E-03 -0.68721E-03 -0.95019E-03
 -0.18365E-02 -0.70887E-03 -0.95019E-03
 -0.18419E-02  0.85467E-04 -0.95019E-03
 -0.27232E-02 -0.77490E-03 -0.95019E-03
 -0.27968E-02  0.46726E-04 -0.95019E-03
 -0.25399E-02 -0.15184E-02 -0.95019E-03
 -0.19382E-02 -0.13208E-02 -0.95019E-03
 -0.99046E-03  0.10183E-02 -0.95019E-03
 -0.14457E-02 -0.17316E-02 -0.95019E-03
 -0.31133E-03  0.20283E-02 -0.95019E-03
 -0.10992E-02  0.18586E-02 -0.95019E-03
 -0.18834E-02  0.17175E-02 -0.95019E-03
 -0.18685E-02  0.91467E-03 -0.95019E-03
 -0.16476E-03 -0.19806E-02 -0.95019E-03
 -0.95405E-03 -0.23494E-02 -0.95019E-03
  0.77402E-03 -0.17073E-02 -0.95019E-03
  0.17202E-02 -0.14948E-02 -0.95019E-03
  0.32122E-02  0.78248E-03 -0.95019E-03
  0.28041E-02  0.12571E-02 -0.95019E-03
  0.23034E-02  0.18673E-02 -0.95019E-03
 -0.40310E-03  0.28802E-02 -0.95019E-03
 -0.12093E-02  0.27103E-02 -0.95019E-03
 -0.19440E-02  0.24593E-02 -0.95019E-03
 -0.25022E-02  0.22358E-02 -0.95019E-03
 -0.26351E-02  0.16502E-02 -0.95019E-03
 -0.27602E-02  0.88069E-03 -0.95019E-03
 -0.21154E-02 -0.21374E-02 -0.95019E-03
 -0.16097E-02 -0.26936E-02 -0.95019E-03
 -0.11964E-02 -0.31291E-02 -0.95019E-03
 -0.59409E-03 -0.30381E-02 -0.95019E-03
  0.20018E-03 -0.28751E-02 -0.95019E-03
  0.10518E-02 -0.26482E-02 -0.95019E-03
  0.18422E-02 -0.23752E-02 -0.95019E-03
  0.24571E-02 -0.21565E-02 -0.95019E-03
  0.26038E-02 -0.15081E-02 -0.95019E-03
  0.37964E-02  0.93572E-03 -0.95019E-03
  0.39100E-02  0.00000E+00 -0.95019E-03
  0.34621E-02  0.18171E-02 -0.95019E-03
  0.29267E-02  0.25928E-02 -0.95019E-03
  0.22211E-02  0.32179E-02 -0.95019E-03
  0.13865E-02  0.36559E-02 -0.95019E-03
  0.47130E-03  0.38815E-02 -0.95019E-03
 -0.47130E-03  0.38815E-02 -0.95019E-03
 -0.13865E-02  0.36559E-02 -0.95019E-03
 -0.22211E-02  0.32179E-02 -0.95019E-03
 -0.29267E-02  0.25928E-02 -0.95019E-03
 -0.34621E-02  0.18171E-02 -0.95019E-03
 -0.37964E-02  0.93572E-03 -0.95019E-03
 -0.39100E-02 -0.47884E-18 -0.95019E-03
 -0.37964E-02 -0.93572E-03 -0.95019E-03
 -0.34621E-02 -0.18171E-02 -0.95019E-03
 -0.29267E-02 -0.25928E-02 -0.95019E-03
 -0.22211E-02 -0.32179E-02 -0.95019E-03
 -0.13865E-02 -0.36559E-02 -0.95019E-03
 -0.47130E-03 -0.38815E-02 -0.95019E-03
  0.47130E-03 -0.38815E-02 -0.95019E-03
  0.13865E-02 -0.36559E-02 -0.95019E-03
  0.22211E-02 -0.32179E-02 -0.95019E-03
  0.29267E-02 -0.25928E-02 -0.95019E-03
  0.34621E-02 -0.18171E-02 -0.95019E-03
  0.37964E-02 -0.93572E-03 -0.95019E-03
  0.10351E-02  0.68567E-03  0.29011E-04
  0.17411E-02  0.12460E-02  0.29011E-04
  0.23149E-02  0.60355E-03  0.29011E-04
  0.16649E-02 -0.32040E-03  0.29011E-04
  0.30371E-02  0.15718E-03  0.29011E-04
  0.27870E-02 -0.66509E-03  0.29011E-04
  0.12826E-02  0.18455E-02  0.29011E-04
  0.64575E-03  0.14807E-02  0.29011E-04
  0.12154E-03  0.32574E-03  0.29011E-04
 -0.13248E-03  0.12075E-02  0.29011E-04
  0.93738E-03  0.22777E-02  0.29011E-04
  0.11249E-02  0.28185E-02  0.29011E-04
  0.17400E-02  0.24271E-02  0.29011E-04
  0.40463E-03  0.21693E-02  0.29011E-04
  0.39740E-03  0.29306E-02  0.29011E-04
 -0.77117E-03 -0.10065E-02  0.29011E-04
 -0.86854E-03  0.97583E-04  0.29011E-04
  0.45089E-03 -0.68648E-03  0.29011E-04
 -0.18368E-02 -0.70873E-03  0.29011E-04
 -0.18418E-02  0.85591E-04  0.29011E-04
 -0.27232E-02 -0.77474E-03  0.29011E-04
 -0.27965E-02  0.47000E-04  0.29011E-04
 -0.25400E-02 -0.15183E-02  0.29011E-04
 -0.19386E-02 -0.13207E-02  0.29011E-04
 -0.99032E-03  0.10197E-02  0.29011E-04
 -0.14460E-02 -0.17316E-02  0.29011E-04
 -0.31113E-03  0.20285E-02  0.29011E-04
 -0.10988E-02  0.18585E-02  0.29011E-04
 -0.18833E-02  0.17175E-02  0.29011E-04
 -0.18683E-02  0.91491E-03  0.29011E-04
 -0.16504E-03 -0.19806E-02  0.29011E-04
 -0.95465E-03 -0.23495E-02  0.29011E-04
  0.77336E-03 -0.17073E-02  0.29011E-04
  0.17201E-02 -0.14950E-02  0.29011E-04
  0.32125E-02  0.78348E-03  0.29011E-04
  0.28041E-02  0.12576E-02  0.29011E-04
  0.23033E-02  0.18674E-02  0.29011E-04
 -0.40296E-03  0.28792E-02  0.29011E-04
 -0.12093E-02  0.27099E-02  0.29011E-04
 -0.19439E-02  0.24591E-02  0.29011E-04
 -0.25022E-02  0.22358E-02  0.29011E-04
 -0.26350E-02  0.16502E-02  0.29011E-04
 -0.27599E-02  0.88095E-03  0.29011E-04
 -0.21155E-02 -0.21374E-02  0.29011E-04
 -0.16097E-02 -0.26936E-02  0.29011E-04
 -0.11965E-02 -0.31290E-02  0.29011E-04
 -0.59444E-03 -0.30381E-02  0.29011E-04
  0.19977E-03 -0.28751E-02  0.29011E-04
  0.10515E-02 -0.26484E-02  0.29011E-04
  0.18423E-02 -0.23754E-02  0.29011E-04
  0.24573E-02 -0.21571E-02  0.29011E-04
  0.26039E-02 -0.15080E-02  0.29011E-04
  0.37964E-02  0.93572E-03  0.29011E-04
  0.39100E-02  0.00000E+00  0.29011E-04
  0.34621E-02  0.18171E-02  0.29011E-04
  0.29267E-02  0.25928E-02  0.29011E-04
  0.22211E-02  0.32179E-02  0.29011E-04
  0.13865E-02  0.36559E-02  0.29011E-04
  0.47130E-03  0.38815E-02  0.29011E-04
 -0.47130E-03  0.38815E-02  0.29011E-04
 -0.13865E-02  0.36559E-02  0.29011E-04
 -0.22211E-02  0.32179E-02  0.29011E-04
 -0.29267E-02  0.25928E-02  0.29011E-04
 -0.34621E-02  0.18171E-02  0.29011E-04
 -0.37964E-02  0.93572E-03  0.29011E-04
 -0.39100E-02  0.47884E-18  0.29011E-04
 -0.37964E-02 -0.93572E-03  0.29011E-04
 -0.34621E-02 -0.18171E-02  0.29011E-04
 -0.29267E-02 -0.25928E-02  0.29011E-04
 -0.22211E-02 -0.32179E-02  0.29011E-04
 -0.13865E-02 -0.36559E-02  0.29011E-04
 -0.47130E-03 -0.38815E-02  0.29011E-04
  0.47130E-03 -0.38815E-02  0.29011E-04
  0.13865E-02 -0.36559E-02  0.29011E-04
  0.22211E-02 -0.32179E-02  0.29011E-04
  0.29267E-02 -0.25928E-02  0.29011E-04
  0.34621E-02 -0.18171E-02  0.29011E-04
  0.37964E-02 -0.93572E-03  0.29011E-04
  
CELLS       3486               17724
       1       0
       1       1
       1       2
       1       3
       1       4
       1       5
       1       6
       1       7
       1       8
       1       9
       1      10
       1      11
       1      12
       1      13
       1      14
       1      15
       1      16
       1      17
       1      18
       1      19
       1      20
       1      21
       1      22
       1      23
       1      24
       1      25
       1      26
       1      27
       1      28
       1      29
       1      30
       1      31
       1      32
       1      33
       1      34
       1      35
       1      36
       1      37
       1      38
       1      39
       1      40
       1      41
       1      42
       1      43
       1      44
       1      45
       1      46
       1      47
       1      48
       1      49
       1      50
       1      51
       1      52
       1      53
       1      54
       1      55
       1      56
       1      57
       1      58
       1      59
       1      60
       1      61
       1      62
       1      63
       1      64
       1      65
       1      66
       1      67
       1      68
       1      69
       1      70
       1      71
       1      72
       1      73
       1      74
       1      75
       1      76
       1      77
       1      78
       1      79
       1      80
       1      81
       1      82
       1      83
       1      84
       1      85
       1      86
       1      87
       1      88
       1      89
       1      90
       1      91
       1      92
       1      93
       1      94
       1      95
       1      96
       1      97
       1      98
       1      99
       1     100
       1     101
       1     102
       1     103
       1     104
       1     105
       1     106
       1     107
       1     108
       1     109
       1     110
       1     111
       1     112
       1     113
       1     114
       1     115
       1     116
       1     117
       1     118
       1     119
       1     120
       1     121
       1     122
       1     123
       1     124
       1     125
       1     126
       1     127
       1     128
       1     129
       1     130
       1     131
       1     132
       1     133
       1     134
       1     135
       1     136
       1     137
       1     138
       1     139
       1     140
       1     141
       1     142
       1     143
       1     144
       1     145
       1     146
       1     147
       1     148
       1     149
       1     150
       1     151
       1     152
       1     153
       1     154
       1     155
       1     156
       1     157
       1     158
       1     159
       1     160
       1     161
       1     162
       1     163
       1     164
       1     165
       1     166
       1     167
       1     168
       1     169
       1     170
       1     171
       1     172
       1     173
       1     174
       1     175
       1     176
       1     177
       1     178
       1     179
       1     180
       1     181
       1     182
       1     183
       1     184
       1     185
       1     186
       1     187
       1     188
       1     189
       1     190
       1     191
       1     192
       1     193
       1     194
       1     195
       1     196
       1     197
       1     198
       1     199
       1     200
       1     201
       1     202
       1     203
       1     204
       1     205
       1     206
       1     207
       1     208
       1     209
       1     210
       1     211
       1     212
       1     213
       1     214
       1     215
       1     216
       1     217
       1     218
       1     219
       1     220
       1     221
       1     222
       1     223
       1     224
       1     225
       1     226
       1     227
       1     228
       1     229
       1     230
       1     231
       1     232
       1     233
       1     234
       1     235
       1     236
       1     237
       1     238
       1     239
       1     240
       1     241
       1     242
       1     243
       1     244
       1     245
       1     246
       1     247
       1     248
       1     249
       1     250
       1     251
       1     252
       1     253
       1     254
       1     255
       1     256
       1     257
       1     258
       1     259
       1     260
       1     261
       1     262
       1     263
       1     264
       1     265
       1     266
       1     267
       1     268
       1     269
       1     270
       1     271
       1     272
       1     273
       1     274
       1     275
       1     276
       1     277
       1     278
       1     279
       1     280
       1     281
       1     282
       1     283
       1     284
       1     285
       1     286
       1     287
       1     288
       1     289
       1     290
       1     291
       1     292
       1     293
       1     294
       1     295
       1     296
       1     297
       1     298
       1     299
       1     300
       1     301
       1     302
       1     303
       1     304
       1     305
       1     306
       1     307
       1     308
       1     309
       1     310
       1     311
       1     312
       1     313
       1     314
       1     315
       1     316
       1     317
       1     318
       1     319
       1     320
       1     321
       1     322
       1     323
       1     324
       1     325
       1     326
       1     327
       1     328
       1     329
       1     330
       1     331
       1     332
       1     333
       1     334
       1     335
       1     336
       1     337
       1     338
       1     339
       1     340
       1     341
       1     342
       1     343
       1     344
       1     345
       1     346
       1     347
       1     348
       1     349
       1     350
       1     351
       1     352
       1     353
       1     354
       1     355
       1     356
       1     357
       1     358
       1     359
       1     360
       1     361
       1     362
       1     363
       1     364
       1     365
       1     366
       1     367
       1     368
       1     369
       1     370
       1     371
       1     372
       1     373
       1     374
       1     375
       1     376
       1     377
       1     378
       1     379
       1     380
       1     381
       1     382
       1     383
       1     384
       1     385
       1     386
       1     387
       1     388
       1     389
       1     390
       1     391
       1     392
       1     393
       1     394
       1     395
       1     396
       1     397
       1     398
       1     399
       1     400
       1     401
       1     402
       1     403
       1     404
       1     405
       1     406
       1     407
       1     408
       1     409
       1     410
       1     411
       1     412
       1     413
       1     414
       1     415
       1     416
       1     417
       1     418
       1     419
       1     420
       1     421
       1     422
       1     423
       1     424
       1     425
       1     426
       1     427
       1     428
       1     429
       1     430
       1     431
       1     432
       1     433
       1     434
       1     435
       1     436
       1     437
       1     438
       1     439
       1     440
       1     441
       1     442
       1     443
       1     444
       1     445
       1     446
       1     447
       1     448
       1     449
       1     450
       1     451
       1     452
       1     453
       1     454
       1     455
       1     456
       1     457
       1     458
       1     459
       1     460
       1     461
       1     462
       1     463
       1     464
       1     465
       1     466
       1     467
       1     468
       1     469
       1     470
       1     471
       1     472
       1     473
       1     474
       1     475
       1     476
       1     477
       1     478
       1     479
       1     480
       1     481
       1     482
       1     483
       1     484
       1     485
       1     486
       1     487
       1     488
       1     489
       1     490
       1     491
       1     492
       1     493
       1     494
       1     495
       1     496
       1     497
       1     498
       1     499
       1     500
       1     501
       1     502
       1     503
       1     504
       1     505
       1     506
       1     507
       1     508
       1     509
       1     510
       1     511
       1     512
       1     513
       1     514
       1     515
       1     516
       1     517
       1     518
       1     519
       1     520
       1     521
       1     522
       1     523
       1     524
       1     525
       1     526
       1     527
       1     528
       1     529
       1     530
       1     531
       1     532
       1     533
       1     534
       1     535
       1     536
       1     537
       1     538
       1     539
       1     540
       1     541
       1     542
       1     543
       1     544
       1     545
       1     546
       1     547
       1     548
       1     549
       1     550
       1     551
       1     552
       1     553
       1     554
       1     555
       1     556
       1     557
       1     558
       1     559
       1     560
       1     561
       1     562
       1     563
       1     564
       1     565
       1     566
       1     567
       1     568
       1     569
       1     570
       1     571
       1     572
       1     573
       1     574
       1     575
       1     576
       1     577
       1     578
       1     579
       1     580
       1     581
       1     582
       1     583
       1     584
       1     585
       1     586
       1     587
       1     588
       1     589
       1     590
       1     591
       1     592
       1     593
       1     594
       1     595
       1     596
       1     597
       1     598
       1     599
       1     600
       1     601
       1     602
       1     603
       1     604
       1     605
       1     606
       1     607
       1     608
       1     609
       1     610
       1     611
       1     612
       1     613
       1     614
       1     615
       1     616
       1     617
       1     618
       1     619
       1     620
       1     621
       1     622
       1     623
       1     624
       1     625
       1     626
       1     627
       1     628
       1     629
       1     630
       1     631
       1     632
       1     633
       1     634
       1     635
       1     636
       1     637
       1     638
       1     639
       1     640
       1     641
       1     642
       1     643
       1     644
       1     645
       1     646
       1     647
       1     648
       1     649
       1     650
       1     651
       1     652
       1     653
       1     654
       1     655
       1     656
       1     657
       1     658
       1     659
       1     660
       1     661
       1     662
       1     663
       1     664
       1     665
       1     666
       1     667
       1     668
       1     669
       1     670
       1     671
       1     672
       1     673
       1     674
       1     675
       1     676
       1     677
       1     678
       1     679
       1     680
       1     681
       1     682
       1     683
       1     684
       1     685
       1     686
       1     687
       1     688
       1     689
       1     690
       1     691
       1     692
       1     693
       1     694
       1     695
       1     696
       1     697
       1     698
       1     699
       1     700
       1     701
       1     702
       1     703
       1     704
       1     705
       1     706
       1     707
       1     708
       1     709
       1     710
       1     711
       1     712
       1     713
       1     714
       1     715
       1     716
       1     717
       1     718
       1     719
       1     720
       1     721
       1     722
       1     723
       1     724
       1     725
       1     726
       1     727
       1     728
       1     729
       1     730
       1     731
       1     732
       1     733
       1     734
       1     735
       1     736
       1     737
       1     738
       1     739
       1     740
       1     741
       1     742
       1     743
       1     744
       1     745
       1     746
       1     747
       1     748
       1     749
       1     750
       1     751
       1     752
       1     753
       1     754
       1     755
       1     756
       1     757
       1     758
       1     759
       1     760
       1     761
       1     762
       1     763
       1     764
       1     765
       1     766
       1     767
       1     768
       1     769
       1     770
       1     771
       1     772
       1     773
       1     774
       1     775
       1     776
       1     777
       1     778
       1     779
       1     780
       1     781
       1     782
       1     783
       1     784
       1     785
       1     786
       1     787
       1     788
       1     789
       1     790
       1     791
       1     792
       1     793
       1     794
       1     795
       1     796
       1     797
       1     798
       1     799
       1     800
       1     801
       1     802
       1     803
       1     804
       1     805
       1     806
       1     807
       1     808
       1     809
       1     810
       1     811
       1     812
       1     813
       1     814
       1     815
       1     816
       1     817
       1     818
       1     819
       1     820
       1     821
       1     822
       1     823
       1     824
       1     825
       1     826
       1     827
       1     828
       1     829
       1     830
       1     831
       1     832
       1     833
       1     834
       1     835
       1     836
       1     837
       1     838
       1     839
       1     840
       1     841
       1     842
       1     843
       1     844
       1     845
       1     846
       1     847
       1     848
       1     849
       1     850
       1     851
       1     852
       1     853
       1     854
       1     855
       1     856
       1     857
       1     858
       1     859
       1     860
       1     861
       1     862
       1     863
       1     864
       1     865
       1     866
       1     867
       1     868
       1     869
       1     870
       1     871
       1     872
       1     873
       1     874
       1     875
       1     876
       1     877
       1     878
       1     879
       1     880
       1     881
       1     882
       1     883
       1     884
       1     885
       1     886
       1     887
       1     888
       1     889
       1     890
       1     891
       1     892
       1     893
       1     894
       1     895
       1     896
       1     897
       1     898
       1     899
       1     900
       1     901
       1     902
       1     903
       1     904
       1     905
       1     906
       1     907
       1     908
       1     909
       1     910
       1     911
       1     912
       1     913
       1     914
       1     915
       1     916
       1     917
       1     918
       1     919
       1     920
       1     921
       1     922
       1     923
       1     924
       1     925
       1     926
       1     927
       1     928
       1     929
       1     930
       1     931
       1     932
       1     933
       1     934
       1     935
       1     936
       1     937
       1     938
       1     939
       1     940
       1     941
       1     942
       1     943
       1     944
       1     945
       1     946
       1     947
       1     948
       1     949
       1     950
       1     951
       1     952
       1     953
       1     954
       1     955
       1     956
       1     957
       1     958
       1     959
       1     960
       1     961
       1     962
       1     963
       1     964
       1     965
       1     966
       1     967
       1     968
       1     969
       1     970
       1     971
       1     972
       1     973
       1     974
       1     975
       1     976
       1     977
       1     978
       1     979
       1     980
       1     981
       1     982
       1     983
       1     984
       1     985
       1     986
       1     987
       1     988
       1     989
       1     990
       1     991
       1     992
       1     993
       1     994
       1     995
       1     996
       1     997
       1     998
       1     999
       1    1000
       1    1001
       1    1002
       1    1003
       1    1004
       1    1005
       1    1006
       1    1007
       1    1008
       1    1009
       1    1010
       1    1011
       1    1012
       1    1013
       1    1014
       1    1015
       1    1016
       1    1017
       1    1018
       1    1019
       1    1020
       1    1021
       1    1022
       1    1023
       1    1024
       1    1025
       1    1026
       1    1027
       1    1028
       1    1029
       1    1030
       1    1031
       1    1032
       1    1033
       1    1034
       1    1035
       1    1036
       1    1037
       1    1038
       1    1039
       1    1040
       1    1041
       1    1042
       1    1043
       1    1044
       1    1045
       1    1046
       1    1047
       1    1048
       1    1049
       1    1050
       1    1051
       1    1052
       1    1053
       1    1054
       1    1055
       1    1056
       1    1057
       1    1058
       1    1059
       1    1060
       1    1061
       1    1062
       1    1063
       1    1064
       1    1065
       1    1066
       1    1067
       1    1068
       1    1069
       1    1070
       1    1071
       1    1072
       1    1073
       1    1074
       1    1075
       1    1076
       1    1077
       1    1078
       1    1079
       1    1080
       1    1081
       1    1082
       1    1083
       1    1084
       1    1085
       1    1086
       1    1087
       1    1088
       1    1089
       1    1090
       1    1091
       1    1092
       1    1093
       1    1094
       1    1095
       1    1096
       1    1097
       1    1098
       1    1099
       1    1100
       1    1101
       1    1102
       1    1103
       1    1104
       1    1105
       1    1106
       1    1107
       1    1108
       1    1109
       1    1110
       1    1111
       1    1112
       1    1113
       1    1114
       1    1115
       1    1116
       1    1117
       1    1118
       1    1119
       1    1120
       1    1121
       1    1122
       1    1123
       1    1124
       1    1125
       1    1126
       1    1127
       1    1128
       1    1129
       1    1130
       1    1131
       1    1132
       1    1133
       1    1134
       1    1135
       1    1136
       1    1137
       1    1138
       1    1139
       1    1140
       1    1141
       1    1142
       1    1143
       1    1144
       1    1145
       1    1146
       1    1147
       1    1148
       1    1149
       1    1150
       1    1151
       1    1152
       1    1153
       1    1154
       1    1155
       1    1156
       1    1157
       1    1158
       1    1159
       1    1160
       1    1161
       1    1162
       1    1163
       1    1164
       1    1165
       1    1166
       1    1167
       1    1168
       1    1169
       1    1170
       1    1171
       1    1172
       1    1173
       1    1174
       1    1175
       1    1176
       1    1177
       1    1178
       1    1179
       1    1180
       1    1181
       1    1182
       1    1183
       1    1184
       1    1185
       1    1186
       1    1187
       1    1188
       1    1189
       1    1190
       1    1191
       1    1192
       1    1193
       1    1194
       1    1195
       1    1196
       1    1197
       1    1198
       1    1199
       1    1200
       1    1201
       1    1202
       1    1203
       1    1204
       1    1205
       1    1206
       1    1207
       1    1208
       1    1209
       1    1210
       1    1211
       1    1212
       1    1213
       1    1214
       1    1215
       1    1216
       1    1217
       1    1218
       1    1219
       1    1220
       1    1221
       1    1222
       1    1223
       1    1224
       1    1225
       1    1226
       1    1227
       1    1228
       1    1229
       1    1230
       1    1231
       1    1232
       1    1233
       1    1234
       1    1235
       1    1236
       1    1237
       1    1238
       1    1239
       1    1240
       1    1241
       1    1242
       1    1243
       1    1244
       1    1245
       1    1246
       1    1247
       1    1248
       1    1249
       1    1250
       1    1251
       1    1252
       1    1253
       1    1254
       1    1255
       1    1256
       1    1257
       1    1258
       1    1259
       1    1260
       1    1261
       1    1262
       1    1263
       1    1264
       1    1265
       1    1266
       1    1267
       1    1268
       1    1269
       1    1270
       1    1271
       1    1272
       1    1273
       1    1274
       1    1275
       1    1276
       1    1277
       1    1278
       1    1279
       1    1280
       1    1281
       1    1282
       1    1283
       1    1284
       1    1285
       1    1286
       1    1287
       1    1288
       1    1289
       1    1290
       1    1291
       1    1292
       1    1293
       1    1294
       1    1295
       1    1296
       1    1297
       1    1298
       1    1299
       1    1300
       1    1301
       1    1302
       1    1303
       1    1304
       1    1305
       1    1306
       1    1307
       1    1308
       1    1309
       1    1310
       1    1311
       1    1312
       1    1313
       1    1314
       1    1315
       1    1316
       1    1317
       1    1318
       1    1319
       1    1320
       1    1321
       1    1322
       1    1323
       1    1324
       1    1325
       1    1326
       1    1327
       1    1328
       1    1329
       1    1330
       1    1331
       1    1332
       1    1333
       1    1334
       1    1335
       1    1336
       1    1337
       1    1338
       1    1339
       1    1340
       1    1341
       1    1342
       1    1343
       1    1344
       1    1345
       1    1346
       1    1347
       1    1348
       1    1349
       1    1350
       1    1351
       1    1352
       1    1353
       1    1354
       1    1355
       1    1356
       1    1357
       1    1358
       1    1359
       1    1360
       1    1361
       1    1362
       1    1363
       1    1364
       1    1365
       1    1366
       1    1367
       1    1368
       1    1369
       1    1370
       1    1371
       1    1372
       1    1373
       1    1374
       1    1375
       1    1376
       1    1377
       1    1378
       1    1379
       1    1380
       1    1381
       1    1382
       1    1383
       1    1384
       1    1385
       1    1386
       1    1387
       1    1388
       1    1389
       1    1390
       1    1391
       1    1392
       1    1393
       1    1394
       1    1395
       1    1396
       1    1397
       1    1398
       1    1399
       1    1400
       1    1401
       1    1402
       1    1403
       1    1404
       1    1405
       1    1406
       1    1407
       1    1408
       1    1409
       1    1410
       1    1411
       1    1412
       1    1413
       1    1414
       1    1415
       1    1416
       1    1417
       1    1418
       1    1419
       1    1420
       1    1421
       1    1422
       1    1423
       1    1424
       1    1425
       1    1426
       1    1427
       1    1428
       1    1429
       1    1430
       1    1431
       1    1432
       1    1433
       1    1434
       1    1435
       1    1436
       1    1437
       1    1438
       1    1439
       1    1440
       1    1441
       1    1442
       1    1443
       1    1444
       1    1445
       1    1446
       1    1447
       1    1448
       1    1449
       1    1450
       1    1451
       1    1452
       1    1453
       1    1454
       1    1455
       1    1456
       1    1457
       1    1458
       1    1459
       1    1460
       1    1461
       1    1462
       1    1463
       1    1464
       1    1465
       1    1466
       1    1467
       1    1468
       1    1469
       1    1470
       1    1471
       1    1472
       1    1473
       1    1474
       1    1475
       1    1476
       1    1477
       1    1478
       1    1479
       1    1480
       1    1481
       1    1482
       1    1483
       1    1484
       1    1485
       1    1486
       1    1487
       1    1488
       1    1489
       1    1490
       1    1491
       1    1492
       1    1493
       1    1494
       1    1495
       1    1496
       1    1497
       1    1498
       1    1499
       1    1500
       1    1501
       1    1502
       1    1503
       1    1504
       1    1505
       1    1506
       1    1507
       1    1508
       1    1509
       1    1510
       1    1511
       1    1512
       1    1513
       1    1514
       1    1515
       1    1516
       1    1517
       1    1518
       1    1519
       1    1520
       1    1521
       1    1522
       1    1523
       1    1524
       1    1525
       1    1526
       1    1527
       1    1528
       1    1529
       1    1530
       1    1531
       1    1532
       1    1533
       1    1534
       1    1535
       1    1536
       1    1537
       1    1538
       1    1539
       1    1540
       1    1541
       1    1542
       1    1543
       1    1544
       1    1545
       1    1546
       1    1547
       1    1548
       1    1549
       1    1550
       1    1551
       1    1552
       1    1553
       1    1554
       1    1555
       1    1556
       1    1557
       1    1558
       1    1559
       1    1560
       1    1561
       1    1562
       1    1563
       1    1564
       1    1565
       1    1566
       1    1567
       1    1568
       1    1569
       1    1570
       1    1571
       1    1572
       1    1573
       1    1574
       1    1575
       1    1576
       1    1577
       1    1578
       1    1579
       1    1580
       1    1581
       1    1582
       1    1583
       1    1584
       1    1585
       1    1586
       1    1587
       1    1588
       1    1589
       1    1590
       1    1591
       1    1592
       1    1593
       1    1594
       1    1595
       1    1596
       1    1597
       1    1598
       1    1599
       1    1600
       1    1601
       1    1602
       1    1603
       1    1604
       1    1605
       1    1606
       1    1607
       1    1608
       1    1609
       1    1610
       1    1611
       1    1612
       1    1613
       1    1614
       1    1615
       1    1616
       1    1617
       1    1618
       1    1619
       1    1620
       1    1621
       1    1622
       1    1623
       1    1624
       1    1625
       1    1626
       1    1627
       1    1628
       1    1629
       1    1630
       1    1631
       1    1632
       1    1633
       1    1634
       1    1635
       1    1636
       1    1637
       1    1638
       1    1639
       1    1640
       1    1641
       1    1642
       1    1643
       1    1644
       1    1645
       1    1646
       1    1647
       1    1648
       1    1649
       1    1650
       1    1651
       1    1652
       1    1653
       1    1654
       1    1655
       1    1656
       1    1657
       1    1658
       1    1659
       1    1660
       1    1661
       1    1662
       1    1663
       1    1664
       1    1665
       1    1666
       1    1667
       1    1668
       1    1669
       1    1670
       1    1671
       1    1672
       1    1673
       1    1674
       1    1675
       1    1676
       1    1677
       1    1678
       1    1679
       1    1680
       1    1681
       1    1682
       1    1683
       1    1684
       1    1685
       1    1686
       1    1687
       1    1688
       1    1689
       1    1690
       1    1691
       1    1692
       1    1693
       1    1694
       1    1695
       1    1696
       1    1697
       1    1698
       1    1699
       1    1700
       1    1701
       1    1702
       1    1703
       1    1704
       1    1705
       1    1706
       1    1707
       1    1708
       1    1709
       1    1710
       1    1711
       1    1712
       1    1713
       1    1714
       1    1715
       1    1716
       1    1717
       1    1718
       1    1719
       1    1720
       1    1721
       1    1722
       1    1723
       1    1724
       1    1725
       1    1726
       1    1727
       1    1728
       1    1729
       1    1730
       1    1731
       1    1732
       1    1733
       1    1734
       1    1735
       1    1736
       1    1737
       1    1738
       1    1739
       1    1740
       1    1741
       1    1742
       1    1743
       1    1744
       1    1745
       1    1746
       1    1747
       1    1748
       1    1749
       1    1750
       1    1751
       1    1752
       1    1753
       1    1754
       1    1755
       1    1756
       1    1757
       1    1758
       1    1759
       1    1760
       1    1761
       1    1762
       1    1763
       1    1764
       1    1765
       1    1766
       1    1767
       1    1768
       1    1769
       1    1770
       1    1771
       1    1772
       1    1773
       1    1774
       1    1775
       1    1776
       1    1777
       1    1778
       1    1779
       1    1780
       1    1781
       1    1782
       1    1783
       1    1784
       1    1785
       1    1786
       1    1787
       1    1788
       1    1789
       1    1790
       1    1791
       1    1792
       1    1793
       1    1794
       1    1795
       1    1796
       1    1797
       1    1798
       1    1799
       1    1800
       1    1801
       1    1802
       1    1803
       1    1804
       1    1805
       1    1806
       1    1807
       1    1808
       1    1809
       1    1810
       1    1811
       1    1812
       1    1813
       1    1814
       1    1815
       1    1816
       1    1817
       1    1818
       1    1819
       1    1820
       1    1821
       1    1822
       1    1823
       1    1824
       1    1825
       1    1826
       1    1827
       1    1828
       1    1829
       1    1830
       1    1831
       1    1832
       1    1833
       1    1834
       1    1835
       1    1836
       1    1837
       1    1838
       1    1839
       1    1840
       1    1841
       1    1842
       1    1843
       1    1844
       1    1845
       1    1846
       1    1847
       1    1848
       1    1849
       1    1850
       1    1851
       1    1852
       1    1853
       1    1854
       1    1855
       1    1856
       1    1857
       1    1858
       1    1859
       1    1860
       1    1861
       1    1862
       1    1863
       1    1864
       1    1865
       1    1866
       1    1867
       1    1868
       1    1869
       1    1870
       1    1871
       1    1872
       1    1873
       1    1874
       1    1875
       1    1876
       1    1877
       1    1878
       1    1879
       1    1880
       1    1881
       1    1882
       1    1883
       1    1884
       1    1885
       1    1886
       1    1887
       1    1888
       1    1889
       1    1890
       1    1891
       1    1892
       1    1893
       1    1894
       1    1895
       1    1896
       1    1897
       1    1898
       1    1899
       1    1900
       1    1901
       1    1902
       1    1903
       1    1904
       1    1905
       1    1906
       1    1907
       1    1908
       1    1909
       1    1910
       1    1911
       1    1912
       1    1913
       1    1914
       1    1915
       1    1916
       1    1917
       1    1918
       1    1919
       1    1920
       1    1921
       1    1922
       1    1923
       1    1924
       1    1925
       1    1926
       1    1927
       1    1928
       1    1929
       1    1930
       1    1931
       1    1932
       1    1933
       1    1934
       1    1935
       1    1936
       1    1937
       1    1938
       1    1939
       1    1940
       1    1941
       1    1942
       1    1943
       1    1944
       1    1945
       1    1946
       1    1947
       1    1948
       1    1949
       8       0       1       2       3       4       5       6       7
       8       2       8       9       3       6      10      11       7
       8      12       1       0      13      14       5       4      15
       8       0      16      17      13       4      18      19      15
       8      20      21      22      12      23      24      25      14
       8      26      27      21      20      28      29      24      23
       8      13      26      20      12      15      28      23      14
       8      30      31      16      32      33      34      18      35
       8      36      37      31      30      38      39      34      33
       8      40      41      37      36      42      43      39      38
       8      44      40      36      45      46      42      38      47
       8      48      17      16      31      49      19      18      34
       8      30      50      45      36      33      51      47      38
       8       0       3      32      16       4       7      35      18
       8      52      26      13      17      53      28      15      19
       8      54      52      17      48      55      53      19      49
       8      56      54      48      57      58      55      49      59
       8      37      57      48      31      39      59      49      34
       8      60      61      50      30      62      63      51      33
       8      64      60      30      32      65      62      33      35
       8      66      64      32       3      67      65      35       7
       8      68       8       2      69      70      10       6      71
       8      72      69       2       1      73      71       6       5
       8      22      72       1      12      25      73       5      14
       8      74      27      26      52      75      29      28      53
       8      76      74      52      54      77      75      53      55
       8      78      76      54      56      79      77      55      58
       8      80      78      56      81      82      79      58      83
       8      84      81      56      57      85      83      58      59
       8      41      84      57      37      43      85      59      39
       8      86      44      45      50      87      46      47      51
       8      88      86      50      61      89      87      51      63
       8      90      88      61      91      92      89      63      93
       8      94      91      61      60      95      93      63      62
       8      96      94      60      64      97      95      62      65
       8      98      96      64      66      99      97      65      67
       8     100      98      66     101     102      99      67     103
       8       9     101      66       3      11     103      67       7
       8     104     105       8      68     106     107      10      70
       8     108     104      68      69     109     106      70      71
       8     110     108      69      72     111     109      71      73
       8     112     110      72      22     113     111      73      25
       8     114     112      22      21     115     113      25      24
       8     116     114      21      27     117     115      24      29
       8     118     116      27      74     119     117      29      75
       8     120     118      74      76     121     119      75      77
       8     122     120      76      78     123     121      77      79
       8     124     122      78      80     125     123      79      82
       8     126     124      80      81     127     125      82      83
       8     128     126      81      84     129     127      83      85
       8     130     128      84      41     131     129      85      43
       8     132     130      41      40     133     131      43      42
       8     134     132      40      44     135     133      42      46
       8     136     134      44      86     137     135      46      87
       8     138     136      86      88     139     137      87      89
       8     140     138      88      90     141     139      89      92
       8     142     140      90      91     143     141      92      93
       8     144     142      91      94     145     143      93      95
       8     146     144      94      96     147     145      95      97
       8     148     146      96      98     149     147      97      99
       8     150     148      98     100     151     149      99     102
       8     152     150     100     101     153     151     102     103
       8     154     152     101       9     155     153     103      11
       8     105     154       9       8     107     155      11      10
       8     156     157     158     159       0       1       2       3
       8     158     160     161     159       2       8       9       3
       8     162     157     156     163      12       1       0      13
       8     156     164     165     163       0      16      17      13
       8     166     167     168     162      20      21      22      12
       8     169     170     167     166      26      27      21      20
       8     163     169     166     162      13      26      20      12
       8     171     172     164     173      30      31      16      32
       8     174     175     172     171      36      37      31      30
       8     176     177     175     174      40      41      37      36
       8     178     176     174     179      44      40      36      45
       8     180     165     164     172      48      17      16      31
       8     171     181     179     174      30      50      45      36
       8     156     159     173     164       0       3      32      16
       8     182     169     163     165      52      26      13      17
       8     183     182     165     180      54      52      17      48
       8     184     183     180     185      56      54      48      57
       8     175     185     180     172      37      57      48      31
       8     186     187     181     171      60      61      50      30
       8     188     186     171     173      64      60      30      32
       8     189     188     173     159      66      64      32       3
       8     190     160     158     191      68       8       2      69
       8     192     191     158     157      72      69       2       1
       8     168     192     157     162      22      72       1      12
       8     193     170     169     182      74      27      26      52
       8     194     193     182     183      76      74      52      54
       8     195     194     183     184      78      76      54      56
       8     196     195     184     197      80      78      56      81
       8     198     197     184     185      84      81      56      57
       8     177     198     185     175      41      84      57      37
       8     199     178     179     181      86      44      45      50
       8     200     199     181     187      88      86      50      61
       8     201     200     187     202      90      88      61      91
       8     203     202     187     186      94      91      61      60
       8     204     203     186     188      96      94      60      64
       8     205     204     188     189      98      96      64      66
       8     206     205     189     207     100      98      66     101
       8     161     207     189     159       9     101      66       3
       8     208     209     160     190     104     105       8      68
       8     210     208     190     191     108     104      68      69
       8     211     210     191     192     110     108      69      72
       8     212     211     192     168     112     110      72      22
       8     213     212     168     167     114     112      22      21
       8     214     213     167     170     116     114      21      27
       8     215     214     170     193     118     116      27      74
       8     216     215     193     194     120     118      74      76
       8     217     216     194     195     122     120      76      78
       8     218     217     195     196     124     122      78      80
       8     219     218     196     197     126     124      80      81
       8     220     219     197     198     128     126      81      84
       8     221     220     198     177     130     128      84      41
       8     222     221     177     176     132     130      41      40
       8     223     222     176     178     134     132      40      44
       8     224     223     178     199     136     134      44      86
       8     225     224     199     200     138     136      86      88
       8     226     225     200     201     140     138      88      90
       8     227     226     201     202     142     140      90      91
       8     228     227     202     203     144     142      91      94
       8     229     228     203     204     146     144      94      96
       8     230     229     204     205     148     146      96      98
       8     231     230     205     206     150     148      98     100
       8     232     231     206     207     152     150     100     101
       8     233     232     207     161     154     152     101       9
       8     209     233     161     160     105     154       9       8
       8     234     235     236     237     156     157     158     159
       8     236     238     239     237     158     160     161     159
       8     240     235     234     241     162     157     156     163
       8     234     242     243     241     156     164     165     163
       8     244     245     246     240     166     167     168     162
       8     247     248     245     244     169     170     167     166
       8     241     247     244     240     163     169     166     162
       8     249     250     242     251     171     172     164     173
       8     252     253     250     249     174     175     172     171
       8     254     255     253     252     176     177     175     174
       8     256     254     252     257     178     176     174     179
       8     258     243     242     250     180     165     164     172
       8     249     259     257     252     171     181     179     174
       8     234     237     251     242     156     159     173     164
       8     260     247     241     243     182     169     163     165
       8     261     260     243     258     183     182     165     180
       8     262     261     258     263     184     183     180     185
       8     253     263     258     250     175     185     180     172
       8     264     265     259     249     186     187     181     171
       8     266     264     249     251     188     186     171     173
       8     267     266     251     237     189     188     173     159
       8     268     238     236     269     190     160     158     191
       8     270     269     236     235     192     191     158     157
       8     246     270     235     240     168     192     157     162
       8     271     248     247     260     193     170     169     182
       8     272     271     260     261     194     193     182     183
       8     273     272     261     262     195     194     183     184
       8     274     273     262     275     196     195     184     197
       8     276     275     262     263     198     197     184     185
       8     255     276     263     253     177     198     185     175
       8     277     256     257     259     199     178     179     181
       8     278     277     259     265     200     199     181     187
       8     279     278     265     280     201     200     187     202
       8     281     280     265     264     203     202     187     186
       8     282     281     264     266     204     203     186     188
       8     283     282     266     267     205     204     188     189
       8     284     283     267     285     206     205     189     207
       8     239     285     267     237     161     207     189     159
       8     286     287     238     268     208     209     160     190
       8     288     286     268     269     210     208     190     191
       8     289     288     269     270     211     210     191     192
       8     290     289     270     246     212     211     192     168
       8     291     290     246     245     213     212     168     167
       8     292     291     245     248     214     213     167     170
       8     293     292     248     271     215     214     170     193
       8     294     293     271     272     216     215     193     194
       8     295     294     272     273     217     216     194     195
       8     296     295     273     274     218     217     195     196
       8     297     296     274     275     219     218     196     197
       8     298     297     275     276     220     219     197     198
       8     299     298     276     255     221     220     198     177
       8     300     299     255     254     222     221     177     176
       8     301     300     254     256     223     222     176     178
       8     302     301     256     277     224     223     178     199
       8     303     302     277     278     225     224     199     200
       8     304     303     278     279     226     225     200     201
       8     305     304     279     280     227     226     201     202
       8     306     305     280     281     228     227     202     203
       8     307     306     281     282     229     228     203     204
       8     308     307     282     283     230     229     204     205
       8     309     308     283     284     231     230     205     206
       8     310     309     284     285     232     231     206     207
       8     311     310     285     239     233     232     207     161
       8     287     311     239     238     209     233     161     160
       8     312     313     314     315     234     235     236     237
       8     314     316     317     315     236     238     239     237
       8     318     313     312     319     240     235     234     241
       8     312     320     321     319     234     242     243     241
       8     322     323     324     318     244     245     246     240
       8     325     326     323     322     247     248     245     244
       8     319     325     322     318     241     247     244     240
       8     327     328     320     329     249     250     242     251
       8     330     331     328     327     252     253     250     249
       8     332     333     331     330     254     255     253     252
       8     334     332     330     335     256     254     252     257
       8     336     321     320     328     258     243     242     250
       8     327     337     335     330     249     259     257     252
       8     312     315     329     320     234     237     251     242
       8     338     325     319     321     260     247     241     243
       8     339     338     321     336     261     260     243     258
       8     340     339     336     341     262     261     258     263
       8     331     341     336     328     253     263     258     250
       8     342     343     337     327     264     265     259     249
       8     344     342     327     329     266     264     249     251
       8     345     344     329     315     267     266     251     237
       8     346     316     314     347     268     238     236     269
       8     348     347     314     313     270     269     236     235
       8     324     348     313     318     246     270     235     240
       8     349     326     325     338     271     248     247     260
       8     350     349     338     339     272     271     260     261
       8     351     350     339     340     273     272     261     262
       8     352     351     340     353     274     273     262     275
       8     354     353     340     341     276     275     262     263
       8     333     354     341     331     255     276     263     253
       8     355     334     335     337     277     256     257     259
       8     356     355     337     343     278     277     259     265
       8     357     356     343     358     279     278     265     280
       8     359     358     343     342     281     280     265     264
       8     360     359     342     344     282     281     264     266
       8     361     360     344     345     283     282     266     267
       8     362     361     345     363     284     283     267     285
       8     317     363     345     315     239     285     267     237
       8     364     365     316     346     286     287     238     268
       8     366     364     346     347     288     286     268     269
       8     367     366     347     348     289     288     269     270
       8     368     367     348     324     290     289     270     246
       8     369     368     324     323     291     290     246     245
       8     370     369     323     326     292     291     245     248
       8     371     370     326     349     293     292     248     271
       8     372     371     349     350     294     293     271     272
       8     373     372     350     351     295     294     272     273
       8     374     373     351     352     296     295     273     274
       8     375     374     352     353     297     296     274     275
       8     376     375     353     354     298     297     275     276
       8     377     376     354     333     299     298     276     255
       8     378     377     333     332     300     299     255     254
       8     379     378     332     334     301     300     254     256
       8     380     379     334     355     302     301     256     277
       8     381     380     355     356     303     302     277     278
       8     382     381     356     357     304     303     278     279
       8     383     382     357     358     305     304     279     280
       8     384     383     358     359     306     305     280     281
       8     385     384     359     360     307     306     281     282
       8     386     385     360     361     308     307     282     283
       8     387     386     361     362     309     308     283     284
       8     388     387     362     363     310     309     284     285
       8     389     388     363     317     311     310     285     239
       8     365     389     317     316     287     311     239     238
       8     390     391     392     393     312     313     314     315
       8     392     394     395     393     314     316     317     315
       8     396     391     390     397     318     313     312     319
       8     390     398     399     397     312     320     321     319
       8     400     401     402     396     322     323     324     318
       8     403     404     401     400     325     326     323     322
       8     397     403     400     396     319     325     322     318
       8     405     406     398     407     327     328     320     329
       8     408     409     406     405     330     331     328     327
       8     410     411     409     408     332     333     331     330
       8     412     410     408     413     334     332     330     335
       8     414     399     398     406     336     321     320     328
       8     405     415     413     408     327     337     335     330
       8     390     393     407     398     312     315     329     320
       8     416     403     397     399     338     325     319     321
       8     417     416     399     414     339     338     321     336
       8     418     417     414     419     340     339     336     341
       8     409     419     414     406     331     341     336     328
       8     420     421     415     405     342     343     337     327
       8     422     420     405     407     344     342     327     329
       8     423     422     407     393     345     344     329     315
       8     424     394     392     425     346     316     314     347
       8     426     425     392     391     348     347     314     313
       8     402     426     391     396     324     348     313     318
       8     427     404     403     416     349     326     325     338
       8     428     427     416     417     350     349     338     339
       8     429     428     417     418     351     350     339     340
       8     430     429     418     431     352     351     340     353
       8     432     431     418     419     354     353     340     341
       8     411     432     419     409     333     354     341     331
       8     433     412     413     415     355     334     335     337
       8     434     433     415     421     356     355     337     343
       8     435     434     421     436     357     356     343     358
       8     437     436     421     420     359     358     343     342
       8     438     437     420     422     360     359     342     344
       8     439     438     422     423     361     360     344     345
       8     440     439     423     441     362     361     345     363
       8     395     441     423     393     317     363     345     315
       8     442     443     394     424     364     365     316     346
       8     444     442     424     425     366     364     346     347
       8     445     444     425     426     367     366     347     348
       8     446     445     426     402     368     367     348     324
       8     447     446     402     401     369     368     324     323
       8     448     447     401     404     370     369     323     326
       8     449     448     404     427     371     370     326     349
       8     450     449     427     428     372     371     349     350
       8     451     450     428     429     373     372     350     351
       8     452     451     429     430     374     373     351     352
       8     453     452     430     431     375     374     352     353
       8     454     453     431     432     376     375     353     354
       8     455     454     432     411     377     376     354     333
       8     456     455     411     410     378     377     333     332
       8     457     456     410     412     379     378     332     334
       8     458     457     412     433     380     379     334     355
       8     459     458     433     434     381     380     355     356
       8     460     459     434     435     382     381     356     357
       8     461     460     435     436     383     382     357     358
       8     462     461     436     437     384     383     358     359
       8     463     462     437     438     385     384     359     360
       8     464     463     438     439     386     385     360     361
       8     465     464     439     440     387     386     361     362
       8     466     465     440     441     388     387     362     363
       8     467     466     441     395     389     388     363     317
       8     443     467     395     394     365     389     317     316
       8     468     469     470     471     390     391     392     393
       8     470     472     473     471     392     394     395     393
       8     474     469     468     475     396     391     390     397
       8     468     476     477     475     390     398     399     397
       8     478     479     480     474     400     401     402     396
       8     481     482     479     478     403     404     401     400
       8     475     481     478     474     397     403     400     396
       8     483     484     476     485     405     406     398     407
       8     486     487     484     483     408     409     406     405
       8     488     489     487     486     410     411     409     408
       8     490     488     486     491     412     410     408     413
       8     492     477     476     484     414     399     398     406
       8     483     493     491     486     405     415     413     408
       8     468     471     485     476     390     393     407     398
       8     494     481     475     477     416     403     397     399
       8     495     494     477     492     417     416     399     414
       8     496     495     492     497     418     417     414     419
       8     487     497     492     484     409     419     414     406
       8     498     499     493     483     420     421     415     405
       8     500     498     483     485     422     420     405     407
       8     501     500     485     471     423     422     407     393
       8     502     472     470     503     424     394     392     425
       8     504     503     470     469     426     425     392     391
       8     480     504     469     474     402     426     391     396
       8     505     482     481     494     427     404     403     416
       8     506     505     494     495     428     427     416     417
       8     507     506     495     496     429     428     417     418
       8     508     507     496     509     430     429     418     431
       8     510     509     496     497     432     431     418     419
       8     489     510     497     487     411     432     419     409
       8     511     490     491     493     433     412     413     415
       8     512     511     493     499     434     433     415     421
       8     513     512     499     514     435     434     421     436
       8     515     514     499     498     437     436     421     420
       8     516     515     498     500     438     437     420     422
       8     517     516     500     501     439     438     422     423
       8     518     517     501     519     440     439     423     441
       8     473     519     501     471     395     441     423     393
       8     520     521     472     502     442     443     394     424
       8     522     520     502     503     444     442     424     425
       8     523     522     503     504     445     444     425     426
       8     524     523     504     480     446     445     426     402
       8     525     524     480     479     447     446     402     401
       8     526     525     479     482     448     447     401     404
       8     527     526     482     505     449     448     404     427
       8     528     527     505     506     450     449     427     428
       8     529     528     506     507     451     450     428     429
       8     530     529     507     508     452     451     429     430
       8     531     530     508     509     453     452     430     431
       8     532     531     509     510     454     453     431     432
       8     533     532     510     489     455     454     432     411
       8     534     533     489     488     456     455     411     410
       8     535     534     488     490     457     456     410     412
       8     536     535     490     511     458     457     412     433
       8     537     536     511     512     459     458     433     434
       8     538     537     512     513     460     459     434     435
       8     539     538     513     514     461     460     435     436
       8     540     539     514     515     462     461     436     437
       8     541     540     515     516     463     462     437     438
       8     542     541     516     517     464     463     438     439
       8     543     542     517     518     465     464     439     440
       8     544     543     518     519     466     465     440     441
       8     545     544     519     473     467     466     441     395
       8     521     545     473     472     443     467     395     394
       8     546     547     548     549     468     469     470     471
       8     548     550     551     549     470     472     473     471
       8     552     547     546     553     474     469     468     475
       8     546     554     555     553     468     476     477     475
       8     556     557     558     552     478     479     480     474
       8     559     560     557     556     481     482     479     478
       8     553     559     556     552     475     481     478     474
       8     561     562     554     563     483     484     476     485
       8     564     565     562     561     486     487     484     483
       8     566     567     565     564     488     489     487     486
       8     568     566     564     569     490     488     486     491
       8     570     555     554     562     492     477     476     484
       8     561     571     569     564     483     493     491     486
       8     546     549     563     554     468     471     485     476
       8     572     559     553     555     494     481     475     477
       8     573     572     555     570     495     494     477     492
       8     574     573     570     575     496     495     492     497
       8     565     575     570     562     487     497     492     484
       8     576     577     571     561     498     499     493     483
       8     578     576     561     563     500     498     483     485
       8     579     578     563     549     501     500     485     471
       8     580     550     548     581     502     472     470     503
       8     582     581     548     547     504     503     470     469
       8     558     582     547     552     480     504     469     474
       8     583     560     559     572     505     482     481     494
       8     584     583     572     573     506     505     494     495
       8     585     584     573     574     507     506     495     496
       8     586     585     574     587     508     507     496     509
       8     588     587     574     575     510     509     496     497
       8     567     588     575     565     489     510     497     487
       8     589     568     569     571     511     490     491     493
       8     590     589     571     577     512     511     493     499
       8     591     590     577     592     513     512     499     514
       8     593     592     577     576     515     514     499     498
       8     594     593     576     578     516     515     498     500
       8     595     594     578     579     517     516     500     501
       8     596     595     579     597     518     517     501     519
       8     551     597     579     549     473     519     501     471
       8     598     599     550     580     520     521     472     502
       8     600     598     580     581     522     520     502     503
       8     601     600     581     582     523     522     503     504
       8     602     601     582     558     524     523     504     480
       8     603     602     558     557     525     524     480     479
       8     604     603     557     560     526     525     479     482
       8     605     604     560     583     527     526     482     505
       8     606     605     583     584     528     527     505     506
       8     607     606     584     585     529     528     506     507
       8     608     607     585     586     530     529     507     508
       8     609     608     586     587     531     530     508     509
       8     610     609     587     588     532     531     509     510
       8     611     610     588     567     533     532     510     489
       8     612     611     567     566     534     533     489     488
       8     613     612     566     568     535     534     488     490
       8     614     613     568     589     536     535     490     511
       8     615     614     589     590     537     536     511     512
       8     616     615     590     591     538     537     512     513
       8     617     616     591     592     539     538     513     514
       8     618     617     592     593     540     539     514     515
       8     619     618     593     594     541     540     515     516
       8     620     619     594     595     542     541     516     517
       8     621     620     595     596     543     542     517     518
       8     622     621     596     597     544     543     518     519
       8     623     622     597     551     545     544     519     473
       8     599     623     551     550     521     545     473     472
       8     624     625     626     627     546     547     548     549
       8     626     628     629     627     548     550     551     549
       8     630     625     624     631     552     547     546     553
       8     624     632     633     631     546     554     555     553
       8     634     635     636     630     556     557     558     552
       8     637     638     635     634     559     560     557     556
       8     631     637     634     630     553     559     556     552
       8     639     640     632     641     561     562     554     563
       8     642     643     640     639     564     565     562     561
       8     644     645     643     642     566     567     565     564
       8     646     644     642     647     568     566     564     569
       8     648     633     632     640     570     555     554     562
       8     639     649     647     642     561     571     569     564
       8     624     627     641     632     546     549     563     554
       8     650     637     631     633     572     559     553     555
       8     651     650     633     648     573     572     555     570
       8     652     651     648     653     574     573     570     575
       8     643     653     648     640     565     575     570     562
       8     654     655     649     639     576     577     571     561
       8     656     654     639     641     578     576     561     563
       8     657     656     641     627     579     578     563     549
       8     658     628     626     659     580     550     548     581
       8     660     659     626     625     582     581     548     547
       8     636     660     625     630     558     582     547     552
       8     661     638     637     650     583     560     559     572
       8     662     661     650     651     584     583     572     573
       8     663     662     651     652     585     584     573     574
       8     664     663     652     665     586     585     574     587
       8     666     665     652     653     588     587     574     575
       8     645     666     653     643     567     588     575     565
       8     667     646     647     649     589     568     569     571
       8     668     667     649     655     590     589     571     577
       8     669     668     655     670     591     590     577     592
       8     671     670     655     654     593     592     577     576
       8     672     671     654     656     594     593     576     578
       8     673     672     656     657     595     594     578     579
       8     674     673     657     675     596     595     579     597
       8     629     675     657     627     551     597     579     549
       8     676     677     628     658     598     599     550     580
       8     678     676     658     659     600     598     580     581
       8     679     678     659     660     601     600     581     582
       8     680     679     660     636     602     601     582     558
       8     681     680     636     635     603     602     558     557
       8     682     681     635     638     604     603     557     560
       8     683     682     638     661     605     604     560     583
       8     684     683     661     662     606     605     583     584
       8     685     684     662     663     607     606     584     585
       8     686     685     663     664     608     607     585     586
       8     687     686     664     665     609     608     586     587
       8     688     687     665     666     610     609     587     588
       8     689     688     666     645     611     610     588     567
       8     690     689     645     644     612     611     567     566
       8     691     690     644     646     613     612     566     568
       8     692     691     646     667     614     613     568     589
       8     693     692     667     668     615     614     589     590
       8     694     693     668     669     616     615     590     591
       8     695     694     669     670     617     616     591     592
       8     696     695     670     671     618     617     592     593
       8     697     696     671     672     619     618     593     594
       8     698     697     672     673     620     619     594     595
       8     699     698     673     674     621     620     595     596
       8     700     699     674     675     622     621     596     597
       8     701     700     675     629     623     622     597     551
       8     677     701     629     628     599     623     551     550
       8     702     703     704     705     624     625     626     627
       8     704     706     707     705     626     628     629     627
       8     708     703     702     709     630     625     624     631
       8     702     710     711     709     624     632     633     631
       8     712     713     714     708     634     635     636     630
       8     715     716     713     712     637     638     635     634
       8     709     715     712     708     631     637     634     630
       8     717     718     710     719     639     640     632     641
       8     720     721     718     717     642     643     640     639
       8     722     723     721     720     644     645     643     642
       8     724     722     720     725     646     644     642     647
       8     726     711     710     718     648     633     632     640
       8     717     727     725     720     639     649     647     642
       8     702     705     719     710     624     627     641     632
       8     728     715     709     711     650     637     631     633
       8     729     728     711     726     651     650     633     648
       8     730     729     726     731     652     651     648     653
       8     721     731     726     718     643     653     648     640
       8     732     733     727     717     654     655     649     639
       8     734     732     717     719     656     654     639     641
       8     735     734     719     705     657     656     641     627
       8     736     706     704     737     658     628     626     659
       8     738     737     704     703     660     659     626     625
       8     714     738     703     708     636     660     625     630
       8     739     716     715     728     661     638     637     650
       8     740     739     728     729     662     661     650     651
       8     741     740     729     730     663     662     651     652
       8     742     741     730     743     664     663     652     665
       8     744     743     730     731     666     665     652     653
       8     723     744     731     721     645     666     653     643
       8     745     724     725     727     667     646     647     649
       8     746     745     727     733     668     667     649     655
       8     747     746     733     748     669     668     655     670
       8     749     748     733     732     671     670     655     654
       8     750     749     732     734     672     671     654     656
       8     751     750     734     735     673     672     656     657
       8     752     751     735     753     674     673     657     675
       8     707     753     735     705     629     675     657     627
       8     754     755     706     736     676     677     628     658
       8     756     754     736     737     678     676     658     659
       8     757     756     737     738     679     678     659     660
       8     758     757     738     714     680     679     660     636
       8     759     758     714     713     681     680     636     635
       8     760     759     713     716     682     681     635     638
       8     761     760     716     739     683     682     638     661
       8     762     761     739     740     684     683     661     662
       8     763     762     740     741     685     684     662     663
       8     764     763     741     742     686     685     663     664
       8     765     764     742     743     687     686     664     665
       8     766     765     743     744     688     687     665     666
       8     767     766     744     723     689     688     666     645
       8     768     767     723     722     690     689     645     644
       8     769     768     722     724     691     690     644     646
       8     770     769     724     745     692     691     646     667
       8     771     770     745     746     693     692     667     668
       8     772     771     746     747     694     693     668     669
       8     773     772     747     748     695     694     669     670
       8     774     773     748     749     696     695     670     671
       8     775     774     749     750     697     696     671     672
       8     776     775     750     751     698     697     672     673
       8     777     776     751     752     699     698     673     674
       8     778     777     752     753     700     699     674     675
       8     779     778     753     707     701     700     675     629
       8     755     779     707     706     677     701     629     628
       8     780     781     782     783     702     703     704     705
       8     782     784     785     783     704     706     707     705
       8     786     781     780     787     708     703     702     709
       8     780     788     789     787     702     710     711     709
       8     790     791     792     786     712     713     714     708
       8     793     794     791     790     715     716     713     712
       8     787     793     790     786     709     715     712     708
       8     795     796     788     797     717     718     710     719
       8     798     799     796     795     720     721     718     717
       8     800     801     799     798     722     723     721     720
       8     802     800     798     803     724     722     720     725
       8     804     789     788     796     726     711     710     718
       8     795     805     803     798     717     727     725     720
       8     780     783     797     788     702     705     719     710
       8     806     793     787     789     728     715     709     711
       8     807     806     789     804     729     728     711     726
       8     808     807     804     809     730     729     726     731
       8     799     809     804     796     721     731     726     718
       8     810     811     805     795     732     733     727     717
       8     812     810     795     797     734     732     717     719
       8     813     812     797     783     735     734     719     705
       8     814     784     782     815     736     706     704     737
       8     816     815     782     781     738     737     704     703
       8     792     816     781     786     714     738     703     708
       8     817     794     793     806     739     716     715     728
       8     818     817     806     807     740     739     728     729
       8     819     818     807     808     741     740     729     730
       8     820     819     808     821     742     741     730     743
       8     822     821     808     809     744     743     730     731
       8     801     822     809     799     723     744     731     721
       8     823     802     803     805     745     724     725     727
       8     824     823     805     811     746     745     727     733
       8     825     824     811     826     747     746     733     748
       8     827     826     811     810     749     748     733     732
       8     828     827     810     812     750     749     732     734
       8     829     828     812     813     751     750     734     735
       8     830     829     813     831     752     751     735     753
       8     785     831     813     783     707     753     735     705
       8     832     833     784     814     754     755     706     736
       8     834     832     814     815     756     754     736     737
       8     835     834     815     816     757     756     737     738
       8     836     835     816     792     758     757     738     714
       8     837     836     792     791     759     758     714     713
       8     838     837     791     794     760     759     713     716
       8     839     838     794     817     761     760     716     739
       8     840     839     817     818     762     761     739     740
       8     841     840     818     819     763     762     740     741
       8     842     841     819     820     764     763     741     742
       8     843     842     820     821     765     764     742     743
       8     844     843     821     822     766     765     743     744
       8     845     844     822     801     767     766     744     723
       8     846     845     801     800     768     767     723     722
       8     847     846     800     802     769     768     722     724
       8     848     847     802     823     770     769     724     745
       8     849     848     823     824     771     770     745     746
       8     850     849     824     825     772     771     746     747
       8     851     850     825     826     773     772     747     748
       8     852     851     826     827     774     773     748     749
       8     853     852     827     828     775     774     749     750
       8     854     853     828     829     776     775     750     751
       8     855     854     829     830     777     776     751     752
       8     856     855     830     831     778     777     752     753
       8     857     856     831     785     779     778     753     707
       8     833     857     785     784     755     779     707     706
       8     858     859     860     861     780     781     782     783
       8     860     862     863     861     782     784     785     783
       8     864     859     858     865     786     781     780     787
       8     858     866     867     865     780     788     789     787
       8     868     869     870     864     790     791     792     786
       8     871     872     869     868     793     794     791     790
       8     865     871     868     864     787     793     790     786
       8     873     874     866     875     795     796     788     797
       8     876     877     874     873     798     799     796     795
       8     878     879     877     876     800     801     799     798
       8     880     878     876     881     802     800     798     803
       8     882     867     866     874     804     789     788     796
       8     873     883     881     876     795     805     803     798
       8     858     861     875     866     780     783     797     788
       8     884     871     865     867     806     793     787     789
       8     885     884     867     882     807     806     789     804
       8     886     885     882     887     808     807     804     809
       8     877     887     882     874     799     809     804     796
       8     888     889     883     873     810     811     805     795
       8     890     888     873     875     812     810     795     797
       8     891     890     875     861     813     812     797     783
       8     892     862     860     893     814     784     782     815
       8     894     893     860     859     816     815     782     781
       8     870     894     859     864     792     816     781     786
       8     895     872     871     884     817     794     793     806
       8     896     895     884     885     818     817     806     807
       8     897     896     885     886     819     818     807     808
       8     898     897     886     899     820     819     808     821
       8     900     899     886     887     822     821     808     809
       8     879     900     887     877     801     822     809     799
       8     901     880     881     883     823     802     803     805
       8     902     901     883     889     824     823     805     811
       8     903     902     889     904     825     824     811     826
       8     905     904     889     888     827     826     811     810
       8     906     905     888     890     828     827     810     812
       8     907     906     890     891     829     828     812     813
       8     908     907     891     909     830     829     813     831
       8     863     909     891     861     785     831     813     783
       8     910     911     862     892     832     833     784     814
       8     912     910     892     893     834     832     814     815
       8     913     912     893     894     835     834     815     816
       8     914     913     894     870     836     835     816     792
       8     915     914     870     869     837     836     792     791
       8     916     915     869     872     838     837     791     794
       8     917     916     872     895     839     838     794     817
       8     918     917     895     896     840     839     817     818
       8     919     918     896     897     841     840     818     819
       8     920     919     897     898     842     841     819     820
       8     921     920     898     899     843     842     820     821
       8     922     921     899     900     844     843     821     822
       8     923     922     900     879     845     844     822     801
       8     924     923     879     878     846     845     801     800
       8     925     924     878     880     847     846     800     802
       8     926     925     880     901     848     847     802     823
       8     927     926     901     902     849     848     823     824
       8     928     927     902     903     850     849     824     825
       8     929     928     903     904     851     850     825     826
       8     930     929     904     905     852     851     826     827
       8     931     930     905     906     853     852     827     828
       8     932     931     906     907     854     853     828     829
       8     933     932     907     908     855     854     829     830
       8     934     933     908     909     856     855     830     831
       8     935     934     909     863     857     856     831     785
       8     911     935     863     862     833     857     785     784
       8     936     937     938     939     858     859     860     861
       8     938     940     941     939     860     862     863     861
       8     942     937     936     943     864     859     858     865
       8     936     944     945     943     858     866     867     865
       8     946     947     948     942     868     869     870     864
       8     949     950     947     946     871     872     869     868
       8     943     949     946     942     865     871     868     864
       8     951     952     944     953     873     874     866     875
       8     954     955     952     951     876     877     874     873
       8     956     957     955     954     878     879     877     876
       8     958     956     954     959     880     878     876     881
       8     960     945     944     952     882     867     866     874
       8     951     961     959     954     873     883     881     876
       8     936     939     953     944     858     861     875     866
       8     962     949     943     945     884     871     865     867
       8     963     962     945     960     885     884     867     882
       8     964     963     960     965     886     885     882     887
       8     955     965     960     952     877     887     882     874
       8     966     967     961     951     888     889     883     873
       8     968     966     951     953     890     888     873     875
       8     969     968     953     939     891     890     875     861
       8     970     940     938     971     892     862     860     893
       8     972     971     938     937     894     893     860     859
       8     948     972     937     942     870     894     859     864
       8     973     950     949     962     895     872     871     884
       8     974     973     962     963     896     895     884     885
       8     975     974     963     964     897     896     885     886
       8     976     975     964     977     898     897     886     899
       8     978     977     964     965     900     899     886     887
       8     957     978     965     955     879     900     887     877
       8     979     958     959     961     901     880     881     883
       8     980     979     961     967     902     901     883     889
       8     981     980     967     982     903     902     889     904
       8     983     982     967     966     905     904     889     888
       8     984     983     966     968     906     905     888     890
       8     985     984     968     969     907     906     890     891
       8     986     985     969     987     908     907     891     909
       8     941     987     969     939     863     909     891     861
       8     988     989     940     970     910     911     862     892
       8     990     988     970     971     912     910     892     893
       8     991     990     971     972     913     912     893     894
       8     992     991     972     948     914     913     894     870
       8     993     992     948     947     915     914     870     869
       8     994     993     947     950     916     915     869     872
       8     995     994     950     973     917     916     872     895
       8     996     995     973     974     918     917     895     896
       8     997     996     974     975     919     918     896     897
       8     998     997     975     976     920     919     897     898
       8     999     998     976     977     921     920     898     899
       8    1000     999     977     978     922     921     899     900
       8    1001    1000     978     957     923     922     900     879
       8    1002    1001     957     956     924     923     879     878
       8    1003    1002     956     958     925     924     878     880
       8    1004    1003     958     979     926     925     880     901
       8    1005    1004     979     980     927     926     901     902
       8    1006    1005     980     981     928     927     902     903
       8    1007    1006     981     982     929     928     903     904
       8    1008    1007     982     983     930     929     904     905
       8    1009    1008     983     984     931     930     905     906
       8    1010    1009     984     985     932     931     906     907
       8    1011    1010     985     986     933     932     907     908
       8    1012    1011     986     987     934     933     908     909
       8    1013    1012     987     941     935     934     909     863
       8     989    1013     941     940     911     935     863     862
       8    1014    1015    1016    1017     936     937     938     939
       8    1016    1018    1019    1017     938     940     941     939
       8    1020    1015    1014    1021     942     937     936     943
       8    1014    1022    1023    1021     936     944     945     943
       8    1024    1025    1026    1020     946     947     948     942
       8    1027    1028    1025    1024     949     950     947     946
       8    1021    1027    1024    1020     943     949     946     942
       8    1029    1030    1022    1031     951     952     944     953
       8    1032    1033    1030    1029     954     955     952     951
       8    1034    1035    1033    1032     956     957     955     954
       8    1036    1034    1032    1037     958     956     954     959
       8    1038    1023    1022    1030     960     945     944     952
       8    1029    1039    1037    1032     951     961     959     954
       8    1014    1017    1031    1022     936     939     953     944
       8    1040    1027    1021    1023     962     949     943     945
       8    1041    1040    1023    1038     963     962     945     960
       8    1042    1041    1038    1043     964     963     960     965
       8    1033    1043    1038    1030     955     965     960     952
       8    1044    1045    1039    1029     966     967     961     951
       8    1046    1044    1029    1031     968     966     951     953
       8    1047    1046    1031    1017     969     968     953     939
       8    1048    1018    1016    1049     970     940     938     971
       8    1050    1049    1016    1015     972     971     938     937
       8    1026    1050    1015    1020     948     972     937     942
       8    1051    1028    1027    1040     973     950     949     962
       8    1052    1051    1040    1041     974     973     962     963
       8    1053    1052    1041    1042     975     974     963     964
       8    1054    1053    1042    1055     976     975     964     977
       8    1056    1055    1042    1043     978     977     964     965
       8    1035    1056    1043    1033     957     978     965     955
       8    1057    1036    1037    1039     979     958     959     961
       8    1058    1057    1039    1045     980     979     961     967
       8    1059    1058    1045    1060     981     980     967     982
       8    1061    1060    1045    1044     983     982     967     966
       8    1062    1061    1044    1046     984     983     966     968
       8    1063    1062    1046    1047     985     984     968     969
       8    1064    1063    1047    1065     986     985     969     987
       8    1019    1065    1047    1017     941     987     969     939
       8    1066    1067    1018    1048     988     989     940     970
       8    1068    1066    1048    1049     990     988     970     971
       8    1069    1068    1049    1050     991     990     971     972
       8    1070    1069    1050    1026     992     991     972     948
       8    1071    1070    1026    1025     993     992     948     947
       8    1072    1071    1025    1028     994     993     947     950
       8    1073    1072    1028    1051     995     994     950     973
       8    1074    1073    1051    1052     996     995     973     974
       8    1075    1074    1052    1053     997     996     974     975
       8    1076    1075    1053    1054     998     997     975     976
       8    1077    1076    1054    1055     999     998     976     977
       8    1078    1077    1055    1056    1000     999     977     978
       8    1079    1078    1056    1035    1001    1000     978     957
       8    1080    1079    1035    1034    1002    1001     957     956
       8    1081    1080    1034    1036    1003    1002     956     958
       8    1082    1081    1036    1057    1004    1003     958     979
       8    1083    1082    1057    1058    1005    1004     979     980
       8    1084    1083    1058    1059    1006    1005     980     981
       8    1085    1084    1059    1060    1007    1006     981     982
       8    1086    1085    1060    1061    1008    1007     982     983
       8    1087    1086    1061    1062    1009    1008     983     984
       8    1088    1087    1062    1063    1010    1009     984     985
       8    1089    1088    1063    1064    1011    1010     985     986
       8    1090    1089    1064    1065    1012    1011     986     987
       8    1091    1090    1065    1019    1013    1012     987     941
       8    1067    1091    1019    1018     989    1013     941     940
       8    1092    1093    1094    1095    1014    1015    1016    1017
       8    1094    1096    1097    1095    1016    1018    1019    1017
       8    1098    1093    1092    1099    1020    1015    1014    1021
       8    1092    1100    1101    1099    1014    1022    1023    1021
       8    1102    1103    1104    1098    1024    1025    1026    1020
       8    1105    1106    1103    1102    1027    1028    1025    1024
       8    1099    1105    1102    1098    1021    1027    1024    1020
       8    1107    1108    1100    1109    1029    1030    1022    1031
       8    1110    1111    1108    1107    1032    1033    1030    1029
       8    1112    1113    1111    1110    1034    1035    1033    1032
       8    1114    1112    1110    1115    1036    1034    1032    1037
       8    1116    1101    1100    1108    1038    1023    1022    1030
       8    1107    1117    1115    1110    1029    1039    1037    1032
       8    1092    1095    1109    1100    1014    1017    1031    1022
       8    1118    1105    1099    1101    1040    1027    1021    1023
       8    1119    1118    1101    1116    1041    1040    1023    1038
       8    1120    1119    1116    1121    1042    1041    1038    1043
       8    1111    1121    1116    1108    1033    1043    1038    1030
       8    1122    1123    1117    1107    1044    1045    1039    1029
       8    1124    1122    1107    1109    1046    1044    1029    1031
       8    1125    1124    1109    1095    1047    1046    1031    1017
       8    1126    1096    1094    1127    1048    1018    1016    1049
       8    1128    1127    1094    1093    1050    1049    1016    1015
       8    1104    1128    1093    1098    1026    1050    1015    1020
       8    1129    1106    1105    1118    1051    1028    1027    1040
       8    1130    1129    1118    1119    1052    1051    1040    1041
       8    1131    1130    1119    1120    1053    1052    1041    1042
       8    1132    1131    1120    1133    1054    1053    1042    1055
       8    1134    1133    1120    1121    1056    1055    1042    1043
       8    1113    1134    1121    1111    1035    1056    1043    1033
       8    1135    1114    1115    1117    1057    1036    1037    1039
       8    1136    1135    1117    1123    1058    1057    1039    1045
       8    1137    1136    1123    1138    1059    1058    1045    1060
       8    1139    1138    1123    1122    1061    1060    1045    1044
       8    1140    1139    1122    1124    1062    1061    1044    1046
       8    1141    1140    1124    1125    1063    1062    1046    1047
       8    1142    1141    1125    1143    1064    1063    1047    1065
       8    1097    1143    1125    1095    1019    1065    1047    1017
       8    1144    1145    1096    1126    1066    1067    1018    1048
       8    1146    1144    1126    1127    1068    1066    1048    1049
       8    1147    1146    1127    1128    1069    1068    1049    1050
       8    1148    1147    1128    1104    1070    1069    1050    1026
       8    1149    1148    1104    1103    1071    1070    1026    1025
       8    1150    1149    1103    1106    1072    1071    1025    1028
       8    1151    1150    1106    1129    1073    1072    1028    1051
       8    1152    1151    1129    1130    1074    1073    1051    1052
       8    1153    1152    1130    1131    1075    1074    1052    1053
       8    1154    1153    1131    1132    1076    1075    1053    1054
       8    1155    1154    1132    1133    1077    1076    1054    1055
       8    1156    1155    1133    1134    1078    1077    1055    1056
       8    1157    1156    1134    1113    1079    1078    1056    1035
       8    1158    1157    1113    1112    1080    1079    1035    1034
       8    1159    1158    1112    1114    1081    1080    1034    1036
       8    1160    1159    1114    1135    1082    1081    1036    1057
       8    1161    1160    1135    1136    1083    1082    1057    1058
       8    1162    1161    1136    1137    1084    1083    1058    1059
       8    1163    1162    1137    1138    1085    1084    1059    1060
       8    1164    1163    1138    1139    1086    1085    1060    1061
       8    1165    1164    1139    1140    1087    1086    1061    1062
       8    1166    1165    1140    1141    1088    1087    1062    1063
       8    1167    1166    1141    1142    1089    1088    1063    1064
       8    1168    1167    1142    1143    1090    1089    1064    1065
       8    1169    1168    1143    1097    1091    1090    1065    1019
       8    1145    1169    1097    1096    1067    1091    1019    1018
       8    1170    1171    1172    1173    1092    1093    1094    1095
       8    1172    1174    1175    1173    1094    1096    1097    1095
       8    1176    1171    1170    1177    1098    1093    1092    1099
       8    1170    1178    1179    1177    1092    1100    1101    1099
       8    1180    1181    1182    1176    1102    1103    1104    1098
       8    1183    1184    1181    1180    1105    1106    1103    1102
       8    1177    1183    1180    1176    1099    1105    1102    1098
       8    1185    1186    1178    1187    1107    1108    1100    1109
       8    1188    1189    1186    1185    1110    1111    1108    1107
       8    1190    1191    1189    1188    1112    1113    1111    1110
       8    1192    1190    1188    1193    1114    1112    1110    1115
       8    1194    1179    1178    1186    1116    1101    1100    1108
       8    1185    1195    1193    1188    1107    1117    1115    1110
       8    1170    1173    1187    1178    1092    1095    1109    1100
       8    1196    1183    1177    1179    1118    1105    1099    1101
       8    1197    1196    1179    1194    1119    1118    1101    1116
       8    1198    1197    1194    1199    1120    1119    1116    1121
       8    1189    1199    1194    1186    1111    1121    1116    1108
       8    1200    1201    1195    1185    1122    1123    1117    1107
       8    1202    1200    1185    1187    1124    1122    1107    1109
       8    1203    1202    1187    1173    1125    1124    1109    1095
       8    1204    1174    1172    1205    1126    1096    1094    1127
       8    1206    1205    1172    1171    1128    1127    1094    1093
       8    1182    1206    1171    1176    1104    1128    1093    1098
       8    1207    1184    1183    1196    1129    1106    1105    1118
       8    1208    1207    1196    1197    1130    1129    1118    1119
       8    1209    1208    1197    1198    1131    1130    1119    1120
       8    1210    1209    1198    1211    1132    1131    1120    1133
       8    1212    1211    1198    1199    1134    1133    1120    1121
       8    1191    1212    1199    1189    1113    1134    1121    1111
       8    1213    1192    1193    1195    1135    1114    1115    1117
       8    1214    1213    1195    1201    1136    1135    1117    1123
       8    1215    1214    1201    1216    1137    1136    1123    1138
       8    1217    1216    1201    1200    1139    1138    1123    1122
       8    1218    1217    1200    1202    1140    1139    1122    1124
       8    1219    1218    1202    1203    1141    1140    1124    1125
       8    1220    1219    1203    1221    1142    1141    1125    1143
       8    1175    1221    1203    1173    1097    1143    1125    1095
       8    1222    1223    1174    1204    1144    1145    1096    1126
       8    1224    1222    1204    1205    1146    1144    1126    1127
       8    1225    1224    1205    1206    1147    1146    1127    1128
       8    1226    1225    1206    1182    1148    1147    1128    1104
       8    1227    1226    1182    1181    1149    1148    1104    1103
       8    1228    1227    1181    1184    1150    1149    1103    1106
       8    1229    1228    1184    1207    1151    1150    1106    1129
       8    1230    1229    1207    1208    1152    1151    1129    1130
       8    1231    1230    1208    1209    1153    1152    1130    1131
       8    1232    1231    1209    1210    1154    1153    1131    1132
       8    1233    1232    1210    1211    1155    1154    1132    1133
       8    1234    1233    1211    1212    1156    1155    1133    1134
       8    1235    1234    1212    1191    1157    1156    1134    1113
       8    1236    1235    1191    1190    1158    1157    1113    1112
       8    1237    1236    1190    1192    1159    1158    1112    1114
       8    1238    1237    1192    1213    1160    1159    1114    1135
       8    1239    1238    1213    1214    1161    1160    1135    1136
       8    1240    1239    1214    1215    1162    1161    1136    1137
       8    1241    1240    1215    1216    1163    1162    1137    1138
       8    1242    1241    1216    1217    1164    1163    1138    1139
       8    1243    1242    1217    1218    1165    1164    1139    1140
       8    1244    1243    1218    1219    1166    1165    1140    1141
       8    1245    1244    1219    1220    1167    1166    1141    1142
       8    1246    1245    1220    1221    1168    1167    1142    1143
       8    1247    1246    1221    1175    1169    1168    1143    1097
       8    1223    1247    1175    1174    1145    1169    1097    1096
       8    1248    1249    1250    1251    1170    1171    1172    1173
       8    1250    1252    1253    1251    1172    1174    1175    1173
       8    1254    1249    1248    1255    1176    1171    1170    1177
       8    1248    1256    1257    1255    1170    1178    1179    1177
       8    1258    1259    1260    1254    1180    1181    1182    1176
       8    1261    1262    1259    1258    1183    1184    1181    1180
       8    1255    1261    1258    1254    1177    1183    1180    1176
       8    1263    1264    1256    1265    1185    1186    1178    1187
       8    1266    1267    1264    1263    1188    1189    1186    1185
       8    1268    1269    1267    1266    1190    1191    1189    1188
       8    1270    1268    1266    1271    1192    1190    1188    1193
       8    1272    1257    1256    1264    1194    1179    1178    1186
       8    1263    1273    1271    1266    1185    1195    1193    1188
       8    1248    1251    1265    1256    1170    1173    1187    1178
       8    1274    1261    1255    1257    1196    1183    1177    1179
       8    1275    1274    1257    1272    1197    1196    1179    1194
       8    1276    1275    1272    1277    1198    1197    1194    1199
       8    1267    1277    1272    1264    1189    1199    1194    1186
       8    1278    1279    1273    1263    1200    1201    1195    1185
       8    1280    1278    1263    1265    1202    1200    1185    1187
       8    1281    1280    1265    1251    1203    1202    1187    1173
       8    1282    1252    1250    1283    1204    1174    1172    1205
       8    1284    1283    1250    1249    1206    1205    1172    1171
       8    1260    1284    1249    1254    1182    1206    1171    1176
       8    1285    1262    1261    1274    1207    1184    1183    1196
       8    1286    1285    1274    1275    1208    1207    1196    1197
       8    1287    1286    1275    1276    1209    1208    1197    1198
       8    1288    1287    1276    1289    1210    1209    1198    1211
       8    1290    1289    1276    1277    1212    1211    1198    1199
       8    1269    1290    1277    1267    1191    1212    1199    1189
       8    1291    1270    1271    1273    1213    1192    1193    1195
       8    1292    1291    1273    1279    1214    1213    1195    1201
       8    1293    1292    1279    1294    1215    1214    1201    1216
       8    1295    1294    1279    1278    1217    1216    1201    1200
       8    1296    1295    1278    1280    1218    1217    1200    1202
       8    1297    1296    1280    1281    1219    1218    1202    1203
       8    1298    1297    1281    1299    1220    1219    1203    1221
       8    1253    1299    1281    1251    1175    1221    1203    1173
       8    1300    1301    1252    1282    1222    1223    1174    1204
       8    1302    1300    1282    1283    1224    1222    1204    1205
       8    1303    1302    1283    1284    1225    1224    1205    1206
       8    1304    1303    1284    1260    1226    1225    1206    1182
       8    1305    1304    1260    1259    1227    1226    1182    1181
       8    1306    1305    1259    1262    1228    1227    1181    1184
       8    1307    1306    1262    1285    1229    1228    1184    1207
       8    1308    1307    1285    1286    1230    1229    1207    1208
       8    1309    1308    1286    1287    1231    1230    1208    1209
       8    1310    1309    1287    1288    1232    1231    1209    1210
       8    1311    1310    1288    1289    1233    1232    1210    1211
       8    1312    1311    1289    1290    1234    1233    1211    1212
       8    1313    1312    1290    1269    1235    1234    1212    1191
       8    1314    1313    1269    1268    1236    1235    1191    1190
       8    1315    1314    1268    1270    1237    1236    1190    1192
       8    1316    1315    1270    1291    1238    1237    1192    1213
       8    1317    1316    1291    1292    1239    1238    1213    1214
       8    1318    1317    1292    1293    1240    1239    1214    1215
       8    1319    1318    1293    1294    1241    1240    1215    1216
       8    1320    1319    1294    1295    1242    1241    1216    1217
       8    1321    1320    1295    1296    1243    1242    1217    1218
       8    1322    1321    1296    1297    1244    1243    1218    1219
       8    1323    1322    1297    1298    1245    1244    1219    1220
       8    1324    1323    1298    1299    1246    1245    1220    1221
       8    1325    1324    1299    1253    1247    1246    1221    1175
       8    1301    1325    1253    1252    1223    1247    1175    1174
       8    1326    1327    1328    1329    1248    1249    1250    1251
       8    1328    1330    1331    1329    1250    1252    1253    1251
       8    1332    1327    1326    1333    1254    1249    1248    1255
       8    1326    1334    1335    1333    1248    1256    1257    1255
       8    1336    1337    1338    1332    1258    1259    1260    1254
       8    1339    1340    1337    1336    1261    1262    1259    1258
       8    1333    1339    1336    1332    1255    1261    1258    1254
       8    1341    1342    1334    1343    1263    1264    1256    1265
       8    1344    1345    1342    1341    1266    1267    1264    1263
       8    1346    1347    1345    1344    1268    1269    1267    1266
       8    1348    1346    1344    1349    1270    1268    1266    1271
       8    1350    1335    1334    1342    1272    1257    1256    1264
       8    1341    1351    1349    1344    1263    1273    1271    1266
       8    1326    1329    1343    1334    1248    1251    1265    1256
       8    1352    1339    1333    1335    1274    1261    1255    1257
       8    1353    1352    1335    1350    1275    1274    1257    1272
       8    1354    1353    1350    1355    1276    1275    1272    1277
       8    1345    1355    1350    1342    1267    1277    1272    1264
       8    1356    1357    1351    1341    1278    1279    1273    1263
       8    1358    1356    1341    1343    1280    1278    1263    1265
       8    1359    1358    1343    1329    1281    1280    1265    1251
       8    1360    1330    1328    1361    1282    1252    1250    1283
       8    1362    1361    1328    1327    1284    1283    1250    1249
       8    1338    1362    1327    1332    1260    1284    1249    1254
       8    1363    1340    1339    1352    1285    1262    1261    1274
       8    1364    1363    1352    1353    1286    1285    1274    1275
       8    1365    1364    1353    1354    1287    1286    1275    1276
       8    1366    1365    1354    1367    1288    1287    1276    1289
       8    1368    1367    1354    1355    1290    1289    1276    1277
       8    1347    1368    1355    1345    1269    1290    1277    1267
       8    1369    1348    1349    1351    1291    1270    1271    1273
       8    1370    1369    1351    1357    1292    1291    1273    1279
       8    1371    1370    1357    1372    1293    1292    1279    1294
       8    1373    1372    1357    1356    1295    1294    1279    1278
       8    1374    1373    1356    1358    1296    1295    1278    1280
       8    1375    1374    1358    1359    1297    1296    1280    1281
       8    1376    1375    1359    1377    1298    1297    1281    1299
       8    1331    1377    1359    1329    1253    1299    1281    1251
       8    1378    1379    1330    1360    1300    1301    1252    1282
       8    1380    1378    1360    1361    1302    1300    1282    1283
       8    1381    1380    1361    1362    1303    1302    1283    1284
       8    1382    1381    1362    1338    1304    1303    1284    1260
       8    1383    1382    1338    1337    1305    1304    1260    1259
       8    1384    1383    1337    1340    1306    1305    1259    1262
       8    1385    1384    1340    1363    1307    1306    1262    1285
       8    1386    1385    1363    1364    1308    1307    1285    1286
       8    1387    1386    1364    1365    1309    1308    1286    1287
       8    1388    1387    1365    1366    1310    1309    1287    1288
       8    1389    1388    1366    1367    1311    1310    1288    1289
       8    1390    1389    1367    1368    1312    1311    1289    1290
       8    1391    1390    1368    1347    1313    1312    1290    1269
       8    1392    1391    1347    1346    1314    1313    1269    1268
       8    1393    1392    1346    1348    1315    1314    1268    1270
       8    1394    1393    1348    1369    1316    1315    1270    1291
       8    1395    1394    1369    1370    1317    1316    1291    1292
       8    1396    1395    1370    1371    1318    1317    1292    1293
       8    1397    1396    1371    1372    1319    1318    1293    1294
       8    1398    1397    1372    1373    1320    1319    1294    1295
       8    1399    1398    1373    1374    1321    1320    1295    1296
       8    1400    1399    1374    1375    1322    1321    1296    1297
       8    1401    1400    1375    1376    1323    1322    1297    1298
       8    1402    1401    1376    1377    1324    1323    1298    1299
       8    1403    1402    1377    1331    1325    1324    1299    1253
       8    1379    1403    1331    1330    1301    1325    1253    1252
       8    1404    1405    1406    1407    1326    1327    1328    1329
       8    1406    1408    1409    1407    1328    1330    1331    1329
       8    1410    1405    1404    1411    1332    1327    1326    1333
       8    1404    1412    1413    1411    1326    1334    1335    1333
       8    1414    1415    1416    1410    1336    1337    1338    1332
       8    1417    1418    1415    1414    1339    1340    1337    1336
       8    1411    1417    1414    1410    1333    1339    1336    1332
       8    1419    1420    1412    1421    1341    1342    1334    1343
       8    1422    1423    1420    1419    1344    1345    1342    1341
       8    1424    1425    1423    1422    1346    1347    1345    1344
       8    1426    1424    1422    1427    1348    1346    1344    1349
       8    1428    1413    1412    1420    1350    1335    1334    1342
       8    1419    1429    1427    1422    1341    1351    1349    1344
       8    1404    1407    1421    1412    1326    1329    1343    1334
       8    1430    1417    1411    1413    1352    1339    1333    1335
       8    1431    1430    1413    1428    1353    1352    1335    1350
       8    1432    1431    1428    1433    1354    1353    1350    1355
       8    1423    1433    1428    1420    1345    1355    1350    1342
       8    1434    1435    1429    1419    1356    1357    1351    1341
       8    1436    1434    1419    1421    1358    1356    1341    1343
       8    1437    1436    1421    1407    1359    1358    1343    1329
       8    1438    1408    1406    1439    1360    1330    1328    1361
       8    1440    1439    1406    1405    1362    1361    1328    1327
       8    1416    1440    1405    1410    1338    1362    1327    1332
       8    1441    1418    1417    1430    1363    1340    1339    1352
       8    1442    1441    1430    1431    1364    1363    1352    1353
       8    1443    1442    1431    1432    1365    1364    1353    1354
       8    1444    1443    1432    1445    1366    1365    1354    1367
       8    1446    1445    1432    1433    1368    1367    1354    1355
       8    1425    1446    1433    1423    1347    1368    1355    1345
       8    1447    1426    1427    1429    1369    1348    1349    1351
       8    1448    1447    1429    1435    1370    1369    1351    1357
       8    1449    1448    1435    1450    1371    1370    1357    1372
       8    1451    1450    1435    1434    1373    1372    1357    1356
       8    1452    1451    1434    1436    1374    1373    1356    1358
       8    1453    1452    1436    1437    1375    1374    1358    1359
       8    1454    1453    1437    1455    1376    1375    1359    1377
       8    1409    1455    1437    1407    1331    1377    1359    1329
       8    1456    1457    1408    1438    1378    1379    1330    1360
       8    1458    1456    1438    1439    1380    1378    1360    1361
       8    1459    1458    1439    1440    1381    1380    1361    1362
       8    1460    1459    1440    1416    1382    1381    1362    1338
       8    1461    1460    1416    1415    1383    1382    1338    1337
       8    1462    1461    1415    1418    1384    1383    1337    1340
       8    1463    1462    1418    1441    1385    1384    1340    1363
       8    1464    1463    1441    1442    1386    1385    1363    1364
       8    1465    1464    1442    1443    1387    1386    1364    1365
       8    1466    1465    1443    1444    1388    1387    1365    1366
       8    1467    1466    1444    1445    1389    1388    1366    1367
       8    1468    1467    1445    1446    1390    1389    1367    1368
       8    1469    1468    1446    1425    1391    1390    1368    1347
       8    1470    1469    1425    1424    1392    1391    1347    1346
       8    1471    1470    1424    1426    1393    1392    1346    1348
       8    1472    1471    1426    1447    1394    1393    1348    1369
       8    1473    1472    1447    1448    1395    1394    1369    1370
       8    1474    1473    1448    1449    1396    1395    1370    1371
       8    1475    1474    1449    1450    1397    1396    1371    1372
       8    1476    1475    1450    1451    1398    1397    1372    1373
       8    1477    1476    1451    1452    1399    1398    1373    1374
       8    1478    1477    1452    1453    1400    1399    1374    1375
       8    1479    1478    1453    1454    1401    1400    1375    1376
       8    1480    1479    1454    1455    1402    1401    1376    1377
       8    1481    1480    1455    1409    1403    1402    1377    1331
       8    1457    1481    1409    1408    1379    1403    1331    1330
       8    1482    1483    1484    1485    1404    1405    1406    1407
       8    1484    1486    1487    1485    1406    1408    1409    1407
       8    1488    1483    1482    1489    1410    1405    1404    1411
       8    1482    1490    1491    1489    1404    1412    1413    1411
       8    1492    1493    1494    1488    1414    1415    1416    1410
       8    1495    1496    1493    1492    1417    1418    1415    1414
       8    1489    1495    1492    1488    1411    1417    1414    1410
       8    1497    1498    1490    1499    1419    1420    1412    1421
       8    1500    1501    1498    1497    1422    1423    1420    1419
       8    1502    1503    1501    1500    1424    1425    1423    1422
       8    1504    1502    1500    1505    1426    1424    1422    1427
       8    1506    1491    1490    1498    1428    1413    1412    1420
       8    1497    1507    1505    1500    1419    1429    1427    1422
       8    1482    1485    1499    1490    1404    1407    1421    1412
       8    1508    1495    1489    1491    1430    1417    1411    1413
       8    1509    1508    1491    1506    1431    1430    1413    1428
       8    1510    1509    1506    1511    1432    1431    1428    1433
       8    1501    1511    1506    1498    1423    1433    1428    1420
       8    1512    1513    1507    1497    1434    1435    1429    1419
       8    1514    1512    1497    1499    1436    1434    1419    1421
       8    1515    1514    1499    1485    1437    1436    1421    1407
       8    1516    1486    1484    1517    1438    1408    1406    1439
       8    1518    1517    1484    1483    1440    1439    1406    1405
       8    1494    1518    1483    1488    1416    1440    1405    1410
       8    1519    1496    1495    1508    1441    1418    1417    1430
       8    1520    1519    1508    1509    1442    1441    1430    1431
       8    1521    1520    1509    1510    1443    1442    1431    1432
       8    1522    1521    1510    1523    1444    1443    1432    1445
       8    1524    1523    1510    1511    1446    1445    1432    1433
       8    1503    1524    1511    1501    1425    1446    1433    1423
       8    1525    1504    1505    1507    1447    1426    1427    1429
       8    1526    1525    1507    1513    1448    1447    1429    1435
       8    1527    1526    1513    1528    1449    1448    1435    1450
       8    1529    1528    1513    1512    1451    1450    1435    1434
       8    1530    1529    1512    1514    1452    1451    1434    1436
       8    1531    1530    1514    1515    1453    1452    1436    1437
       8    1532    1531    1515    1533    1454    1453    1437    1455
       8    1487    1533    1515    1485    1409    1455    1437    1407
       8    1534    1535    1486    1516    1456    1457    1408    1438
       8    1536    1534    1516    1517    1458    1456    1438    1439
       8    1537    1536    1517    1518    1459    1458    1439    1440
       8    1538    1537    1518    1494    1460    1459    1440    1416
       8    1539    1538    1494    1493    1461    1460    1416    1415
       8    1540    1539    1493    1496    1462    1461    1415    1418
       8    1541    1540    1496    1519    1463    1462    1418    1441
       8    1542    1541    1519    1520    1464    1463    1441    1442
       8    1543    1542    1520    1521    1465    1464    1442    1443
       8    1544    1543    1521    1522    1466    1465    1443    1444
       8    1545    1544    1522    1523    1467    1466    1444    1445
       8    1546    1545    1523    1524    1468    1467    1445    1446
       8    1547    1546    1524    1503    1469    1468    1446    1425
       8    1548    1547    1503    1502    1470    1469    1425    1424
       8    1549    1548    1502    1504    1471    1470    1424    1426
       8    1550    1549    1504    1525    1472    1471    1426    1447
       8    1551    1550    1525    1526    1473    1472    1447    1448
       8    1552    1551    1526    1527    1474    1473    1448    1449
       8    1553    1552    1527    1528    1475    1474    1449    1450
       8    1554    1553    1528    1529    1476    1475    1450    1451
       8    1555    1554    1529    1530    1477    1476    1451    1452
       8    1556    1555    1530    1531    1478    1477    1452    1453
       8    1557    1556    1531    1532    1479    1478    1453    1454
       8    1558    1557    1532    1533    1480    1479    1454    1455
       8    1559    1558    1533    1487    1481    1480    1455    1409
       8    1535    1559    1487    1486    1457    1481    1409    1408
       8    1560    1561    1562    1563    1482    1483    1484    1485
       8    1562    1564    1565    1563    1484    1486    1487    1485
       8    1566    1561    1560    1567    1488    1483    1482    1489
       8    1560    1568    1569    1567    1482    1490    1491    1489
       8    1570    1571    1572    1566    1492    1493    1494    1488
       8    1573    1574    1571    1570    1495    1496    1493    1492
       8    1567    1573    1570    1566    1489    1495    1492    1488
       8    1575    1576    1568    1577    1497    1498    1490    1499
       8    1578    1579    1576    1575    1500    1501    1498    1497
       8    1580    1581    1579    1578    1502    1503    1501    1500
       8    1582    1580    1578    1583    1504    1502    1500    1505
       8    1584    1569    1568    1576    1506    1491    1490    1498
       8    1575    1585    1583    1578    1497    1507    1505    1500
       8    1560    1563    1577    1568    1482    1485    1499    1490
       8    1586    1573    1567    1569    1508    1495    1489    1491
       8    1587    1586    1569    1584    1509    1508    1491    1506
       8    1588    1587    1584    1589    1510    1509    1506    1511
       8    1579    1589    1584    1576    1501    1511    1506    1498
       8    1590    1591    1585    1575    1512    1513    1507    1497
       8    1592    1590    1575    1577    1514    1512    1497    1499
       8    1593    1592    1577    1563    1515    1514    1499    1485
       8    1594    1564    1562    1595    1516    1486    1484    1517
       8    1596    1595    1562    1561    1518    1517    1484    1483
       8    1572    1596    1561    1566    1494    1518    1483    1488
       8    1597    1574    1573    1586    1519    1496    1495    1508
       8    1598    1597    1586    1587    1520    1519    1508    1509
       8    1599    1598    1587    1588    1521    1520    1509    1510
       8    1600    1599    1588    1601    1522    1521    1510    1523
       8    1602    1601    1588    1589    1524    1523    1510    1511
       8    1581    1602    1589    1579    1503    1524    1511    1501
       8    1603    1582    1583    1585    1525    1504    1505    1507
       8    1604    1603    1585    1591    1526    1525    1507    1513
       8    1605    1604    1591    1606    1527    1526    1513    1528
       8    1607    1606    1591    1590    1529    1528    1513    1512
       8    1608    1607    1590    1592    1530    1529    1512    1514
       8    1609    1608    1592    1593    1531    1530    1514    1515
       8    1610    1609    1593    1611    1532    1531    1515    1533
       8    1565    1611    1593    1563    1487    1533    1515    1485
       8    1612    1613    1564    1594    1534    1535    1486    1516
       8    1614    1612    1594    1595    1536    1534    1516    1517
       8    1615    1614    1595    1596    1537    1536    1517    1518
       8    1616    1615    1596    1572    1538    1537    1518    1494
       8    1617    1616    1572    1571    1539    1538    1494    1493
       8    1618    1617    1571    1574    1540    1539    1493    1496
       8    1619    1618    1574    1597    1541    1540    1496    1519
       8    1620    1619    1597    1598    1542    1541    1519    1520
       8    1621    1620    1598    1599    1543    1542    1520    1521
       8    1622    1621    1599    1600    1544    1543    1521    1522
       8    1623    1622    1600    1601    1545    1544    1522    1523
       8    1624    1623    1601    1602    1546    1545    1523    1524
       8    1625    1624    1602    1581    1547    1546    1524    1503
       8    1626    1625    1581    1580    1548    1547    1503    1502
       8    1627    1626    1580    1582    1549    1548    1502    1504
       8    1628    1627    1582    1603    1550    1549    1504    1525
       8    1629    1628    1603    1604    1551    1550    1525    1526
       8    1630    1629    1604    1605    1552    1551    1526    1527
       8    1631    1630    1605    1606    1553    1552    1527    1528
       8    1632    1631    1606    1607    1554    1553    1528    1529
       8    1633    1632    1607    1608    1555    1554    1529    1530
       8    1634    1633    1608    1609    1556    1555    1530    1531
       8    1635    1634    1609    1610    1557    1556    1531    1532
       8    1636    1635    1610    1611    1558    1557    1532    1533
       8    1637    1636    1611    1565    1559    1558    1533    1487
       8    1613    1637    1565    1564    1535    1559    1487    1486
       8    1638    1639    1640    1641    1560    1561    1562    1563
       8    1640    1642    1643    1641    1562    1564    1565    1563
       8    1644    1639    1638    1645    1566    1561    1560    1567
       8    1638    1646    1647    1645    1560    1568    1569    1567
       8    1648    1649    1650    1644    1570    1571    1572    1566
       8    1651    1652    1649    1648    1573    1574    1571    1570
       8    1645    1651    1648    1644    1567    1573    1570    1566
       8    1653    1654    1646    1655    1575    1576    1568    1577
       8    1656    1657    1654    1653    1578    1579    1576    1575
       8    1658    1659    1657    1656    1580    1581    1579    1578
       8    1660    1658    1656    1661    1582    1580    1578    1583
       8    1662    1647    1646    1654    1584    1569    1568    1576
       8    1653    1663    1661    1656    1575    1585    1583    1578
       8    1638    1641    1655    1646    1560    1563    1577    1568
       8    1664    1651    1645    1647    1586    1573    1567    1569
       8    1665    1664    1647    1662    1587    1586    1569    1584
       8    1666    1665    1662    1667    1588    1587    1584    1589
       8    1657    1667    1662    1654    1579    1589    1584    1576
       8    1668    1669    1663    1653    1590    1591    1585    1575
       8    1670    1668    1653    1655    1592    1590    1575    1577
       8    1671    1670    1655    1641    1593    1592    1577    1563
       8    1672    1642    1640    1673    1594    1564    1562    1595
       8    1674    1673    1640    1639    1596    1595    1562    1561
       8    1650    1674    1639    1644    1572    1596    1561    1566
       8    1675    1652    1651    1664    1597    1574    1573    1586
       8    1676    1675    1664    1665    1598    1597    1586    1587
       8    1677    1676    1665    1666    1599    1598    1587    1588
       8    1678    1677    1666    1679    1600    1599    1588    1601
       8    1680    1679    1666    1667    1602    1601    1588    1589
       8    1659    1680    1667    1657    1581    1602    1589    1579
       8    1681    1660    1661    1663    1603    1582    1583    1585
       8    1682    1681    1663    1669    1604    1603    1585    1591
       8    1683    1682    1669    1684    1605    1604    1591    1606
       8    1685    1684    1669    1668    1607    1606    1591    1590
       8    1686    1685    1668    1670    1608    1607    1590    1592
       8    1687    1686    1670    1671    1609    1608    1592    1593
       8    1688    1687    1671    1689    1610    1609    1593    1611
       8    1643    1689    1671    1641    1565    1611    1593    1563
       8    1690    1691    1642    1672    1612    1613    1564    1594
       8    1692    1690    1672    1673    1614    1612    1594    1595
       8    1693    1692    1673    1674    1615    1614    1595    1596
       8    1694    1693    1674    1650    1616    1615    1596    1572
       8    1695    1694    1650    1649    1617    1616    1572    1571
       8    1696    1695    1649    1652    1618    1617    1571    1574
       8    1697    1696    1652    1675    1619    1618    1574    1597
       8    1698    1697    1675    1676    1620    1619    1597    1598
       8    1699    1698    1676    1677    1621    1620    1598    1599
       8    1700    1699    1677    1678    1622    1621    1599    1600
       8    1701    1700    1678    1679    1623    1622    1600    1601
       8    1702    1701    1679    1680    1624    1623    1601    1602
       8    1703    1702    1680    1659    1625    1624    1602    1581
       8    1704    1703    1659    1658    1626    1625    1581    1580
       8    1705    1704    1658    1660    1627    1626    1580    1582
       8    1706    1705    1660    1681    1628    1627    1582    1603
       8    1707    1706    1681    1682    1629    1628    1603    1604
       8    1708    1707    1682    1683    1630    1629    1604    1605
       8    1709    1708    1683    1684    1631    1630    1605    1606
       8    1710    1709    1684    1685    1632    1631    1606    1607
       8    1711    1710    1685    1686    1633    1632    1607    1608
       8    1712    1711    1686    1687    1634    1633    1608    1609
       8    1713    1712    1687    1688    1635    1634    1609    1610
       8    1714    1713    1688    1689    1636    1635    1610    1611
       8    1715    1714    1689    1643    1637    1636    1611    1565
       8    1691    1715    1643    1642    1613    1637    1565    1564
       8    1716    1717    1718    1719    1638    1639    1640    1641
       8    1718    1720    1721    1719    1640    1642    1643    1641
       8    1722    1717    1716    1723    1644    1639    1638    1645
       8    1716    1724    1725    1723    1638    1646    1647    1645
       8    1726    1727    1728    1722    1648    1649    1650    1644
       8    1729    1730    1727    1726    1651    1652    1649    1648
       8    1723    1729    1726    1722    1645    1651    1648    1644
       8    1731    1732    1724    1733    1653    1654    1646    1655
       8    1734    1735    1732    1731    1656    1657    1654    1653
       8    1736    1737    1735    1734    1658    1659    1657    1656
       8    1738    1736    1734    1739    1660    1658    1656    1661
       8    1740    1725    1724    1732    1662    1647    1646    1654
       8    1731    1741    1739    1734    1653    1663    1661    1656
       8    1716    1719    1733    1724    1638    1641    1655    1646
       8    1742    1729    1723    1725    1664    1651    1645    1647
       8    1743    1742    1725    1740    1665    1664    1647    1662
       8    1744    1743    1740    1745    1666    1665    1662    1667
       8    1735    1745    1740    1732    1657    1667    1662    1654
       8    1746    1747    1741    1731    1668    1669    1663    1653
       8    1748    1746    1731    1733    1670    1668    1653    1655
       8    1749    1748    1733    1719    1671    1670    1655    1641
       8    1750    1720    1718    1751    1672    1642    1640    1673
       8    1752    1751    1718    1717    1674    1673    1640    1639
       8    1728    1752    1717    1722    1650    1674    1639    1644
       8    1753    1730    1729    1742    1675    1652    1651    1664
       8    1754    1753    1742    1743    1676    1675    1664    1665
       8    1755    1754    1743    1744    1677    1676    1665    1666
       8    1756    1755    1744    1757    1678    1677    1666    1679
       8    1758    1757    1744    1745    1680    1679    1666    1667
       8    1737    1758    1745    1735    1659    1680    1667    1657
       8    1759    1738    1739    1741    1681    1660    1661    1663
       8    1760    1759    1741    1747    1682    1681    1663    1669
       8    1761    1760    1747    1762    1683    1682    1669    1684
       8    1763    1762    1747    1746    1685    1684    1669    1668
       8    1764    1763    1746    1748    1686    1685    1668    1670
       8    1765    1764    1748    1749    1687    1686    1670    1671
       8    1766    1765    1749    1767    1688    1687    1671    1689
       8    1721    1767    1749    1719    1643    1689    1671    1641
       8    1768    1769    1720    1750    1690    1691    1642    1672
       8    1770    1768    1750    1751    1692    1690    1672    1673
       8    1771    1770    1751    1752    1693    1692    1673    1674
       8    1772    1771    1752    1728    1694    1693    1674    1650
       8    1773    1772    1728    1727    1695    1694    1650    1649
       8    1774    1773    1727    1730    1696    1695    1649    1652
       8    1775    1774    1730    1753    1697    1696    1652    1675
       8    1776    1775    1753    1754    1698    1697    1675    1676
       8    1777    1776    1754    1755    1699    1698    1676    1677
       8    1778    1777    1755    1756    1700    1699    1677    1678
       8    1779    1778    1756    1757    1701    1700    1678    1679
       8    1780    1779    1757    1758    1702    1701    1679    1680
       8    1781    1780    1758    1737    1703    1702    1680    1659
       8    1782    1781    1737    1736    1704    1703    1659    1658
       8    1783    1782    1736    1738    1705    1704    1658    1660
       8    1784    1783    1738    1759    1706    1705    1660    1681
       8    1785    1784    1759    1760    1707    1706    1681    1682
       8    1786    1785    1760    1761    1708    1707    1682    1683
       8    1787    1786    1761    1762    1709    1708    1683    1684
       8    1788    1787    1762    1763    1710    1709    1684    1685
       8    1789    1788    1763    1764    1711    1710    1685    1686
       8    1790    1789    1764    1765    1712    1711    1686    1687
       8    1791    1790    1765    1766    1713    1712    1687    1688
       8    1792    1791    1766    1767    1714    1713    1688    1689
       8    1793    1792    1767    1721    1715    1714    1689    1643
       8    1769    1793    1721    1720    1691    1715    1643    1642
       8    1794    1795    1796    1797    1716    1717    1718    1719
       8    1796    1798    1799    1797    1718    1720    1721    1719
       8    1800    1795    1794    1801    1722    1717    1716    1723
       8    1794    1802    1803    1801    1716    1724    1725    1723
       8    1804    1805    1806    1800    1726    1727    1728    1722
       8    1807    1808    1805    1804    1729    1730    1727    1726
       8    1801    1807    1804    1800    1723    1729    1726    1722
       8    1809    1810    1802    1811    1731    1732    1724    1733
       8    1812    1813    1810    1809    1734    1735    1732    1731
       8    1814    1815    1813    1812    1736    1737    1735    1734
       8    1816    1814    1812    1817    1738    1736    1734    1739
       8    1818    1803    1802    1810    1740    1725    1724    1732
       8    1809    1819    1817    1812    1731    1741    1739    1734
       8    1794    1797    1811    1802    1716    1719    1733    1724
       8    1820    1807    1801    1803    1742    1729    1723    1725
       8    1821    1820    1803    1818    1743    1742    1725    1740
       8    1822    1821    1818    1823    1744    1743    1740    1745
       8    1813    1823    1818    1810    1735    1745    1740    1732
       8    1824    1825    1819    1809    1746    1747    1741    1731
       8    1826    1824    1809    1811    1748    1746    1731    1733
       8    1827    1826    1811    1797    1749    1748    1733    1719
       8    1828    1798    1796    1829    1750    1720    1718    1751
       8    1830    1829    1796    1795    1752    1751    1718    1717
       8    1806    1830    1795    1800    1728    1752    1717    1722
       8    1831    1808    1807    1820    1753    1730    1729    1742
       8    1832    1831    1820    1821    1754    1753    1742    1743
       8    1833    1832    1821    1822    1755    1754    1743    1744
       8    1834    1833    1822    1835    1756    1755    1744    1757
       8    1836    1835    1822    1823    1758    1757    1744    1745
       8    1815    1836    1823    1813    1737    1758    1745    1735
       8    1837    1816    1817    1819    1759    1738    1739    1741
       8    1838    1837    1819    1825    1760    1759    1741    1747
       8    1839    1838    1825    1840    1761    1760    1747    1762
       8    1841    1840    1825    1824    1763    1762    1747    1746
       8    1842    1841    1824    1826    1764    1763    1746    1748
       8    1843    1842    1826    1827    1765    1764    1748    1749
       8    1844    1843    1827    1845    1766    1765    1749    1767
       8    1799    1845    1827    1797    1721    1767    1749    1719
       8    1846    1847    1798    1828    1768    1769    1720    1750
       8    1848    1846    1828    1829    1770    1768    1750    1751
       8    1849    1848    1829    1830    1771    1770    1751    1752
       8    1850    1849    1830    1806    1772    1771    1752    1728
       8    1851    1850    1806    1805    1773    1772    1728    1727
       8    1852    1851    1805    1808    1774    1773    1727    1730
       8    1853    1852    1808    1831    1775    1774    1730    1753
       8    1854    1853    1831    1832    1776    1775    1753    1754
       8    1855    1854    1832    1833    1777    1776    1754    1755
       8    1856    1855    1833    1834    1778    1777    1755    1756
       8    1857    1856    1834    1835    1779    1778    1756    1757
       8    1858    1857    1835    1836    1780    1779    1757    1758
       8    1859    1858    1836    1815    1781    1780    1758    1737
       8    1860    1859    1815    1814    1782    1781    1737    1736
       8    1861    1860    1814    1816    1783    1782    1736    1738
       8    1862    1861    1816    1837    1784    1783    1738    1759
       8    1863    1862    1837    1838    1785    1784    1759    1760
       8    1864    1863    1838    1839    1786    1785    1760    1761
       8    1865    1864    1839    1840    1787    1786    1761    1762
       8    1866    1865    1840    1841    1788    1787    1762    1763
       8    1867    1866    1841    1842    1789    1788    1763    1764
       8    1868    1867    1842    1843    1790    1789    1764    1765
       8    1869    1868    1843    1844    1791    1790    1765    1766
       8    1870    1869    1844    1845    1792    1791    1766    1767
       8    1871    1870    1845    1799    1793    1792    1767    1721
       8    1847    1871    1799    1798    1769    1793    1721    1720
       8    1872    1873    1874    1875    1794    1795    1796    1797
       8    1874    1876    1877    1875    1796    1798    1799    1797
       8    1878    1873    1872    1879    1800    1795    1794    1801
       8    1872    1880    1881    1879    1794    1802    1803    1801
       8    1882    1883    1884    1878    1804    1805    1806    1800
       8    1885    1886    1883    1882    1807    1808    1805    1804
       8    1879    1885    1882    1878    1801    1807    1804    1800
       8    1887    1888    1880    1889    1809    1810    1802    1811
       8    1890    1891    1888    1887    1812    1813    1810    1809
       8    1892    1893    1891    1890    1814    1815    1813    1812
       8    1894    1892    1890    1895    1816    1814    1812    1817
       8    1896    1881    1880    1888    1818    1803    1802    1810
       8    1887    1897    1895    1890    1809    1819    1817    1812
       8    1872    1875    1889    1880    1794    1797    1811    1802
       8    1898    1885    1879    1881    1820    1807    1801    1803
       8    1899    1898    1881    1896    1821    1820    1803    1818
       8    1900    1899    1896    1901    1822    1821    1818    1823
       8    1891    1901    1896    1888    1813    1823    1818    1810
       8    1902    1903    1897    1887    1824    1825    1819    1809
       8    1904    1902    1887    1889    1826    1824    1809    1811
       8    1905    1904    1889    1875    1827    1826    1811    1797
       8    1906    1876    1874    1907    1828    1798    1796    1829
       8    1908    1907    1874    1873    1830    1829    1796    1795
       8    1884    1908    1873    1878    1806    1830    1795    1800
       8    1909    1886    1885    1898    1831    1808    1807    1820
       8    1910    1909    1898    1899    1832    1831    1820    1821
       8    1911    1910    1899    1900    1833    1832    1821    1822
       8    1912    1911    1900    1913    1834    1833    1822    1835
       8    1914    1913    1900    1901    1836    1835    1822    1823
       8    1893    1914    1901    1891    1815    1836    1823    1813
       8    1915    1894    1895    1897    1837    1816    1817    1819
       8    1916    1915    1897    1903    1838    1837    1819    1825
       8    1917    1916    1903    1918    1839    1838    1825    1840
       8    1919    1918    1903    1902    1841    1840    1825    1824
       8    1920    1919    1902    1904    1842    1841    1824    1826
       8    1921    1920    1904    1905    1843    1842    1826    1827
       8    1922    1921    1905    1923    1844    1843    1827    1845
       8    1877    1923    1905    1875    1799    1845    1827    1797
       8    1924    1925    1876    1906    1846    1847    1798    1828
       8    1926    1924    1906    1907    1848    1846    1828    1829
       8    1927    1926    1907    1908    1849    1848    1829    1830
       8    1928    1927    1908    1884    1850    1849    1830    1806
       8    1929    1928    1884    1883    1851    1850    1806    1805
       8    1930    1929    1883    1886    1852    1851    1805    1808
       8    1931    1930    1886    1909    1853    1852    1808    1831
       8    1932    1931    1909    1910    1854    1853    1831    1832
       8    1933    1932    1910    1911    1855    1854    1832    1833
       8    1934    1933    1911    1912    1856    1855    1833    1834
       8    1935    1934    1912    1913    1857    1856    1834    1835
       8    1936    1935    1913    1914    1858    1857    1835    1836
       8    1937    1936    1914    1893    1859    1858    1836    1815
       8    1938    1937    1893    1892    1860    1859    1815    1814
       8    1939    1938    1892    1894    1861    1860    1814    1816
       8    1940    1939    1894    1915    1862    1861    1816    1837
       8    1941    1940    1915    1916    1863    1862    1837    1838
       8    1942    1941    1916    1917    1864    1863    1838    1839
       8    1943    1942    1917    1918    1865    1864    1839    1840
       8    1944    1943    1918    1919    1866    1865    1840    1841
       8    1945    1944    1919    1920    1867    1866    1841    1842
       8    1946    1945    1920    1921    1868    1867    1842    1843
       8    1947    1946    1921    1922    1869    1868    1843    1844
       8    1948    1947    1922    1923    1870    1869    1844    1845
       8    1949    1948    1923    1877    1871    1870    1845    1799
       8    1925    1949    1877    1876    1847    1871    1799    1798
  
CELL_TYPES    3486
       1
       1
       1
       1
       1
       1
       1
       1
       1
       1
       1
       1
       1
       1
       1
       1
       1
       1
       1
       1
       1
       1
       1
       1
       1
       1
       1
       1
       1
       1
       1
       1
       1
       1
       1
       1
       1
       1
       1
       1
       1
       1
       1
       1
       1
       1
       1
       1
       1
       1
       1
       1
       1
       1
       1
       1
       1
       1
       1
       1
       1
       1
       1
       1
       1
       1
       1
       1
       1
       1
       1
       1
       1
       1
       1
       1
       1
       1
       1
       1
       1
       1
       1
       1
       1
       1
       1
       1
       1
       1
       1
       1
       1
       1
       1
       1
       1
       1
       1
       1
       1
       1
       1
       1
       1
       1
       1
       1
       1
       1
       1
       1
       1
       1
       1
       1
       1
       1
       1
       1
       1
       1
       1
       1
       1
       1
       1
       1
       1
       1
       1
       1
       1
       1
       1
       1
       1
       1
       1
       1
       1
       1
       1
       1
       1
       1
       1
       1
       1
       1
       1
       1
       1
       1
       1
       1
       1
       1
       1
       1
       1
       1
       1
       1
       1
       1
       1
       1
       1
       1
       1
       1
       1
       1
       1
       1
       1
       1
       1
       1
       1
       1
       1
       1
       1
       1
       1
       1
       1
       1
       1
       1
       1
       1
       1
       1
       1
       1
       1
       1
       1
       1
       1
       1
       1
       1
       1
       1
       1
       1
       1
       1
       1
       1
       1
       1
       1
       1
       1
       1
       1
       1
       1
       1
       1
       1
       1
       1
       1
       1
       1
       1
       1
       1
       1
       1
       1
       1
       1
       1
       1
       1
       1
       1
       1
       1
       1
       1
       1
       1
       1
       1
       1
       1
       1
       1
       1
       1
       1
       1
       1
       1
       1
       1
       1
       1
       1
       1
       1
       1
       1
       1
       1
       1
       1
       1
       1
       1
       1
       1
       1
       1
       1
       1
       1
       1
       1
       1
       1
       1
       1
       1
       1
       1
       1
       1
       1
       1
       1
       1
       1
       1
       1
       1
       1
       1
       1
       1
       1
       1
       1
       1
       1
       1
       1
       1
       1
       1
       1
       1
       1
       1
       1
       1
       1
       1
       1
       1
       1
       1
       1
       1
       1
       1
       1
       1
       1
       1
       1
       1
       1
       1
       1
       1
       1
       1
       1
       1
       1
       1
       1
       1
       1
       1
       1
       1
       1
       1
       1
       1
       1
       1
       1
       1
       1
       1
       1
       1
       1
       1
       1
       1
       1
       1
       1
       1
       1
       1
       1
       1
       1
       1
       1
       1
       1
       1
       1
       1
       1
       1
       1
       1
       1
       1
       1
       1
       1
       1
       1
       1
       1
       1
       1
       1
       1
       1
       1
       1
       1
       1
       1
       1
       1
       1
       1
       1
       1
       1
       1
       1
       1
       1
       1
       1
       1
       1
       1
       1
       1
       1
       1
       1
       1
       1
       1
       1
       1
       1
       1
       1
       1
       1
       1
       1
       1
       1
       1
       1
       1
       1
       1
       1
       1
       1
       1
       1
       1
       1
       1
       1
       1
       1
       1
       1
       1
       1
       1
       1
       1
       1
       1
       1
       1
       1
       1
       1
       1
       1
       1
       1
       1
       1
       1
       1
       1
       1
       1
       1
       1
       1
       1
       1
       1
       1
       1
       1
       1
       1
       1
       1
       1
       1
       1
       1
       1
       1
       1
       1
       1
       1
       1
       1
       1
       1
       1
       1
       1
       1
       1
       1
       1
       1
       1
       1
       1
       1
       1
       1
       1
       1
       1
       1
       1
       1
       1
       1
       1
       1
       1
       1
       1
       1
       1
       1
       1
       1
       1
       1
       1
       1
       1
       1
       1
       1
       1
       1
       1
       1
       1
       1
       1
       1
       1
       1
       1
       1
       1
       1
       1
       1
       1
       1
       1
       1
       1
       1
       1
       1
       1
       1
       1
       1
       1
       1
       1
       1
       1
       1
       1
       1
       1
       1
       1
       1
       1
       1
       1
       1
       1
       1
       1
       1
       1
       1
       1
       1
       1
       1
       1
       1
       1
       1
       1
       1
       1
       1
       1
       1
       1
       1
       1
       1
       1
       1
       1
       1
       1
       1
       1
       1
       1
       1
       1
       1
       1
       1
       1
       1
       1
       1
       1
       1
       1
       1
       1
       1
       1
       1
       1
       1
       1
       1
       1
       1
       1
       1
       1
       1
       1
       1
       1
       1
       1
       1
       1
       1
       1
       1
       1
       1
       1
       1
       1
       1
       1
       1
       1
       1
       1
       1
       1
       1
       1
       1
       1
       1
       1
       1
       1
       1
       1
       1
       1
       1
       1
       1
       1
       1
       1
       1
       1
       1
       1
       1
       1
       1
       1
       1
       1
       1
       1
       1
       1
       1
       1
       1
       1
       1
       1
       1
       1
       1
       1
       1
       1
       1
       1
       1
       1
       1
       1
       1
       1
       1
       1
       1
       1
       1
       1
       1
       1
       1
       1
       1
       1
       1
       1
       1
       1
       1
       1
       1
       1
       1
       1
       1
       1
       1
       1
       1
       1
       1
       1
       1
       1
       1
       1
       1
       1
       1
       1
       1
       1
       1
       1
       1
       1
       1
       1
       1
       1
       1
       1
       1
       1
       1
       1
       1
       1
       1
       1
       1
       1
       1
       1
       1
       1
       1
       1
       1
       1
       1
       1
       1
       1
       1
       1
       1
       1
       1
       1
       1
       1
       1
       1
       1
       1
       1
       1
       1
       1
       1
       1
       1
       1
       1
       1
       1
       1
       1
       1
       1
       1
       1
       1
       1
       1
       1
       1
       1
       1
       1
       1
       1
       1
       1
       1
       1
       1
       1
       1
       1
       1
       1
       1
       1
       1
       1
       1
       1
       1
       1
       1
       1
       1
       1
       1
       1
       1
       1
       1
       1
       1
       1
       1
       1
       1
       1
       1
       1
       1
       1
       1
       1
       1
       1
       1
       1
       1
       1
       1
       1
       1
       1
       1
       1
       1
       1
       1
       1
       1
       1
       1
       1
       1
       1
       1
       1
       1
       1
       1
       1
       1
       1
       1
       1
       1
       1
       1
       1
       1
       1
       1
       1
       1
       1
       1
       1
       1
       1
       1
       1
       1
       1
       1
       1
       1
       1
       1
       1
       1
       1
       1
       1
       1
       1
       1
       1
       1
       1
       1
       1
       1
       1
       1
       1
       1
       1
       1
       1
       1
       1
       1
       1
       1
       1
       1
       1
       1
       1
       1
       1
       1
       1
       1
       1
       1
       1
       1
       1
       1
       1
       1
       1
       1
       1
       1
       1
       1
       1
       1
       1
       1
       1
       1
       1
       1
       1
       1
       1
       1
       1
       1
       1
       1
       1
       1
       1
       1
       1
       1
       1
       1
       1
       1
       1
       1
       1
       1
       1
       1
       1
       1
       1
       1
       1
       1
       1
       1
       1
       1
       1
       1
       1
       1
       1
       1
       1
       1
       1
       1
       1
       1
       1
       1
       1
       1
       1
       1
       1
       1
       1
       1
       1
       1
       1
       1
       1
       1
       1
       1
       1
       1
       1
       1
       1
       1
       1
       1
       1
       1
       1
       1
       1
       1
       1
       1
       1
       1
       1
       1
       1
       1
       1
       1
       1
       1
       1
       1
       1
       1
       1
       1
       1
       1
       1
       1
       1
       1
       1
       1
       1
       1
       1
       1
       1
       1
       1
       1
       1
       1
       1
       1
       1
       1
       1
       1
       1
       1
       1
       1
       1
       1
       1
       1
       1
       1
       1
       1
       1
       1
       1
       1
       1
       1
       1
       1
       1
       1
       1
       1
       1
       1
       1
       1
       1
       1
       1
       1
       1
       1
       1
       1
       1
       1
       1
       1
       1
       1
       1
       1
       1
       1
       1
       1
       1
       1
       1
       1
       1
       1
       1
       1
       1
       1
       1
       1
       1
       1
       1
       1
       1
       1
       1
       1
       1
       1
       1
       1
       1
       1
       1
       1
       1
       1
       1
       1
       1
       1
       1
       1
       1
       1
       1
       1
       1
       1
       1
       1
       1
       1
       1
       1
       1
       1
       1
       1
       1
       1
       1
       1
       1
       1
       1
       1
       1
       1
       1
       1
       1
       1
       1
       1
       1
       1
       1
       1
       1
       1
       1
       1
       1
       1
       1
       1
       1
       1
       1
       1
       1
       1
       1
       1
       1
       1
       1
       1
       1
       1
       1
       1
       1
       1
       1
       1
       1
       1
       1
       1
       1
       1
       1
       1
       1
       1
       1
       1
       1
       1
       1
       1
       1
       1
       1
       1
       1
       1
       1
       1
       1
       1
       1
       1
       1
       1
       1
       1
       1
       1
       1
       1
       1
       1
       1
       1
       1
       1
       1
       1
       1
       1
       1
       1
       1
       1
       1
       1
       1
       1
       1
       1
       1
       1
       1
       1
       1
       1
       1
       1
       1
       1
       1
       1
       1
       1
       1
       1
       1
       1
       1
       1
       1
       1
       1
       1
       1
       1
       1
       1
       1
       1
       1
       1
       1
       1
       1
       1
       1
       1
       1
       1
       1
       1
       1
       1
       1
       1
       1
       1
       1
       1
       1
       1
       1
       1
       1
       1
       1
       1
       1
       1
       1
       1
       1
       1
       1
       1
       1
       1
       1
       1
       1
       1
       1
       1
       1
       1
       1
       1
       1
       1
       1
       1
       1
       1
       1
       1
       1
       1
       1
       1
       1
       1
       1
       1
       1
       1
       1
       1
       1
       1
       1
       1
       1
       1
       1
       1
       1
       1
       1
       1
       1
       1
       1
       1
       1
       1
       1
       1
       1
       1
       1
       1
       1
       1
       1
       1
       1
       1
       1
       1
       1
       1
       1
       1
       1
       1
       1
       1
       1
       1
       1
       1
       1
       1
       1
       1
       1
       1
       1
       1
       1
       1
       1
       1
       1
       1
       1
       1
       1
       1
       1
       1
       1
       1
       1
       1
       1
       1
       1
       1
       1
       1
       1
       1
       1
       1
       1
       1
       1
       1
       1
       1
       1
       1
       1
       1
       1
       1
       1
       1
       1
       1
       1
       1
       1
       1
       1
       1
       1
       1
       1
       1
       1
       1
       1
       1
       1
       1
       1
       1
       1
       1
       1
       1
       1
       1
       1
       1
       1
       1
       1
       1
       1
       1
       1
       1
       1
       1
       1
       1
       1
       1
       1
       1
       1
       1
       1
       1
       1
       1
       1
       1
       1
       1
       1
       1
       1
       1
       1
       1
       1
       1
       1
       1
       1
       1
       1
       1
       1
       1
       1
       1
       1
       1
       1
       1
       1
       1
       1
       1
       1
       1
       1
       1
       1
       1
       1
       1
       1
       1
       1
       1
       1
       1
       1
       1
       1
       1
       1
       1
       1
       1
       1
       1
       1
       1
       1
       1
       1
       1
       1
       1
       1
       1
       1
       1
       1
       1
       1
       1
       1
       1
       1
       1
       1
       1
       1
       1
       1
       1
       1
       1
       1
       1
       1
       1
       1
       1
       1
       1
       1
       1
       1
       1
       1
       1
       1
       1
       1
       1
       1
       1
       1
       1
       1
       1
       1
       1
       1
       1
       1
       1
       1
       1
       1
       1
       1
       1
       1
       1
       1
       1
       1
       1
       1
       1
       1
       1
       1
       1
       1
       1
       1
       1
       1
       1
       1
       1
       1
       1
       1
       1
       1
       1
       1
       1
       1
       1
       1
       1
       1
       1
       1
       1
       1
       1
       1
       1
       1
       1
       1
       1
       1
       1
       1
       1
       1
       1
       1
       1
       1
       1
       1
       1
       1
       1
       1
       1
       1
       1
       1
       1
       1
       1
       1
       1
       1
       1
       1
       1
       1
       1
       1
       1
       1
       1
       1
       1
       1
       1
       1
       1
       1
       1
       1
       1
       1
       1
       1
       1
       1
       1
       1
       1
       1
       1
       1
       1
       1
       1
       1
       1
       1
       1
       1
       1
       1
       1
       1
       1
       1
       1
       1
       1
       1
       1
       1
       1
       1
       1
       1
       1
       1
       1
       1
       1
       1
       1
       1
       1
       1
       1
       1
       1
       1
       1
       1
       1
       1
       1
       1
       1
       1
       1
       1
       1
       1
       1
       1
       1
       1
       1
       1
       1
       1
       1
       1
       1
       1
       1
       1
       1
       1
       1
       1
       1
       1
       1
       1
       1
       1
       1
       1
       1
       1
       1
       1
       1
       1
       1
       1
       1
       1
       1
       1
       1
       1
       1
       1
       1
       1
       1
       1
       1
       1
       1
       1
       1
       1
       1
       1
       1
       1
       1
       1
       1
       1
       1
       1
       1
       1
       1
       1
       1
       1
       1
       1
       1
       1
       1
       1
       1
       1
       1
       1
       1
       1
       1
       1
       1
       1
       1
       1
       1
       1
       1
       1
       1
       1
       1
       1
       1
       1
       1
       1
       1
       1
       1
       1
       1
       1
       1
       1
       1
       1
       1
       1
       1
       1
       1
       1
       1
       1
       1
       1
       1
       1
       1
       1
      12
      12
      12
      12
      12
      12
      12
      12
      12
      12
      12
      12
      12
      12
      12
      12
      12
      12
      12
      12
      12
      12
      12
      12
      12
      12
      12
      12
      12
      12
      12
      12
      12
      12
      12
      12
      12
      12
      12
      12
      12
      12
      12
      12
      12
      12
      12
      12
      12
      12
      12
      12
      12
      12
      12
      12
      12
      12
      12
      12
      12
      12
      12
      12
      12
      12
      12
      12
      12
      12
      12
      12
      12
      12
      12
      12
      12
      12
      12
      12
      12
      12
      12
      12
      12
      12
      12
      12
      12
      12
      12
      12
      12
      12
      12
      12
      12
      12
      12
      12
      12
      12
      12
      12
      12
      12
      12
      12
      12
      12
      12
      12
      12
      12
      12
      12
      12
      12
      12
      12
      12
      12
      12
      12
      12
      12
      12
      12
      12
      12
      12
      12
      12
      12
      12
      12
      12
      12
      12
      12
      12
      12
      12
      12
      12
      12
      12
      12
      12
      12
      12
      12
      12
      12
      12
      12
      12
      12
      12
      12
      12
      12
      12
      12
      12
      12
      12
      12
      12
      12
      12
      12
      12
      12
      12
      12
      12
      12
      12
      12
      12
      12
      12
      12
      12
      12
      12
      12
      12
      12
      12
      12
      12
      12
      12
      12
      12
      12
      12
      12
      12
      12
      12
      12
      12
      12
      12
      12
      12
      12
      12
      12
      12
      12
      12
      12
      12
      12
      12
      12
      12
      12
      12
      12
      12
      12
      12
      12
      12
      12
      12
      12
      12
      12
      12
      12
      12
      12
      12
      12
      12
      12
      12
      12
      12
      12
      12
      12
      12
      12
      12
      12
      12
      12
      12
      12
      12
      12
      12
      12
      12
      12
      12
      12
      12
      12
      12
      12
      12
      12
      12
      12
      12
      12
      12
      12
      12
      12
      12
      12
      12
      12
      12
      12
      12
      12
      12
      12
      12
      12
      12
      12
      12
      12
      12
      12
      12
      12
      12
      12
      12
      12
      12
      12
      12
      12
      12
      12
      12
      12
      12
      12
      12
      12
      12
      12
      12
      12
      12
      12
      12
      12
      12
      12
      12
      12
      12
      12
      12
      12
      12
      12
      12
      12
      12
      12
      12
      12
      12
      12
      12
      12
      12
      12
      12
      12
      12
      12
      12
      12
      12
      12
      12
      12
      12
      12
      12
      12
      12
      12
      12
      12
      12
      12
      12
      12
      12
      12
      12
      12
      12
      12
      12
      12
      12
      12
      12
      12
      12
      12
      12
      12
      12
      12
      12
      12
      12
      12
      12
      12
      12
      12
      12
      12
      12
      12
      12
      12
      12
      12
      12
      12
      12
      12
      12
      12
      12
      12
      12
      12
      12
      12
      12
      12
      12
      12
      12
      12
      12
      12
      12
      12
      12
      12
      12
      12
      12
      12
      12
      12
      12
      12
      12
      12
      12
      12
      12
      12
      12
      12
      12
      12
      12
      12
      12
      12
      12
      12
      12
      12
      12
      12
      12
      12
      12
      12
      12
      12
      12
      12
      12
      12
      12
      12
      12
      12
      12
      12
      12
      12
      12
      12
      12
      12
      12
      12
      12
      12
      12
      12
      12
      12
      12
      12
      12
      12
      12
      12
      12
      12
      12
      12
      12
      12
      12
      12
      12
      12
      12
      12
      12
      12
      12
      12
      12
      12
      12
      12
      12
      12
      12
      12
      12
      12
      12
      12
      12
      12
      12
      12
      12
      12
      12
      12
      12
      12
      12
      12
      12
      12
      12
      12
      12
      12
      12
      12
      12
      12
      12
      12
      12
      12
      12
      12
      12
      12
      12
      12
      12
      12
      12
      12
      12
      12
      12
      12
      12
      12
      12
      12
      12
      12
      12
      12
      12
      12
      12
      12
      12
      12
      12
      12
      12
      12
      12
      12
      12
      12
      12
      12
      12
      12
      12
      12
      12
      12
      12
      12
      12
      12
      12
      12
      12
      12
      12
      12
      12
      12
      12
      12
      12
      12
      12
      12
      12
      12
      12
      12
      12
      12
      12
      12
      12
      12
      12
      12
      12
      12
      12
      12
      12
      12
      12
      12
      12
      12
      12
      12
      12
      12
      12
      12
      12
      12
      12
      12
      12
      12
      12
      12
      12
      12
      12
      12
      12
      12
      12
      12
      12
      12
      12
      12
      12
      12
      12
      12
      12
      12
      12
      12
      12
      12
      12
      12
      12
      12
      12
      12
      12
      12
      12
      12
      12
      12
      12
      12
      12
      12
      12
      12
      12
      12
      12
      12
      12
      12
      12
      12
      12
      12
      12
      12
      12
      12
      12
      12
      12
      12
      12
      12
      12
      12
      12
      12
      12
      12
      12
      12
      12
      12
      12
      12
      12
      12
      12
      12
      12
      12
      12
      12
      12
      12
      12
      12
      12
      12
      12
      12
      12
      12
      12
      12
      12
      12
      12
      12
      12
      12
      12
      12
      12
      12
      12
      12
      12
      12
      12
      12
      12
      12
      12
      12
      12
      12
      12
      12
      12
      12
      12
      12
      12
      12
      12
      12
      12
      12
      12
      12
      12
      12
      12
      12
      12
      12
      12
      12
      12
      12
      12
      12
      12
      12
      12
      12
      12
      12
      12
      12
      12
      12
      12
      12
      12
      12
      12
      12
      12
      12
      12
      12
      12
      12
      12
      12
      12
      12
      12
      12
      12
      12
      12
      12
      12
      12
      12
      12
      12
      12
      12
      12
      12
      12
      12
      12
      12
      12
      12
      12
      12
      12
      12
      12
      12
      12
      12
      12
      12
      12
      12
      12
      12
      12
      12
      12
      12
      12
      12
      12
      12
      12
      12
      12
      12
      12
      12
      12
      12
      12
      12
      12
      12
      12
      12
      12
      12
      12
      12
      12
      12
      12
      12
      12
      12
      12
      12
      12
      12
      12
      12
      12
      12
      12
      12
      12
      12
      12
      12
      12
      12
      12
      12
      12
      12
      12
      12
      12
      12
      12
      12
      12
      12
      12
      12
      12
      12
      12
      12
      12
      12
      12
      12
      12
      12
      12
      12
      12
      12
      12
      12
      12
      12
      12
      12
      12
      12
      12
      12
      12
      12
      12
      12
      12
      12
      12
      12
      12
      12
      12
      12
      12
      12
      12
      12
      12
      12
      12
      12
      12
      12
      12
      12
      12
      12
      12
      12
      12
      12
      12
      12
      12
      12
      12
      12
      12
      12
      12
      12
      12
      12
      12
      12
      12
      12
      12
      12
      12
      12
      12
      12
      12
      12
      12
      12
      12
      12
      12
      12
      12
      12
      12
      12
      12
      12
      12
      12
      12
      12
      12
      12
      12
      12
      12
      12
      12
      12
      12
      12
      12
      12
      12
      12
      12
      12
      12
      12
      12
      12
      12
      12
      12
      12
      12
      12
      12
      12
      12
      12
      12
      12
      12
      12
      12
      12
      12
      12
      12
      12
      12
      12
      12
      12
      12
      12
      12
      12
      12
      12
      12
      12
      12
      12
      12
      12
      12
      12
      12
      12
      12
      12
      12
      12
      12
      12
      12
      12
      12
      12
      12
      12
      12
      12
      12
      12
      12
      12
      12
      12
      12
      12
      12
      12
      12
      12
      12
      12
      12
      12
      12
      12
      12
      12
      12
      12
      12
      12
      12
      12
      12
      12
      12
      12
      12
      12
      12
      12
      12
      12
      12
      12
      12
      12
      12
      12
      12
      12
      12
      12
      12
      12
      12
      12
      12
      12
      12
      12
      12
      12
      12
      12
      12
      12
      12
      12
      12
      12
      12
      12
      12
      12
      12
      12
      12
      12
      12
      12
      12
      12
      12
      12
      12
      12
      12
      12
      12
      12
      12
      12
      12
      12
      12
      12
      12
      12
      12
      12
      12
      12
      12
      12
      12
      12
      12
      12
      12
      12
      12
      12
      12
      12
      12
      12
      12
      12
      12
      12
      12
      12
      12
      12
      12
      12
      12
      12
      12
      12
      12
      12
      12
      12
      12
      12
      12
      12
      12
      12
      12
      12
      12
      12
      12
      12
      12
      12
      12
      12
      12
      12
      12
      12
      12
      12
      12
      12
      12
      12
      12
      12
      12
      12
      12
      12
      12
      12
      12
      12
      12
      12
      12
      12
      12
      12
      12
      12
      12
      12
      12
      12
      12
      12
      12
      12
      12
      12
      12
      12
      12
      12
      12
      12
      12
      12
      12
      12
      12
      12
      12
      12
      12
      12
      12
      12
      12
      12
      12
      12
      12
      12
      12
      12
      12
      12
      12
      12
      12
      12
      12
      12
      12
      12
      12
      12
      12
      12
      12
      12
      12
      12
      12
      12
      12
      12
      12
      12
      12
      12
      12
      12
      12
      12
      12
      12
      12
      12
      12
      12
      12
      12
      12
      12
      12
      12
      12
      12
      12
      12
      12
      12
      12
      12
      12
      12
      12
      12
      12
      12
      12
      12
      12
      12
      12
      12
      12
      12
      12
      12
      12
      12
      12
      12
      12
      12
      12
      12
      12
      12
      12
      12
      12
      12
      12
      12
      12
      12
      12
      12
      12
      12
      12
      12
      12
      12
      12
      12
      12
      12
      12
      12
      12
      12
      12
      12
      12
      12
      12
      12
      12
      12
      12
      12
      12
      12
      12
      12
      12
      12
      12
      12
      12
      12
      12
      12
      12
      12
      12
      12
      12
      12
      12
      12
      12
      12
      12
      12
      12
      12
      12
      12
      12
      12
      12
      12
      12
      12
      12
      12
      12
      12
      12
      12
      12
      12
      12
      12
      12
      12
      12
      12
      12
      12
      12
      12
      12
      12
      12
      12
      12
      12
      12
      12
      12
      12
      12
      12
      12
      12
      12
      12
      12
      12
      12
      12
      12
      12
      12
      12
      12
      12
      12
      12
      12
      12
      12
      12
      12
      12
      12
      12
      12
      12
      12
      12
      12
      12
      12
      12
      12
      12
      12
      12
      12
      12
      12
      12
      12
      12
      12
      12
      12
      12
      12
      12
      12
      12
      12
      12
      12
      12
      12
      12
      12
      12
      12
      12
      12
      12
      12
      12
      12
      12
      12
      12
      12
      12
      12
      12
      12
      12
      12
      12
      12
      12
      12
      12
      12
      12
      12
  
  
POINT_DATA       1950
  
SCALARS                  material_type  double 1
LOOKUP_TABLE default
                   2
                   2
                   2
                   2
                   2
                   2
                   2
                   2
                   2
                   2
                   2
                   2
                   2
                   2
                   2
                   2
                   2
                   2
                   2
                   2
                   2
                   2
                   2
                   2
                   2
                   2
                   2
                   2
                   2
                   2
                   2
                   2
                   2
                   2
                   2
                   2
                   2
                   2
                   2
                   2
                   2
                   2
                   2
                   2
                   2
                   2
                   2
                   2
                   2
                   2
                   2
                   2
                   2
                   2
                   2
                   2
                   2
                   2
                   2
                   2
                   2
                   2
                   2
                   2
                   2
                   2
                   2
                   2
                   2
                   2
                   2
                   2
                   2
                   2
                   2
                   2
                   2
                   2
                   2
                   2
                   2
                   2
                   2
                   2
                   2
                   2
                   2
                   2
                   2
                   2
                   2
                   2
                   2
                   2
                   2
                   2
                   2
                   2
                   2
                   2
                   2
                   2
                   2
                   2
                   2
                   2
                   2
                   2
                   2
                   2
                   2
                   2
                   2
                   2
                   2
                   2
                   2
                   2
                   2
                   2
                   2
                   2
                   2
                   2
                   2
                   2
                   2
                   2
                   2
                   2
                   2
                   2
                   2
                   2
                   2
                   2
                   2
                   2
                   2
                   2
                   2
                   2
                   2
                   2
                   2
                   2
                   2
                   2
                   2
                   2
                   2
                   2
                   2
                   2
                   2
                   2
                   2
                   2
                   2
                   2
                   2
                   2
                   2
                   2
                   2
                   2
                   2
                   2
                   2
                   2
                   2
                   2
                   2
                   2
                   2
                   2
                   2
                   2
                   2
                   2
                   2
                   2
                   2
                   2
                   2
                   2
                   2
                   2
                   2
                   2
                   2
                   2
                   2
                   2
                   2
                   2
                   2
                   2
                   2
                   2
                   2
                   2
                   2
                   2
                   2
                   2
                   2
                   2
                   2
                   2
                   2
                   2
                   2
                   2
                   2
                   2
                   2
                   2
                   2
                   2
                   2
                   2
                   2
                   2
                   2
                   2
                   2
                   2
                   2
                   2
                   2
                   2
                   2
                   2
                   2
                   2
                   2
                   2
                   2
                   2
                   2
                   2
                   2
                   2
                   2
                   2
                   2
                   2
                   2
                   2
                   2
                   2
                   2
                   2
                   2
                   2
                   2
                   2
                   2
                   2
                   2
                   2
                   2
                   2
                   2
                   2
                   2
                   2
                   2
                   2
                   2
                   2
                   2
                   2
                   2
                   2
                   2
                   2
                   2
                   2
                   2
                   2
                   2
                   2
                   2
                   2
                   2
                   2
                   2
                   2
                   2
                   2
                   2
                   2
                   2
                   2
                   2
                   2
                   2
                   2
                   2
                   2
                   2
                   2
                   2
                   2
                   2
                   2
                   2
                   2
                   2
                   2
                   2
                   2
                   2
                   2
                   2
                   2
                   2
                   2
                   2
                   2
                   2
                   2
                   2
                   2
                   2
                   2
                   2
                   2
                   2
                   2
                   2
                   2
                   2
                   2
                   2
                   2
                   2
                   2
                   2
                   2
                   2
                   2
                   2
                   2
                   2
                   2
                   2
                   2
                   2
                   2
                   2
                   2
                   2
                   2
                   2
                   2
                   2
                   2
                   2
                   2
                   2
                   2
                   2
                   2
                   2
                   2
                   2
                   2
                   2
                   2
                   2
                   2
                   2
                   2
                   2
                   2
                   2
                   2
                   2
                   2
                   2
                   2
                   2
                   2
                   2
                   2
                   2
                   2
                   2
                   2
                   2
                   2
                   2
                   2
                   2
                   2
                   2
                   2
                   2
                   2
                   2
                   2
                   2
                   2
                   2
                   2
                   2
                   2
                   2
                   2
                   2
                   2
                   2
                   2
                   2
                   2
                   2
                   2
                   2
                   2
                   2
                   2
                   2
                   2
                   2
                   2
                   2
                   2
                   2
                   2
                   2
                   2
                   2
                   2
                   2
                   2
                   2
                   2
                   2
                   2
                   2
                   2
                   2
                   2
                   2
                   2
                   2
                   2
                   2
                   2
                   2
                   2
                   2
                   2
                   2
                   2
                   2
                   2
                   2
                   2
                   2
                   2
                   2
                   2
                   2
                   2
                   2
                   2
                   2
                   2
                   2
                   2
                   2
                   2
                   2
                   2
                   2
                   2
                   2
                   2
                   2
                   2
                   2
                   2
                   2
                   2
                   2
                   2
                   2
                   2
                   2
                   2
                   2
                   2
                   2
                   2
                   2
                   2
                   2
                   2
                   2
                   2
                   2
                   2
                   2
                   2
                   2
                   2
                   2
                   2
                   2
                   2
                   2
                   2
                   2
                   2
                   2
                   2
                   2
                   2
                   2
                   2
                   2
                   2
                   2
                   2
                   2
                   2
                   2
                   2
                   2
                   2
                   2
                   2
                   2
                   2
                   2
                   2
                   2
                   2
                   2
                   2
                   2
                   2
                   2
                   2
                   2
                   2
                   2
                   2
                   2
                   2
                   2
                   2
                   2
                   2
                   2
                   2
                   2
                   2
                   2
                   2
                   2
                   2
                   2
                   2
                   2
                   2
                   2
                   2
                   2
                   2
                   2
                   2
                   2
                   2
                   2
                   2
                   2
                   2
                   2
                   2
                   2
                   2
                   2
                   2
                   2
                   2
                   2
                   2
                   2
                   2
                   2
                   2
                   2
                   2
                   2
                   2
                   2
                   2
                   2
                   2
                   2
                   2
                   2
                   2
                   2
                   2
                   2
                   2
                   2
                   2
                   2
                   2
                   2
                   2
                   2
                   2
                   2
                   2
                   2
                   2
                   2
                   2
                   2
                   2
                   2
                   2
                   2
                   2
                   2
                   2
                   2
                   2
                   2
                   2
                   2
                   2
                   2
                   2
                   2
                   2
                   2
                   2
                   2
                   2
                   2
                   2
                   2
                   2
                   2
                   2
                   2
                   2
                   2
                   2
                   2
                   2
                   2
                   2
                   2
                   2
                   2
                   2
                   2
                   2
                   2
                   2
                   2
                   2
                   2
                   2
                   2
                   2
                   2
                   2
                   2
                   2
                   2
                   2
                   2
                   2
                   2
                   2
                   2
                   2
                   2
                   2
                   2
                   2
                   2
                   2
                   2
                   2
                   2
                   2
                   2
                   2
                   2
                   2
                   2
                   2
                   2
                   2
                   2
                   2
                   2
                   2
                   2
                   2
                   2
                   2
                   2
                   2
                   2
                   2
                   2
                   2
                   2
                   2
                   2
                   2
                   2
                   2
                   2
                   2
                   2
                   2
                   2
                   2
                   2
                   2
                   2
                   2
                   2
                   2
                   2
                   2
                   2
                   2
                   2
                   2
                   2
                   2
                   2
                   2
                   2
                   2
                   2
                   2
                   2
                   2
                   2
                   2
                   2
                   2
                   2
                   2
                   2
                   2
                   2
                   2
                   2
                   2
                   2
                   2
                   2
                   2
                   2
                   2
                   2
                   2
                   2
                   2
                   2
                   2
                   2
                   2
                   2
                   2
                   2
                   2
                   2
                   2
                   2
                   2
                   2
                   2
                   2
                   2
                   2
                   2
                   2
                   2
                   2
                   2
                   2
                   2
                   2
                   2
                   2
                   2
                   2
                   2
                   2
                   2
                   2
                   2
                   2
                   2
                   2
                   2
                   2
                   2
                   2
                   2
                   2
                   2
                   2
                   2
                   2
                   2
                   2
                   2
                   2
                   2
                   2
                   2
                   2
                   2
                   2
                   2
                   2
                   2
                   2
                   2
                   2
                   2
                   2
                   2
                   2
                   2
                   2
                   2
                   2
                   2
                   2
                   2
                   2
                   2
                   2
                   2
                   2
                   2
                   2
                   2
                   2
                   2
                   2
                   2
                   2
                   2
                   2
                   2
                   2
                   2
                   2
                   2
                   2
                   2
                   2
                   2
                   2
                   2
                   2
                   2
                   2
                   2
                   2
                   2
                   2
                   2
                   2
                   2
                   2
                   2
                   2
                   2
                   2
                   2
                   2
                   2
                   2
                   2
                   2
                   2
                   2
                   2
                   2
                   2
                   2
                   2
                   2
                   2
                   2
                   2
                   2
                   2
                   2
                   2
                   2
                   2
                   2
                   2
                   2
                   2
                   2
                   2
                   2
                   2
                   2
                   2
                   2
                   2
                   2
                   2
                   2
                   2
                   2
                   2
                   2
                   2
                   2
                   2
                   2
                   2
                   2
                   2
                   2
                   2
                   2
                   2
                   2
                   2
                   2
                   2
                   2
                   2
                   2
                   2
                   2
                   2
                   2
                   2
                   2
                   2
                   2
                   2
                   2
                   2
                   2
                   2
                   2
                   2
                   2
                   2
                   2
                   2
                   2
                   2
                   2
                   2
                   2
                   2
                   2
                   2
                   2
                   2
                   2
                   2
                   2
                   2
                   2
                   2
                   2
                   2
                   2
                   2
                   2
                   2
                   2
                   2
                   2
                   2
                   2
                   2
                   2
                   2
                   2
                   2
                   2
                   2
                   2
                   2
                   2
                   2
                   2
                   2
                   2
                   2
                   2
                   2
                   2
                   2
                   2
                   2
                   2
                   2
                   2
                   2
                   2
                   2
                   2
                   2
                   2
                   2
                   2
                   2
                   2
                   2
                   2
                   2
                   2
                   2
                   2
                   2
                   2
                   2
                   2
                   2
                   2
                   2
                   2
                   2
                   2
                   2
                   2
                   2
                   2
                   2
                   2
                   2
                   2
                   2
                   2
                   2
                   2
                   2
                   2
                   2
                   2
                   2
                   2
                   2
                   2
                   2
                   2
                   2
                   2
                   2
                   2
                   2
                   2
                   2
                   2
                   2
                   2
                   2
                   2
                   2
                   2
                   2
                   2
                   2
                   2
                   2
                   2
                   2
                   2
                   2
                   2
                   2
                   2
                   2
                   2
                   2
                   2
                   2
                   2
                   2
                   2
                   2
                   2
                   2
                   2
                   2
                   2
                   2
                   2
                   2
                   2
                   2
                   2
                   2
                   2
                   2
                   2
                   2
                   2
                   2
                   2
                   2
                   2
                   2
                   2
                   2
                   2
                   2
                   2
                   2
                   2
                   2
                   2
                   2
                   2
                   2
                   2
                   2
                   2
                   2
                   2
                   2
                   2
                   2
                   2
                   2
                   2
                   2
                   2
                   2
                   2
                   2
                   2
                   2
                   2
                   2
                   2
                   2
                   2
                   2
                   2
                   2
                   2
                   2
                   2
                   2
                   2
                   2
                   2
                   2
                   2
                   2
                   2
                   2
                   2
                   2
                   2
                   2
                   2
                   2
                   2
                   2
                   2
                   2
                   2
                   2
                   2
                   2
                   2
                   2
                   2
                   2
                   2
                   2
                   2
                   2
                   2
                   2
                   2
                   2
                   2
                   2
                   2
                   2
                   2
                   2
                   2
                   2
                   2
                   2
                   2
                   2
                   2
                   2
                   2
                   2
                   2
                   2
                   2
                   2
                   2
                   2
                   2
                   2
                   2
                   2
                   2
                   2
                   2
                   2
                   2
                   2
                   2
                   2
                   2
                   2
                   2
                   2
                   2
                   2
                   2
                   2
                   2
                   2
                   2
                   2
                   2
                   2
                   2
                   2
                   2
                   2
                   2
                   2
                   2
                   2
                   2
                   2
                   2
                   2
                   2
                   2
                   2
                   2
                   2
                   2
                   2
                   2
                   2
                   2
                   2
                   2
                   2
                   2
                   2
                   2
                   2
                   2
                   2
                   2
                   2
                   2
                   2
                   2
                   2
                   2
                   2
                   2
                   2
                   2
                   2
                   2
                   2
                   2
                   2
                   2
                   2
                   2
                   2
                   2
                   2
                   2
                   2
                   2
                   2
                   2
                   2
                   2
                   2
                   2
                   2
                   2
                   2
                   2
                   2
                   2
                   2
                   2
                   2
                   2
                   2
                   2
                   2
                   2
                   2
                   2
                   2
                   2
                   2
                   2
                   2
                   2
                   2
                   2
                   2
                   2
                   2
                   2
                   2
                   2
                   2
                   2
                   2
                   2
                   2
                   2
                   2
                   2
                   2
                   2
                   2
                   2
                   2
                   2
                   2
                   2
                   2
                   2
                   2
                   2
                   2
                   2
                   2
                   2
                   2
                   2
                   2
                   2
                   2
                   2
                   2
                   2
                   2
                   2
                   2
                   2
                   2
                   2
                   2
                   2
                   2
                   2
                   2
                   2
                   2
                   2
                   2
                   2
                   2
                   2
                   2
                   2
                   2
                   2
                   2
                   2
                   2
                   2
                   2
                   2
                   2
                   2
                   2
                   2
                   2
                   2
                   2
                   2
                   2
                   2
                   2
                   2
                   2
                   2
                   2
                   2
                   2
                   2
                   2
                   2
                   2
                   2
                   2
                   2
                   2
                   2
                   2
                   2
                   2
                   2
                   2
                   2
                   2
                   2
                   2
                   2
                   2
                   2
                   2
                   2
                   2
                   2
                   2
                   2
                   2
                   2
                   2
                   2
                   2
                   2
                   2
                   2
                   2
                   2
                   2
                   2
                   2
                   2
                   2
                   2
                   2
                   2
                   2
                   2
                   2
                   2
                   2
                   2
                   2
                   2
                   2
                   2
                   2
                   2
                   2
                   2
                   2
                   2
                   2
                   2
                   2
                   2
                   2
                   2
                   2
                   2
                   2
                   2
                   2
                   2
                   2
                   2
                   2
                   2
                   2
                   2
                   2
                   2
                   2
                   2
                   2
                   2
                   2
                   2
                   2
                   2
                   2
                   2
                   2
                   2
                   2
                   2
                   2
                   2
                   2
                   2
                   2
                   2
                   2
                   2
                   2
                   2
                   2
                   2
                   2
                   2
                   2
                   2
                   2
                   2
                   2
                   2
                   2
                   2
                   2
                   2
                   2
                   2
                   2
                   2
                   2
                   2
                   2
                   2
                   2
                   2
                   2
                   2
                   2
                   2
                   2
                   2
                   2
                   2
                   2
                   2
                   2
                   2
                   2
                   2
                   2
                   2
                   2
                   2
                   2
                   2
                   2
                   2
                   2
                   2
                   2
                   2
                   2
                   2
                   2
                   2
                   2
                   2
                   2
                   2
                   2
                   2
                   2
                   2
                   2
                   2
                   2
                   2
                   2
                   2
                   2
                   2
                   2
                   2
                   2
                   2
                   2
                   2
                   2
                   2
                   2
                   2
                   2
                   2
                   2
                   2
                   2
                   2
                   2
                   2
                   2
                   2
                   2
                   2
                   2
                   2
                   2
                   2
                   2
                   2
                   2
                   2
                   2
                   2
                   2
                   2
                   2
                   2
                   2
                   2
                   2
                   2
                   2
                   2
                   2
                   2
                   2
                   2
                   2
                   2
                   2
                   2
                   2
                   2
                   2
                   2
                   2
                   2
                   2
                   2
                   2
                   2
                   2
                   2
                   2
                   2
                   2
                   2
                   2
                   2
                   2
                   2
                   2
                   2
                   2
                   2
                   2
                   2
                   2
                   2
                   2
                   2
                   2
                   2
                   2
                   2
                   2
                   2
                   2
                   2
                   2
                   2
                   2
                   2
                   2
                   2
                   2
                   2
                   2
                   2
                   2
                   2
                   2
                   2
                   2
                   2
                   2
                   2
                   2
                   2
                   2
                   2
                   2
                   2
                   2
                   2
                   2
                   2
                   2
                   2
                   2
                   2
                   2
                   2
                   2
                   2
                   2
                   2
                   2
                   2
                   2
                   2
                   2
                   2
                   2
                   2
                   2
                   2
                   2
                   2
                   2
                   2
                   2
                   2
                   2
                   2
                   2
                   2
                   2
                   2
                   2
                   2
                   2
                   2
                   2
                   2
                   2
                   2
                   2
                   2
                   2
                   2
                   2
                   2
                   2
                   2
                   2
                   2
                   2
                   2
                   2
                   2
                   2
                   2
                   2
                   2
                   2
                   2
                   2
                   2
                   2
                   2
                   2
                   2
                   2
                   2
                   2
                   2
                   2
                   2
                   2
                   2
                   2
                   2
                   2
                   2
                   2
                   2
                   2
                   2
                   2
                   2
                   2
                   2
                   2
                   2
                   2
                   2
                   2
                   2
                   2
                   2
                   2
                   2
                   2
                   2
                   2
                   2
                   2
                   2
                   2
                   2
                   2
                   2
                   2
                   2
                   2
                   2
                   2
                   2
                   2
                   2
                   2
                   2
                   2
                   2
                   2
                   2
                   2
                   2
                   2
                   2
                   2
                   2
                   2
                   2
                   2
                   2
                   2
                   2
                   2
                   2
                   2
                   2
                   2
                   2
                   2
                   2
                   2
                   2
                   2
                   2
                   2
                   2
                   2
                   2
                   2
                   2
                   2
                   2
                   2
                   2
                   2
                   2
                   2
                   2
                   2
                   2
                   2
                   2
                   2
                   2
                   2
                   2
                   2
                   2
                   2
                   2
                   2
                   2
                   2
                   2
                   2
                   2
                   2
                   2
                   2
                   2
                   2
                   2
                   2
                   2
                   2
                   2
                   2
                   2
                   2
                   2
                   2
                   2
                   2
                   2
                   2
                   2
                   2
                   2
                   2
                   2
                   2
                   2
                   2
                   2
                   2
                   2
                   2
                   2
                   2
                   2
                   2
                   2
                   2
                   2
                   2
                   2
                   2
                   2
                   2
                   2
                   2
                   2
                   2
                   2
                   2
                   2
                   2
                   2
                   2
                   2
                   2
                   2
                   2
                   2
                   2
                   2
                   2
                   2
                   2
                   2
  
SCALARS                        node_id  double 1
LOOKUP_TABLE default
                   1
                   2
                   3
                   4
                   5
                   6
                   7
                   8
                   9
                  10
                  11
                  12
                  13
                  14
                  15
                  16
                  17
                  18
                  19
                  20
                  21
                  22
                  23
                  24
                  25
                  26
                  27
                  28
                  29
                  30
                  31
                  32
                  33
                  34
                  35
                  36
                  37
                  38
                  39
                  40
                  41
                  42
                  43
                  44
                  45
                  46
                  47
                  48
                  49
                  50
                  51
                  52
                  53
                  54
                  55
                  56
                  57
                  58
                  59
                  60
                  61
                  62
                  63
                  64
                  65
                  66
                  67
                  68
                  69
                  70
                  71
                  72
                  73
                  74
                  75
                  76
                  77
                  78
                  79
                  80
                  81
                  82
                  83
                  84
                  85
                  86
                  87
                  88
                  89
                  90
                  91
                  92
                  93
                  94
                  95
                  96
                  97
                  98
                  99
                 100
                 101
                 102
                 103
                 104
                 105
                 106
                 107
                 108
                 109
                 110
                 111
                 112
                 113
                 114
                 115
                 116
                 117
                 118
                 119
                 120
                 121
                 122
                 123
                 124
                 125
                 126
                 127
                 128
                 129
                 130
                 131
                 132
                 133
                 134
                 135
                 136
                 137
                 138
                 139
                 140
                 141
                 142
                 143
                 144
                 145
                 146
                 147
                 148
                 149
                 150
                 151
                 152
                 153
                 154
                 155
                 156
                 157
                 158
                 159
                 160
                 161
                 162
                 163
                 164
                 165
                 166
                 167
                 168
                 169
                 170
                 171
                 172
                 173
                 174
                 175
                 176
                 177
                 178
                 179
                 180
                 181
                 182
                 183
                 184
                 185
                 186
                 187
                 188
                 189
                 190
                 191
                 192
                 193
                 194
                 195
                 196
                 197
                 198
                 199
                 200
                 201
                 202
                 203
                 204
                 205
                 206
                 207
                 208
                 209
                 210
                 211
                 212
                 213
                 214
                 215
                 216
                 217
                 218
                 219
                 220
                 221
                 222
                 223
                 224
                 225
                 226
                 227
                 228
                 229
                 230
                 231
                 232
                 233
                 234
                 235
                 236
                 237
                 238
                 239
                 240
                 241
                 242
                 243
                 244
                 245
                 246
                 247
                 248
                 249
                 250
                 251
                 252
                 253
                 254
                 255
                 256
                 257
                 258
                 259
                 260
                 261
                 262
                 263
                 264
                 265
                 266
                 267
                 268
                 269
                 270
                 271
                 272
                 273
                 274
                 275
                 276
                 277
                 278
                 279
                 280
                 281
                 282
                 283
                 284
                 285
                 286
                 287
                 288
                 289
                 290
                 291
                 292
                 293
                 294
                 295
                 296
                 297
                 298
                 299
                 300
                 301
                 302
                 303
                 304
                 305
                 306
                 307
                 308
                 309
                 310
                 311
                 312
                 313
                 314
                 315
                 316
                 317
                 318
                 319
                 320
                 321
                 322
                 323
                 324
                 325
                 326
                 327
                 328
                 329
                 330
                 331
                 332
                 333
                 334
                 335
                 336
                 337
                 338
                 339
                 340
                 341
                 342
                 343
                 344
                 345
                 346
                 347
                 348
                 349
                 350
                 351
                 352
                 353
                 354
                 355
                 356
                 357
                 358
                 359
                 360
                 361
                 362
                 363
                 364
                 365
                 366
                 367
                 368
                 369
                 370
                 371
                 372
                 373
                 374
                 375
                 376
                 377
                 378
                 379
                 380
                 381
                 382
                 383
                 384
                 385
                 386
                 387
                 388
                 389
                 390
                 391
                 392
                 393
                 394
                 395
                 396
                 397
                 398
                 399
                 400
                 401
                 402
                 403
                 404
                 405
                 406
                 407
                 408
                 409
                 410
                 411
                 412
                 413
                 414
                 415
                 416
                 417
                 418
                 419
                 420
                 421
                 422
                 423
                 424
                 425
                 426
                 427
                 428
                 429
                 430
                 431
                 432
                 433
                 434
                 435
                 436
                 437
                 438
                 439
                 440
                 441
                 442
                 443
                 444
                 445
                 446
                 447
                 448
                 449
                 450
                 451
                 452
                 453
                 454
                 455
                 456
                 457
                 458
                 459
                 460
                 461
                 462
                 463
                 464
                 465
                 466
                 467
                 468
                 469
                 470
                 471
                 472
                 473
                 474
                 475
                 476
                 477
                 478
                 479
                 480
                 481
                 482
                 483
                 484
                 485
                 486
                 487
                 488
                 489
                 490
                 491
                 492
                 493
                 494
                 495
                 496
                 497
                 498
                 499
                 500
                 501
                 502
                 503
                 504
                 505
                 506
                 507
                 508
                 509
                 510
                 511
                 512
                 513
                 514
                 515
                 516
                 517
                 518
                 519
                 520
                 521
                 522
                 523
                 524
                 525
                 526
                 527
                 528
                 529
                 530
                 531
                 532
                 533
                 534
                 535
                 536
                 537
                 538
                 539
                 540
                 541
                 542
                 543
                 544
                 545
                 546
                 547
                 548
                 549
                 550
                 551
                 552
                 553
                 554
                 555
                 556
                 557
                 558
                 559
                 560
                 561
                 562
                 563
                 564
                 565
                 566
                 567
                 568
                 569
                 570
                 571
                 572
                 573
                 574
                 575
                 576
                 577
                 578
                 579
                 580
                 581
                 582
                 583
                 584
                 585
                 586
                 587
                 588
                 589
                 590
                 591
                 592
                 593
                 594
                 595
                 596
                 597
                 598
                 599
                 600
                 601
                 602
                 603
                 604
                 605
                 606
                 607
                 608
                 609
                 610
                 611
                 612
                 613
                 614
                 615
                 616
                 617
                 618
                 619
                 620
                 621
                 622
                 623
                 624
                 625
                 626
                 627
                 628
                 629
                 630
                 631
                 632
                 633
                 634
                 635
                 636
                 637
                 638
                 639
                 640
                 641
                 642
                 643
                 644
                 645
                 646
                 647
                 648
                 649
                 650
                 651
                 652
                 653
                 654
                 655
                 656
                 657
                 658
                 659
                 660
                 661
                 662
                 663
                 664
                 665
                 666
                 667
                 668
                 669
                 670
                 671
                 672
                 673
                 674
                 675
                 676
                 677
                 678
                 679
                 680
                 681
                 682
                 683
                 684
                 685
                 686
                 687
                 688
                 689
                 690
                 691
                 692
                 693
                 694
                 695
                 696
                 697
                 698
                 699
                 700
                 701
                 702
                 703
                 704
                 705
                 706
                 707
                 708
                 709
                 710
                 711
                 712
                 713
                 714
                 715
                 716
                 717
                 718
                 719
                 720
                 721
                 722
                 723
                 724
                 725
                 726
                 727
                 728
                 729
                 730
                 731
                 732
                 733
                 734
                 735
                 736
                 737
                 738
                 739
                 740
                 741
                 742
                 743
                 744
                 745
                 746
                 747
                 748
                 749
                 750
                 751
                 752
                 753
                 754
                 755
                 756
                 757
                 758
                 759
                 760
                 761
                 762
                 763
                 764
                 765
                 766
                 767
                 768
                 769
                 770
                 771
                 772
                 773
                 774
                 775
                 776
                 777
                 778
                 779
                 780
                 781
                 782
                 783
                 784
                 785
                 786
                 787
                 788
                 789
                 790
                 791
                 792
                 793
                 794
                 795
                 796
                 797
                 798
                 799
                 800
                 801
                 802
                 803
                 804
                 805
                 806
                 807
                 808
                 809
                 810
                 811
                 812
                 813
                 814
                 815
                 816
                 817
                 818
                 819
                 820
                 821
                 822
                 823
                 824
                 825
                 826
                 827
                 828
                 829
                 830
                 831
                 832
                 833
                 834
                 835
                 836
                 837
                 838
                 839
                 840
                 841
                 842
                 843
                 844
                 845
                 846
                 847
                 848
                 849
                 850
                 851
                 852
                 853
                 854
                 855
                 856
                 857
                 858
                 859
                 860
                 861
                 862
                 863
                 864
                 865
                 866
                 867
                 868
                 869
                 870
                 871
                 872
                 873
                 874
                 875
                 876
                 877
                 878
                 879
                 880
                 881
                 882
                 883
                 884
                 885
                 886
                 887
                 888
                 889
                 890
                 891
                 892
                 893
                 894
                 895
                 896
                 897
                 898
                 899
                 900
                 901
                 902
                 903
                 904
                 905
                 906
                 907
                 908
                 909
                 910
                 911
                 912
                 913
                 914
                 915
                 916
                 917
                 918
                 919
                 920
                 921
                 922
                 923
                 924
                 925
                 926
                 927
                 928
                 929
                 930
                 931
                 932
                 933
                 934
                 935
                 936
                 937
                 938
                 939
                 940
                 941
                 942
                 943
                 944
                 945
                 946
                 947
                 948
                 949
                 950
                 951
                 952
                 953
                 954
                 955
                 956
                 957
                 958
                 959
                 960
                 961
                 962
                 963
                 964
                 965
                 966
                 967
                 968
                 969
                 970
                 971
                 972
                 973
                 974
                 975
                 976
                 977
                 978
                 979
                 980
                 981
                 982
                 983
                 984
                 985
                 986
                 987
                 988
                 989
                 990
                 991
                 992
                 993
                 994
                 995
                 996
                 997
                 998
                 999
                1000
                1001
                1002
                1003
                1004
                1005
                1006
                1007
                1008
                1009
                1010
                1011
                1012
                1013
                1014
                1015
                1016
                1017
                1018
                1019
                1020
                1021
                1022
                1023
                1024
                1025
                1026
                1027
                1028
                1029
                1030
                1031
                1032
                1033
                1034
                1035
                1036
                1037
                1038
                1039
                1040
                1041
                1042
                1043
                1044
                1045
                1046
                1047
                1048
                1049
                1050
                1051
                1052
                1053
                1054
                1055
                1056
                1057
                1058
                1059
                1060
                1061
                1062
                1063
                1064
                1065
                1066
                1067
                1068
                1069
                1070
                1071
                1072
                1073
                1074
                1075
                1076
                1077
                1078
                1079
                1080
                1081
                1082
                1083
                1084
                1085
                1086
                1087
                1088
                1089
                1090
                1091
                1092
                1093
                1094
                1095
                1096
                1097
                1098
                1099
                1100
                1101
                1102
                1103
                1104
                1105
                1106
                1107
                1108
                1109
                1110
                1111
                1112
                1113
                1114
                1115
                1116
                1117
                1118
                1119
                1120
                1121
                1122
                1123
                1124
                1125
                1126
                1127
                1128
                1129
                1130
                1131
                1132
                1133
                1134
                1135
                1136
                1137
                1138
                1139
                1140
                1141
                1142
                1143
                1144
                1145
                1146
                1147
                1148
                1149
                1150
                1151
                1152
                1153
                1154
                1155
                1156
                1157
                1158
                1159
                1160
                1161
                1162
                1163
                1164
                1165
                1166
                1167
                1168
                1169
                1170
                1171
                1172
                1173
                1174
                1175
                1176
                1177
                1178
                1179
                1180
                1181
                1182
                1183
                1184
                1185
                1186
                1187
                1188
                1189
                1190
                1191
                1192
                1193
                1194
                1195
                1196
                1197
                1198
                1199
                1200
                1201
                1202
                1203
                1204
                1205
                1206
                1207
                1208
                1209
                1210
                1211
                1212
                1213
                1214
                1215
                1216
                1217
                1218
                1219
                1220
                1221
                1222
                1223
                1224
                1225
                1226
                1227
                1228
                1229
                1230
                1231
                1232
                1233
                1234
                1235
                1236
                1237
                1238
                1239
                1240
                1241
                1242
                1243
                1244
                1245
                1246
                1247
                1248
                1249
                1250
                1251
                1252
                1253
                1254
                1255
                1256
                1257
                1258
                1259
                1260
                1261
                1262
                1263
                1264
                1265
                1266
                1267
                1268
                1269
                1270
                1271
                1272
                1273
                1274
                1275
                1276
                1277
                1278
                1279
                1280
                1281
                1282
                1283
                1284
                1285
                1286
                1287
                1288
                1289
                1290
                1291
                1292
                1293
                1294
                1295
                1296
                1297
                1298
                1299
                1300
                1301
                1302
                1303
                1304
                1305
                1306
                1307
                1308
                1309
                1310
                1311
                1312
                1313
                1314
                1315
                1316
                1317
                1318
                1319
                1320
                1321
                1322
                1323
                1324
                1325
                1326
                1327
                1328
                1329
                1330
                1331
                1332
                1333
                1334
                1335
                1336
                1337
                1338
                1339
                1340
                1341
                1342
                1343
                1344
                1345
                1346
                1347
                1348
                1349
                1350
                1351
                1352
                1353
                1354
                1355
                1356
                1357
                1358
                1359
                1360
                1361
                1362
                1363
                1364
                1365
                1366
                1367
                1368
                1369
                1370
                1371
                1372
                1373
                1374
                1375
                1376
                1377
                1378
                1379
                1380
                1381
                1382
                1383
                1384
                1385
                1386
                1387
                1388
                1389
                1390
                1391
                1392
                1393
                1394
                1395
                1396
                1397
                1398
                1399
                1400
                1401
                1402
                1403
                1404
                1405
                1406
                1407
                1408
                1409
                1410
                1411
                1412
                1413
                1414
                1415
                1416
                1417
                1418
                1419
                1420
                1421
                1422
                1423
                1424
                1425
                1426
                1427
                1428
                1429
                1430
                1431
                1432
                1433
                1434
                1435
                1436
                1437
                1438
                1439
                1440
                1441
                1442
                1443
                1444
                1445
                1446
                1447
                1448
                1449
                1450
                1451
                1452
                1453
                1454
                1455
                1456
                1457
                1458
                1459
                1460
                1461
                1462
                1463
                1464
                1465
                1466
                1467
                1468
                1469
                1470
                1471
                1472
                1473
                1474
                1475
                1476
                1477
                1478
                1479
                1480
                1481
                1482
                1483
                1484
                1485
                1486
                1487
                1488
                1489
                1490
                1491
                1492
                1493
                1494
                1495
                1496
                1497
                1498
                1499
                1500
                1501
                1502
                1503
                1504
                1505
                1506
                1507
                1508
                1509
                1510
                1511
                1512
                1513
                1514
                1515
                1516
                1517
                1518
                1519
                1520
                1521
                1522
                1523
                1524
                1525
                1526
                1527
                1528
                1529
                1530
                1531
                1532
                1533
                1534
                1535
                1536
                1537
                1538
                1539
                1540
                1541
                1542
                1543
                1544
                1545
                1546
                1547
                1548
                1549
                1550
                1551
                1552
                1553
                1554
                1555
                1556
                1557
                1558
                1559
                1560
                1561
                1562
                1563
                1564
                1565
                1566
                1567
                1568
                1569
                1570
                1571
                1572
                1573
                1574
                1575
                1576
                1577
                1578
                1579
                1580
                1581
                1582
                1583
                1584
                1585
                1586
                1587
                1588
                1589
                1590
                1591
                1592
                1593
                1594
                1595
                1596
                1597
                1598
                1599
                1600
                1601
                1602
                1603
                1604
                1605
                1606
                1607
                1608
                1609
                1610
                1611
                1612
                1613
                1614
                1615
                1616
                1617
                1618
                1619
                1620
                1621
                1622
                1623
                1624
                1625
                1626
                1627
                1628
                1629
                1630
                1631
                1632
                1633
                1634
                1635
                1636
                1637
                1638
                1639
                1640
                1641
                1642
                1643
                1644
                1645
                1646
                1647
                1648
                1649
                1650
                1651
                1652
                1653
                1654
                1655
                1656
                1657
                1658
                1659
                1660
                1661
                1662
                1663
                1664
                1665
                1666
                1667
                1668
                1669
                1670
                1671
                1672
                1673
                1674
                1675
                1676
                1677
                1678
                1679
                1680
                1681
                1682
                1683
                1684
                1685
                1686
                1687
                1688
                1689
                1690
                1691
                1692
                1693
                1694
                1695
                1696
                1697
                1698
                1699
                1700
                1701
                1702
                1703
                1704
                1705
                1706
                1707
                1708
                1709
                1710
                1711
                1712
                1713
                1714
                1715
                1716
                1717
                1718
                1719
                1720
                1721
                1722
                1723
                1724
                1725
                1726
                1727
                1728
                1729
                1730
                1731
                1732
                1733
                1734
                1735
                1736
                1737
                1738
                1739
                1740
                1741
                1742
                1743
                1744
                1745
                1746
                1747
                1748
                1749
                1750
                1751
                1752
                1753
                1754
                1755
                1756
                1757
                1758
                1759
                1760
                1761
                1762
                1763
                1764
                1765
                1766
                1767
                1768
                1769
                1770
                1771
                1772
                1773
                1774
                1775
                1776
                1777
                1778
                1779
                1780
                1781
                1782
                1783
                1784
                1785
                1786
                1787
                1788
                1789
                1790
                1791
                1792
                1793
                1794
                1795
                1796
                1797
                1798
                1799
                1800
                1801
                1802
                1803
                1804
                1805
                1806
                1807
                1808
                1809
                1810
                1811
                1812
                1813
                1814
                1815
                1816
                1817
                1818
                1819
                1820
                1821
                1822
                1823
                1824
                1825
                1826
                1827
                1828
                1829
                1830
                1831
                1832
                1833
                1834
                1835
                1836
                1837
                1838
                1839
                1840
                1841
                1842
                1843
                1844
                1845
                1846
                1847
                1848
                1849
                1850
                1851
                1852
                1853
                1854
                1855
                1856
                1857
                1858
                1859
                1860
                1861
                1862
                1863
                1864
                1865
                1866
                1867
                1868
                1869
                1870
                1871
                1872
                1873
                1874
                1875
                1876
                1877
                1878
                1879
                1880
                1881
                1882
                1883
                1884
                1885
                1886
                1887
                1888
                1889
                1890
                1891
                1892
                1893
                1894
                1895
                1896
                1897
                1898
                1899
                1900
                1901
                1902
                1903
                1904
                1905
                1906
                1907
                1908
                1909
                1910
                1911
                1912
                1913
                1914
                1915
                1916
                1917
                1918
                1919
                1920
                1921
                1922
                1923
                1924
                1925
                1926
                1927
                1928
                1929
                1930
                1931
                1932
                1933
                1934
                1935
                1936
                1937
                1938
                1939
                1940
                1941
                1942
                1943
                1944
                1945
                1946
                1947
                1948
                1949
                1950
  
SCALARS                         bodyid  double 1
LOOKUP_TABLE default
                   1
                   1
                   1
                   1
                   1
                   1
                   1
                   1
                   1
                   1
                   1
                   1
                   1
                   1
                   1
                   1
                   1
                   1
                   1
                   1
                   1
                   1
                   1
                   1
                   1
                   1
                   1
                   1
                   1
                   1
                   1
                   1
                   1
                   1
                   1
                   1
                   1
                   1
                   1
                   1
                   1
                   1
                   1
                   1
                   1
                   1
                   1
                   1
                   1
                   1
                   1
                   1
                   1
                   1
                   1
                   1
                   1
                   1
                   1
                   1
                   1
                   1
                   1
                   1
                   1
                   1
                   1
                   1
                   1
                   1
                   1
                   1
                   1
                   1
                   1
                   1
                   1
                   1
                   1
                   1
                   1
                   1
                   1
                   1
                   1
                   1
                   1
                   1
                   1
                   1
                   1
                   1
                   1
                   1
                   1
                   1
                   1
                   1
                   1
                   1
                   1
                   1
                   1
                   1
                   1
                   1
                   1
                   1
                   1
                   1
                   1
                   1
                   1
                   1
                   1
                   1
                   1
                   1
                   1
                   1
                   1
                   1
                   1
                   1
                   1
                   1
                   1
                   1
                   1
                   1
                   1
                   1
                   1
                   1
                   1
                   1
                   1
                   1
                   1
                   1
                   1
                   1
                   1
                   1
                   1
                   1
                   1
                   1
                   1
                   1
                   1
                   1
                   1
                   1
                   1
                   1
                   1
                   1
                   1
                   1
                   1
                   1
                   1
                   1
                   1
                   1
                   1
                   1
                   1
                   1
                   1
                   1
                   1
                   1
                   1
                   1
                   1
                   1
                   1
                   1
                   1
                   1
                   1
                   1
                   1
                   1
                   1
                   1
                   1
                   1
                   1
                   1
                   1
                   1
                   1
                   1
                   1
                   1
                   1
                   1
                   1
                   1
                   1
                   1
                   1
                   1
                   1
                   1
                   1
                   1
                   1
                   1
                   1
                   1
                   1
                   1
                   1
                   1
                   1
                   1
                   1
                   1
                   1
                   1
                   1
                   1
                   1
                   1
                   1
                   1
                   1
                   1
                   1
                   1
                   1
                   1
                   1
                   1
                   1
                   1
                   1
                   1
                   1
                   1
                   1
                   1
                   1
                   1
                   1
                   1
                   1
                   1
                   1
                   1
                   1
                   1
                   1
                   1
                   1
                   1
                   1
                   1
                   1
                   1
                   1
                   1
                   1
                   1
                   1
                   1
                   1
                   1
                   1
                   1
                   1
                   1
                   1
                   1
                   1
                   1
                   1
                   1
                   1
                   1
                   1
                   1
                   1
                   1
                   1
                   1
                   1
                   1
                   1
                   1
                   1
                   1
                   1
                   1
                   1
                   1
                   1
                   1
                   1
                   1
                   1
                   1
                   1
                   1
                   1
                   1
                   1
                   1
                   1
                   1
                   1
                   1
                   1
                   1
                   1
                   1
                   1
                   1
                   1
                   1
                   1
                   1
                   1
                   1
                   1
                   1
                   1
                   1
                   1
                   1
                   1
                   1
                   1
                   1
                   1
                   1
                   1
                   1
                   1
                   1
                   1
                   1
                   1
                   1
                   1
                   1
                   1
                   1
                   1
                   1
                   1
                   1
                   1
                   1
                   1
                   1
                   1
                   1
                   1
                   1
                   1
                   1
                   1
                   1
                   1
                   1
                   1
                   1
                   1
                   1
                   1
                   1
                   1
                   1
                   1
                   1
                   1
                   1
                   1
                   1
                   1
                   1
                   1
                   1
                   1
                   1
                   1
                   1
                   1
                   1
                   1
                   1
                   1
                   1
                   1
                   1
                   1
                   1
                   1
                   1
                   1
                   1
                   1
                   1
                   1
                   1
                   1
                   1
                   1
                   1
                   1
                   1
                   1
                   1
                   1
                   1
                   1
                   1
                   1
                   1
                   1
                   1
                   1
                   1
                   1
                   1
                   1
                   1
                   1
                   1
                   1
                   1
                   1
                   1
                   1
                   1
                   1
                   1
                   1
                   1
                   1
                   1
                   1
                   1
                   1
                   1
                   1
                   1
                   1
                   1
                   1
                   1
                   1
                   1
                   1
                   1
                   1
                   1
                   1
                   1
                   1
                   1
                   1
                   1
                   1
                   1
                   1
                   1
                   1
                   1
                   1
                   1
                   1
                   1
                   1
                   1
                   1
                   1
                   1
                   1
                   1
                   1
                   1
                   1
                   1
                   1
                   1
                   1
                   1
                   1
                   1
                   1
                   1
                   1
                   1
                   1
                   1
                   1
                   1
                   1
                   1
                   1
                   1
                   1
                   1
                   1
                   1
                   1
                   1
                   1
                   1
                   1
                   1
                   1
                   1
                   1
                   1
                   1
                   1
                   1
                   1
                   1
                   1
                   1
                   1
                   1
                   1
                   1
                   1
                   1
                   1
                   1
                   1
                   1
                   1
                   1
                   1
                   1
                   1
                   1
                   1
                   1
                   1
                   1
                   1
                   1
                   1
                   1
                   1
                   1
                   1
                   1
                   1
                   1
                   1
                   1
                   1
                   1
                   1
                   1
                   1
                   1
                   1
                   1
                   1
                   1
                   1
                   1
                   1
                   1
                   1
                   1
                   1
                   1
                   1
                   1
                   1
                   1
                   1
                   1
                   1
                   1
                   1
                   1
                   1
                   1
                   1
                   1
                   1
                   1
                   1
                   1
                   1
                   1
                   1
                   1
                   1
                   1
                   1
                   1
                   1
                   1
                   1
                   1
                   1
                   1
                   1
                   1
                   1
                   1
                   1
                   1
                   1
                   1
                   1
                   1
                   1
                   1
                   1
                   1
                   1
                   1
                   1
                   1
                   1
                   1
                   1
                   1
                   1
                   1
                   1
                   1
                   1
                   1
                   1
                   1
                   1
                   1
                   1
                   1
                   1
                   1
                   1
                   1
                   1
                   1
                   1
                   1
                   1
                   1
                   1
                   1
                   1
                   1
                   1
                   1
                   1
                   1
                   1
                   1
                   1
                   1
                   1
                   1
                   1
                   1
                   1
                   1
                   1
                   1
                   1
                   1
                   1
                   1
                   1
                   1
                   1
                   1
                   1
                   1
                   1
                   1
                   1
                   1
                   1
                   1
                   1
                   1
                   1
                   1
                   1
                   1
                   1
                   1
                   1
                   1
                   1
                   1
                   1
                   1
                   1
                   1
                   1
                   1
                   1
                   1
                   1
                   1
                   1
                   1
                   1
                   1
                   1
                   1
                   1
                   1
                   1
                   1
                   1
                   1
                   1
                   1
                   1
                   1
                   1
                   1
                   1
                   1
                   1
                   1
                   1
                   1
                   1
                   1
                   1
                   1
                   1
                   1
                   1
                   1
                   1
                   1
                   1
                   1
                   1
                   1
                   1
                   1
                   1
                   1
                   1
                   1
                   1
                   1
                   1
                   1
                   1
                   1
                   1
                   1
                   1
                   1
                   1
                   1
                   1
                   1
                   1
                   1
                   1
                   1
                   1
                   1
                   1
                   1
                   1
                   1
                   1
                   1
                   1
                   1
                   1
                   1
                   1
                   1
                   1
                   1
                   1
                   1
                   1
                   1
                   1
                   1
                   1
                   1
                   1
                   1
                   1
                   1
                   1
                   1
                   1
                   1
                   1
                   1
                   1
                   1
                   1
                   1
                   1
                   1
                   1
                   1
                   1
                   1
                   1
                   1
                   1
                   1
                   1
                   1
                   1
                   1
                   1
                   1
                   1
                   1
                   1
                   1
                   1
                   1
                   1
                   1
                   1
                   1
                   1
                   1
                   1
                   1
                   1
                   1
                   1
                   1
                   1
                   1
                   1
                   1
                   1
                   1
                   1
                   1
                   1
                   1
                   1
                   1
                   1
                   1
                   1
                   1
                   1
                   1
                   1
                   1
                   1
                   1
                   1
                   1
                   1
                   1
                   1
                   1
                   1
                   1
                   1
                   1
                   1
                   1
                   1
                   1
                   1
                   1
                   1
                   1
                   1
                   1
                   1
                   1
                   1
                   1
                   1
                   1
                   1
                   1
                   1
                   1
                   1
                   1
                   1
                   1
                   1
                   1
                   1
                   1
                   1
                   1
                   1
                   1
                   1
                   1
                   1
                   1
                   1
                   1
                   1
                   1
                   1
                   1
                   1
                   1
                   1
                   1
                   1
                   1
                   1
                   1
                   1
                   1
                   1
                   1
                   1
                   1
                   1
                   1
                   1
                   1
                   1
                   1
                   1
                   1
                   1
                   1
                   1
                   1
                   1
                   1
                   1
                   1
                   1
                   1
                   1
                   1
                   1
                   1
                   1
                   1
                   1
                   1
                   1
                   1
                   1
                   1
                   1
                   1
                   1
                   1
                   1
                   1
                   1
                   1
                   1
                   1
                   1
                   1
                   1
                   1
                   1
                   1
                   1
                   1
                   1
                   1
                   1
                   1
                   1
                   1
                   1
                   1
                   1
                   1
                   1
                   1
                   1
                   1
                   1
                   1
                   1
                   1
                   1
                   1
                   1
                   1
                   1
                   1
                   1
                   1
                   1
                   1
                   1
                   1
                   1
                   1
                   1
                   1
                   1
                   1
                   1
                   1
                   1
                   1
                   1
                   1
                   1
                   1
                   1
                   1
                   1
                   1
                   1
                   1
                   1
                   1
                   1
                   1
                   1
                   1
                   1
                   1
                   1
                   1
                   1
                   1
                   1
                   1
                   1
                   1
                   1
                   1
                   1
                   1
                   1
                   1
                   1
                   1
                   1
                   1
                   1
                   1
                   1
                   1
                   1
                   1
                   1
                   1
                   1
                   1
                   1
                   1
                   1
                   1
                   1
                   1
                   1
                   1
                   1
                   1
                   1
                   1
                   1
                   1
                   1
                   1
                   1
                   1
                   1
                   1
                   1
                   1
                   1
                   1
                   1
                   1
                   1
                   1
                   1
                   1
                   1
                   1
                   1
                   1
                   1
                   1
                   1
                   1
                   1
                   1
                   1
                   1
                   1
                   1
                   1
                   1
                   1
                   1
                   1
                   1
                   1
                   1
                   1
                   1
                   1
                   1
                   1
                   1
                   1
                   1
                   1
                   1
                   1
                   1
                   1
                   1
                   1
                   1
                   1
                   1
                   1
                   1
                   1
                   1
                   1
                   1
                   1
                   1
                   1
                   1
                   1
                   1
                   1
                   1
                   1
                   1
                   1
                   1
                   1
                   1
                   1
                   1
                   1
                   1
                   1
                   1
                   1
                   1
                   1
                   1
                   1
                   1
                   1
                   1
                   1
                   1
                   1
                   1
                   1
                   1
                   1
                   1
                   1
                   1
                   1
                   1
                   1
                   1
                   1
                   1
                   1
                   1
                   1
                   1
                   1
                   1
                   1
                   1
                   1
                   1
                   1
                   1
                   1
                   1
                   1
                   1
                   1
                   1
                   1
                   1
                   1
                   1
                   1
                   1
                   1
                   1
                   1
                   1
                   1
                   1
                   1
                   1
                   1
                   1
                   1
                   1
                   1
                   1
                   1
                   1
                   1
                   1
                   1
                   1
                   1
                   1
                   1
                   1
                   1
                   1
                   1
                   1
                   1
                   1
                   1
                   1
                   1
                   1
                   1
                   1
                   1
                   1
                   1
                   1
                   1
                   1
                   1
                   1
                   1
                   1
                   1
                   1
                   1
                   1
                   1
                   1
                   1
                   1
                   1
                   1
                   1
                   1
                   1
                   1
                   1
                   1
                   1
                   1
                   1
                   1
                   1
                   1
                   1
                   1
                   1
                   1
                   1
                   1
                   1
                   1
                   1
                   1
                   1
                   1
                   1
                   1
                   1
                   1
                   1
                   1
                   1
                   1
                   1
                   1
                   1
                   1
                   1
                   1
                   1
                   1
                   1
                   1
                   1
                   1
                   1
                   1
                   1
                   1
                   1
                   1
                   1
                   1
                   1
                   1
                   1
                   1
                   1
                   1
                   1
                   1
                   1
                   1
                   1
                   1
                   1
                   1
                   1
                   1
                   1
                   1
                   1
                   1
                   1
                   1
                   1
                   1
                   1
                   1
                   1
                   1
                   1
                   1
                   1
                   1
                   1
                   1
                   1
                   1
                   1
                   1
                   1
                   1
                   1
                   1
                   1
                   1
                   1
                   1
                   1
                   1
                   1
                   1
                   1
                   1
                   1
                   1
                   1
                   1
                   1
                   1
                   1
                   1
                   1
                   1
                   1
                   1
                   1
                   1
                   1
                   1
                   1
                   1
                   1
                   1
                   1
                   1
                   1
                   1
                   1
                   1
                   1
                   1
                   1
                   1
                   1
                   1
                   1
                   1
                   1
                   1
                   1
                   1
                   1
                   1
                   1
                   1
                   1
                   1
                   1
                   1
                   1
                   1
                   1
                   1
                   1
                   1
                   1
                   1
                   1
                   1
                   1
                   1
                   1
                   1
                   1
                   1
                   1
                   1
                   1
                   1
                   1
                   1
                   1
                   1
                   1
                   1
                   1
                   1
                   1
                   1
                   1
                   1
                   1
                   1
                   1
                   1
                   1
                   1
                   1
                   1
                   1
                   1
                   1
                   1
                   1
                   1
                   1
                   1
                   1
                   1
                   1
                   1
                   1
                   1
                   1
                   1
                   1
                   1
                   1
                   1
                   1
                   1
                   1
                   1
                   1
                   1
                   1
                   1
                   1
                   1
                   1
                   1
                   1
                   1
                   1
                   1
                   1
                   1
                   1
                   1
                   1
                   1
                   1
                   1
                   1
                   1
                   1
                   1
                   1
                   1
                   1
                   1
                   1
                   1
                   1
                   1
                   1
                   1
                   1
                   1
                   1
                   1
                   1
                   1
                   1
                   1
                   1
                   1
                   1
                   1
                   1
                   1
                   1
                   1
                   1
                   1
                   1
                   1
                   1
                   1
                   1
                   1
                   1
                   1
                   1
                   1
                   1
                   1
                   1
                   1
                   1
                   1
                   1
                   1
                   1
                   1
                   1
                   1
                   1
                   1
                   1
                   1
                   1
                   1
                   1
                   1
                   1
                   1
                   1
                   1
                   1
                   1
                   1
                   1
                   1
                   1
                   1
                   1
                   1
                   1
                   1
                   1
                   1
                   1
                   1
                   1
                   1
                   1
                   1
                   1
                   1
                   1
                   1
                   1
                   1
                   1
                   1
                   1
                   1
                   1
                   1
                   1
                   1
                   1
                   1
                   1
                   1
                   1
                   1
                   1
                   1
                   1
                   1
                   1
                   1
                   1
                   1
                   1
                   1
                   1
                   1
                   1
                   1
                   1
                   1
                   1
                   1
                   1
                   1
                   1
                   1
                   1
                   1
                   1
                   1
                   1
                   1
                   1
                   1
                   1
                   1
                   1
                   1
                   1
                   1
                   1
                   1
                   1
                   1
                   1
                   1
                   1
                   1
                   1
                   1
                   1
                   1
                   1
                   1
                   1
                   1
                   1
                   1
                   1
                   1
                   1
                   1
                   1
                   1
                   1
                   1
                   1
                   1
                   1
                   1
                   1
                   1
                   1
                   1
                   1
                   1
                   1
                   1
                   1
                   1
                   1
                   1
                   1
                   1
                   1
                   1
                   1
                   1
                   1
                   1
                   1
                   1
                   1
                   1
                   1
                   1
                   1
                   1
                   1
                   1
                   1
                   1
                   1
                   1
                   1
                   1
                   1
                   1
                   1
                   1
                   1
                   1
                   1
                   1
                   1
                   1
                   1
                   1
                   1
                   1
                   1
                   1
                   1
                   1
                   1
                   1
                   1
                   1
                   1
                   1
                   1
                   1
                   1
                   1
                   1
                   1
                   1
                   1
                   1
                   1
                   1
                   1
                   1
                   1
                   1
                   1
                   1
                   1
                   1
                   1
                   1
                   1
                   1
                   1
                   1
                   1
                   1
                   1
                   1
                   1
                   1
                   1
                   1
                   1
                   1
                   1
                   1
                   1
                   1
                   1
                   1
                   1
                   1
                   1
                   1
                   1
                   1
                   1
                   1
                   1
                   1
                   1
                   1
                   1
                   1
                   1
                   1
                   1
                   1
                   1
                   1
                   1
                   1
                   1
                   1
                   1
                   1
                   1
                   1
                   1
                   1
                   1
                   1
                   1
                   1
                   1
                   1
                   1
                   1
                   1
                   1
                   1
                   1
                   1
                   1
                   1
                   1
                   1
                   1
                   1
                   1
                   1
                   1
                   1
                   1
                   1
                   1
                   1
                   1
                   1
                   1
                   1
                   1
                   1
                   1
                   1
                   1
                   1
                   1
                   1
                   1
                   1
                   1
                   1
                   1
                   1
                   1
                   1
                   1
                   1
                   1
                   1
                   1
                   1
                   1
                   1
                   1
                   1
                   1
                   1
                   1
                   1
                   1
                   1
                   1
                   1
                   1
                   1
                   1
                   1
                   1
                   1
                   1
                   1
                   1
                   1
                   1
                   1
                   1
                   1
                   1
                   1
                   1
                   1
                   1
                   1
                   1
                   1
                   1
                   1
                   1
                   1
                   1
                   1
                   1
                   1
                   1
                   1
                   1
                   1
                   1
                   1
                   1
                   1
                   1
                   1
                   1
                   1
                   1
                   1
                   1
                   1
                   1
                   1
                   1
                   1
                   1
                   1
                   1
                   1
                   1
                   1
                   1
                   1
                   1
                   1
                   1
                   1
                   1
                   1
                   1
                   1
                   1
                   1
                   1
                   1
                   1
                   1
                   1
                   1
                   1
                   1
                   1
                   1
                   1
                   1
                   1
  
SCALARS                  material_type  double 1
LOOKUP_TABLE default
                   2
                   2
                   2
                   2
                   2
                   2
                   2
                   2
                   2
                   2
                   2
                   2
                   2
                   2
                   2
                   2
                   2
                   2
                   2
                   2
                   2
                   2
                   2
                   2
                   2
                   2
                   2
                   2
                   2
                   2
                   2
                   2
                   2
                   2
                   2
                   2
                   2
                   2
                   2
                   2
                   2
                   2
                   2
                   2
                   2
                   2
                   2
                   2
                   2
                   2
                   2
                   2
                   2
                   2
                   2
                   2
                   2
                   2
                   2
                   2
                   2
                   2
                   2
                   2
                   2
                   2
                   2
                   2
                   2
                   2
                   2
                   2
                   2
                   2
                   2
                   2
                   2
                   2
                   2
                   2
                   2
                   2
                   2
                   2
                   2
                   2
                   2
                   2
                   2
                   2
                   2
                   2
                   2
                   2
                   2
                   2
                   2
                   2
                   2
                   2
                   2
                   2
                   2
                   2
                   2
                   2
                   2
                   2
                   2
                   2
                   2
                   2
                   2
                   2
                   2
                   2
                   2
                   2
                   2
                   2
                   2
                   2
                   2
                   2
                   2
                   2
                   2
                   2
                   2
                   2
                   2
                   2
                   2
                   2
                   2
                   2
                   2
                   2
                   2
                   2
                   2
                   2
                   2
                   2
                   2
                   2
                   2
                   2
                   2
                   2
                   2
                   2
                   2
                   2
                   2
                   2
                   2
                   2
                   2
                   2
                   2
                   2
                   2
                   2
                   2
                   2
                   2
                   2
                   2
                   2
                   2
                   2
                   2
                   2
                   2
                   2
                   2
                   2
                   2
                   2
                   2
                   2
                   2
                   2
                   2
                   2
                   2
                   2
                   2
                   2
                   2
                   2
                   2
                   2
                   2
                   2
                   2
                   2
                   2
                   2
                   2
                   2
                   2
                   2
                   2
                   2
                   2
                   2
                   2
                   2
                   2
                   2
                   2
                   2
                   2
                   2
                   2
                   2
                   2
                   2
                   2
                   2
                   2
                   2
                   2
                   2
                   2
                   2
                   2
                   2
                   2
                   2
                   2
                   2
                   2
                   2
                   2
                   2
                   2
                   2
                   2
                   2
                   2
                   2
                   2
                   2
                   2
                   2
                   2
                   2
                   2
                   2
                   2
                   2
                   2
                   2
                   2
                   2
                   2
                   2
                   2
                   2
                   2
                   2
                   2
                   2
                   2
                   2
                   2
                   2
                   2
                   2
                   2
                   2
                   2
                   2
                   2
                   2
                   2
                   2
                   2
                   2
                   2
                   2
                   2
                   2
                   2
                   2
                   2
                   2
                   2
                   2
                   2
                   2
                   2
                   2
                   2
                   2
                   2
                   2
                   2
                   2
                   2
                   2
                   2
                   2
                   2
                   2
                   2
                   2
                   2
                   2
                   2
                   2
                   2
                   2
                   2
                   2
                   2
                   2
                   2
                   2
                   2
                   2
                   2
                   2
                   2
                   2
                   2
                   2
                   2
                   2
                   2
                   2
                   2
                   2
                   2
                   2
                   2
                   2
                   2
                   2
                   2
                   2
                   2
                   2
                   2
                   2
                   2
                   2
                   2
                   2
                   2
                   2
                   2
                   2
                   2
                   2
                   2
                   2
                   2
                   2
                   2
                   2
                   2
                   2
                   2
                   2
                   2
                   2
                   2
                   2
                   2
                   2
                   2
                   2
                   2
                   2
                   2
                   2
                   2
                   2
                   2
                   2
                   2
                   2
                   2
                   2
                   2
                   2
                   2
                   2
                   2
                   2
                   2
                   2
                   2
                   2
                   2
                   2
                   2
                   2
                   2
                   2
                   2
                   2
                   2
                   2
                   2
                   2
                   2
                   2
                   2
                   2
                   2
                   2
                   2
                   2
                   2
                   2
                   2
                   2
                   2
                   2
                   2
                   2
                   2
                   2
                   2
                   2
                   2
                   2
                   2
                   2
                   2
                   2
                   2
                   2
                   2
                   2
                   2
                   2
                   2
                   2
                   2
                   2
                   2
                   2
                   2
                   2
                   2
                   2
                   2
                   2
                   2
                   2
                   2
                   2
                   2
                   2
                   2
                   2
                   2
                   2
                   2
                   2
                   2
                   2
                   2
                   2
                   2
                   2
                   2
                   2
                   2
                   2
                   2
                   2
                   2
                   2
                   2
                   2
                   2
                   2
                   2
                   2
                   2
                   2
                   2
                   2
                   2
                   2
                   2
                   2
                   2
                   2
                   2
                   2
                   2
                   2
                   2
                   2
                   2
                   2
                   2
                   2
                   2
                   2
                   2
                   2
                   2
                   2
                   2
                   2
                   2
                   2
                   2
                   2
                   2
                   2
                   2
                   2
                   2
                   2
                   2
                   2
                   2
                   2
                   2
                   2
                   2
                   2
                   2
                   2
                   2
                   2
                   2
                   2
                   2
                   2
                   2
                   2
                   2
                   2
                   2
                   2
                   2
                   2
                   2
                   2
                   2
                   2
                   2
                   2
                   2
                   2
                   2
                   2
                   2
                   2
                   2
                   2
                   2
                   2
                   2
                   2
                   2
                   2
                   2
                   2
                   2
                   2
                   2
                   2
                   2
                   2
                   2
                   2
                   2
                   2
                   2
                   2
                   2
                   2
                   2
                   2
                   2
                   2
                   2
                   2
                   2
                   2
                   2
                   2
                   2
                   2
                   2
                   2
                   2
                   2
                   2
                   2
                   2
                   2
                   2
                   2
                   2
                   2
                   2
                   2
                   2
                   2
                   2
                   2
                   2
                   2
                   2
                   2
                   2
                   2
                   2
                   2
                   2
                   2
                   2
                   2
                   2
                   2
                   2
                   2
                   2
                   2
                   2
                   2
                   2
                   2
                   2
                   2
                   2
                   2
                   2
                   2
                   2
                   2
                   2
                   2
                   2
                   2
                   2
                   2
                   2
                   2
                   2
                   2
                   2
                   2
                   2
                   2
                   2
                   2
                   2
                   2
                   2
                   2
                   2
                   2
                   2
                   2
                   2
                   2
                   2
                   2
                   2
                   2
                   2
                   2
                   2
                   2
                   2
                   2
                   2
                   2
                   2
                   2
                   2
                   2
                   2
                   2
                   2
                   2
                   2
                   2
                   2
                   2
                   2
                   2
                   2
                   2
                   2
                   2
                   2
                   2
                   2
                   2
                   2
                   2
                   2
                   2
                   2
                   2
                   2
                   2
                   2
                   2
                   2
                   2
                   2
                   2
                   2
                   2
                   2
                   2
                   2
                   2
                   2
                   2
                   2
                   2
                   2
                   2
                   2
                   2
                   2
                   2
                   2
                   2
                   2
                   2
                   2
                   2
                   2
                   2
                   2
                   2
                   2
                   2
                   2
                   2
                   2
                   2
                   2
                   2
                   2
                   2
                   2
                   2
                   2
                   2
                   2
                   2
                   2
                   2
                   2
                   2
                   2
                   2
                   2
                   2
                   2
                   2
                   2
                   2
                   2
                   2
                   2
                   2
                   2
                   2
                   2
                   2
                   2
                   2
                   2
                   2
                   2
                   2
                   2
                   2
                   2
                   2
                   2
                   2
                   2
                   2
                   2
                   2
                   2
                   2
                   2
                   2
                   2
                   2
                   2
                   2
                   2
                   2
                   2
                   2
                   2
                   2
                   2
                   2
                   2
                   2
                   2
                   2
                   2
                   2
                   2
                   2
                   2
                   2
                   2
                   2
                   2
                   2
                   2
                   2
                   2
                   2
                   2
                   2
                   2
                   2
                   2
                   2
                   2
                   2
                   2
                   2
                   2
                   2
                   2
                   2
                   2
                   2
                   2
                   2
                   2
                   2
                   2
                   2
                   2
                   2
                   2
                   2
                   2
                   2
                   2
                   2
                   2
                   2
                   2
                   2
                   2
                   2
                   2
                   2
                   2
                   2
                   2
                   2
                   2
                   2
                   2
                   2
                   2
                   2
                   2
                   2
                   2
                   2
                   2
                   2
                   2
                   2
                   2
                   2
                   2
                   2
                   2
                   2
                   2
                   2
                   2
                   2
                   2
                   2
                   2
                   2
                   2
                   2
                   2
                   2
                   2
                   2
                   2
                   2
                   2
                   2
                   2
                   2
                   2
                   2
                   2
                   2
                   2
                   2
                   2
                   2
                   2
                   2
                   2
                   2
                   2
                   2
                   2
                   2
                   2
                   2
                   2
                   2
                   2
                   2
                   2
                   2
                   2
                   2
                   2
                   2
                   2
                   2
                   2
                   2
                   2
                   2
                   2
                   2
                   2
                   2
                   2
                   2
                   2
                   2
                   2
                   2
                   2
                   2
                   2
                   2
                   2
                   2
                   2
                   2
                   2
                   2
                   2
                   2
                   2
                   2
                   2
                   2
                   2
                   2
                   2
                   2
                   2
                   2
                   2
                   2
                   2
                   2
                   2
                   2
                   2
                   2
                   2
                   2
                   2
                   2
                   2
                   2
                   2
                   2
                   2
                   2
                   2
                   2
                   2
                   2
                   2
                   2
                   2
                   2
                   2
                   2
                   2
                   2
                   2
                   2
                   2
                   2
                   2
                   2
                   2
                   2
                   2
                   2
                   2
                   2
                   2
                   2
                   2
                   2
                   2
                   2
                   2
                   2
                   2
                   2
                   2
                   2
                   2
                   2
                   2
                   2
                   2
                   2
                   2
                   2
                   2
                   2
                   2
                   2
                   2
                   2
                   2
                   2
                   2
                   2
                   2
                   2
                   2
                   2
                   2
                   2
                   2
                   2
                   2
                   2
                   2
                   2
                   2
                   2
                   2
                   2
                   2
                   2
                   2
                   2
                   2
                   2
                   2
                   2
                   2
                   2
                   2
                   2
                   2
                   2
                   2
                   2
                   2
                   2
                   2
                   2
                   2
                   2
                   2
                   2
                   2
                   2
                   2
                   2
                   2
                   2
                   2
                   2
                   2
                   2
                   2
                   2
                   2
                   2
                   2
                   2
                   2
                   2
                   2
                   2
                   2
                   2
                   2
                   2
                   2
                   2
                   2
                   2
                   2
                   2
                   2
                   2
                   2
                   2
                   2
                   2
                   2
                   2
                   2
                   2
                   2
                   2
                   2
                   2
                   2
                   2
                   2
                   2
                   2
                   2
                   2
                   2
                   2
                   2
                   2
                   2
                   2
                   2
                   2
                   2
                   2
                   2
                   2
                   2
                   2
                   2
                   2
                   2
                   2
                   2
                   2
                   2
                   2
                   2
                   2
                   2
                   2
                   2
                   2
                   2
                   2
                   2
                   2
                   2
                   2
                   2
                   2
                   2
                   2
                   2
                   2
                   2
                   2
                   2
                   2
                   2
                   2
                   2
                   2
                   2
                   2
                   2
                   2
                   2
                   2
                   2
                   2
                   2
                   2
                   2
                   2
                   2
                   2
                   2
                   2
                   2
                   2
                   2
                   2
                   2
                   2
                   2
                   2
                   2
                   2
                   2
                   2
                   2
                   2
                   2
                   2
                   2
                   2
                   2
                   2
                   2
                   2
                   2
                   2
                   2
                   2
                   2
                   2
                   2
                   2
                   2
                   2
                   2
                   2
                   2
                   2
                   2
                   2
                   2
                   2
                   2
                   2
                   2
                   2
                   2
                   2
                   2
                   2
                   2
                   2
                   2
                   2
                   2
                   2
                   2
                   2
                   2
                   2
                   2
                   2
                   2
                   2
                   2
                   2
                   2
                   2
                   2
                   2
                   2
                   2
                   2
                   2
                   2
                   2
                   2
                   2
                   2
                   2
                   2
                   2
                   2
                   2
                   2
                   2
                   2
                   2
                   2
                   2
                   2
                   2
                   2
                   2
                   2
                   2
                   2
                   2
                   2
                   2
                   2
                   2
                   2
                   2
                   2
                   2
                   2
                   2
                   2
                   2
                   2
                   2
                   2
                   2
                   2
                   2
                   2
                   2
                   2
                   2
                   2
                   2
                   2
                   2
                   2
                   2
                   2
                   2
                   2
                   2
                   2
                   2
                   2
                   2
                   2
                   2
                   2
                   2
                   2
                   2
                   2
                   2
                   2
                   2
                   2
                   2
                   2
                   2
                   2
                   2
                   2
                   2
                   2
                   2
                   2
                   2
                   2
                   2
                   2
                   2
                   2
                   2
                   2
                   2
                   2
                   2
                   2
                   2
                   2
                   2
                   2
                   2
                   2
                   2
                   2
                   2
                   2
                   2
                   2
                   2
                   2
                   2
                   2
                   2
                   2
                   2
                   2
                   2
                   2
                   2
                   2
                   2
                   2
                   2
                   2
                   2
                   2
                   2
                   2
                   2
                   2
                   2
                   2
                   2
                   2
                   2
                   2
                   2
                   2
                   2
                   2
                   2
                   2
                   2
                   2
                   2
                   2
                   2
                   2
                   2
                   2
                   2
                   2
                   2
                   2
                   2
                   2
                   2
                   2
                   2
                   2
                   2
                   2
                   2
                   2
                   2
                   2
                   2
                   2
                   2
                   2
                   2
                   2
                   2
                   2
                   2
                   2
                   2
                   2
                   2
                   2
                   2
                   2
                   2
                   2
                   2
                   2
                   2
                   2
                   2
                   2
                   2
                   2
                   2
                   2
                   2
                   2
                   2
                   2
                   2
                   2
                   2
                   2
                   2
                   2
                   2
                   2
                   2
                   2
                   2
                   2
                   2
                   2
                   2
                   2
                   2
                   2
                   2
                   2
                   2
                   2
                   2
                   2
                   2
                   2
                   2
                   2
                   2
                   2
                   2
                   2
                   2
                   2
                   2
                   2
                   2
                   2
                   2
                   2
                   2
                   2
                   2
                   2
                   2
                   2
                   2
                   2
                   2
                   2
                   2
                   2
                   2
                   2
                   2
                   2
                   2
                   2
                   2
                   2
                   2
                   2
                   2
                   2
                   2
                   2
                   2
                   2
                   2
                   2
                   2
                   2
                   2
                   2
                   2
                   2
                   2
                   2
                   2
                   2
                   2
                   2
                   2
                   2
                   2
                   2
                   2
                   2
                   2
                   2
                   2
                   2
                   2
                   2
                   2
                   2
                   2
                   2
                   2
                   2
                   2
                   2
                   2
                   2
                   2
                   2
                   2
                   2
                   2
                   2
                   2
                   2
                   2
                   2
                   2
                   2
                   2
                   2
                   2
                   2
                   2
                   2
                   2
                   2
                   2
                   2
                   2
                   2
                   2
                   2
                   2
                   2
                   2
                   2
                   2
                   2
                   2
                   2
                   2
                   2
                   2
                   2
                   2
                   2
                   2
                   2
                   2
                   2
                   2
                   2
                   2
                   2
                   2
                   2
                   2
                   2
                   2
                   2
                   2
                   2
                   2
                   2
                   2
                   2
                   2
                   2
                   2
                   2
                   2
                   2
                   2
                   2
                   2
                   2
                   2
                   2
                   2
                   2
                   2
                   2
                   2
                   2
                   2
                   2
                   2
                   2
                   2
                   2
                   2
                   2
                   2
                   2
                   2
                   2
                   2
                   2
                   2
                   2
                   2
                   2
                   2
                   2
                   2
                   2
                   2
                   2
                   2
                   2
                   2
                   2
                   2
                   2
                   2
                   2
                   2
                   2
                   2
                   2
                   2
                   2
                   2
                   2
                   2
                   2
                   2
                   2
                   2
                   2
                   2
                   2
                   2
                   2
                   2
                   2
                   2
                   2
                   2
                   2
                   2
                   2
                   2
                   2
                   2
                   2
                   2
                   2
                   2
                   2
                   2
                   2
                   2
                   2
                   2
                   2
                   2
                   2
                   2
                   2
                   2
                   2
                   2
                   2
                   2
                   2
                   2
                   2
                   2
                   2
                   2
                   2
                   2
                   2
                   2
                   2
                   2
                   2
                   2
                   2
                   2
                   2
                   2
                   2
                   2
                   2
                   2
                   2
                   2
                   2
                   2
                   2
                   2
                   2
                   2
                   2
                   2
                   2
                   2
                   2
                   2
                   2
                   2
                   2
                   2
                   2
                   2
                   2
                   2
                   2
                   2
                   2
                   2
                   2
                   2
                   2
                   2
                   2
                   2
                   2
                   2
                   2
                   2
                   2
                   2
                   2
                   2
                   2
                   2
                   2
                   2
                   2
                   2
                   2
                   2
                   2
                   2
                   2
                   2
                   2
                   2
                   2
                   2
                   2
                   2
                   2
                   2
                   2
                   2
                   2
                   2
                   2
                   2
                   2
                   2
                   2
                   2
                   2
                   2
                   2
                   2
                   2
                   2
                   2
                   2
                   2
                   2
                   2
                   2
                   2
                   2
                   2
                   2
                   2
                   2
                   2
                   2
                   2
                   2
                   2
                   2
                   2
                   2
                   2
                   2
                   2
                   2
                   2
                   2
                   2
                   2
                   2
                   2
                   2
                   2
                   2
                   2
                   2
                   2
                   2
                   2
                   2
                   2
                   2
                   2
                   2
                   2
                   2
                   2
                   2
                   2
                   2
                   2
                   2
                   2
                   2
                   2
                   2
                   2
                   2
                   2
                   2
                   2
                   2
                   2
                   2
                   2
                   2
                   2
                   2
                   2
                   2
                   2
                   2
                   2
                   2
                   2
                   2
                   2
                   2
                   2
                   2
                   2
                   2
                   2
                   2
                   2
                   2
                   2
                   2
                   2
                   2
                   2
                   2
                   2
                   2
                   2
                   2
                   2
                   2
                   2
                   2
                   2
                   2
                   2
                   2
                   2
                   2
                   2
                   2
                   2
                   2
                   2
                   2
                   2
                   2
                   2
                   2
                   2
                   2
  
SCALARS                       fixity_x  double 1
LOOKUP_TABLE default
                   0
                   0
                   0
                   0
                   0
                   0
                   0
                   0
                   0
                   0
                   0
                   0
                   0
                   0
                   0
                   0
                   0
                   0
                   0
                   0
                   0
                   0
                   0
                   0
                   0
                   0
                   0
                   0
                   0
                   0
                   0
                   0
                   0
                   0
                   0
                   0
                   0
                   0
                   0
                   0
                   0
                   0
                   0
                   0
                   0
                   0
                   0
                   0
                   0
                   0
                   0
                   0
                   0
                   0
                   0
                   0
                   0
                   0
                   0
                   0
                   0
                   0
                   0
                   0
                   0
                   0
                   0
                   0
                   0
                   0
                   0
                   0
                   0
                   0
                   0
                   0
                   0
                   0
                   0
                   0
                   0
                   0
                   0
                   0
                   0
                   0
                   0
                   0
                   0
                   0
                   0
                   0
                   0
                   0
                   0
                   0
                   0
                   0
                   0
                   0
                   0
                   0
                   0
                   0
                   0
                   0
                   0
                   0
                   0
                   0
                   0
                   0
                   0
                   0
                   0
                   0
                   0
                   0
                   0
                   0
                   0
                   0
                   0
                   0
                   0
                   0
                   0
                   0
                   0
                   0
                   0
                   0
                   0
                   0
                   0
                   0
                   0
                   0
                   0
                   0
                   0
                   0
                   0
                   0
                   0
                   0
                   0
                   0
                   0
                   0
                   0
                   0
                   0
                   0
                   0
                   0
                   0
                   0
                   0
                   0
                   0
                   0
                   0
                   0
                   0
                   0
                   0
                   0
                   0
                   0
                   0
                   0
                   0
                   0
                   0
                   0
                   0
                   0
                   0
                   0
                   0
                   0
                   0
                   0
                   0
                   0
                   0
                   0
                   0
                   0
                   0
                   0
                   0
                   0
                   0
                   0
                   0
                   0
                   0
                   0
                   0
                   0
                   0
                   0
                   0
                   0
                   0
                   0
                   0
                   0
                   0
                   0
                   0
                   0
                   0
                   0
                   0
                   0
                   0
                   0
                   0
                   0
                   0
                   0
                   0
                   0
                   0
                   0
                   0
                   0
                   0
                   0
                   0
                   0
                   0
                   0
                   0
                   0
                   0
                   0
                   0
                   0
                   0
                   0
                   0
                   0
                   0
                   0
                   0
                   0
                   0
                   0
                   0
                   0
                   0
                   0
                   0
                   0
                   0
                   0
                   0
                   0
                   0
                   0
                   0
                   0
                   0
                   0
                   0
                   0
                   0
                   0
                   0
                   0
                   0
                   0
                   0
                   0
                   0
                   0
                   0
                   0
                   0
                   0
                   0
                   0
                   0
                   0
                   0
                   0
                   0
                   0
                   0
                   0
                   0
                   0
                   0
                   0
                   0
                   0
                   0
                   0
                   0
                   0
                   0
                   0
                   0
                   0
                   0
                   0
                   0
                   0
                   0
                   0
                   0
                   0
                   0
                   0
                   0
                   0
                   0
                   0
                   0
                   0
                   0
                   0
                   0
                   0
                   0
                   0
                   0
                   0
                   0
                   0
                   0
                   0
                   0
                   0
                   0
                   0
                   0
                   0
                   0
                   0
                   0
                   0
                   0
                   0
                   0
                   0
                   0
                   0
                   0
                   0
                   0
                   0
                   0
                   0
                   0
                   0
                   0
                   0
                   0
                   0
                   0
                   0
                   0
                   0
                   0
                   0
                   0
                   0
                   0
                   0
                   0
                   0
                   0
                   0
                   0
                   0
                   0
                   0
                   0
                   0
                   0
                   0
                   0
                   0
                   0
                   0
                   0
                   0
                   0
                   0
                   0
                   0
                   0
                   0
                   0
                   0
                   0
                   0
                   0
                   0
                   0
                   0
                   0
                   0
                   0
                   0
                   0
                   0
                   0
                   0
                   0
                   0
                   0
                   0
                   0
                   0
                   0
                   0
                   0
                   0
                   0
                   0
                   0
                   0
                   0
                   0
                   0
                   0
                   0
                   0
                   0
                   0
                   0
                   0
                   0
                   0
                   0
                   0
                   0
                   0
                   0
                   0
                   0
                   0
                   0
                   0
                   0
                   0
                   0
                   0
                   0
                   0
                   0
                   0
                   0
                   0
                   0
                   0
                   0
                   0
                   0
                   0
                   0
                   0
                   0
                   0
                   0
                   0
                   0
                   0
                   0
                   0
                   0
                   0
                   0
                   0
                   0
                   0
                   0
                   0
                   0
                   0
                   0
                   0
                   0
                   0
                   0
                   0
                   0
                   0
                   0
                   0
                   0
                   0
                   0
                   0
                   0
                   0
                   0
                   0
                   0
                   0
                   0
                   0
                   0
                   0
                   0
                   0
                   0
                   0
                   0
                   0
                   0
                   0
                   0
                   0
                   0
                   0
                   0
                   0
                   0
                   0
                   0
                   0
                   0
                   0
                   0
                   0
                   0
                   0
                   0
                   0
                   0
                   0
                   0
                   0
                   0
                   0
                   0
                   0
                   0
                   0
                   0
                   0
                   0
                   0
                   0
                   0
                   0
                   0
                   0
                   0
                   0
                   0
                   0
                   0
                   0
                   0
                   0
                   0
                   0
                   0
                   0
                   0
                   0
                   0
                   0
                   0
                   0
                   0
                   0
                   0
                   0
                   0
                   0
                   0
                   0
                   0
                   0
                   0
                   0
                   0
                   0
                   0
                   0
                   0
                   0
                   0
                   0
                   0
                   0
                   0
                   0
                   0
                   0
                   0
                   0
                   0
                   0
                   0
                   0
                   0
                   0
                   0
                   0
                   0
                   0
                   0
                   0
                   0
                   0
                   0
                   0
                   0
                   0
                   0
                   0
                   0
                   0
                   0
                   0
                   0
                   0
                   0
                   0
                   0
                   0
                   0
                   0
                   0
                   0
                   0
                   0
                   0
                   0
                   0
                   0
                   0
                   0
                   0
                   0
                   0
                   0
                   0
                   0
                   0
                   0
                   0
                   0
                   0
                   0
                   0
                   0
                   0
                   0
                   0
                   0
                   0
                   0
                   0
                   0
                   0
                   0
                   0
                   0
                   0
                   0
                   0
                   0
                   0
                   0
                   0
                   0
                   0
                   0
                   0
                   0
                   0
                   0
                   0
                   0
                   0
                   0
                   0
                   0
                   0
                   0
                   0
                   0
                   0
                   0
                   0
                   0
                   0
                   0
                   0
                   0
                   0
                   0
                   0
                   0
                   0
                   0
                   0
                   0
                   0
                   0
                   0
                   0
                   0
                   0
                   0
                   0
                   0
                   0
                   0
                   0
                   0
                   0
                   0
                   0
                   0
                   0
                   0
                   0
                   0
                   0
                   0
                   0
                   0
                   0
                   0
                   0
                   0
                   0
                   0
                   0
                   0
                   0
                   0
                   0
                   0
                   0
                   0
                   0
                   0
                   0
                   0
                   0
                   0
                   0
                   0
                   0
                   0
                   0
                   0
                   0
                   0
                   0
                   0
                   0
                   0
                   0
                   0
                   0
                   0
                   0
                   0
                   0
                   0
                   0
                   0
                   0
                   0
                   0
                   0
                   0
                   0
                   0
                   0
                   0
                   0
                   0
                   0
                   0
                   0
                   0
                   0
                   0
                   0
                   0
                   0
                   0
                   0
                   0
                   0
                   0
                   0
                   0
                   0
                   0
                   0
                   0
                   0
                   0
                   0
                   0
                   0
                   0
                   0
                   0
                   0
                   0
                   0
                   0
                   0
                   0
                   0
                   0
                   0
                   0
                   0
                   0
                   0
                   0
                   0
                   0
                   0
                   0
                   0
                   0
                   0
                   0
                   0
                   0
                   0
                   0
                   0
                   0
                   0
                   0
                   0
                   0
                   0
                   0
                   0
                   0
                   0
                   0
                   0
                   0
                   0
                   0
                   0
                   0
                   0
                   0
                   0
                   0
                   0
                   0
                   0
                   0
                   0
                   0
                   0
                   0
                   0
                   0
                   0
                   0
                   0
                   0
                   0
                   0
                   0
                   0
                   0
                   0
                   0
                   0
                   0
                   0
                   0
                   0
                   0
                   0
                   0
                   0
                   0
                   0
                   0
                   0
                   0
                   0
                   0
                   0
                   0
                   0
                   0
                   0
                   0
                   0
                   0
                   0
                   0
                   0
                   0
                   0
                   0
                   0
                   0
                   0
                   0
                   0
                   0
                   0
                   0
                   0
                   0
                   0
                   0
                   0
                   0
                   0
                   0
                   0
                   0
                   0
                   0
                   0
                   0
                   0
                   0
                   0
                   0
                   0
                   0
                   0
                   0
                   0
                   0
                   0
                   0
                   0
                   0
                   0
                   0
                   0
                   0
                   0
                   0
                   0
                   0
                   0
                   0
                   0
                   0
                   0
                   0
                   0
                   0
                   0
                   0
                   0
                   0
                   0
                   0
                   0
                   0
                   0
                   0
                   0
                   0
                   0
                   0
                   0
                   0
                   0
                   0
                   0
                   0
                   0
                   0
                   0
                   0
                   0
                   0
                   0
                   0
                   0
                   0
                   0
                   0
                   0
                   0
                   0
                   0
                   0
                   0
                   0
                   0
                   0
                   0
                   0
                   0
                   0
                   0
                   0
                   0
                   0
                   0
                   0
                   0
                   0
                   0
                   0
                   0
                   0
                   0
                   0
                   0
                   0
                   0
                   0
                   0
                   0
                   0
                   0
                   0
                   0
                   0
                   0
                   0
                   0
                   0
                   0
                   0
                   0
                   0
                   0
                   0
                   0
                   0
                   0
                   0
                   0
                   0
                   0
                   0
                   0
                   0
                   0
                   0
                   0
                   0
                   0
                   0
                   0
                   0
                   0
                   0
                   0
                   0
                   0
                   0
                   0
                   0
                   0
                   0
                   0
                   0
                   0
                   0
                   0
                   0
                   0
                   0
                   0
                   0
                   0
                   0
                   0
                   0
                   0
                   0
                   0
                   0
                   0
                   0
                   0
                   0
                   0
                   0
                   0
                   0
                   0
                   0
                   0
                   0
                   0
                   0
                   0
                   0
                   0
                   0
                   0
                   0
                   0
                   0
                   0
                   0
                   0
                   0
                   0
                   0
                   0
                   0
                   0
                   0
                   0
                   0
                   0
                   0
                   0
                   0
                   0
                   0
                   0
                   0
                   0
                   0
                   0
                   0
                   0
                   0
                   0
                   0
                   0
                   0
                   0
                   0
                   0
                   0
                   0
                   0
                   0
                   0
                   0
                   0
                   0
                   0
                   0
                   0
                   0
                   0
                   0
                   0
                   0
                   0
                   0
                   0
                   0
                   0
                   0
                   0
                   0
                   0
                   0
                   0
                   0
                   0
                   0
                   0
                   0
                   0
                   0
                   0
                   0
                   0
                   0
                   0
                   0
                   0
                   0
                   0
                   0
                   0
                   0
                   0
                   0
                   0
                   0
                   0
                   0
                   0
                   0
                   0
                   0
                   0
                   0
                   0
                   0
                   0
                   0
                   0
                   0
                   0
                   0
                   0
                   0
                   0
                   0
                   0
                   0
                   0
                   0
                   0
                   0
                   0
                   0
                   0
                   0
                   0
                   0
                   0
                   0
                   0
                   0
                   0
                   0
                   0
                   0
                   0
                   0
                   0
                   0
                   0
                   0
                   0
                   0
                   0
                   0
                   0
                   0
                   0
                   0
                   0
                   0
                   0
                   0
                   0
                   0
                   0
                   0
                   0
                   0
                   0
                   0
                   0
                   0
                   0
                   0
                   0
                   0
                   0
                   0
                   0
                   0
                   0
                   0
                   0
                   0
                   0
                   0
                   0
                   0
                   0
                   0
                   0
                   0
                   0
                   0
                   0
                   0
                   0
                   0
                   0
                   0
                   0
                   0
                   0
                   0
                   0
                   0
                   0
                   0
                   0
                   0
                   0
                   0
                   0
                   0
                   0
                   0
                   0
                   0
                   0
                   0
                   0
                   0
                   0
                   0
                   0
                   0
                   0
                   0
                   0
                   0
                   0
                   0
                   0
                   0
                   0
                   0
                   0
                   0
                   0
                   0
                   0
                   0
                   0
                   0
                   0
                   0
                   0
                   0
                   0
                   0
                   0
                   0
                   0
                   0
                   0
                   0
                   0
                   0
                   0
                   0
                   0
                   0
                   0
                   0
                   0
                   0
                   0
                   0
                   0
                   0
                   0
                   0
                   0
                   0
                   0
                   0
                   0
                   0
                   0
                   0
                   0
                   0
                   0
                   0
                   0
                   0
                   0
                   0
                   0
                   0
                   0
                   0
                   0
                   0
                   0
                   0
                   0
                   0
                   0
                   0
                   0
                   0
                   0
                   0
                   0
                   0
                   0
                   0
                   0
                   0
                   0
                   0
                   0
                   0
                   0
                   0
                   0
                   0
                   0
                   0
                   0
                   0
                   0
                   0
                   0
                   0
                   0
                   0
                   0
                   0
                   0
                   0
                   0
                   0
                   0
                   0
                   0
                   0
                   0
                   0
                   0
                   0
                   0
                   0
                   0
                   0
                   0
                   0
                   0
                   0
                   0
                   0
                   0
                   0
                   0
                   0
                   0
                   0
                   0
                   0
                   0
                   0
                   0
                   0
                   0
                   0
                   0
                   0
                   0
                   0
                   0
                   0
                   0
                   0
                   0
                   0
                   0
                   0
                   0
                   0
                   0
                   0
                   0
                   0
                   0
                   0
                   0
                   0
                   0
                   0
                   0
                   0
                   0
                   0
                   0
                   0
                   0
                   0
                   0
                   0
                   0
                   0
                   0
                   0
                   0
                   0
                   0
                   0
                   0
                   0
                   0
                   0
                   0
                   0
                   0
                   0
                   0
                   0
                   0
                   0
                   0
                   0
                   0
                   0
                   0
                   0
                   0
                   0
                   0
                   0
                   0
                   0
                   0
                   0
                   0
                   0
                   0
                   0
                   0
                   0
                   0
                   0
                   0
                   0
                   0
                   0
                   0
                   0
                   0
                   0
                   0
                   0
                   0
                   0
                   0
                   0
                   0
                   0
                   0
                   0
                   0
                   0
                   0
                   0
                   0
                   0
                   0
                   0
                   0
                   0
                   0
                   0
                   0
                   0
                   0
                   0
                   0
                   0
                   0
                   0
                   0
                   0
                   0
                   0
                   0
                   0
                   0
                   0
                   0
                   0
                   0
                   0
                   0
                   0
                   0
                   0
                   0
                   0
                   0
                   0
                   0
                   0
                   0
                   0
                   0
                   0
                   0
                   0
                   0
                   0
                   0
                   0
                   0
                   0
                   0
                   0
                   0
                   0
                   0
                   0
                   0
                   0
                   0
                   0
                   0
                   0
                   0
                   0
                   0
                   0
                   0
                   0
                   0
                   0
                   0
                   0
                   0
                   0
                   0
                   0
                   0
                   0
                   0
                   0
                   0
                   0
                   0
                   0
                   0
                   0
                   0
                   0
                   0
                   0
                   0
                   0
                   0
                   0
                   0
                   0
                   0
                   0
                   0
                   0
                   0
                   0
                   0
                   0
                   0
                   0
                   0
                   0
                   0
                   0
                   0
                   0
                   0
                   0
                   0
                   0
                   0
                   0
                   0
                   0
                   0
                   0
                   0
                   0
                   0
                   0
                   0
                   0
                   0
                   0
                   0
                   0
                   0
                   0
                   0
                   0
                   0
                   0
                   0
                   0
                   0
                   0
                   0
                   0
                   0
                   0
                   0
                   0
                   0
                   0
                   0
                   0
                   0
                   0
                   0
                   0
                   0
                   0
                   0
                   0
                   0
                   0
                   0
                   0
                   0
                   0
                   0
                   0
                   0
                   0
                   0
                   0
                   0
                   0
                   0
                   0
                   0
                   0
                   0
                   0
                   0
                   0
                   0
                   0
                   0
                   0
                   0
                   0
                   0
                   0
                   0
                   0
                   0
                   0
                   0
                   0
                   0
                   0
                   0
                   0
                   0
                   0
                   0
                   0
                   0
                   0
                   0
                   0
                   0
                   0
                   0
                   0
                   0
                   0
                   0
                   0
                   0
                   0
                   0
                   0
                   0
                   0
                   0
                   0
                   0
                   0
                   0
                   0
                   0
                   0
                   0
                   0
                   0
                   0
                   0
                   0
                   0
                   0
                   0
                   0
                   0
                   0
                   0
                   0
                   0
                   0
                   0
                   0
                   0
                   0
                   0
                   0
                   0
                   0
                   0
                   0
                   0
                   0
                   0
                   0
                   0
                   0
                   0
                   0
                   0
                   0
                   0
                   0
                   0
                   0
                   0
                   0
                   0
                   0
                   0
                   0
                   0
                   0
                   0
                   0
                   0
                   0
                   0
                   0
                   0
                   0
                   0
                   0
                   0
                   0
                   0
                   0
                   0
                   0
                   0
                   0
                   0
                   0
                   0
                   0
                   0
                   0
                   0
                   0
                   0
                   0
                   0
                   0
                   0
                   0
                   0
                   0
                   0
                   0
                   0
                   0
                   0
                   0
                   0
                   0
                   0
                   0
                   0
                   0
                   0
                   0
                   0
                   0
                   0
                   0
                   0
                   0
                   0
                   0
                   0
                   0
                   0
                   0
                   0
                   0
                   0
                   0
                   0
                   0
                   0
                   0
                   0
                   0
                   0
                   0
                   0
                   0
                   0
                   0
                   0
                   0
                   0
                   0
                   0
                   0
                   0
                   0
                   0
                   0
                   0
                   0
                   0
                   0
                   0
                   0
                   0
                   0
                   0
                   0
                   0
                   0
                   0
                   0
                   0
                   0
                   0
                   0
                   0
                   0
                   0
                   0
                   0
                   0
                   0
                   0
                   0
                   0
                   0
  
SCALARS                       fixity_y  double 1
LOOKUP_TABLE default
                   0
                   0
                   0
                   0
                   0
                   0
                   0
                   0
                   0
                   0
                   0
                   0
                   0
                   0
                   0
                   0
                   0
                   0
                   0
                   0
                   0
                   0
                   0
                   0
                   0
                   0
                   0
                   0
                   0
                   0
                   0
                   0
                   0
                   0
                   0
                   0
                   0
                   0
                   0
                   0
                   0
                   0
                   0
                   0
                   0
                   0
                   0
                   0
                   0
                   0
                   0
                   0
                   0
                   0
                   0
                   0
                   0
                   0
                   0
                   0
                   0
                   0
                   0
                   0
                   0
                   0
                   0
                   0
                   0
                   0
                   0
                   0
                   0
                   0
                   0
                   0
                   0
                   0
                   0
                   0
                   0
                   0
                   0
                   0
                   0
                   0
                   0
                   0
                   0
                   0
                   0
                   0
                   0
                   0
                   0
                   0
                   0
                   0
                   0
                   0
                   0
                   0
                   0
                   0
                   0
                   0
                   0
                   0
                   0
                   0
                   0
                   0
                   0
                   0
                   0
                   0
                   0
                   0
                   0
                   0
                   0
                   0
                   0
                   0
                   0
                   0
                   0
                   0
                   0
                   0
                   0
                   0
                   0
                   0
                   0
                   0
                   0
                   0
                   0
                   0
                   0
                   0
                   0
                   0
                   0
                   0
                   0
                   0
                   0
                   0
                   0
                   0
                   0
                   0
                   0
                   0
                   0
                   0
                   0
                   0
                   0
                   0
                   0
                   0
                   0
                   0
                   0
                   0
                   0
                   0
                   0
                   0
                   0
                   0
                   0
                   0
                   0
                   0
                   0
                   0
                   0
                   0
                   0
                   0
                   0
                   0
                   0
                   0
                   0
                   0
                   0
                   0
                   0
                   0
                   0
                   0
                   0
                   0
                   0
                   0
                   0
                   0
                   0
                   0
                   0
                   0
                   0
                   0
                   0
                   0
                   0
                   0
                   0
                   0
                   0
                   0
                   0
                   0
                   0
                   0
                   0
                   0
                   0
                   0
                   0
                   0
                   0
                   0
                   0
                   0
                   0
                   0
                   0
                   0
                   0
                   0
                   0
                   0
                   0
                   0
                   0
                   0
                   0
                   0
                   0
                   0
                   0
                   0
                   0
                   0
                   0
                   0
                   0
                   0
                   0
                   0
                   0
                   0
                   0
                   0
                   0
                   0
                   0
                   0
                   0
                   0
                   0
                   0
                   0
                   0
                   0
                   0
                   0
                   0
                   0
                   0
                   0
                   0
                   0
                   0
                   0
                   0
                   0
                   0
                   0
                   0
                   0
                   0
                   0
                   0
                   0
                   0
                   0
                   0
                   0
                   0
                   0
                   0
                   0
                   0
                   0
                   0
                   0
                   0
                   0
                   0
                   0
                   0
                   0
                   0
                   0
                   0
                   0
                   0
                   0
                   0
                   0
                   0
                   0
                   0
                   0
                   0
                   0
                   0
                   0
                   0
                   0
                   0
                   0
                   0
                   0
                   0
                   0
                   0
                   0
                   0
                   0
                   0
                   0
                   0
                   0
                   0
                   0
                   0
                   0
                   0
                   0
                   0
                   0
                   0
                   0
                   0
                   0
                   0
                   0
                   0
                   0
                   0
                   0
                   0
                   0
                   0
                   0
                   0
                   0
                   0
                   0
                   0
                   0
                   0
                   0
                   0
                   0
                   0
                   0
                   0
                   0
                   0
                   0
                   0
                   0
                   0
                   0
                   0
                   0
                   0
                   0
                   0
                   0
                   0
                   0
                   0
                   0
                   0
                   0
                   0
                   0
                   0
                   0
                   0
                   0
                   0
                   0
                   0
                   0
                   0
                   0
                   0
                   0
                   0
                   0
                   0
                   0
                   0
                   0
                   0
                   0
                   0
                   0
                   0
                   0
                   0
                   0
                   0
                   0
                   0
                   0
                   0
                   0
                   0
                   0
                   0
                   0
                   0
                   0
                   0
                   0
                   0
                   0
                   0
                   0
                   0
                   0
                   0
                   0
                   0
                   0
                   0
                   0
                   0
                   0
                   0
                   0
                   0
                   0
                   0
                   0
                   0
                   0
                   0
                   0
                   0
                   0
                   0
                   0
                   0
                   0
                   0
                   0
                   0
                   0
                   0
                   0
                   0
                   0
                   0
                   0
                   0
                   0
                   0
                   0
                   0
                   0
                   0
                   0
                   0
                   0
                   0
                   0
                   0
                   0
                   0
                   0
                   0
                   0
                   0
                   0
                   0
                   0
                   0
                   0
                   0
                   0
                   0
                   0
                   0
                   0
                   0
                   0
                   0
                   0
                   0
                   0
                   0
                   0
                   0
                   0
                   0
                   0
                   0
                   0
                   0
                   0
                   0
                   0
                   0
                   0
                   0
                   0
                   0
                   0
                   0
                   0
                   0
                   0
                   0
                   0
                   0
                   0
                   0
                   0
                   0
                   0
                   0
                   0
                   0
                   0
                   0
                   0
                   0
                   0
                   0
                   0
                   0
                   0
                   0
                   0
                   0
                   0
                   0
                   0
                   0
                   0
                   0
                   0
                   0
                   0
                   0
                   0
                   0
                   0
                   0
                   0
                   0
                   0
                   0
                   0
                   0
                   0
                   0
                   0
                   0
                   0
                   0
                   0
                   0
                   0
                   0
                   0
                   0
                   0
                   0
                   0
                   0
                   0
                   0
                   0
                   0
                   0
                   0
                   0
                   0
                   0
                   0
                   0
                   0
                   0
                   0
                   0
                   0
                   0
                   0
                   0
                   0
                   0
                   0
                   0
                   0
                   0
                   0
                   0
                   0
                   0
                   0
                   0
                   0
                   0
                   0
                   0
                   0
                   0
                   0
                   0
                   0
                   0
                   0
                   0
                   0
                   0
                   0
                   0
                   0
                   0
                   0
                   0
                   0
                   0
                   0
                   0
                   0
                   0
                   0
                   0
                   0
                   0
                   0
                   0
                   0
                   0
                   0
                   0
                   0
                   0
                   0
                   0
                   0
                   0
                   0
                   0
                   0
                   0
                   0
                   0
                   0
                   0
                   0
                   0
                   0
                   0
                   0
                   0
                   0
                   0
                   0
                   0
                   0
                   0
                   0
                   0
                   0
                   0
                   0
                   0
                   0
                   0
                   0
                   0
                   0
                   0
                   0
                   0
                   0
                   0
                   0
                   0
                   0
                   0
                   0
                   0
                   0
                   0
                   0
                   0
                   0
                   0
                   0
                   0
                   0
                   0
                   0
                   0
                   0
                   0
                   0
                   0
                   0
                   0
                   0
                   0
                   0
                   0
                   0
                   0
                   0
                   0
                   0
                   0
                   0
                   0
                   0
                   0
                   0
                   0
                   0
                   0
                   0
                   0
                   0
                   0
                   0
                   0
                   0
                   0
                   0
                   0
                   0
                   0
                   0
                   0
                   0
                   0
                   0
                   0
                   0
                   0
                   0
                   0
                   0
                   0
                   0
                   0
                   0
                   0
                   0
                   0
                   0
                   0
                   0
                   0
                   0
                   0
                   0
                   0
                   0
                   0
                   0
                   0
                   0
                   0
                   0
                   0
                   0
                   0
                   0
                   0
                   0
                   0
                   0
                   0
                   0
                   0
                   0
                   0
                   0
                   0
                   0
                   0
                   0
                   0
                   0
                   0
                   0
                   0
                   0
                   0
                   0
                   0
                   0
                   0
                   0
                   0
                   0
                   0
                   0
                   0
                   0
                   0
                   0
                   0
                   0
                   0
                   0
                   0
                   0
                   0
                   0
                   0
                   0
                   0
                   0
                   0
                   0
                   0
                   0
                   0
                   0
                   0
                   0
                   0
                   0
                   0
                   0
                   0
                   0
                   0
                   0
                   0
                   0
                   0
                   0
                   0
                   0
                   0
                   0
                   0
                   0
                   0
                   0
                   0
                   0
                   0
                   0
                   0
                   0
                   0
                   0
                   0
                   0
                   0
                   0
                   0
                   0
                   0
                   0
                   0
                   0
                   0
                   0
                   0
                   0
                   0
                   0
                   0
                   0
                   0
                   0
                   0
                   0
                   0
                   0
                   0
                   0
                   0
                   0
                   0
                   0
                   0
                   0
                   0
                   0
                   0
                   0
                   0
                   0
                   0
                   0
                   0
                   0
                   0
                   0
                   0
                   0
                   0
                   0
                   0
                   0
                   0
                   0
                   0
                   0
                   0
                   0
                   0
                   0
                   0
                   0
                   0
                   0
                   0
                   0
                   0
                   0
                   0
                   0
                   0
                   0
                   0
                   0
                   0
                   0
                   0
                   0
                   0
                   0
                   0
                   0
                   0
                   0
                   0
                   0
                   0
                   0
                   0
                   0
                   0
                   0
                   0
                   0
                   0
                   0
                   0
                   0
                   0
                   0
                   0
                   0
                   0
                   0
                   0
                   0
                   0
                   0
                   0
                   0
                   0
                   0
                   0
                   0
                   0
                   0
                   0
                   0
                   0
                   0
                   0
                   0
                   0
                   0
                   0
                   0
                   0
                   0
                   0
                   0
                   0
                   0
                   0
                   0
                   0
                   0
                   0
                   0
                   0
                   0
                   0
                   0
                   0
                   0
                   0
                   0
                   0
                   0
                   0
                   0
                   0
                   0
                   0
                   0
                   0
                   0
                   0
                   0
                   0
                   0
                   0
                   0
                   0
                   0
                   0
                   0
                   0
                   0
                   0
                   0
                   0
                   0
                   0
                   0
                   0
                   0
                   0
                   0
                   0
                   0
                   0
                   0
                   0
                   0
                   0
                   0
                   0
                   0
                   0
                   0
                   0
                   0
                   0
                   0
                   0
                   0
                   0
                   0
                   0
                   0
                   0
                   0
                   0
                   0
                   0
                   0
                   0
                   0
                   0
                   0
                   0
                   0
                   0
                   0
                   0
                   0
                   0
                   0
                   0
                   0
                   0
                   0
                   0
                   0
                   0
                   0
                   0
                   0
                   0
                   0
                   0
                   0
                   0
                   0
                   0
                   0
                   0
                   0
                   0
                   0
                   0
                   0
                   0
                   0
                   0
                   0
                   0
                   0
                   0
                   0
                   0
                   0
                   0
                   0
                   0
                   0
                   0
                   0
                   0
                   0
                   0
                   0
                   0
                   0
                   0
                   0
                   0
                   0
                   0
                   0
                   0
                   0
                   0
                   0
                   0
                   0
                   0
                   0
                   0
                   0
                   0
                   0
                   0
                   0
                   0
                   0
                   0
                   0
                   0
                   0
                   0
                   0
                   0
                   0
                   0
                   0
                   0
                   0
                   0
                   0
                   0
                   0
                   0
                   0
                   0
                   0
                   0
                   0
                   0
                   0
                   0
                   0
                   0
                   0
                   0
                   0
                   0
                   0
                   0
                   0
                   0
                   0
                   0
                   0
                   0
                   0
                   0
                   0
                   0
                   0
                   0
                   0
                   0
                   0
                   0
                   0
                   0
                   0
                   0
                   0
                   0
                   0
                   0
                   0
                   0
                   0
                   0
                   0
                   0
                   0
                   0
                   0
                   0
                   0
                   0
                   0
                   0
                   0
                   0
                   0
                   0
                   0
                   0
                   0
                   0
                   0
                   0
                   0
                   0
                   0
                   0
                   0
                   0
                   0
                   0
                   0
                   0
                   0
                   0
                   0
                   0
                   0
                   0
                   0
                   0
                   0
                   0
                   0
                   0
                   0
                   0
                   0
                   0
                   0
                   0
                   0
                   0
                   0
                   0
                   0
                   0
                   0
                   0
                   0
                   0
                   0
                   0
                   0
                   0
                   0
                   0
                   0
                   0
                   0
                   0
                   0
                   0
                   0
                   0
                   0
                   0
                   0
                   0
                   0
                   0
                   0
                   0
                   0
                   0
                   0
                   0
                   0
                   0
                   0
                   0
                   0
                   0
                   0
                   0
                   0
                   0
                   0
                   0
                   0
                   0
                   0
                   0
                   0
                   0
                   0
                   0
                   0
                   0
                   0
                   0
                   0
                   0
                   0
                   0
                   0
                   0
                   0
                   0
                   0
                   0
                   0
                   0
                   0
                   0
                   0
                   0
                   0
                   0
                   0
                   0
                   0
                   0
                   0
                   0
                   0
                   0
                   0
                   0
                   0
                   0
                   0
                   0
                   0
                   0
                   0
                   0
                   0
                   0
                   0
                   0
                   0
                   0
                   0
                   0
                   0
                   0
                   0
                   0
                   0
                   0
                   0
                   0
                   0
                   0
                   0
                   0
                   0
                   0
                   0
                   0
                   0
                   0
                   0
                   0
                   0
                   0
                   0
                   0
                   0
                   0
                   0
                   0
                   0
                   0
                   0
                   0
                   0
                   0
                   0
                   0
                   0
                   0
                   0
                   0
                   0
                   0
                   0
                   0
                   0
                   0
                   0
                   0
                   0
                   0
                   0
                   0
                   0
                   0
                   0
                   0
                   0
                   0
                   0
                   0
                   0
                   0
                   0
                   0
                   0
                   0
                   0
                   0
                   0
                   0
                   0
                   0
                   0
                   0
                   0
                   0
                   0
                   0
                   0
                   0
                   0
                   0
                   0
                   0
                   0
                   0
                   0
                   0
                   0
                   0
                   0
                   0
                   0
                   0
                   0
                   0
                   0
                   0
                   0
                   0
                   0
                   0
                   0
                   0
                   0
                   0
                   0
                   0
                   0
                   0
                   0
                   0
                   0
                   0
                   0
                   0
                   0
                   0
                   0
                   0
                   0
                   0
                   0
                   0
                   0
                   0
                   0
                   0
                   0
                   0
                   0
                   0
                   0
                   0
                   0
                   0
                   0
                   0
                   0
                   0
                   0
                   0
                   0
                   0
                   0
                   0
                   0
                   0
                   0
                   0
                   0
                   0
                   0
                   0
                   0
                   0
                   0
                   0
                   0
                   0
                   0
                   0
                   0
                   0
                   0
                   0
                   0
                   0
                   0
                   0
                   0
                   0
                   0
                   0
                   0
                   0
                   0
                   0
                   0
                   0
                   0
                   0
                   0
                   0
                   0
                   0
                   0
                   0
                   0
                   0
                   0
                   0
                   0
                   0
                   0
                   0
                   0
                   0
                   0
                   0
                   0
                   0
                   0
                   0
                   0
                   0
                   0
                   0
                   0
                   0
                   0
                   0
                   0
                   0
                   0
                   0
                   0
                   0
                   0
                   0
                   0
                   0
                   0
                   0
                   0
                   0
                   0
                   0
                   0
                   0
                   0
                   0
                   0
                   0
                   0
                   0
                   0
                   0
                   0
                   0
                   0
                   0
                   0
                   0
                   0
                   0
                   0
                   0
                   0
                   0
                   0
                   0
                   0
                   0
                   0
                   0
                   0
                   0
                   0
                   0
                   0
                   0
                   0
                   0
                   0
                   0
                   0
                   0
                   0
                   0
                   0
                   0
                   0
                   0
                   0
                   0
                   0
                   0
                   0
                   0
                   0
                   0
                   0
                   0
                   0
                   0
                   0
                   0
                   0
                   0
                   0
                   0
                   0
                   0
                   0
                   0
                   0
                   0
                   0
                   0
                   0
                   0
                   0
                   0
                   0
                   0
                   0
                   0
                   0
                   0
                   0
                   0
                   0
                   0
                   0
                   0
                   0
                   0
                   0
                   0
                   0
                   0
                   0
                   0
                   0
                   0
                   0
                   0
                   0
                   0
                   0
                   0
                   0
                   0
                   0
                   0
                   0
                   0
                   0
                   0
                   0
                   0
                   0
                   0
                   0
                   0
                   0
                   0
                   0
                   0
                   0
                   0
                   0
                   0
                   0
                   0
                   0
                   0
                   0
                   0
                   0
                   0
                   0
                   0
                   0
                   0
                   0
                   0
                   0
                   0
                   0
                   0
                   0
                   0
                   0
                   0
                   0
                   0
                   0
                   0
                   0
                   0
                   0
                   0
                   0
                   0
                   0
                   0
                   0
                   0
                   0
                   0
                   0
                   0
                   0
                   0
                   0
                   0
                   0
                   0
                   0
                   0
                   0
                   0
                   0
                   0
                   0
                   0
                   0
                   0
                   0
                   0
                   0
                   0
                   0
                   0
                   0
                   0
                   0
                   0
                   0
                   0
                   0
                   0
                   0
                   0
                   0
                   0
                   0
                   0
                   0
                   0
                   0
                   0
                   0
                   0
                   0
                   0
                   0
                   0
                   0
                   0
                   0
                   0
                   0
                   0
                   0
                   0
                   0
                   0
                   0
                   0
                   0
                   0
                   0
                   0
                   0
                   0
                   0
                   0
                   0
                   0
                   0
                   0
                   0
                   0
                   0
                   0
                   0
                   0
                   0
                   0
                   0
                   0
                   0
                   0
                   0
                   0
                   0
                   0
                   0
                   0
                   0
                   0
                   0
                   0
                   0
                   0
                   0
                   0
                   0
                   0
                   0
                   0
                   0
                   0
                   0
                   0
                   0
                   0
                   0
                   0
                   0
                   0
                   0
                   0
                   0
                   0
                   0
                   0
                   0
                   0
                   0
                   0
                   0
                   0
                   0
                   0
                   0
                   0
                   0
                   0
                   0
                   0
                   0
                   0
                   0
                   0
                   0
                   0
                   0
                   0
                   0
                   0
                   0
                   0
                   0
                   0
                   0
                   0
                   0
                   0
                   0
                   0
                   0
                   0
                   0
                   0
                   0
                   0
                   0
                   0
                   0
                   0
                   0
                   0
                   0
                   0
                   0
                   0
                   0
                   0
                   0
                   0
                   0
                   0
                   0
                   0
                   0
                   0
                   0
                   0
                   0
                   0
                   0
                   0
                   0
  
SCALARS                       fixity_z  double 1
LOOKUP_TABLE default
                   0
                   0
                   0
                   0
                   1
                   1
                   1
                   1
                   0
                   0
                   1
                   1
                   0
                   0
                   1
                   1
                   0
                   0
                   1
                   1
                   0
                   0
                   0
                   1
                   1
                   1
                   0
                   0
                   1
                   1
                   0
                   0
                   0
                   1
                   1
                   1
                   0
                   0
                   1
                   1
                   0
                   0
                   1
                   1
                   0
                   0
                   1
                   1
                   0
                   1
                   0
                   1
                   0
                   1
                   0
                   1
                   0
                   0
                   1
                   1
                   0
                   0
                   1
                   1
                   0
                   1
                   0
                   1
                   0
                   0
                   1
                   1
                   0
                   1
                   0
                   1
                   0
                   1
                   0
                   1
                   0
                   0
                   1
                   1
                   0
                   1
                   0
                   1
                   0
                   1
                   0
                   0
                   1
                   1
                   0
                   1
                   0
                   1
                   0
                   1
                   0
                   0
                   1
                   1
                   0
                   0
                   1
                   1
                   0
                   1
                   0
                   1
                   0
                   1
                   0
                   1
                   0
                   1
                   0
                   1
                   0
                   1
                   0
                   1
                   0
                   1
                   0
                   1
                   0
                   1
                   0
                   1
                   0
                   1
                   0
                   1
                   0
                   1
                   0
                   1
                   0
                   1
                   0
                   1
                   0
                   1
                   0
                   1
                   0
                   1
                   0
                   1
                   0
                   1
                   0
                   1
                   0
                   0
                   0
                   0
                   0
                   0
                   0
                   0
                   0
                   0
                   0
                   0
                   0
                   0
                   0
                   0
                   0
                   0
                   0
                   0
                   0
                   0
                   0
                   0
                   0
                   0
                   0
                   0
                   0
                   0
                   0
                   0
                   0
                   0
                   0
                   0
                   0
                   0
                   0
                   0
                   0
                   0
                   0
                   0
                   0
                   0
                   0
                   0
                   0
                   0
                   0
                   0
                   0
                   0
                   0
                   0
                   0
                   0
                   0
                   0
                   0
                   0
                   0
                   0
                   0
                   0
                   0
                   0
                   0
                   0
                   0
                   0
                   0
                   0
                   0
                   0
                   0
                   0
                   0
                   0
                   0
                   0
                   0
                   0
                   0
                   0
                   0
                   0
                   0
                   0
                   0
                   0
                   0
                   0
                   0
                   0
                   0
                   0
                   0
                   0
                   0
                   0
                   0
                   0
                   0
                   0
                   0
                   0
                   0
                   0
                   0
                   0
                   0
                   0
                   0
                   0
                   0
                   0
                   0
                   0
                   0
                   0
                   0
                   0
                   0
                   0
                   0
                   0
                   0
                   0
                   0
                   0
                   0
                   0
                   0
                   0
                   0
                   0
                   0
                   0
                   0
                   0
                   0
                   0
                   0
                   0
                   0
                   0
                   0
                   0
                   0
                   0
                   0
                   0
                   0
                   0
                   0
                   0
                   0
                   0
                   0
                   0
                   0
                   0
                   0
                   0
                   0
                   0
                   0
                   0
                   0
                   0
                   0
                   0
                   0
                   0
                   0
                   0
                   0
                   0
                   0
                   0
                   0
                   0
                   0
                   0
                   0
                   0
                   0
                   0
                   0
                   0
                   0
                   0
                   0
                   0
                   0
                   0
                   0
                   0
                   0
                   0
                   0
                   0
                   0
                   0
                   0
                   0
                   0
                   0
                   0
                   0
                   0
                   0
                   0
                   0
                   0
                   0
                   0
                   0
                   0
                   0
                   0
                   0
                   0
                   0
                   0
                   0
                   0
                   0
                   0
                   0
                   0
                   0
                   0
                   0
                   0
                   0
                   0
                   0
                   0
                   0
                   0
                   0
                   0
                   0
                   0
                   0
                   0
                   0
                   0
                   0
                   0
                   0
                   0
                   0
                   0
                   0
                   0
                   0
                   0
                   0
                   0
                   0
                   0
                   0
                   0
                   0
                   0
                   0
                   0
                   0
                   0
                   0
                   0
                   0
                   0
                   0
                   0
                   0
                   0
                   0
                   0
                   0
                   0
                   0
                   0
                   0
                   0
                   0
                   0
                   0
                   0
                   0
                   0
                   0
                   0
                   0
                   0
                   0
                   0
                   0
                   0
                   0
                   0
                   0
                   0
                   0
                   0
                   0
                   0
                   0
                   0
                   0
                   0
                   0
                   0
                   0
                   0
                   0
                   0
                   0
                   0
                   0
                   0
                   0
                   0
                   0
                   0
                   0
                   0
                   0
                   0
                   0
                   0
                   0
                   0
                   0
                   0
                   0
                   0
                   0
                   0
                   0
                   0
                   0
                   0
                   0
                   0
                   0
                   0
                   0
                   0
                   0
                   0
                   0
                   0
                   0
                   0
                   0
                   0
                   0
                   0
                   0
                   0
                   0
                   0
                   0
                   0
                   0
                   0
                   0
                   0
                   0
                   0
                   0
                   0
                   0
                   0
                   0
                   0
                   0
                   0
                   0
                   0
                   0
                   0
                   0
                   0
                   0
                   0
                   0
                   0
                   0
                   0
                   0
                   0
                   0
                   0
                   0
                   0
                   0
                   0
                   0
                   0
                   0
                   0
                   0
                   0
                   0
                   0
                   0
                   0
                   0
                   0
                   0
                   0
                   0
                   0
                   0
                   0
                   0
                   0
                   0
                   0
                   0
                   0
                   0
                   0
                   0
                   0
                   0
                   0
                   0
                   0
                   0
                   0
                   0
                   0
                   0
                   0
                   0
                   0
                   0
                   0
                   0
                   0
                   0
                   0
                   0
                   0
                   0
                   0
                   0
                   0
                   0
                   0
                   0
                   0
                   0
                   0
                   0
                   0
                   0
                   0
                   0
                   0
                   0
                   0
                   0
                   0
                   0
                   0
                   0
                   0
                   0
                   0
                   0
                   0
                   0
                   0
                   0
                   0
                   0
                   0
                   0
                   0
                   0
                   0
                   0
                   0
                   0
                   0
                   0
                   0
                   0
                   0
                   0
                   0
                   0
                   0
                   0
                   0
                   0
                   0
                   0
                   0
                   0
                   0
                   0
                   0
                   0
                   0
                   0
                   0
                   0
                   0
                   0
                   0
                   0
                   0
                   0
                   0
                   0
                   0
                   0
                   0
                   0
                   0
                   0
                   0
                   0
                   0
                   0
                   0
                   0
                   0
                   0
                   0
                   0
                   0
                   0
                   0
                   0
                   0
                   0
                   0
                   0
                   0
                   0
                   0
                   0
                   0
                   0
                   0
                   0
                   0
                   0
                   0
                   0
                   0
                   0
                   0
                   0
                   0
                   0
                   0
                   0
                   0
                   0
                   0
                   0
                   0
                   0
                   0
                   0
                   0
                   0
                   0
                   0
                   0
                   0
                   0
                   0
                   0
                   0
                   0
                   0
                   0
                   0
                   0
                   0
                   0
                   0
                   0
                   0
                   0
                   0
                   0
                   0
                   0
                   0
                   0
                   0
                   0
                   0
                   0
                   0
                   0
                   0
                   0
                   0
                   0
                   0
                   0
                   0
                   0
                   0
                   0
                   0
                   0
                   0
                   0
                   0
                   0
                   0
                   0
                   0
                   0
                   0
                   0
                   0
                   0
                   0
                   0
                   0
                   0
                   0
                   0
                   0
                   0
                   0
                   0
                   0
                   0
                   0
                   0
                   0
                   0
                   0
                   0
                   0
                   0
                   0
                   0
                   0
                   0
                   0
                   0
                   0
                   0
                   0
                   0
                   0
                   0
                   0
                   0
                   0
                   0
                   0
                   0
                   0
                   0
                   0
                   0
                   0
                   0
                   0
                   0
                   0
                   0
                   0
                   0
                   0
                   0
                   0
                   0
                   0
                   0
                   0
                   0
                   0
                   0
                   0
                   0
                   0
                   0
                   0
                   0
                   0
                   0
                   0
                   0
                   0
                   0
                   0
                   0
                   0
                   0
                   0
                   0
                   0
                   0
                   0
                   0
                   0
                   0
                   0
                   0
                   0
                   0
                   0
                   0
                   0
                   0
                   0
                   0
                   0
                   0
                   0
                   0
                   0
                   0
                   0
                   0
                   0
                   0
                   0
                   0
                   0
                   0
                   0
                   0
                   0
                   0
                   0
                   0
                   0
                   0
                   0
                   0
                   0
                   0
                   0
                   0
                   0
                   0
                   0
                   0
                   0
                   0
                   0
                   0
                   0
                   0
                   0
                   0
                   0
                   0
                   0
                   0
                   0
                   0
                   0
                   0
                   0
                   0
                   0
                   0
                   0
                   0
                   0
                   0
                   0
                   0
                   0
                   0
                   0
                   0
                   0
                   0
                   0
                   0
                   0
                   0
                   0
                   0
                   0
                   0
                   0
                   0
                   0
                   0
                   0
                   0
                   0
                   0
                   0
                   0
                   0
                   0
                   0
                   0
                   0
                   0
                   0
                   0
                   0
                   0
                   0
                   0
                   0
                   0
                   0
                   0
                   0
                   0
                   0
                   0
                   0
                   0
                   0
                   0
                   0
                   0
                   0
                   0
                   0
                   0
                   0
                   0
                   0
                   0
                   0
                   0
                   0
                   0
                   0
                   0
                   0
                   0
                   0
                   0
                   0
                   0
                   0
                   0
                   0
                   0
                   0
                   0
                   0
                   0
                   0
                   0
                   0
                   0
                   0
                   0
                   0
                   0
                   0
                   0
                   0
                   0
                   0
                   0
                   0
                   0
                   0
                   0
                   0
                   0
                   0
                   0
                   0
                   0
                   0
                   0
                   0
                   0
                   0
                   0
                   0
                   0
                   0
                   0
                   0
                   0
                   0
                   0
                   0
                   0
                   0
                   0
                   0
                   0
                   0
                   0
                   0
                   0
                   0
                   0
                   0
                   0
                   0
                   0
                   0
                   0
                   0
                   0
                   0
                   0
                   0
                   0
                   0
                   0
                   0
                   0
                   0
                   0
                   0
                   0
                   0
                   0
                   0
                   0
                   0
                   0
                   0
                   0
                   0
                   0
                   0
                   0
                   0
                   0
                   0
                   0
                   0
                   0
                   0
                   0
                   0
                   0
                   0
                   0
                   0
                   0
                   0
                   0
                   0
                   0
                   0
                   0
                   0
                   0
                   0
                   0
                   0
                   0
                   0
                   0
                   0
                   0
                   0
                   0
                   0
                   0
                   0
                   0
                   0
                   0
                   0
                   0
                   0
                   0
                   0
                   0
                   0
                   0
                   0
                   0
                   0
                   0
                   0
                   0
                   0
                   0
                   0
                   0
                   0
                   0
                   0
                   0
                   0
                   0
                   0
                   0
                   0
                   0
                   0
                   0
                   0
                   0
                   0
                   0
                   0
                   0
                   0
                   0
                   0
                   0
                   0
                   0
                   0
                   0
                   0
                   0
                   0
                   0
                   0
                   0
                   0
                   0
                   0
                   0
                   0
                   0
                   0
                   0
                   0
                   0
                   0
                   0
                   0
                   0
                   0
                   0
                   0
                   0
                   0
                   0
                   0
                   0
                   0
                   0
                   0
                   0
                   0
                   0
                   0
                   0
                   0
                   0
                   0
                   0
                   0
                   0
                   0
                   0
                   0
                   0
                   0
                   0
                   0
                   0
                   0
                   0
                   0
                   0
                   0
                   0
                   0
                   0
                   0
                   0
                   0
                   0
                   0
                   0
                   0
                   0
                   0
                   0
                   0
                   0
                   0
                   0
                   0
                   0
                   0
                   0
                   0
                   0
                   0
                   0
                   0
                   0
                   0
                   0
                   0
                   0
                   0
                   0
                   0
                   0
                   0
                   0
                   0
                   0
                   0
                   0
                   0
                   0
                   0
                   0
                   0
                   0
                   0
                   0
                   0
                   0
                   0
                   0
                   0
                   0
                   0
                   0
                   0
                   0
                   0
                   0
                   0
                   0
                   0
                   0
                   0
                   0
                   0
                   0
                   0
                   0
                   0
                   0
                   0
                   0
                   0
                   0
                   0
                   0
                   0
                   0
                   0
                   0
                   0
                   0
                   0
                   0
                   0
                   0
                   0
                   0
                   0
                   0
                   0
                   0
                   0
                   0
                   0
                   0
                   0
                   0
                   0
                   0
                   0
                   0
                   0
                   0
                   0
                   0
                   0
                   0
                   0
                   0
                   0
                   0
                   0
                   0
                   0
                   0
                   0
                   0
                   0
                   0
                   0
                   0
                   0
                   0
                   0
                   0
                   0
                   0
                   0
                   0
                   0
                   0
                   0
                   0
                   0
                   0
                   0
                   0
                   0
                   0
                   0
                   0
                   0
                   0
                   0
                   0
                   0
                   0
                   0
                   0
                   0
                   0
                   0
                   0
                   0
                   0
                   0
                   0
                   0
                   0
                   0
                   0
                   0
                   0
                   0
                   0
                   0
                   0
                   0
                   0
                   0
                   0
                   0
                   0
                   0
                   0
                   0
                   0
                   0
                   0
                   0
                   0
                   0
                   0
                   0
                   0
                   0
                   0
                   0
                   0
                   0
                   0
                   0
                   0
                   0
                   0
                   0
                   0
                   0
                   0
                   0
                   0
                   0
                   0
                   0
                   0
                   0
                   0
                   0
                   0
                   0
                   0
                   0
                   0
                   0
                   0
                   0
                   0
                   0
                   0
                   0
                   0
                   0
                   0
                   0
                   0
                   0
                   0
                   0
                   0
                   0
                   0
                   0
                   0
                   0
                   0
                   0
                   0
                   0
                   0
                   0
                   0
                   0
                   0
                   0
                   0
                   0
                   0
                   0
                   0
                   0
                   0
                   0
                   0
                   0
                   0
                   0
                   0
                   0
                   0
                   0
                   0
                   0
                   0
                   0
                   0
                   0
                   0
                   0
                   0
                   0
                   0
                   0
                   0
                   0
                   0
                   0
                   0
                   0
                   0
                   0
                   0
                   0
                   0
                   0
                   0
                   0
                   0
                   0
                   0
                   0
                   0
                   0
                   0
                   0
                   0
                   0
                   0
                   0
                   0
                   0
                   0
                   0
                   0
                   0
                   0
                   0
                   0
                   0
                   0
                   0
                   0
                   0
                   0
                   0
                   0
                   0
                   0
                   0
                   0
                   0
                   0
                   0
                   0
                   0
                   0
                   0
                   0
                   0
                   0
                   0
                   0
                   0
                   0
                   0
                   0
                   0
                   0
                   0
                   0
                   0
                   0
                   0
                   0
                   0
                   0
                   0
                   0
                   0
                   0
                   0
                   0
                   0
                   0
                   0
                   0
                   0
                   0
                   0
                   0
                   0
                   0
                   0
                   0
                   0
                   0
                   0
                   0
                   0
                   0
                   0
                   0
                   0
                   0
                   0
                   0
                   0
                   0
                   0
                   0
                   0
                   0
                   0
                   0
                   0
                   0
                   0
                   0
                   0
                   0
                   0
                   0
                   0
                   0
                   0
                   0
                   0
                   0
                   0
                   0
                   0
                   0
                   0
                   0
                   0
                   0
                   0
                   0
                   0
                   0
                   0
                   0
                   0
                   0
                   0
                   0
                   0
                   0
                   0
                   0
                   0
                   0
                   0
                   0
                   0
                   0
                   0
                   0
                   0
                   0
                   0
                   0
                   0
                   0
                   0
                   0
                   0
                   0
                   0
                   0
                   0
                   0
                   0
                   0
                   0
                   0
                   0
                   0
                   0
                   0
                   0
                   0
                   0
                   0
                   0
                   0
                   0
                   0
                   0
                   0
                   0
                   0
                   0
                   0
                   0
                   0
                   0
                   0
                   0
                   0
                   0
                   0
                   0
                   0
                   0
                   0
                   0
                   0
                   0
                   0
                   0
                   0
                   0
                   0
                   0
                   0
                   0
                   0
                   0
                   0
                   0
                   0
                   0
                   0
                   0
                   0
                   0
                   0
                   0
                   0
                   0
                   0
                   0
                   0
                   0
                   0
                   0
                   0
                   0
                   0
                   0
                   0
                   0
                   0
                   0
                   0
                   0
                   0
                   0
                   0
                   0
                   0
                   0
                   0
                   0
                   0
                   0
                   0
                   0
                   0
                   0
                   0
                   0
                   0
                   0
                   0
                   0
                   0
                   0
                   0
                   0
                   0
                   0
                   0
                   0
                   0
                   0
                   0
                   0
                   0
                   0
                   0
                   0
                   0
                   0
                   0
                   0
                   0
                   0
                   0
                   0
                   0
                   0
                   0
                   0
                   0
                   0
                   0
                   0
                   0
                   0
                   0
                   0
                   0
                   0
                   0
                   0
                   0
                   0
                   0
                   0
                   0
                   0
                   0
                   0
                   0
                   0
                   0
                   0
                   0
                   0
                   0
                   0
                   0
                   0
                   0
                   0
                   0
                   0
                   0
                   0
                   0
                   0
                   0
                   0
                   0
                   0
                   0
                   0
                   0
                   0
                   0
                   0
                   0
                   0
                   0
                   0
                   0
                   0
                   0
                   0
                   0
                   0
                   0
                   0
                   0
                   0
                   0
                   0
                   0
                   0
                   0
                   0
                   0
                   0
                   0
                   0
                   0
                   0
                   0
                   0
                   0
                   0
                   0
                   0
                   0
                   0
                   0
                   0
                   0
                   0
                   0
                   0
                   0
                   0
                   0
                   0
                   0
                   0
                   0
                   0
                   0
                   0
                   0
                   0
                   0
                   0
                   0
                   0
                   0
                   0
                   0
                   0
                   0
                   0
                   0
                   0
                   0
                   0
                   0
                   0
                   0
                   0
                   0
                   0
                   0
                   0
                   0
                   0
                   0
                   0
                   0
                   0
                   0
                   0
                   0
                   0
                   0
                   0
                   0
                   0
                   0
                   0
                   0
                   0
                   0
                   0
                   0
                   0
  
SCALARS                         Ispace  double 1
LOOKUP_TABLE default
                  12
                  12
                  12
                  12
                  12
                  12
                  12
                  12
                  12
                  12
                  12
                  12
                  12
                  11
                  12
                  11
                  11
                  11
                  11
                  11
                  11
                  12
                  12
                  11
                  12
                  12
                  11
                  11
                  11
                  11
                  11
                  11
                  11
                  11
                  11
                  11
                  11
                  11
                  11
                  11
                  11
                  11
                  11
                  11
                  11
                  11
                  11
                  11
                  11
                  11
                  11
                  11
                  11
                  11
                  11
                  11
                  11
                  11
                  11
                  11
                  11
                  11
                  11
                  11
                  11
                  11
                  12
                  12
                  12
                  12
                  12
                  12
                  12
                  12
                  11
                  11
                  11
                  11
                  11
                  11
                  11
                  11
                  11
                  11
                  11
                  11
                  11
                  11
                  11
                  11
                  11
                  11
                  11
                  11
                  11
                  11
                  12
                  12
                  12
                  12
                  12
                  12
                  12
                  12
                  12
                  12
                  12
                  12
                  12
                  12
                  12
                  12
                  12
                  12
                  12
                  12
                  11
                  11
                  11
                  11
                  11
                  11
                  11
                  11
                  11
                  11
                  11
                  11
                  11
                  11
                  11
                  11
                  11
                  11
                  11
                  11
                  11
                  11
                  11
                  11
                  11
                  11
                  11
                  11
                  11
                  11
                  12
                  12
                  12
                  12
                  12
                  12
                  12
                  12
                  12
                  12
                  12
                  12
                  12
                  12
                  12
                  12
                  12
                  11
                  11
                  11
                  11
                  12
                  12
                  11
                  11
                  11
                  11
                  11
                  11
                  11
                  11
                  11
                  11
                  11
                  11
                  11
                  11
                  11
                  11
                  11
                  11
                  11
                  11
                  12
                  12
                  12
                  12
                  11
                  11
                  11
                  11
                  11
                  11
                  11
                  11
                  11
                  11
                  11
                  12
                  12
                  12
                  12
                  12
                  12
                  12
                  12
                  12
                  12
                  11
                  11
                  11
                  11
                  11
                  11
                  11
                  11
                  11
                  11
                  11
                  11
                  11
                  11
                  11
                  12
                  12
                  12
                  12
                  12
                  12
                  12
                  12
                  12
                  12
                  12
                  12
                  11
                  11
                  11
                  11
                  12
                  12
                  11
                  11
                  11
                  11
                  11
                  11
                  11
                  11
                  11
                  11
                  11
                  11
                  11
                  11
                  11
                  11
                  11
                  11
                  11
                  11
                  12
                  12
                  12
                  12
                  11
                  11
                  11
                  11
                  11
                  11
                  11
                  11
                  11
                  11
                  11
                  12
                  12
                  12
                  12
                  12
                  12
                  12
                  12
                  12
                  12
                  11
                  11
                  11
                  11
                  11
                  11
                  11
                  11
                  11
                  11
                  11
                  11
                  11
                  11
                  11
                  12
                  12
                  12
                  12
                  12
                  12
                  12
                  12
                  12
                  12
                  12
                  12
                  11
                  11
                  11
                  11
                  12
                  12
                  11
                  11
                  11
                  11
                  11
                  11
                  11
                  11
                  11
                  11
                  11
                  11
                  11
                  11
                  11
                  11
                  11
                  11
                  11
                  11
                  12
                  12
                  12
                  12
                  11
                  11
                  11
                  11
                  11
                  11
                  11
                  11
                  11
                  11
                  11
                  12
                  12
                  12
                  12
                  12
                  12
                  12
                  12
                  12
                  12
                  11
                  11
                  11
                  11
                  11
                  11
                  11
                  11
                  11
                  11
                  11
                  11
                  11
                  11
                  11
                  12
                  12
                  12
                  12
                  12
                  12
                  12
                  12
                  12
                  12
                  12
                  12
                  11
                  11
                  11
                  11
                  12
                  12
                  11
                  11
                  11
                  11
                  11
                  11
                  11
                  11
                  11
                  11
                  11
                  11
                  11
                  11
                  11
                  11
                  11
                  11
                  11
                  11
                  12
                  12
                  12
                  12
                  11
                  11
                  11
                  11
                  11
                  11
                  11
                  11
                  11
                  11
                  11
                  12
                  12
                  12
                  12
                  12
                  12
                  12
                  12
                  12
                  12
                  11
                  11
                  11
                  11
                  11
                  11
                  11
                  11
                  11
                  11
                  11
                  11
                  11
                  11
                  11
                  12
                  12
                  12
                  12
                  12
                  12
                  12
                  12
                  12
                  12
                  12
                  12
                  11
                  11
                  11
                  11
                  12
                  12
                  11
                  11
                  11
                  11
                  11
                  11
                  11
                  11
                  11
                  11
                  11
                  11
                  11
                  11
                  11
                  11
                  11
                  11
                  11
                  11
                  12
                  12
                  12
                  12
                  11
                  11
                  11
                  11
                  11
                  11
                  11
                  11
                  11
                  11
                  11
                  12
                  12
                  12
                  12
                  12
                  12
                  12
                  12
                  12
                  12
                  11
                  11
                  11
                  11
                  11
                  11
                  11
                  11
                  11
                  11
                  11
                  11
                  11
                  11
                  11
                  12
                  12
                  12
                  12
                  12
                  12
                  12
                  12
                  12
                  12
                  12
                  12
                  11
                  11
                  11
                  11
                  12
                  12
                  11
                  11
                  11
                  11
                  11
                  11
                  11
                  11
                  11
                  11
                  11
                  11
                  11
                  11
                  11
                  11
                  11
                  11
                  11
                  11
                  12
                  12
                  12
                  12
                  11
                  11
                  11
                  11
                  11
                  11
                  11
                  11
                  11
                  11
                  11
                  12
                  12
                  12
                  12
                  12
                  12
                  12
                  12
                  12
                  12
                  11
                  11
                  11
                  11
                  11
                  11
                  11
                  11
                  11
                  11
                  11
                  11
                  11
                  11
                  11
                  12
                  12
                  12
                  12
                  12
                  12
                  12
                  12
                  12
                  12
                  12
                  12
                  11
                  11
                  11
                  11
                  12
                  12
                  11
                  11
                  11
                  11
                  11
                  11
                  11
                  11
                  11
                  11
                  11
                  11
                  11
                  11
                  11
                  11
                  11
                  11
                  11
                  11
                  12
                  12
                  12
                  12
                  11
                  11
                  11
                  11
                  11
                  11
                  11
                  11
                  11
                  11
                  11
                  12
                  12
                  12
                  12
                  12
                  12
                  12
                  12
                  12
                  12
                  11
                  11
                  11
                  11
                  11
                  11
                  11
                  11
                  11
                  11
                  11
                  11
                  11
                  11
                  11
                  12
                  12
                  12
                  12
                  12
                  12
                  12
                  12
                  12
                  12
                  12
                  12
                  11
                  11
                  11
                  11
                  12
                  12
                  11
                  11
                  11
                  11
                  11
                  11
                  11
                  11
                  11
                  11
                  11
                  11
                  11
                  11
                  11
                  11
                  11
                  11
                  11
                  11
                  12
                  12
                  12
                  12
                  11
                  11
                  11
                  11
                  11
                  11
                  11
                  11
                  11
                  11
                  11
                  12
                  12
                  12
                  12
                  12
                  12
                  12
                  12
                  12
                  12
                  11
                  11
                  11
                  11
                  11
                  11
                  11
                  11
                  11
                  11
                  11
                  11
                  11
                  11
                  11
                  12
                  12
                  12
                  12
                  12
                  12
                  12
                  12
                  12
                  12
                  12
                  12
                  11
                  11
                  11
                  11
                  12
                  12
                  11
                  11
                  11
                  11
                  11
                  11
                  11
                  11
                  11
                  11
                  11
                  11
                  11
                  11
                  11
                  11
                  11
                  11
                  11
                  11
                  12
                  12
                  12
                  12
                  11
                  11
                  11
                  11
                  11
                  11
                  11
                  11
                  11
                  11
                  11
                  12
                  12
                  12
                  12
                  12
                  12
                  12
                  12
                  12
                  12
                  11
                  11
                  11
                  11
                  11
                  11
                  11
                  11
                  11
                  11
                  11
                  11
                  11
                  11
                  11
                  12
                  12
                  12
                  12
                  12
                  12
                  12
                  12
                  12
                  12
                  12
                  12
                  11
                  11
                  11
                  11
                  12
                  12
                  11
                  11
                  11
                  11
                  11
                  11
                  11
                  11
                  11
                  11
                  11
                  11
                  11
                  11
                  11
                  11
                  11
                  11
                  11
                  11
                  12
                  12
                  12
                  12
                  11
                  11
                  11
                  11
                  11
                  11
                  11
                  11
                  11
                  11
                  11
                  12
                  12
                  12
                  12
                  12
                  12
                  12
                  12
                  12
                  12
                  11
                  11
                  11
                  11
                  11
                  11
                  11
                  11
                  11
                  11
                  11
                  11
                  11
                  11
                  11
                  12
                  12
                  12
                  12
                  12
                  12
                  12
                  12
                  12
                  12
                  12
                  12
                  11
                  11
                  11
                  11
                  12
                  12
                  11
                  11
                  11
                  11
                  11
                  11
                  11
                  11
                  11
                  11
                  11
                  11
                  11
                  11
                  11
                  11
                  11
                  11
                  11
                  11
                  12
                  12
                  12
                  12
                  11
                  11
                  11
                  11
                  11
                  11
                  11
                  11
                  11
                  11
                  11
                  12
                  12
                  12
                  12
                  12
                  12
                  12
                  12
                  12
                  12
                  11
                  11
                  11
                  11
                  11
                  11
                  11
                  11
                  11
                  11
                  11
                  11
                  11
                  11
                  11
                  12
                  12
                  12
                  12
                  12
                  12
                  12
                  12
                  12
                  12
                  12
                  12
                  11
                  11
                  11
                  11
                  12
                  12
                  11
                  11
                  11
                  11
                  11
                  11
                  11
                  11
                  11
                  11
                  11
                  11
                  11
                  11
                  11
                  11
                  11
                  11
                  11
                  11
                  12
                  12
                  12
                  12
                  11
                  11
                  11
                  11
                  11
                  11
                  11
                  11
                  11
                  11
                  11
                  12
                  12
                  12
                  12
                  12
                  12
                  12
                  12
                  12
                  12
                  11
                  11
                  11
                  11
                  11
                  11
                  11
                  11
                  11
                  11
                  11
                  11
                  11
                  11
                  11
                  12
                  12
                  12
                  12
                  12
                  12
                  12
                  12
                  12
                  12
                  12
                  12
                  11
                  11
                  11
                  11
                  12
                  12
                  11
                  11
                  11
                  11
                  11
                  11
                  11
                  11
                  11
                  11
                  11
                  11
                  11
                  11
                  11
                  11
                  11
                  11
                  11
                  11
                  12
                  12
                  12
                  12
                  11
                  11
                  11
                  11
                  11
                  11
                  11
                  11
                  11
                  11
                  11
                  12
                  12
                  12
                  12
                  12
                  12
                  12
                  12
                  12
                  12
                  11
                  11
                  11
                  11
                  11
                  11
                  11
                  11
                  11
                  11
                  11
                  11
                  11
                  11
                  11
                  12
                  12
                  12
                  12
                  12
                  12
                  12
                  12
                  12
                  12
                  12
                  12
                  11
                  11
                  11
                  11
                  12
                  12
                  11
                  11
                  11
                  11
                  11
                  11
                  11
                  11
                  11
                  11
                  11
                  11
                  11
                  11
                  11
                  11
                  11
                  11
                  11
                  11
                  12
                  12
                  12
                  12
                  11
                  11
                  11
                  11
                  11
                  11
                  11
                  11
                  11
                  11
                  11
                  12
                  12
                  12
                  12
                  12
                  12
                  12
                  12
                  12
                  12
                  11
                  11
                  11
                  11
                  11
                  11
                  11
                  11
                  11
                  11
                  11
                  11
                  11
                  11
                  11
                  12
                  12
                  12
                  12
                  12
                  12
                  12
                  12
                  12
                  12
                  12
                  12
                  11
                  11
                  11
                  11
                  12
                  12
                  11
                  11
                  11
                  11
                  11
                  11
                  11
                  11
                  11
                  11
                  11
                  11
                  11
                  11
                  11
                  11
                  11
                  11
                  11
                  11
                  12
                  12
                  12
                  12
                  11
                  11
                  11
                  11
                  11
                  11
                  11
                  11
                  11
                  11
                  11
                  12
                  12
                  12
                  12
                  12
                  12
                  12
                  12
                  12
                  12
                  11
                  11
                  11
                  11
                  11
                  11
                  11
                  11
                  11
                  11
                  11
                  11
                  11
                  11
                  11
                  12
                  12
                  12
                  12
                  12
                  12
                  12
                  12
                  12
                  12
                  12
                  12
                  11
                  11
                  11
                  11
                  12
                  12
                  11
                  11
                  11
                  11
                  11
                  11
                  11
                  11
                  11
                  11
                  11
                  11
                  11
                  11
                  11
                  11
                  11
                  11
                  11
                  11
                  12
                  12
                  12
                  12
                  11
                  11
                  11
                  11
                  11
                  11
                  11
                  11
                  11
                  11
                  11
                  12
                  12
                  12
                  12
                  12
                  12
                  12
                  12
                  12
                  12
                  11
                  11
                  11
                  11
                  11
                  11
                  11
                  11
                  11
                  11
                  11
                  11
                  11
                  11
                  11
                  12
                  12
                  12
                  12
                  12
                  12
                  12
                  12
                  12
                  12
                  12
                  12
                  11
                  11
                  11
                  11
                  12
                  12
                  11
                  11
                  11
                  11
                  11
                  11
                  11
                  11
                  11
                  11
                  11
                  11
                  11
                  11
                  11
                  11
                  11
                  11
                  11
                  11
                  12
                  12
                  12
                  12
                  11
                  11
                  11
                  11
                  11
                  11
                  11
                  11
                  11
                  11
                  11
                  12
                  12
                  12
                  12
                  12
                  12
                  12
                  12
                  12
                  12
                  11
                  11
                  11
                  11
                  11
                  11
                  11
                  11
                  11
                  11
                  11
                  11
                  11
                  11
                  11
                  12
                  12
                  12
                  12
                  12
                  12
                  12
                  12
                  12
                  12
                  12
                  12
                  11
                  11
                  11
                  11
                  12
                  12
                  11
                  11
                  11
                  11
                  11
                  11
                  11
                  11
                  11
                  11
                  11
                  11
                  11
                  11
                  11
                  11
                  11
                  11
                  11
                  11
                  12
                  12
                  12
                  12
                  11
                  11
                  11
                  11
                  11
                  11
                  11
                  11
                  11
                  11
                  11
                  12
                  12
                  12
                  12
                  12
                  12
                  12
                  12
                  12
                  12
                  11
                  11
                  11
                  11
                  11
                  11
                  11
                  11
                  11
                  11
                  11
                  11
                  11
                  11
                  11
                  12
                  12
                  12
                  12
                  12
                  12
                  12
                  12
                  12
                  12
                  12
                  12
                  11
                  11
                  11
                  11
                  12
                  12
                  11
                  11
                  11
                  11
                  11
                  11
                  11
                  11
                  11
                  11
                  11
                  11
                  11
                  11
                  11
                  11
                  11
                  11
                  11
                  11
                  12
                  12
                  12
                  12
                  11
                  11
                  11
                  11
                  11
                  11
                  11
                  11
                  11
                  11
                  11
                  12
                  12
                  12
                  12
                  12
                  12
                  12
                  12
                  12
                  12
                  11
                  11
                  11
                  11
                  11
                  11
                  11
                  11
                  11
                  11
                  11
                  11
                  11
                  11
                  11
                  12
                  12
                  12
                  12
                  12
                  12
                  12
                  12
                  12
                  12
                  12
                  12
                  11
                  11
                  11
                  11
                  12
                  12
                  11
                  11
                  11
                  11
                  11
                  11
                  11
                  11
                  11
                  11
                  11
                  11
                  11
                  11
                  11
                  11
                  11
                  11
                  11
                  11
                  12
                  12
                  12
                  12
                  11
                  11
                  11
                  11
                  11
                  11
                  11
                  11
                  11
                  11
                  11
                  12
                  12
                  12
                  12
                  12
                  12
                  12
                  12
                  12
                  12
                  11
                  11
                  11
                  11
                  11
                  11
                  11
                  11
                  11
                  11
                  11
                  11
                  11
                  11
                  11
                  12
                  12
                  12
                  12
                  12
                  12
                  12
                  12
                  12
                  12
                  12
                  12
                  11
                  11
                  11
                  11
                  12
                  12
                  11
                  11
                  11
                  11
                  11
                  11
                  11
                  11
                  11
                  11
                  11
                  11
                  11
                  11
                  11
                  11
                  11
                  11
                  11
                  11
                  12
                  12
                  12
                  12
                  11
                  11
                  11
                  11
                  11
                  11
                  11
                  11
                  11
                  11
                  11
                  12
                  12
                  12
                  12
                  12
                  12
                  12
                  12
                  12
                  12
                  11
                  11
                  11
                  11
                  11
                  11
                  11
                  11
                  11
                  11
                  11
                  11
                  11
                  11
                  11
                  12
                  12
                  12
                  12
                  12
                  12
                  12
                  12
                  12
                  12
                  12
                  12
                  11
                  11
                  11
                  11
                  12
                  12
                  11
                  11
                  11
                  11
                  11
                  11
                  11
                  11
                  11
                  11
                  11
                  11
                  11
                  11
                  11
                  11
                  11
                  11
                  11
                  11
                  12
                  12
                  12
                  12
                  11
                  11
                  11
                  11
                  11
                  11
                  11
                  11
                  11
                  11
                  11
                  12
                  12
                  12
                  12
                  12
                  12
                  12
                  12
                  12
                  12
                  11
                  11
                  11
                  11
                  11
                  11
                  11
                  11
                  11
                  11
                  11
                  11
                  11
                  11
                  11
                  12
                  12
                  12
                  12
                  12
                  12
                  12
                  12
                  12
                  12
                  12
                  12
                  11
                  11
                  11
                  11
                  12
                  12
                  11
                  11
                  11
                  11
                  11
                  11
                  11
                  11
                  11
                  11
                  11
                  11
                  11
                  11
                  11
                  11
                  11
                  11
                  11
                  11
                  12
                  12
                  12
                  12
                  11
                  11
                  11
                  11
                  11
                  11
                  11
                  11
                  11
                  11
                  11
                  12
                  12
                  12
                  12
                  12
                  12
                  12
                  12
                  12
                  12
                  11
                  11
                  11
                  11
                  11
                  11
                  11
                  11
                  11
                  11
                  11
                  11
                  11
                  11
                  11
                  12
                  12
                  12
                  12
                  12
  
SCALARS                         Jspace  double 1
LOOKUP_TABLE default
                  11
                  12
                  11
                  11
                  11
                  12
                  11
                  11
                  11
                  11
                  11
                  11
                  12
                  12
                  12
                  12
                  11
                  12
                  11
                  12
                  12
                  12
                  12
                  12
                  12
                  12
                  12
                  12
                  12
                  12
                  11
                  11
                  11
                  11
                  11
                  11
                  11
                  11
                  11
                  11
                  11
                  11
                  11
                  11
                  11
                  11
                  11
                  11
                  11
                  11
                  11
                  11
                  12
                  12
                  12
                  12
                  12
                  11
                  12
                  11
                  11
                  11
                  11
                  11
                  11
                  11
                  11
                  11
                  11
                  12
                  11
                  12
                  12
                  12
                  12
                  12
                  12
                  12
                  12
                  12
                  12
                  12
                  12
                  12
                  11
                  11
                  11
                  11
                  11
                  11
                  11
                  11
                  11
                  11
                  11
                  11
                  11
                  11
                  11
                  11
                  11
                  11
                  11
                  11
                  11
                  11
                  11
                  11
                  12
                  12
                  12
                  12
                  12
                  12
                  12
                  12
                  12
                  12
                  12
                  12
                  12
                  12
                  12
                  12
                  12
                  12
                  12
                  12
                  11
                  11
                  11
                  11
                  11
                  11
                  11
                  11
                  11
                  11
                  11
                  11
                  11
                  11
                  11
                  11
                  11
                  11
                  11
                  11
                  11
                  11
                  11
                  11
                  11
                  11
                  11
                  11
                  11
                  12
                  11
                  11
                  11
                  11
                  12
                  12
                  11
                  12
                  12
                  12
                  12
                  12
                  12
                  11
                  11
                  11
                  11
                  11
                  11
                  11
                  11
                  11
                  11
                  11
                  12
                  12
                  12
                  11
                  11
                  11
                  11
                  11
                  11
                  12
                  12
                  12
                  12
                  12
                  12
                  12
                  11
                  11
                  11
                  11
                  11
                  11
                  11
                  11
                  11
                  11
                  11
                  11
                  12
                  12
                  12
                  12
                  12
                  12
                  12
                  12
                  12
                  12
                  11
                  11
                  11
                  11
                  11
                  11
                  11
                  11
                  11
                  11
                  11
                  11
                  11
                  11
                  11
                  12
                  11
                  11
                  11
                  11
                  12
                  12
                  11
                  12
                  12
                  12
                  12
                  12
                  12
                  11
                  11
                  11
                  11
                  11
                  11
                  11
                  11
                  11
                  11
                  11
                  12
                  12
                  12
                  11
                  11
                  11
                  11
                  11
                  11
                  12
                  12
                  12
                  12
                  12
                  12
                  12
                  11
                  11
                  11
                  11
                  11
                  11
                  11
                  11
                  11
                  11
                  11
                  11
                  12
                  12
                  12
                  12
                  12
                  12
                  12
                  12
                  12
                  12
                  11
                  11
                  11
                  11
                  11
                  11
                  11
                  11
                  11
                  11
                  11
                  11
                  11
                  11
                  11
                  12
                  11
                  11
                  11
                  11
                  12
                  12
                  11
                  12
                  12
                  12
                  12
                  12
                  12
                  11
                  11
                  11
                  11
                  11
                  11
                  11
                  11
                  11
                  11
                  11
                  12
                  12
                  12
                  11
                  11
                  11
                  11
                  11
                  11
                  12
                  12
                  12
                  12
                  12
                  12
                  12
                  11
                  11
                  11
                  11
                  11
                  11
                  11
                  11
                  11
                  11
                  11
                  11
                  12
                  12
                  12
                  12
                  12
                  12
                  12
                  12
                  12
                  12
                  11
                  11
                  11
                  11
                  11
                  11
                  11
                  11
                  11
                  11
                  11
                  11
                  11
                  11
                  11
                  12
                  11
                  11
                  11
                  11
                  12
                  12
                  11
                  12
                  12
                  12
                  12
                  12
                  12
                  11
                  11
                  11
                  11
                  11
                  11
                  11
                  11
                  11
                  11
                  11
                  12
                  12
                  12
                  11
                  11
                  11
                  11
                  11
                  11
                  12
                  12
                  12
                  12
                  12
                  12
                  12
                  11
                  11
                  11
                  11
                  11
                  11
                  11
                  11
                  11
                  11
                  11
                  11
                  12
                  12
                  12
                  12
                  12
                  12
                  12
                  12
                  12
                  12
                  11
                  11
                  11
                  11
                  11
                  11
                  11
                  11
                  11
                  11
                  11
                  11
                  11
                  11
                  11
                  12
                  11
                  11
                  11
                  11
                  12
                  12
                  11
                  12
                  12
                  12
                  12
                  12
                  12
                  11
                  11
                  11
                  11
                  11
                  11
                  11
                  11
                  11
                  11
                  11
                  12
                  12
                  12
                  11
                  11
                  11
                  11
                  11
                  11
                  12
                  12
                  12
                  12
                  12
                  12
                  12
                  11
                  11
                  11
                  11
                  11
                  11
                  11
                  11
                  11
                  11
                  11
                  11
                  12
                  12
                  12
                  12
                  12
                  12
                  12
                  12
                  12
                  12
                  11
                  11
                  11
                  11
                  11
                  11
                  11
                  11
                  11
                  11
                  11
                  11
                  11
                  11
                  11
                  12
                  11
                  11
                  11
                  11
                  12
                  12
                  11
                  12
                  12
                  12
                  12
                  12
                  12
                  11
                  11
                  11
                  11
                  11
                  11
                  11
                  11
                  11
                  11
                  11
                  12
                  12
                  12
                  11
                  11
                  11
                  11
                  11
                  11
                  12
                  12
                  12
                  12
                  12
                  12
                  12
                  11
                  11
                  11
                  11
                  11
                  11
                  11
                  11
                  11
                  11
                  11
                  11
                  12
                  12
                  12
                  12
                  12
                  12
                  12
                  12
                  12
                  12
                  11
                  11
                  11
                  11
                  11
                  11
                  11
                  11
                  11
                  11
                  11
                  11
                  11
                  11
                  11
                  12
                  11
                  11
                  11
                  11
                  12
                  12
                  11
                  12
                  12
                  12
                  12
                  12
                  12
                  11
                  11
                  11
                  11
                  11
                  11
                  11
                  11
                  11
                  11
                  11
                  12
                  12
                  12
                  11
                  11
                  11
                  11
                  11
                  11
                  12
                  12
                  12
                  12
                  12
                  12
                  12
                  11
                  11
                  11
                  11
                  11
                  11
                  11
                  11
                  11
                  11
                  11
                  11
                  12
                  12
                  12
                  12
                  12
                  12
                  12
                  12
                  12
                  12
                  11
                  11
                  11
                  11
                  11
                  11
                  11
                  11
                  11
                  11
                  11
                  11
                  11
                  11
                  11
                  12
                  11
                  11
                  11
                  11
                  12
                  12
                  11
                  12
                  12
                  12
                  12
                  12
                  12
                  11
                  11
                  11
                  11
                  11
                  11
                  11
                  11
                  11
                  11
                  11
                  12
                  12
                  12
                  11
                  11
                  11
                  11
                  11
                  11
                  12
                  12
                  12
                  12
                  12
                  12
                  12
                  11
                  11
                  11
                  11
                  11
                  11
                  11
                  11
                  11
                  11
                  11
                  11
                  12
                  12
                  12
                  12
                  12
                  12
                  12
                  12
                  12
                  12
                  11
                  11
                  11
                  11
                  11
                  11
                  11
                  11
                  11
                  11
                  11
                  11
                  11
                  11
                  11
                  12
                  11
                  11
                  11
                  11
                  12
                  12
                  11
                  12
                  12
                  12
                  12
                  12
                  12
                  11
                  11
                  11
                  11
                  11
                  11
                  11
                  11
                  11
                  11
                  11
                  12
                  12
                  12
                  11
                  11
                  11
                  11
                  11
                  11
                  12
                  12
                  12
                  12
                  12
                  12
                  12
                  11
                  11
                  11
                  11
                  11
                  11
                  11
                  11
                  11
                  11
                  11
                  11
                  12
                  12
                  12
                  12
                  12
                  12
                  12
                  12
                  12
                  12
                  11
                  11
                  11
                  11
                  11
                  11
                  11
                  11
                  11
                  11
                  11
                  11
                  11
                  11
                  11
                  12
                  11
                  11
                  11
                  11
                  12
                  12
                  11
                  12
                  12
                  12
                  12
                  12
                  12
                  11
                  11
                  11
                  11
                  11
                  11
                  11
                  11
                  11
                  11
                  11
                  12
                  12
                  12
                  11
                  11
                  11
                  11
                  11
                  11
                  12
                  12
                  12
                  12
                  12
                  12
                  12
                  11
                  11
                  11
                  11
                  11
                  11
                  11
                  11
                  11
                  11
                  11
                  11
                  12
                  12
                  12
                  12
                  12
                  12
                  12
                  12
                  12
                  12
                  11
                  11
                  11
                  11
                  11
                  11
                  11
                  11
                  11
                  11
                  11
                  11
                  11
                  11
                  11
                  12
                  11
                  11
                  11
                  11
                  12
                  12
                  11
                  12
                  12
                  12
                  12
                  12
                  12
                  11
                  11
                  11
                  11
                  11
                  11
                  11
                  11
                  11
                  11
                  11
                  12
                  12
                  12
                  11
                  11
                  11
                  11
                  11
                  11
                  12
                  12
                  12
                  12
                  12
                  12
                  12
                  11
                  11
                  11
                  11
                  11
                  11
                  11
                  11
                  11
                  11
                  11
                  11
                  12
                  12
                  12
                  12
                  12
                  12
                  12
                  12
                  12
                  12
                  11
                  11
                  11
                  11
                  11
                  11
                  11
                  11
                  11
                  11
                  11
                  11
                  11
                  11
                  11
                  12
                  11
                  11
                  11
                  11
                  12
                  12
                  11
                  12
                  12
                  12
                  12
                  12
                  12
                  11
                  11
                  11
                  11
                  11
                  11
                  11
                  11
                  11
                  11
                  11
                  12
                  12
                  12
                  11
                  11
                  11
                  11
                  11
                  11
                  12
                  12
                  12
                  12
                  12
                  12
                  12
                  11
                  11
                  11
                  11
                  11
                  11
                  11
                  11
                  11
                  11
                  11
                  11
                  12
                  12
                  12
                  12
                  12
                  12
                  12
                  12
                  12
                  12
                  11
                  11
                  11
                  11
                  11
                  11
                  11
                  11
                  11
                  11
                  11
                  11
                  11
                  11
                  11
                  12
                  11
                  11
                  11
                  11
                  12
                  12
                  11
                  12
                  12
                  12
                  12
                  12
                  12
                  11
                  11
                  11
                  11
                  11
                  11
                  11
                  11
                  11
                  11
                  11
                  12
                  12
                  12
                  11
                  11
                  11
                  11
                  11
                  11
                  12
                  12
                  12
                  12
                  12
                  12
                  12
                  11
                  11
                  11
                  11
                  11
                  11
                  11
                  11
                  11
                  11
                  11
                  11
                  12
                  12
                  12
                  12
                  12
                  12
                  12
                  12
                  12
                  12
                  11
                  11
                  11
                  11
                  11
                  11
                  11
                  11
                  11
                  11
                  11
                  11
                  11
                  11
                  11
                  12
                  11
                  11
                  11
                  11
                  12
                  12
                  11
                  12
                  12
                  12
                  12
                  12
                  12
                  11
                  11
                  11
                  11
                  11
                  11
                  11
                  11
                  11
                  11
                  11
                  12
                  12
                  12
                  11
                  11
                  11
                  11
                  11
                  11
                  12
                  12
                  12
                  12
                  12
                  12
                  12
                  11
                  11
                  11
                  11
                  11
                  11
                  11
                  11
                  11
                  11
                  11
                  11
                  12
                  12
                  12
                  12
                  12
                  12
                  12
                  12
                  12
                  12
                  11
                  11
                  11
                  11
                  11
                  11
                  11
                  11
                  11
                  11
                  11
                  11
                  11
                  11
                  11
                  12
                  11
                  11
                  11
                  11
                  12
                  12
                  11
                  12
                  12
                  12
                  12
                  12
                  12
                  11
                  11
                  11
                  11
                  11
                  11
                  11
                  11
                  11
                  11
                  11
                  12
                  12
                  12
                  11
                  11
                  11
                  11
                  11
                  11
                  12
                  12
                  12
                  12
                  12
                  12
                  12
                  11
                  11
                  11
                  11
                  11
                  11
                  11
                  11
                  11
                  11
                  11
                  11
                  12
                  12
                  12
                  12
                  12
                  12
                  12
                  12
                  12
                  12
                  11
                  11
                  11
                  11
                  11
                  11
                  11
                  11
                  11
                  11
                  11
                  11
                  11
                  11
                  11
                  12
                  11
                  11
                  11
                  11
                  12
                  12
                  11
                  12
                  12
                  12
                  12
                  12
                  12
                  11
                  11
                  11
                  11
                  11
                  11
                  11
                  11
                  11
                  11
                  11
                  12
                  12
                  12
                  11
                  11
                  11
                  11
                  11
                  11
                  12
                  12
                  12
                  12
                  12
                  12
                  12
                  11
                  11
                  11
                  11
                  11
                  11
                  11
                  11
                  11
                  11
                  11
                  11
                  12
                  12
                  12
                  12
                  12
                  12
                  12
                  12
                  12
                  12
                  11
                  11
                  11
                  11
                  11
                  11
                  11
                  11
                  11
                  11
                  11
                  11
                  11
                  11
                  11
                  12
                  11
                  11
                  11
                  11
                  12
                  12
                  11
                  12
                  12
                  12
                  12
                  12
                  12
                  11
                  11
                  11
                  11
                  11
                  11
                  11
                  11
                  11
                  11
                  11
                  12
                  12
                  12
                  11
                  11
                  11
                  11
                  11
                  11
                  12
                  12
                  12
                  12
                  12
                  12
                  12
                  11
                  11
                  11
                  11
                  11
                  11
                  11
                  11
                  11
                  11
                  11
                  11
                  12
                  12
                  12
                  12
                  12
                  12
                  12
                  12
                  12
                  12
                  11
                  11
                  11
                  11
                  11
                  11
                  11
                  11
                  11
                  11
                  11
                  11
                  11
                  11
                  11
                  12
                  11
                  11
                  11
                  11
                  12
                  12
                  11
                  12
                  12
                  12
                  12
                  12
                  12
                  11
                  11
                  11
                  11
                  11
                  11
                  11
                  11
                  11
                  11
                  11
                  12
                  12
                  12
                  11
                  11
                  11
                  11
                  11
                  11
                  12
                  12
                  12
                  12
                  12
                  12
                  12
                  11
                  11
                  11
                  11
                  11
                  11
                  11
                  11
                  11
                  11
                  11
                  11
                  12
                  12
                  12
                  12
                  12
                  12
                  12
                  12
                  12
                  12
                  11
                  11
                  11
                  11
                  11
                  11
                  11
                  11
                  11
                  11
                  11
                  11
                  11
                  11
                  11
                  12
                  11
                  11
                  11
                  11
                  12
                  12
                  11
                  12
                  12
                  12
                  12
                  12
                  12
                  11
                  11
                  11
                  11
                  11
                  11
                  11
                  11
                  11
                  11
                  11
                  12
                  12
                  12
                  11
                  11
                  11
                  11
                  11
                  11
                  12
                  12
                  12
                  12
                  12
                  12
                  12
                  11
                  11
                  11
                  11
                  11
                  11
                  11
                  11
                  11
                  11
                  11
                  11
                  12
                  12
                  12
                  12
                  12
                  12
                  12
                  12
                  12
                  12
                  11
                  11
                  11
                  11
                  11
                  11
                  11
                  11
                  11
                  11
                  11
                  11
                  11
                  11
                  11
                  12
                  11
                  11
                  11
                  11
                  12
                  12
                  11
                  12
                  12
                  12
                  12
                  12
                  12
                  11
                  11
                  11
                  11
                  11
                  11
                  11
                  11
                  11
                  11
                  11
                  12
                  12
                  12
                  11
                  11
                  11
                  11
                  11
                  11
                  12
                  12
                  12
                  12
                  12
                  12
                  12
                  11
                  11
                  11
                  11
                  11
                  11
                  11
                  11
                  11
                  11
                  11
                  11
                  12
                  12
                  12
                  12
                  12
                  12
                  12
                  12
                  12
                  12
                  11
                  11
                  11
                  11
                  11
                  11
                  11
                  11
                  11
                  11
                  11
                  11
                  11
                  11
                  11
                  12
                  11
                  11
                  11
                  11
                  12
                  12
                  11
                  12
                  12
                  12
                  12
                  12
                  12
                  11
                  11
                  11
                  11
                  11
                  11
                  11
                  11
                  11
                  11
                  11
                  12
                  12
                  12
                  11
                  11
                  11
                  11
                  11
                  11
                  12
                  12
                  12
                  12
                  12
                  12
                  12
                  11
                  11
                  11
                  11
                  11
                  11
                  11
                  11
                  11
                  11
                  11
                  11
                  12
                  12
                  12
                  12
                  12
                  12
                  12
                  12
                  12
                  12
                  11
                  11
                  11
                  11
                  11
                  11
                  11
                  11
                  11
                  11
                  11
                  11
                  11
                  11
                  11
                  12
                  11
                  11
                  11
                  11
                  12
                  12
                  11
                  12
                  12
                  12
                  12
                  12
                  12
                  11
                  11
                  11
                  11
                  11
                  11
                  11
                  11
                  11
                  11
                  11
                  12
                  12
                  12
                  11
                  11
                  11
                  11
                  11
                  11
                  12
                  12
                  12
                  12
                  12
                  12
                  12
                  11
                  11
                  11
                  11
                  11
                  11
                  11
                  11
                  11
                  11
                  11
                  11
                  12
                  12
                  12
                  12
                  12
                  12
                  12
                  12
                  12
                  12
                  11
                  11
                  11
                  11
                  11
                  11
                  11
                  11
                  11
                  11
                  11
                  11
                  11
                  11
                  11
                  12
                  11
                  11
                  11
                  11
                  12
                  12
                  11
                  12
                  12
                  12
                  12
                  12
                  12
                  11
                  11
                  11
                  11
                  11
                  11
                  11
                  11
                  11
                  11
                  11
                  12
                  12
                  12
                  11
                  11
                  11
                  11
                  11
                  11
                  12
                  12
                  12
                  12
                  12
                  12
                  12
                  11
                  11
                  11
                  11
                  11
                  11
                  11
                  11
                  11
                  11
                  11
                  11
                  12
                  12
                  12
                  12
                  12
                  12
                  12
                  12
                  12
                  12
                  11
                  11
                  11
                  11
                  11
                  11
                  11
                  11
                  11
                  11
                  11
                  11
                  11
                  11
  
SCALARS                         Kspace  double 1
LOOKUP_TABLE default
                  11
                  11
                  11
                  11
                  11
                  11
                  11
                  11
                  11
                  11
                  11
                  11
                  11
                  11
                  11
                  11
                  11
                  11
                  11
                  11
                  11
                  11
                  11
                  11
                  11
                  11
                  11
                  11
                  11
                  11
                  11
                  11
                  11
                  11
                  11
                  11
                  11
                  11
                  11
                  11
                  11
                  11
                  11
                  11
                  11
                  11
                  11
                  11
                  11
                  11
                  11
                  11
                  11
                  11
                  11
                  11
                  11
                  11
                  11
                  11
                  11
                  11
                  11
                  11
                  11
                  11
                  11
                  11
                  11
                  11
                  11
                  11
                  11
                  11
                  11
                  11
                  11
                  11
                  11
                  11
                  11
                  11
                  11
                  11
                  11
                  11
                  11
                  11
                  11
                  11
                  11
                  11
                  11
                  11
                  11
                  11
                  11
                  11
                  11
                  11
                  11
                  11
                  11
                  11
                  11
                  11
                  11
                  11
                  11
                  11
                  11
                  11
                  11
                  11
                  11
                  11
                  11
                  11
                  11
                  11
                  11
                  11
                  11
                  11
                  11
                  11
                  11
                  11
                  11
                  11
                  11
                  11
                  11
                  11
                  11
                  11
                  11
                  11
                  11
                  11
                  11
                  11
                  11
                  11
                  11
                  11
                  11
                  11
                  11
                  11
                  11
                  11
                  11
                  11
                  11
                  11
                  11
                  11
                  11
                  11
                  11
                  11
                  11
                  11
                  11
                  11
                  11
                  11
                  11
                  11
                  11
                  11
                  11
                  11
                  11
                  11
                  11
                  11
                  11
                  11
                  11
                  11
                  11
                  11
                  11
                  11
                  11
                  11
                  11
                  11
                  11
                  11
                  11
                  11
                  11
                  11
                  11
                  11
                  11
                  11
                  11
                  11
                  11
                  11
                  11
                  11
                  11
                  11
                  11
                  11
                  11
                  11
                  11
                  11
                  11
                  11
                  11
                  11
                  11
                  11
                  11
                  11
                  11
                  11
                  11
                  11
                  11
                  11
                  11
                  11
                  11
                  11
                  11
                  11
                  11
                  11
                  11
                  11
                  11
                  11
                  11
                  11
                  11
                  11
                  11
                  11
                  11
                  11
                  11
                  11
                  11
                  11
                  11
                  11
                  11
                  11
                  11
                  11
                  11
                  11
                  11
                  11
                  11
                  11
                  11
                  11
                  11
                  11
                  11
                  11
                  11
                  11
                  11
                  11
                  11
                  11
                  11
                  11
                  11
                  11
                  11
                  11
                  11
                  11
                  11
                  11
                  11
                  11
                  11
                  11
                  11
                  11
                  11
                  11
                  11
                  11
                  11
                  11
                  11
                  11
                  11
                  11
                  11
                  11
                  11
                  11
                  11
                  11
                  11
                  11
                  11
                  11
                  12
                  12
                  12
                  12
                  12
                  12
                  12
                  12
                  12
                  12
                  12
                  12
                  12
                  12
                  12
                  12
                  12
                  12
                  12
                  12
                  12
                  12
                  12
                  12
                  12
                  12
                  12
                  12
                  12
                  12
                  12
                  12
                  12
                  12
                  12
                  12
                  12
                  12
                  12
                  12
                  12
                  12
                  12
                  12
                  12
                  12
                  12
                  12
                  12
                  12
                  12
                  12
                  12
                  12
                  12
                  12
                  12
                  12
                  12
                  12
                  12
                  12
                  12
                  12
                  12
                  12
                  12
                  12
                  12
                  12
                  12
                  12
                  12
                  12
                  12
                  12
                  12
                  12
                  12
                  12
                  12
                  12
                  12
                  12
                  12
                  12
                  12
                  12
                  12
                  12
                  12
                  12
                  12
                  12
                  12
                  12
                  12
                  12
                  12
                  12
                  12
                  12
                  12
                  12
                  12
                  12
                  12
                  12
                  12
                  12
                  12
                  12
                  12
                  12
                  12
                  12
                  12
                  12
                  12
                  12
                  12
                  12
                  12
                  12
                  12
                  12
                  12
                  12
                  12
                  12
                  12
                  12
                  12
                  12
                  12
                  12
                  12
                  12
                  12
                  12
                  12
                  12
                  12
                  12
                  12
                  12
                  12
                  12
                  12
                  12
                  12
                  12
                  12
                  12
                  12
                  12
                  12
                  12
                  12
                  12
                  12
                  12
                  12
                  12
                  12
                  12
                  12
                  12
                  12
                  12
                  12
                  12
                  12
                  12
                  12
                  12
                  12
                  12
                  12
                  12
                  12
                  12
                  12
                  12
                  12
                  12
                  12
                  12
                  12
                  12
                  12
                  12
                  12
                  12
                  12
                  12
                  12
                  12
                  12
                  12
                  12
                  12
                  12
                  12
                  12
                  12
                  12
                  12
                  12
                  12
                  12
                  12
                  12
                  12
                  12
                  12
                  12
                  12
                  12
                  12
                  12
                  12
                  12
                  12
                  12
                  12
                  12
                  12
                  12
                  12
                  12
                  12
                  12
                  12
                  13
                  13
                  13
                  13
                  13
                  13
                  13
                  13
                  13
                  13
                  13
                  13
                  13
                  13
                  13
                  13
                  13
                  13
                  13
                  13
                  13
                  13
                  13
                  13
                  13
                  13
                  13
                  13
                  13
                  13
                  13
                  13
                  13
                  13
                  13
                  13
                  13
                  13
                  13
                  13
                  13
                  13
                  13
                  13
                  13
                  13
                  13
                  13
                  13
                  13
                  13
                  13
                  13
                  13
                  13
                  13
                  13
                  13
                  13
                  13
                  13
                  13
                  13
                  13
                  13
                  13
                  13
                  13
                  13
                  13
                  13
                  13
                  13
                  13
                  13
                  13
                  13
                  13
                  13
                  13
                  13
                  13
                  13
                  13
                  13
                  13
                  13
                  13
                  13
                  13
                  13
                  13
                  13
                  13
                  13
                  13
                  13
                  13
                  13
                  13
                  13
                  13
                  13
                  13
                  13
                  13
                  13
                  13
                  13
                  13
                  13
                  13
                  13
                  13
                  13
                  13
                  13
                  13
                  13
                  13
                  13
                  13
                  13
                  13
                  13
                  13
                  13
                  13
                  13
                  13
                  13
                  13
                  13
                  13
                  13
                  13
                  13
                  13
                  13
                  13
                  13
                  13
                  13
                  13
                  13
                  13
                  13
                  13
                  13
                  13
                  13
                  13
                  13
                  13
                  13
                  13
                  13
                  13
                  13
                  13
                  13
                  13
                  13
                  13
                  13
                  13
                  13
                  13
                  13
                  13
                  13
                  13
                  13
                  13
                  13
                  13
                  13
                  13
                  13
                  13
                  13
                  13
                  13
                  13
                  13
                  13
                  13
                  13
                  13
                  13
                  13
                  13
                  13
                  13
                  13
                  13
                  13
                  13
                  13
                  13
                  13
                  13
                  13
                  13
                  13
                  13
                  13
                  13
                  13
                  13
                  13
                  13
                  13
                  13
                  13
                  13
                  13
                  13
                  13
                  13
                  13
                  13
                  13
                  13
                  13
                  13
                  13
                  13
                  13
                  13
                  13
                  13
                  13
                  13
                  14
                  14
                  14
                  14
                  14
                  14
                  14
                  14
                  14
                  14
                  14
                  14
                  14
                  14
                  14
                  14
                  14
                  14
                  14
                  14
                  14
                  14
                  14
                  14
                  14
                  14
                  14
                  14
                  14
                  14
                  14
                  14
                  14
                  14
                  14
                  14
                  14
                  14
                  14
                  14
                  14
                  14
                  14
                  14
                  14
                  14
                  14
                  14
                  14
                  14
                  14
                  14
                  14
                  14
                  14
                  14
                  14
                  14
                  14
                  14
                  14
                  14
                  14
                  14
                  14
                  14
                  14
                  14
                  14
                  14
                  14
                  14
                  14
                  14
                  14
                  14
                  14
                  14
                  14
                  14
                  14
                  14
                  14
                  14
                  14
                  14
                  14
                  14
                  14
                  14
                  14
                  14
                  14
                  14
                  14
                  14
                  14
                  14
                  14
                  14
                  14
                  14
                  14
                  14
                  14
                  14
                  14
                  14
                  14
                  14
                  14
                  14
                  14
                  14
                  14
                  14
                  14
                  14
                  14
                  14
                  14
                  14
                  14
                  14
                  14
                  14
                  14
                  14
                  14
                  14
                  14
                  14
                  14
                  14
                  14
                  14
                  14
                  14
                  14
                  14
                  14
                  14
                  14
                  14
                  14
                  14
                  14
                  14
                  14
                  14
                  14
                  14
                  14
                  14
                  14
                  14
                  14
                  14
                  14
                  14
                  14
                  14
                  14
                  14
                  14
                  14
                  14
                  14
                  14
                  14
                  14
                  14
                  14
                  14
                  14
                  14
                  14
                  14
                  14
                  14
                  14
                  14
                  14
                  14
                  14
                  14
                  14
                  14
                  14
                  14
                  14
                  14
                  14
                  14
                  14
                  14
                  14
                  14
                  14
                  14
                  14
                  14
                  14
                  14
                  14
                  14
                  14
                  14
                  14
                  14
                  14
                  14
                  14
                  14
                  14
                  14
                  14
                  14
                  14
                  14
                  14
                  14
                  14
                  14
                  14
                  14
                  14
                  14
                  14
                  14
                  14
                  14
                  14
                  14
                  15
                  15
                  15
                  15
                  15
                  15
                  15
                  15
                  15
                  15
                  15
                  15
                  15
                  15
                  15
                  15
                  15
                  15
                  15
                  15
                  15
                  15
                  15
                  15
                  15
                  15
                  15
                  15
                  15
                  15
                  15
                  15
                  15
                  15
                  15
                  15
                  15
                  15
                  15
                  15
                  15
                  15
                  15
                  15
                  15
                  15
                  15
                  15
                  15
                  15
                  15
                  15
                  15
                  15
                  15
                  15
                  15
                  15
                  15
                  15
                  15
                  15
                  15
                  15
                  15
                  15
                  15
                  15
                  15
                  15
                  15
                  15
                  15
                  15
                  15
                  15
                  15
                  15
                  15
                  15
                  15
                  15
                  15
                  15
                  15
                  15
                  15
                  15
                  15
                  15
                  15
                  15
                  15
                  15
                  15
                  15
                  15
                  15
                  15
                  15
                  15
                  15
                  15
                  15
                  15
                  15
                  15
                  15
                  15
                  15
                  15
                  15
                  15
                  15
                  15
                  15
                  15
                  15
                  15
                  15
                  15
                  15
                  15
                  15
                  15
                  15
                  15
                  15
                  15
                  15
                  15
                  15
                  15
                  15
                  15
                  15
                  15
                  15
                  15
                  15
                  15
                  15
                  15
                  15
                  15
                  15
                  15
                  15
                  15
                  15
                  15
                  15
                  15
                  15
                  15
                  15
                  15
                  15
                  15
                  15
                  15
                  15
                  15
                  15
                  15
                  15
                  15
                  15
                  15
                  15
                  15
                  15
                  15
                  15
                  15
                  15
                  15
                  15
                  15
                  15
                  15
                  15
                  15
                  15
                  15
                  15
                  15
                  15
                  15
                  15
                  15
                  15
                  15
                  15
                  15
                  15
                  15
                  15
                  15
                  15
                  15
                  15
                  15
                  15
                  15
                  15
                  15
                  15
                  15
                  15
                  15
                  15
                  15
                  15
                  15
                  15
                  15
                  15
                  15
                  15
                  15
                  15
                  15
                  15
                  15
                  15
                  15
                  15
                  15
                  15
                  15
                  15
                  15
                  15
                  15
                  15
                  15
                  15
                  15
                  15
                  15
                  15
                  15
                  15
                  15
                  15
                  15
                  15
                  15
                  15
                  15
                  15
                  15
                  15
                  15
                  15
                  15
                  15
                  15
                  15
                  15
                  15
                  15
                  15
                  15
                  15
                  15
                  15
                  15
                  15
                  15
                  15
                  15
                  15
                  15
                  15
                  15
                  15
                  15
                  15
                  15
                  15
                  15
                  15
                  15
                  15
                  15
                  15
                  15
                  15
                  15
                  15
                  15
                  15
                  15
                  15
                  15
                  15
                  15
                  15
                  15
                  15
                  15
                  15
                  15
                  15
                  15
                  15
                  15
                  15
                  15
                  15
                  16
                  16
                  16
                  16
                  16
                  16
                  16
                  16
                  16
                  16
                  16
                  16
                  16
                  16
                  16
                  16
                  16
                  16
                  16
                  16
                  16
                  16
                  16
                  16
                  16
                  16
                  16
                  16
                  16
                  16
                  16
                  16
                  16
                  16
                  16
                  16
                  16
                  16
                  16
                  16
                  16
                  16
                  16
                  16
                  16
                  16
                  16
                  16
                  16
                  16
                  16
                  16
                  16
                  16
                  16
                  16
                  16
                  16
                  16
                  16
                  16
                  16
                  16
                  16
                  16
                  16
                  16
                  16
                  16
                  16
                  16
                  16
                  16
                  16
                  16
                  16
                  16
                  16
                  16
                  16
                  16
                  16
                  16
                  16
                  16
                  16
                  16
                  16
                  16
                  16
                  16
                  16
                  16
                  16
                  16
                  16
                  16
                  16
                  16
                  16
                  16
                  16
                  16
                  16
                  16
                  16
                  16
                  16
                  16
                  16
                  16
                  16
                  16
                  16
                  16
                  16
                  16
                  16
                  16
                  16
                  16
                  16
                  16
                  16
                  16
                  16
                  16
                  16
                  16
                  16
                  16
                  16
                  16
                  16
                  16
                  16
                  16
                  16
                  16
                  16
                  16
                  16
                  16
                  16
                  16
                  16
                  16
                  16
                  16
                  16
                  16
                  16
                  16
                  16
                  16
                  16
                  16
                  16
                  16
                  16
                  16
                  16
                  16
                  16
                  16
                  16
                  16
                  16
                  16
                  16
                  16
                  16
                  16
                  16
                  16
                  16
                  16
                  16
                  16
                  16
                  16
                  16
                  16
                  16
                  16
                  16
                  16
                  16
                  16
                  16
                  16
                  16
                  16
                  16
                  16
                  16
                  16
                  16
                  16
                  16
                  16
                  16
                  16
                  16
                  16
                  16
                  16
                  16
                  16
                  16
                  16
                  16
                  16
                  16
                  16
                  16
                  16
                  16
                  16
                  16
                  16
                  16
                  16
                  16
                  16
                  16
                  16
                  16
                  16
                  16
                  16
                  16
                  16
                  16
                  17
                  17
                  17
                  17
                  17
                  17
                  17
                  17
                  17
                  17
                  17
                  17
                  17
                  17
                  17
                  17
                  17
                  17
                  17
                  17
                  17
                  17
                  17
                  17
                  17
                  17
                  17
                  17
                  17
                  17
                  17
                  17
                  17
                  17
                  17
                  17
                  17
                  17
                  17
                  17
                  17
                  17
                  17
                  17
                  17
                  17
                  17
                  17
                  17
                  17
                  17
                  17
                  17
                  17
                  17
                  17
                  17
                  17
                  17
                  17
                  17
                  17
                  17
                  17
                  17
                  17
                  17
                  17
                  17
                  17
                  17
                  17
                  17
                  17
                  17
                  17
                  17
                  17
                  17
                  17
                  17
                  17
                  17
                  17
                  17
                  17
                  17
                  17
                  17
                  17
                  17
                  17
                  17
                  17
                  17
                  17
                  17
                  17
                  17
                  17
                  17
                  17
                  17
                  17
                  17
                  17
                  17
                  17
                  17
                  17
                  17
                  17
                  17
                  17
                  17
                  17
                  17
                  17
                  17
                  17
                  17
                  17
                  17
                  17
                  17
                  17
                  17
                  17
                  17
                  17
                  17
                  17
                  17
                  17
                  17
                  17
                  17
                  17
                  17
                  17
                  17
                  17
                  17
                  17
                  17
                  17
                  17
                  17
                  17
                  17
                  17
                  17
                  17
                  17
                  17
                  17
                  17
                  17
                  17
                  17
                  17
                  17
                  17
                  17
                  17
                  17
                  17
                  17
                  17
                  17
                  17
                  17
                  17
                  17
                  17
                  17
                  17
                  17
                  17
                  17
                  17
                  17
                  17
                  17
                  17
                  17
                  17
                  17
                  17
                  17
                  17
                  17
                  17
                  17
                  17
                  17
                  17
                  17
                  17
                  17
                  17
                  17
                  17
                  17
                  17
                  17
                  17
                  17
                  17
                  17
                  17
                  17
                  17
                  17
                  17
                  17
                  17
                  17
                  17
                  17
                  17
                  17
                  17
                  17
                  17
                  17
                  17
                  17
                  17
                  17
                  17
                  17
                  17
                  17
                  18
                  18
                  18
                  18
                  18
                  18
                  18
                  18
                  18
                  18
                  18
                  18
                  18
                  18
                  18
                  18
                  18
                  18
                  18
                  18
                  18
                  18
                  18
                  18
                  18
                  18
                  18
                  18
                  18
                  18
                  18
                  18
                  18
                  18
                  18
                  18
                  18
                  18
                  18
                  18
                  18
                  18
                  18
                  18
                  18
                  18
                  18
                  18
                  18
                  18
                  18
                  18
                  18
                  18
                  18
                  18
                  18
                  18
                  18
                  18
                  18
                  18
                  18
                  18
                  18
                  18
                  18
                  18
                  18
                  18
                  18
                  18
                  18
                  18
                  18
                  18
                  18
                  18
                  18
                  18
                  18
                  18
                  18
                  18
                  18
                  18
                  18
                  18
                  18
                  18
                  18
                  18
                  18
                  18
                  18
                  18
                  18
                  18
                  18
                  18
                  18
                  18
                  18
                  18
                  18
                  18
                  18
                  18
                  18
                  18
                  18
                  18
                  18
                  18
                  18
                  18
                  18
                  18
                  18
                  18
                  18
                  18
                  18
                  18
                  18
                  18
                  18
                  18
                  18
                  18
                  18
                  18
                  18
                  18
                  18
                  18
                  18
                  18
                  18
                  18
                  18
                  18
                  18
                  18
                  18
                  18
                  18
                  18
                  18
                  18
                  18
                  18
                  18
                  18
                  18
                  18
  
SCALARS                 displacement_x  double 1
LOOKUP_TABLE default
         0.00000E+00
         0.00000E+00
         0.00000E+00
         0.00000E+00
         0.00000E+00
         0.00000E+00
         0.00000E+00
         0.00000E+00
         0.00000E+00
         0.00000E+00
         0.00000E+00
         0.00000E+00
         0.00000E+00
         0.00000E+00
         0.00000E+00
         0.00000E+00
         0.00000E+00
         0.00000E+00
         0.00000E+00
         0.00000E+00
         0.00000E+00
         0.00000E+00
         0.00000E+00
         0.00000E+00
         0.00000E+00
         0.00000E+00
         0.00000E+00
         0.00000E+00
         0.00000E+00
         0.00000E+00
         0.00000E+00
         0.00000E+00
         0.00000E+00
         0.00000E+00
         0.00000E+00
         0.00000E+00
         0.00000E+00
         0.00000E+00
         0.00000E+00
         0.00000E+00
         0.00000E+00
         0.00000E+00
         0.00000E+00
         0.00000E+00
         0.00000E+00
         0.00000E+00
         0.00000E+00
         0.00000E+00
         0.00000E+00
         0.00000E+00
         0.00000E+00
         0.00000E+00
         0.00000E+00
         0.00000E+00
         0.00000E+00
         0.00000E+00
         0.00000E+00
         0.00000E+00
         0.00000E+00
         0.00000E+00
         0.00000E+00
         0.00000E+00
         0.00000E+00
         0.00000E+00
         0.00000E+00
         0.00000E+00
         0.00000E+00
         0.00000E+00
         0.00000E+00
         0.00000E+00
         0.00000E+00
         0.00000E+00
         0.00000E+00
         0.00000E+00
         0.00000E+00
         0.00000E+00
         0.00000E+00
         0.00000E+00
         0.00000E+00
         0.00000E+00
         0.00000E+00
         0.00000E+00
         0.00000E+00
         0.00000E+00
         0.00000E+00
         0.00000E+00
         0.00000E+00
         0.00000E+00
         0.00000E+00
         0.00000E+00
         0.00000E+00
         0.00000E+00
         0.00000E+00
         0.00000E+00
         0.00000E+00
         0.00000E+00
         0.00000E+00
         0.00000E+00
         0.00000E+00
         0.00000E+00
         0.00000E+00
         0.00000E+00
         0.00000E+00
         0.00000E+00
         0.00000E+00
         0.00000E+00
         0.00000E+00
         0.00000E+00
         0.00000E+00
         0.00000E+00
         0.00000E+00
         0.00000E+00
         0.00000E+00
         0.00000E+00
         0.00000E+00
         0.00000E+00
         0.00000E+00
         0.00000E+00
         0.00000E+00
         0.00000E+00
         0.00000E+00
         0.00000E+00
         0.00000E+00
         0.00000E+00
         0.00000E+00
         0.00000E+00
         0.00000E+00
         0.00000E+00
         0.00000E+00
         0.00000E+00
         0.00000E+00
         0.00000E+00
         0.00000E+00
         0.00000E+00
         0.00000E+00
         0.00000E+00
         0.00000E+00
         0.00000E+00
         0.00000E+00
         0.00000E+00
         0.00000E+00
         0.00000E+00
         0.00000E+00
         0.00000E+00
         0.00000E+00
         0.00000E+00
         0.00000E+00
         0.00000E+00
         0.00000E+00
         0.00000E+00
         0.00000E+00
         0.00000E+00
         0.00000E+00
         0.00000E+00
         0.00000E+00
         0.00000E+00
         0.00000E+00
         0.00000E+00
         0.00000E+00
         0.00000E+00
         0.00000E+00
         0.00000E+00
         0.00000E+00
         0.00000E+00
         0.00000E+00
         0.00000E+00
         0.00000E+00
         0.00000E+00
         0.00000E+00
         0.00000E+00
         0.00000E+00
         0.00000E+00
         0.00000E+00
         0.00000E+00
         0.00000E+00
         0.00000E+00
         0.00000E+00
         0.00000E+00
         0.00000E+00
         0.00000E+00
         0.00000E+00
         0.00000E+00
         0.00000E+00
         0.00000E+00
         0.00000E+00
         0.00000E+00
         0.00000E+00
         0.00000E+00
         0.00000E+00
         0.00000E+00
         0.00000E+00
         0.00000E+00
         0.00000E+00
         0.00000E+00
         0.00000E+00
         0.00000E+00
         0.00000E+00
         0.00000E+00
         0.00000E+00
         0.00000E+00
         0.00000E+00
         0.00000E+00
         0.00000E+00
         0.00000E+00
         0.00000E+00
         0.00000E+00
         0.00000E+00
         0.00000E+00
         0.00000E+00
         0.00000E+00
         0.00000E+00
         0.00000E+00
         0.00000E+00
         0.00000E+00
         0.00000E+00
         0.00000E+00
         0.00000E+00
         0.00000E+00
         0.00000E+00
         0.00000E+00
         0.00000E+00
         0.00000E+00
         0.00000E+00
         0.00000E+00
         0.00000E+00
         0.00000E+00
         0.00000E+00
         0.00000E+00
         0.00000E+00
         0.00000E+00
         0.00000E+00
         0.00000E+00
         0.00000E+00
         0.00000E+00
         0.00000E+00
         0.00000E+00
         0.00000E+00
         0.00000E+00
         0.00000E+00
         0.00000E+00
         0.00000E+00
         0.00000E+00
         0.00000E+00
         0.00000E+00
         0.00000E+00
         0.00000E+00
         0.00000E+00
         0.00000E+00
         0.00000E+00
         0.00000E+00
         0.00000E+00
         0.00000E+00
         0.00000E+00
         0.00000E+00
         0.00000E+00
         0.00000E+00
         0.00000E+00
         0.00000E+00
         0.00000E+00
         0.00000E+00
         0.00000E+00
         0.00000E+00
         0.00000E+00
         0.00000E+00
         0.00000E+00
         0.00000E+00
         0.00000E+00
         0.00000E+00
         0.00000E+00
         0.00000E+00
         0.00000E+00
         0.00000E+00
         0.00000E+00
         0.00000E+00
         0.00000E+00
         0.00000E+00
         0.00000E+00
         0.00000E+00
         0.00000E+00
         0.00000E+00
         0.00000E+00
         0.00000E+00
         0.00000E+00
         0.00000E+00
         0.00000E+00
         0.00000E+00
         0.00000E+00
         0.00000E+00
         0.00000E+00
         0.00000E+00
         0.00000E+00
         0.00000E+00
         0.00000E+00
         0.00000E+00
         0.00000E+00
         0.00000E+00
         0.00000E+00
         0.00000E+00
         0.00000E+00
         0.00000E+00
         0.00000E+00
         0.00000E+00
         0.00000E+00
         0.00000E+00
         0.00000E+00
         0.00000E+00
         0.00000E+00
         0.00000E+00
         0.00000E+00
         0.00000E+00
         0.00000E+00
         0.00000E+00
         0.00000E+00
         0.00000E+00
         0.00000E+00
         0.00000E+00
         0.00000E+00
         0.00000E+00
         0.00000E+00
         0.00000E+00
         0.00000E+00
         0.00000E+00
         0.00000E+00
         0.00000E+00
         0.00000E+00
         0.00000E+00
         0.00000E+00
         0.00000E+00
         0.00000E+00
         0.00000E+00
         0.00000E+00
         0.00000E+00
         0.00000E+00
         0.00000E+00
         0.00000E+00
         0.00000E+00
         0.00000E+00
         0.00000E+00
         0.00000E+00
         0.00000E+00
         0.00000E+00
         0.00000E+00
         0.00000E+00
         0.00000E+00
         0.00000E+00
         0.00000E+00
         0.00000E+00
         0.00000E+00
         0.00000E+00
         0.00000E+00
         0.00000E+00
         0.00000E+00
         0.00000E+00
         0.00000E+00
         0.00000E+00
         0.00000E+00
         0.00000E+00
         0.00000E+00
         0.00000E+00
         0.00000E+00
         0.00000E+00
         0.00000E+00
         0.00000E+00
         0.00000E+00
         0.00000E+00
         0.00000E+00
         0.00000E+00
         0.00000E+00
         0.00000E+00
         0.00000E+00
         0.00000E+00
         0.00000E+00
         0.00000E+00
         0.00000E+00
         0.00000E+00
         0.00000E+00
         0.00000E+00
         0.00000E+00
         0.00000E+00
         0.00000E+00
         0.00000E+00
         0.00000E+00
         0.00000E+00
         0.00000E+00
         0.00000E+00
         0.00000E+00
         0.00000E+00
         0.00000E+00
         0.00000E+00
         0.00000E+00
         0.00000E+00
         0.00000E+00
         0.00000E+00
         0.00000E+00
         0.00000E+00
         0.00000E+00
         0.00000E+00
         0.00000E+00
         0.00000E+00
         0.00000E+00
         0.00000E+00
         0.00000E+00
         0.00000E+00
         0.00000E+00
         0.00000E+00
         0.00000E+00
         0.00000E+00
         0.00000E+00
         0.00000E+00
         0.00000E+00
         0.00000E+00
         0.00000E+00
         0.00000E+00
         0.00000E+00
         0.00000E+00
         0.00000E+00
         0.00000E+00
         0.00000E+00
         0.00000E+00
         0.00000E+00
         0.00000E+00
         0.00000E+00
         0.00000E+00
         0.00000E+00
         0.00000E+00
         0.00000E+00
         0.00000E+00
         0.00000E+00
         0.00000E+00
         0.00000E+00
         0.00000E+00
         0.00000E+00
         0.00000E+00
         0.00000E+00
         0.00000E+00
         0.00000E+00
         0.00000E+00
         0.00000E+00
         0.00000E+00
         0.00000E+00
         0.00000E+00
         0.00000E+00
         0.00000E+00
         0.00000E+00
         0.00000E+00
         0.00000E+00
         0.00000E+00
         0.00000E+00
         0.00000E+00
         0.00000E+00
         0.00000E+00
         0.00000E+00
         0.00000E+00
         0.00000E+00
         0.00000E+00
         0.00000E+00
         0.00000E+00
         0.00000E+00
         0.00000E+00
         0.00000E+00
         0.00000E+00
         0.00000E+00
         0.00000E+00
         0.00000E+00
         0.00000E+00
         0.00000E+00
         0.00000E+00
         0.00000E+00
         0.00000E+00
         0.00000E+00
         0.00000E+00
         0.00000E+00
         0.00000E+00
         0.00000E+00
         0.00000E+00
         0.00000E+00
         0.00000E+00
         0.00000E+00
         0.00000E+00
         0.00000E+00
         0.00000E+00
         0.00000E+00
         0.00000E+00
         0.00000E+00
         0.00000E+00
         0.00000E+00
         0.00000E+00
         0.00000E+00
         0.00000E+00
         0.00000E+00
         0.00000E+00
         0.00000E+00
         0.00000E+00
         0.00000E+00
         0.00000E+00
         0.00000E+00
         0.00000E+00
         0.00000E+00
         0.00000E+00
         0.00000E+00
         0.00000E+00
         0.00000E+00
         0.00000E+00
         0.00000E+00
         0.00000E+00
         0.00000E+00
         0.00000E+00
         0.00000E+00
         0.00000E+00
         0.00000E+00
         0.00000E+00
         0.00000E+00
         0.00000E+00
         0.00000E+00
         0.00000E+00
         0.00000E+00
         0.00000E+00
         0.00000E+00
         0.00000E+00
         0.00000E+00
         0.00000E+00
         0.00000E+00
         0.00000E+00
         0.00000E+00
         0.00000E+00
         0.00000E+00
         0.00000E+00
         0.00000E+00
         0.00000E+00
         0.00000E+00
         0.00000E+00
         0.00000E+00
         0.00000E+00
         0.00000E+00
         0.00000E+00
         0.00000E+00
         0.00000E+00
         0.00000E+00
         0.00000E+00
         0.00000E+00
         0.00000E+00
         0.00000E+00
         0.00000E+00
         0.00000E+00
         0.00000E+00
         0.00000E+00
         0.00000E+00
         0.00000E+00
         0.00000E+00
         0.00000E+00
         0.00000E+00
         0.00000E+00
         0.00000E+00
         0.00000E+00
         0.00000E+00
         0.00000E+00
         0.00000E+00
         0.00000E+00
         0.00000E+00
         0.00000E+00
         0.00000E+00
         0.00000E+00
         0.00000E+00
         0.00000E+00
         0.00000E+00
         0.00000E+00
         0.00000E+00
         0.00000E+00
         0.00000E+00
         0.00000E+00
         0.00000E+00
         0.00000E+00
         0.00000E+00
         0.00000E+00
         0.00000E+00
         0.00000E+00
         0.00000E+00
         0.00000E+00
         0.00000E+00
         0.00000E+00
         0.00000E+00
         0.00000E+00
         0.00000E+00
         0.00000E+00
         0.00000E+00
         0.00000E+00
         0.00000E+00
         0.00000E+00
         0.00000E+00
         0.00000E+00
         0.00000E+00
         0.00000E+00
         0.00000E+00
         0.00000E+00
         0.00000E+00
         0.00000E+00
         0.00000E+00
         0.00000E+00
         0.00000E+00
         0.00000E+00
         0.00000E+00
         0.00000E+00
         0.00000E+00
         0.00000E+00
         0.00000E+00
         0.00000E+00
         0.00000E+00
         0.00000E+00
         0.00000E+00
         0.00000E+00
         0.00000E+00
         0.00000E+00
         0.00000E+00
         0.00000E+00
         0.00000E+00
         0.00000E+00
         0.00000E+00
         0.00000E+00
         0.00000E+00
         0.00000E+00
         0.00000E+00
         0.00000E+00
         0.00000E+00
         0.00000E+00
         0.00000E+00
         0.00000E+00
         0.00000E+00
         0.00000E+00
         0.00000E+00
         0.00000E+00
         0.00000E+00
         0.00000E+00
         0.00000E+00
         0.00000E+00
         0.00000E+00
         0.00000E+00
         0.00000E+00
         0.00000E+00
         0.00000E+00
         0.00000E+00
         0.00000E+00
         0.00000E+00
         0.00000E+00
         0.00000E+00
         0.00000E+00
         0.00000E+00
         0.00000E+00
         0.00000E+00
         0.00000E+00
         0.00000E+00
         0.00000E+00
         0.00000E+00
         0.00000E+00
         0.00000E+00
         0.00000E+00
         0.00000E+00
         0.00000E+00
         0.00000E+00
         0.00000E+00
         0.00000E+00
         0.00000E+00
         0.00000E+00
         0.00000E+00
         0.00000E+00
         0.00000E+00
         0.00000E+00
         0.00000E+00
         0.00000E+00
         0.00000E+00
         0.00000E+00
         0.00000E+00
         0.00000E+00
         0.00000E+00
         0.00000E+00
         0.00000E+00
         0.00000E+00
         0.00000E+00
         0.00000E+00
         0.00000E+00
         0.00000E+00
         0.00000E+00
         0.00000E+00
         0.00000E+00
         0.00000E+00
         0.00000E+00
         0.00000E+00
         0.00000E+00
         0.00000E+00
         0.00000E+00
         0.00000E+00
         0.00000E+00
         0.00000E+00
         0.00000E+00
         0.00000E+00
         0.00000E+00
         0.00000E+00
         0.00000E+00
         0.00000E+00
         0.00000E+00
         0.00000E+00
         0.00000E+00
         0.00000E+00
         0.00000E+00
         0.00000E+00
         0.00000E+00
         0.00000E+00
         0.00000E+00
         0.00000E+00
         0.00000E+00
         0.00000E+00
         0.00000E+00
         0.00000E+00
         0.00000E+00
         0.00000E+00
         0.00000E+00
         0.00000E+00
         0.00000E+00
         0.00000E+00
         0.00000E+00
         0.00000E+00
         0.00000E+00
         0.00000E+00
         0.00000E+00
         0.00000E+00
         0.00000E+00
         0.00000E+00
         0.00000E+00
         0.00000E+00
         0.00000E+00
         0.00000E+00
         0.00000E+00
         0.00000E+00
         0.00000E+00
         0.00000E+00
         0.00000E+00
         0.00000E+00
         0.00000E+00
         0.00000E+00
         0.00000E+00
         0.00000E+00
         0.00000E+00
         0.00000E+00
         0.00000E+00
         0.00000E+00
         0.00000E+00
         0.00000E+00
         0.00000E+00
         0.00000E+00
         0.00000E+00
         0.00000E+00
         0.00000E+00
         0.00000E+00
         0.00000E+00
         0.00000E+00
         0.00000E+00
         0.00000E+00
         0.00000E+00
         0.00000E+00
         0.00000E+00
         0.00000E+00
         0.00000E+00
         0.00000E+00
         0.00000E+00
         0.00000E+00
         0.00000E+00
         0.00000E+00
         0.00000E+00
         0.00000E+00
         0.00000E+00
         0.00000E+00
         0.00000E+00
         0.00000E+00
         0.00000E+00
         0.00000E+00
         0.00000E+00
         0.00000E+00
         0.00000E+00
         0.00000E+00
         0.00000E+00
         0.00000E+00
         0.00000E+00
         0.00000E+00
         0.00000E+00
         0.00000E+00
         0.00000E+00
         0.00000E+00
         0.00000E+00
         0.00000E+00
         0.00000E+00
         0.00000E+00
         0.00000E+00
         0.00000E+00
         0.00000E+00
         0.00000E+00
         0.00000E+00
         0.00000E+00
         0.00000E+00
         0.00000E+00
         0.00000E+00
         0.00000E+00
         0.00000E+00
         0.00000E+00
         0.00000E+00
         0.00000E+00
         0.00000E+00
         0.00000E+00
         0.00000E+00
         0.00000E+00
         0.00000E+00
         0.00000E+00
         0.00000E+00
         0.00000E+00
         0.00000E+00
         0.00000E+00
         0.00000E+00
         0.00000E+00
         0.00000E+00
         0.00000E+00
         0.00000E+00
         0.00000E+00
         0.00000E+00
         0.00000E+00
         0.00000E+00
         0.00000E+00
         0.00000E+00
         0.00000E+00
         0.00000E+00
         0.00000E+00
         0.00000E+00
         0.00000E+00
         0.00000E+00
         0.00000E+00
         0.00000E+00
         0.00000E+00
         0.00000E+00
         0.00000E+00
         0.00000E+00
         0.00000E+00
         0.00000E+00
         0.00000E+00
         0.00000E+00
         0.00000E+00
         0.00000E+00
         0.00000E+00
         0.00000E+00
         0.00000E+00
         0.00000E+00
         0.00000E+00
         0.00000E+00
         0.00000E+00
         0.00000E+00
         0.00000E+00
         0.00000E+00
         0.00000E+00
         0.00000E+00
         0.00000E+00
         0.00000E+00
         0.00000E+00
         0.00000E+00
         0.00000E+00
         0.00000E+00
         0.00000E+00
         0.00000E+00
         0.00000E+00
         0.00000E+00
         0.00000E+00
         0.00000E+00
         0.00000E+00
         0.00000E+00
         0.00000E+00
         0.00000E+00
         0.00000E+00
         0.00000E+00
         0.00000E+00
         0.00000E+00
         0.00000E+00
         0.00000E+00
         0.00000E+00
         0.00000E+00
         0.00000E+00
         0.00000E+00
         0.00000E+00
         0.00000E+00
         0.00000E+00
         0.00000E+00
         0.00000E+00
         0.00000E+00
         0.00000E+00
         0.00000E+00
         0.00000E+00
         0.00000E+00
         0.00000E+00
         0.00000E+00
         0.00000E+00
         0.00000E+00
         0.00000E+00
         0.00000E+00
         0.00000E+00
         0.00000E+00
         0.00000E+00
         0.00000E+00
         0.00000E+00
         0.00000E+00
         0.00000E+00
         0.00000E+00
         0.00000E+00
         0.00000E+00
         0.00000E+00
         0.00000E+00
         0.00000E+00
         0.00000E+00
         0.00000E+00
         0.00000E+00
         0.00000E+00
         0.00000E+00
         0.00000E+00
         0.00000E+00
         0.00000E+00
         0.00000E+00
         0.00000E+00
         0.00000E+00
         0.00000E+00
         0.00000E+00
         0.00000E+00
         0.00000E+00
         0.00000E+00
         0.00000E+00
         0.00000E+00
         0.00000E+00
         0.00000E+00
         0.00000E+00
         0.00000E+00
         0.00000E+00
         0.00000E+00
         0.00000E+00
         0.00000E+00
         0.00000E+00
         0.00000E+00
         0.00000E+00
         0.00000E+00
         0.00000E+00
         0.00000E+00
         0.00000E+00
         0.00000E+00
         0.00000E+00
         0.00000E+00
         0.00000E+00
         0.00000E+00
         0.00000E+00
         0.00000E+00
         0.00000E+00
         0.00000E+00
         0.00000E+00
         0.00000E+00
         0.00000E+00
         0.00000E+00
         0.00000E+00
         0.00000E+00
         0.00000E+00
         0.00000E+00
         0.00000E+00
         0.00000E+00
         0.00000E+00
         0.00000E+00
         0.00000E+00
         0.00000E+00
         0.00000E+00
         0.00000E+00
         0.00000E+00
         0.00000E+00
         0.00000E+00
         0.00000E+00
         0.00000E+00
         0.00000E+00
         0.00000E+00
         0.00000E+00
         0.00000E+00
         0.00000E+00
         0.00000E+00
         0.00000E+00
         0.00000E+00
         0.00000E+00
         0.00000E+00
         0.00000E+00
         0.00000E+00
         0.00000E+00
         0.00000E+00
         0.00000E+00
         0.00000E+00
         0.00000E+00
         0.00000E+00
         0.00000E+00
         0.00000E+00
         0.00000E+00
         0.00000E+00
         0.00000E+00
         0.00000E+00
         0.00000E+00
         0.00000E+00
         0.00000E+00
         0.00000E+00
         0.00000E+00
         0.00000E+00
         0.00000E+00
         0.00000E+00
         0.00000E+00
         0.00000E+00
         0.00000E+00
         0.00000E+00
         0.00000E+00
         0.00000E+00
         0.00000E+00
         0.00000E+00
         0.00000E+00
         0.00000E+00
         0.00000E+00
         0.00000E+00
         0.00000E+00
         0.00000E+00
         0.00000E+00
         0.00000E+00
         0.00000E+00
         0.00000E+00
         0.00000E+00
         0.00000E+00
         0.00000E+00
         0.00000E+00
         0.00000E+00
         0.00000E+00
         0.00000E+00
         0.00000E+00
         0.00000E+00
         0.00000E+00
         0.00000E+00
         0.00000E+00
         0.00000E+00
         0.00000E+00
         0.00000E+00
         0.00000E+00
         0.00000E+00
         0.00000E+00
         0.00000E+00
         0.00000E+00
         0.00000E+00
         0.00000E+00
         0.00000E+00
         0.00000E+00
         0.00000E+00
         0.00000E+00
         0.00000E+00
         0.00000E+00
         0.00000E+00
         0.00000E+00
         0.00000E+00
         0.00000E+00
         0.00000E+00
         0.00000E+00
         0.00000E+00
         0.00000E+00
         0.00000E+00
         0.00000E+00
         0.00000E+00
         0.00000E+00
         0.00000E+00
         0.00000E+00
         0.00000E+00
         0.00000E+00
         0.00000E+00
         0.00000E+00
         0.00000E+00
         0.00000E+00
         0.00000E+00
         0.00000E+00
         0.00000E+00
         0.00000E+00
         0.00000E+00
         0.00000E+00
         0.00000E+00
         0.00000E+00
         0.00000E+00
         0.00000E+00
         0.00000E+00
         0.00000E+00
         0.00000E+00
         0.00000E+00
         0.00000E+00
         0.00000E+00
         0.00000E+00
         0.00000E+00
         0.00000E+00
         0.00000E+00
         0.00000E+00
         0.00000E+00
         0.00000E+00
         0.00000E+00
         0.00000E+00
         0.00000E+00
         0.00000E+00
         0.00000E+00
         0.00000E+00
         0.00000E+00
         0.00000E+00
         0.00000E+00
         0.00000E+00
         0.00000E+00
         0.00000E+00
         0.00000E+00
         0.00000E+00
         0.00000E+00
         0.00000E+00
         0.00000E+00
         0.00000E+00
         0.00000E+00
         0.00000E+00
         0.00000E+00
         0.00000E+00
         0.00000E+00
         0.00000E+00
         0.00000E+00
         0.00000E+00
         0.00000E+00
         0.00000E+00
         0.00000E+00
         0.00000E+00
         0.00000E+00
         0.00000E+00
         0.00000E+00
         0.00000E+00
         0.00000E+00
         0.00000E+00
         0.00000E+00
         0.00000E+00
         0.00000E+00
         0.00000E+00
         0.00000E+00
         0.00000E+00
         0.00000E+00
         0.00000E+00
         0.00000E+00
         0.00000E+00
         0.00000E+00
         0.00000E+00
         0.00000E+00
         0.00000E+00
         0.00000E+00
         0.00000E+00
         0.00000E+00
         0.00000E+00
         0.00000E+00
         0.00000E+00
         0.00000E+00
         0.00000E+00
         0.00000E+00
         0.00000E+00
         0.00000E+00
         0.00000E+00
         0.00000E+00
         0.00000E+00
         0.00000E+00
         0.00000E+00
         0.00000E+00
         0.00000E+00
         0.00000E+00
         0.00000E+00
         0.00000E+00
         0.00000E+00
         0.00000E+00
         0.00000E+00
         0.00000E+00
         0.00000E+00
         0.00000E+00
         0.00000E+00
         0.00000E+00
         0.00000E+00
         0.00000E+00
         0.00000E+00
         0.00000E+00
         0.00000E+00
         0.00000E+00
         0.00000E+00
         0.00000E+00
         0.00000E+00
         0.00000E+00
         0.00000E+00
         0.00000E+00
         0.00000E+00
         0.00000E+00
         0.00000E+00
         0.00000E+00
         0.00000E+00
         0.00000E+00
         0.00000E+00
         0.00000E+00
         0.00000E+00
         0.00000E+00
         0.00000E+00
         0.00000E+00
         0.00000E+00
         0.00000E+00
         0.00000E+00
         0.00000E+00
         0.00000E+00
         0.00000E+00
         0.00000E+00
         0.00000E+00
         0.00000E+00
         0.00000E+00
         0.00000E+00
         0.00000E+00
         0.00000E+00
         0.00000E+00
         0.00000E+00
         0.00000E+00
         0.00000E+00
         0.00000E+00
         0.00000E+00
         0.00000E+00
         0.00000E+00
         0.00000E+00
         0.00000E+00
         0.00000E+00
         0.00000E+00
         0.00000E+00
         0.00000E+00
         0.00000E+00
         0.00000E+00
         0.00000E+00
         0.00000E+00
         0.00000E+00
         0.00000E+00
         0.00000E+00
         0.00000E+00
         0.00000E+00
         0.00000E+00
         0.00000E+00
         0.00000E+00
         0.00000E+00
         0.00000E+00
         0.00000E+00
         0.00000E+00
         0.00000E+00
         0.00000E+00
         0.00000E+00
         0.00000E+00
         0.00000E+00
         0.00000E+00
         0.00000E+00
         0.00000E+00
         0.00000E+00
         0.00000E+00
         0.00000E+00
         0.00000E+00
         0.00000E+00
         0.00000E+00
         0.00000E+00
         0.00000E+00
         0.00000E+00
         0.00000E+00
         0.00000E+00
         0.00000E+00
         0.00000E+00
         0.00000E+00
         0.00000E+00
         0.00000E+00
         0.00000E+00
         0.00000E+00
         0.00000E+00
         0.00000E+00
         0.00000E+00
         0.00000E+00
         0.00000E+00
         0.00000E+00
         0.00000E+00
         0.00000E+00
         0.00000E+00
         0.00000E+00
         0.00000E+00
         0.00000E+00
         0.00000E+00
         0.00000E+00
         0.00000E+00
         0.00000E+00
         0.00000E+00
         0.00000E+00
         0.00000E+00
         0.00000E+00
         0.00000E+00
         0.00000E+00
         0.00000E+00
         0.00000E+00
         0.00000E+00
         0.00000E+00
         0.00000E+00
         0.00000E+00
         0.00000E+00
         0.00000E+00
         0.00000E+00
         0.00000E+00
         0.00000E+00
         0.00000E+00
         0.00000E+00
         0.00000E+00
         0.00000E+00
         0.00000E+00
         0.00000E+00
         0.00000E+00
         0.00000E+00
         0.00000E+00
         0.00000E+00
         0.00000E+00
         0.00000E+00
         0.00000E+00
         0.00000E+00
         0.00000E+00
         0.00000E+00
         0.00000E+00
         0.00000E+00
         0.00000E+00
         0.00000E+00
         0.00000E+00
         0.00000E+00
         0.00000E+00
         0.00000E+00
         0.00000E+00
         0.00000E+00
         0.00000E+00
         0.00000E+00
         0.00000E+00
         0.00000E+00
         0.00000E+00
         0.00000E+00
         0.00000E+00
         0.00000E+00
         0.00000E+00
         0.00000E+00
         0.00000E+00
         0.00000E+00
         0.00000E+00
         0.00000E+00
         0.00000E+00
         0.00000E+00
         0.00000E+00
         0.00000E+00
         0.00000E+00
         0.00000E+00
         0.00000E+00
         0.00000E+00
         0.00000E+00
         0.00000E+00
         0.00000E+00
         0.00000E+00
         0.00000E+00
         0.00000E+00
         0.00000E+00
         0.00000E+00
         0.00000E+00
         0.00000E+00
         0.00000E+00
         0.00000E+00
         0.00000E+00
         0.00000E+00
         0.00000E+00
         0.00000E+00
         0.00000E+00
         0.00000E+00
         0.00000E+00
         0.00000E+00
         0.00000E+00
         0.00000E+00
         0.00000E+00
         0.00000E+00
         0.00000E+00
         0.00000E+00
         0.00000E+00
         0.00000E+00
         0.00000E+00
         0.00000E+00
         0.00000E+00
         0.00000E+00
         0.00000E+00
         0.00000E+00
         0.00000E+00
         0.00000E+00
         0.00000E+00
         0.00000E+00
         0.00000E+00
         0.00000E+00
         0.00000E+00
         0.00000E+00
         0.00000E+00
         0.00000E+00
         0.00000E+00
         0.00000E+00
         0.00000E+00
         0.00000E+00
         0.00000E+00
         0.00000E+00
         0.00000E+00
         0.00000E+00
         0.00000E+00
         0.00000E+00
         0.00000E+00
         0.00000E+00
         0.00000E+00
         0.00000E+00
         0.00000E+00
         0.00000E+00
         0.00000E+00
         0.00000E+00
         0.00000E+00
         0.00000E+00
         0.00000E+00
         0.00000E+00
         0.00000E+00
         0.00000E+00
         0.00000E+00
         0.00000E+00
         0.00000E+00
         0.00000E+00
         0.00000E+00
         0.00000E+00
         0.00000E+00
         0.00000E+00
         0.00000E+00
         0.00000E+00
         0.00000E+00
         0.00000E+00
         0.00000E+00
         0.00000E+00
         0.00000E+00
         0.00000E+00
         0.00000E+00
         0.00000E+00
         0.00000E+00
         0.00000E+00
         0.00000E+00
         0.00000E+00
         0.00000E+00
         0.00000E+00
         0.00000E+00
         0.00000E+00
         0.00000E+00
         0.00000E+00
         0.00000E+00
         0.00000E+00
         0.00000E+00
         0.00000E+00
         0.00000E+00
         0.00000E+00
         0.00000E+00
         0.00000E+00
         0.00000E+00
         0.00000E+00
         0.00000E+00
         0.00000E+00
         0.00000E+00
         0.00000E+00
         0.00000E+00
         0.00000E+00
         0.00000E+00
         0.00000E+00
         0.00000E+00
         0.00000E+00
         0.00000E+00
         0.00000E+00
         0.00000E+00
         0.00000E+00
         0.00000E+00
         0.00000E+00
         0.00000E+00
         0.00000E+00
         0.00000E+00
         0.00000E+00
         0.00000E+00
         0.00000E+00
         0.00000E+00
         0.00000E+00
         0.00000E+00
         0.00000E+00
         0.00000E+00
         0.00000E+00
         0.00000E+00
         0.00000E+00
         0.00000E+00
         0.00000E+00
         0.00000E+00
         0.00000E+00
         0.00000E+00
         0.00000E+00
         0.00000E+00
         0.00000E+00
         0.00000E+00
         0.00000E+00
         0.00000E+00
         0.00000E+00
         0.00000E+00
         0.00000E+00
         0.00000E+00
         0.00000E+00
         0.00000E+00
         0.00000E+00
         0.00000E+00
         0.00000E+00
         0.00000E+00
         0.00000E+00
         0.00000E+00
         0.00000E+00
         0.00000E+00
         0.00000E+00
         0.00000E+00
         0.00000E+00
         0.00000E+00
         0.00000E+00
         0.00000E+00
         0.00000E+00
         0.00000E+00
         0.00000E+00
         0.00000E+00
         0.00000E+00
         0.00000E+00
         0.00000E+00
         0.00000E+00
         0.00000E+00
         0.00000E+00
         0.00000E+00
         0.00000E+00
         0.00000E+00
         0.00000E+00
         0.00000E+00
         0.00000E+00
         0.00000E+00
         0.00000E+00
         0.00000E+00
         0.00000E+00
         0.00000E+00
         0.00000E+00
         0.00000E+00
         0.00000E+00
         0.00000E+00
         0.00000E+00
         0.00000E+00
         0.00000E+00
         0.00000E+00
         0.00000E+00
         0.00000E+00
         0.00000E+00
         0.00000E+00
         0.00000E+00
         0.00000E+00
         0.00000E+00
         0.00000E+00
         0.00000E+00
         0.00000E+00
         0.00000E+00
         0.00000E+00
         0.00000E+00
         0.00000E+00
         0.00000E+00
         0.00000E+00
         0.00000E+00
         0.00000E+00
         0.00000E+00
         0.00000E+00
         0.00000E+00
         0.00000E+00
         0.00000E+00
         0.00000E+00
         0.00000E+00
         0.00000E+00
         0.00000E+00
         0.00000E+00
         0.00000E+00
         0.00000E+00
         0.00000E+00
         0.00000E+00
         0.00000E+00
         0.00000E+00
         0.00000E+00
         0.00000E+00
         0.00000E+00
         0.00000E+00
         0.00000E+00
         0.00000E+00
         0.00000E+00
         0.00000E+00
         0.00000E+00
         0.00000E+00
         0.00000E+00
         0.00000E+00
         0.00000E+00
         0.00000E+00
         0.00000E+00
         0.00000E+00
         0.00000E+00
         0.00000E+00
         0.00000E+00
         0.00000E+00
         0.00000E+00
         0.00000E+00
         0.00000E+00
         0.00000E+00
         0.00000E+00
         0.00000E+00
         0.00000E+00
         0.00000E+00
         0.00000E+00
         0.00000E+00
         0.00000E+00
         0.00000E+00
         0.00000E+00
         0.00000E+00
         0.00000E+00
         0.00000E+00
         0.00000E+00
         0.00000E+00
         0.00000E+00
         0.00000E+00
         0.00000E+00
         0.00000E+00
         0.00000E+00
         0.00000E+00
         0.00000E+00
         0.00000E+00
         0.00000E+00
         0.00000E+00
         0.00000E+00
         0.00000E+00
         0.00000E+00
         0.00000E+00
         0.00000E+00
         0.00000E+00
         0.00000E+00
         0.00000E+00
         0.00000E+00
         0.00000E+00
         0.00000E+00
         0.00000E+00
         0.00000E+00
         0.00000E+00
         0.00000E+00
         0.00000E+00
         0.00000E+00
         0.00000E+00
         0.00000E+00
         0.00000E+00
         0.00000E+00
         0.00000E+00
         0.00000E+00
         0.00000E+00
         0.00000E+00
         0.00000E+00
         0.00000E+00
         0.00000E+00
         0.00000E+00
         0.00000E+00
         0.00000E+00
         0.00000E+00
         0.00000E+00
         0.00000E+00
         0.00000E+00
         0.00000E+00
         0.00000E+00
         0.00000E+00
         0.00000E+00
         0.00000E+00
         0.00000E+00
         0.00000E+00
         0.00000E+00
         0.00000E+00
         0.00000E+00
         0.00000E+00
         0.00000E+00
         0.00000E+00
         0.00000E+00
         0.00000E+00
         0.00000E+00
         0.00000E+00
         0.00000E+00
         0.00000E+00
         0.00000E+00
         0.00000E+00
         0.00000E+00
         0.00000E+00
         0.00000E+00
         0.00000E+00
         0.00000E+00
         0.00000E+00
         0.00000E+00
         0.00000E+00
         0.00000E+00
         0.00000E+00
         0.00000E+00
         0.00000E+00
         0.00000E+00
         0.00000E+00
         0.00000E+00
         0.00000E+00
         0.00000E+00
         0.00000E+00
         0.00000E+00
         0.00000E+00
         0.00000E+00
         0.00000E+00
         0.00000E+00
         0.00000E+00
         0.00000E+00
         0.00000E+00
         0.00000E+00
         0.00000E+00
         0.00000E+00
         0.00000E+00
         0.00000E+00
         0.00000E+00
         0.00000E+00
         0.00000E+00
         0.00000E+00
         0.00000E+00
         0.00000E+00
         0.00000E+00
         0.00000E+00
         0.00000E+00
         0.00000E+00
         0.00000E+00
         0.00000E+00
         0.00000E+00
         0.00000E+00
         0.00000E+00
         0.00000E+00
         0.00000E+00
         0.00000E+00
         0.00000E+00
         0.00000E+00
         0.00000E+00
         0.00000E+00
         0.00000E+00
         0.00000E+00
         0.00000E+00
         0.00000E+00
         0.00000E+00
         0.00000E+00
         0.00000E+00
         0.00000E+00
         0.00000E+00
         0.00000E+00
         0.00000E+00
         0.00000E+00
         0.00000E+00
         0.00000E+00
         0.00000E+00
         0.00000E+00
         0.00000E+00
         0.00000E+00
         0.00000E+00
         0.00000E+00
         0.00000E+00
         0.00000E+00
         0.00000E+00
         0.00000E+00
         0.00000E+00
         0.00000E+00
         0.00000E+00
         0.00000E+00
         0.00000E+00
         0.00000E+00
         0.00000E+00
         0.00000E+00
         0.00000E+00
         0.00000E+00
         0.00000E+00
         0.00000E+00
         0.00000E+00
         0.00000E+00
         0.00000E+00
         0.00000E+00
         0.00000E+00
         0.00000E+00
         0.00000E+00
         0.00000E+00
         0.00000E+00
         0.00000E+00
         0.00000E+00
         0.00000E+00
         0.00000E+00
         0.00000E+00
         0.00000E+00
         0.00000E+00
         0.00000E+00
         0.00000E+00
         0.00000E+00
         0.00000E+00
         0.00000E+00
         0.00000E+00
         0.00000E+00
         0.00000E+00
         0.00000E+00
         0.00000E+00
         0.00000E+00
         0.00000E+00
         0.00000E+00
         0.00000E+00
         0.00000E+00
         0.00000E+00
         0.00000E+00
         0.00000E+00
         0.00000E+00
         0.00000E+00
         0.00000E+00
         0.00000E+00
         0.00000E+00
         0.00000E+00
         0.00000E+00
         0.00000E+00
         0.00000E+00
         0.00000E+00
         0.00000E+00
         0.00000E+00
         0.00000E+00
         0.00000E+00
         0.00000E+00
         0.00000E+00
         0.00000E+00
         0.00000E+00
         0.00000E+00
         0.00000E+00
         0.00000E+00
         0.00000E+00
         0.00000E+00
         0.00000E+00
         0.00000E+00
         0.00000E+00
         0.00000E+00
         0.00000E+00
         0.00000E+00
         0.00000E+00
         0.00000E+00
         0.00000E+00
         0.00000E+00
         0.00000E+00
         0.00000E+00
         0.00000E+00
         0.00000E+00
         0.00000E+00
         0.00000E+00
         0.00000E+00
         0.00000E+00
         0.00000E+00
         0.00000E+00
         0.00000E+00
         0.00000E+00
         0.00000E+00
         0.00000E+00
         0.00000E+00
         0.00000E+00
         0.00000E+00
         0.00000E+00
         0.00000E+00
         0.00000E+00
         0.00000E+00
         0.00000E+00
         0.00000E+00
         0.00000E+00
         0.00000E+00
         0.00000E+00
         0.00000E+00
         0.00000E+00
         0.00000E+00
         0.00000E+00
         0.00000E+00
         0.00000E+00
         0.00000E+00
         0.00000E+00
         0.00000E+00
         0.00000E+00
         0.00000E+00
         0.00000E+00
         0.00000E+00
         0.00000E+00
         0.00000E+00
         0.00000E+00
         0.00000E+00
         0.00000E+00
         0.00000E+00
         0.00000E+00
         0.00000E+00
         0.00000E+00
         0.00000E+00
         0.00000E+00
         0.00000E+00
         0.00000E+00
         0.00000E+00
         0.00000E+00
         0.00000E+00
         0.00000E+00
         0.00000E+00
         0.00000E+00
         0.00000E+00
         0.00000E+00
         0.00000E+00
         0.00000E+00
         0.00000E+00
         0.00000E+00
         0.00000E+00
         0.00000E+00
         0.00000E+00
         0.00000E+00
         0.00000E+00
         0.00000E+00
         0.00000E+00
         0.00000E+00
         0.00000E+00
         0.00000E+00
         0.00000E+00
         0.00000E+00
         0.00000E+00
         0.00000E+00
         0.00000E+00
         0.00000E+00
         0.00000E+00
         0.00000E+00
         0.00000E+00
         0.00000E+00
         0.00000E+00
         0.00000E+00
         0.00000E+00
         0.00000E+00
         0.00000E+00
         0.00000E+00
         0.00000E+00
         0.00000E+00
         0.00000E+00
         0.00000E+00
         0.00000E+00
         0.00000E+00
         0.00000E+00
         0.00000E+00
         0.00000E+00
         0.00000E+00
         0.00000E+00
         0.00000E+00
         0.00000E+00
         0.00000E+00
         0.00000E+00
         0.00000E+00
         0.00000E+00
         0.00000E+00
         0.00000E+00
         0.00000E+00
         0.00000E+00
         0.00000E+00
         0.00000E+00
  
SCALARS                 displacement_y  double 1
LOOKUP_TABLE default
         0.00000E+00
         0.00000E+00
         0.00000E+00
         0.00000E+00
         0.00000E+00
         0.00000E+00
         0.00000E+00
         0.00000E+00
         0.00000E+00
         0.00000E+00
         0.00000E+00
         0.00000E+00
         0.00000E+00
         0.00000E+00
         0.00000E+00
         0.00000E+00
         0.00000E+00
         0.00000E+00
         0.00000E+00
         0.00000E+00
         0.00000E+00
         0.00000E+00
         0.00000E+00
         0.00000E+00
         0.00000E+00
         0.00000E+00
         0.00000E+00
         0.00000E+00
         0.00000E+00
         0.00000E+00
         0.00000E+00
         0.00000E+00
         0.00000E+00
         0.00000E+00
         0.00000E+00
         0.00000E+00
         0.00000E+00
         0.00000E+00
         0.00000E+00
         0.00000E+00
         0.00000E+00
         0.00000E+00
         0.00000E+00
         0.00000E+00
         0.00000E+00
         0.00000E+00
         0.00000E+00
         0.00000E+00
         0.00000E+00
         0.00000E+00
         0.00000E+00
         0.00000E+00
         0.00000E+00
         0.00000E+00
         0.00000E+00
         0.00000E+00
         0.00000E+00
         0.00000E+00
         0.00000E+00
         0.00000E+00
         0.00000E+00
         0.00000E+00
         0.00000E+00
         0.00000E+00
         0.00000E+00
         0.00000E+00
         0.00000E+00
         0.00000E+00
         0.00000E+00
         0.00000E+00
         0.00000E+00
         0.00000E+00
         0.00000E+00
         0.00000E+00
         0.00000E+00
         0.00000E+00
         0.00000E+00
         0.00000E+00
         0.00000E+00
         0.00000E+00
         0.00000E+00
         0.00000E+00
         0.00000E+00
         0.00000E+00
         0.00000E+00
         0.00000E+00
         0.00000E+00
         0.00000E+00
         0.00000E+00
         0.00000E+00
         0.00000E+00
         0.00000E+00
         0.00000E+00
         0.00000E+00
         0.00000E+00
         0.00000E+00
         0.00000E+00
         0.00000E+00
         0.00000E+00
         0.00000E+00
         0.00000E+00
         0.00000E+00
         0.00000E+00
         0.00000E+00
         0.00000E+00
         0.00000E+00
         0.00000E+00
         0.00000E+00
         0.00000E+00
         0.00000E+00
         0.00000E+00
         0.00000E+00
         0.00000E+00
         0.00000E+00
         0.00000E+00
         0.00000E+00
         0.00000E+00
         0.00000E+00
         0.00000E+00
         0.00000E+00
         0.00000E+00
         0.00000E+00
         0.00000E+00
         0.00000E+00
         0.00000E+00
         0.00000E+00
         0.00000E+00
         0.00000E+00
         0.00000E+00
         0.00000E+00
         0.00000E+00
         0.00000E+00
         0.00000E+00
         0.00000E+00
         0.00000E+00
         0.00000E+00
         0.00000E+00
         0.00000E+00
         0.00000E+00
         0.00000E+00
         0.00000E+00
         0.00000E+00
         0.00000E+00
         0.00000E+00
         0.00000E+00
         0.00000E+00
         0.00000E+00
         0.00000E+00
         0.00000E+00
         0.00000E+00
         0.00000E+00
         0.00000E+00
         0.00000E+00
         0.00000E+00
         0.00000E+00
         0.00000E+00
         0.00000E+00
         0.00000E+00
         0.00000E+00
         0.00000E+00
         0.00000E+00
         0.00000E+00
         0.00000E+00
         0.00000E+00
         0.00000E+00
         0.00000E+00
         0.00000E+00
         0.00000E+00
         0.00000E+00
         0.00000E+00
         0.00000E+00
         0.00000E+00
         0.00000E+00
         0.00000E+00
         0.00000E+00
         0.00000E+00
         0.00000E+00
         0.00000E+00
         0.00000E+00
         0.00000E+00
         0.00000E+00
         0.00000E+00
         0.00000E+00
         0.00000E+00
         0.00000E+00
         0.00000E+00
         0.00000E+00
         0.00000E+00
         0.00000E+00
         0.00000E+00
         0.00000E+00
         0.00000E+00
         0.00000E+00
         0.00000E+00
         0.00000E+00
         0.00000E+00
         0.00000E+00
         0.00000E+00
         0.00000E+00
         0.00000E+00
         0.00000E+00
         0.00000E+00
         0.00000E+00
         0.00000E+00
         0.00000E+00
         0.00000E+00
         0.00000E+00
         0.00000E+00
         0.00000E+00
         0.00000E+00
         0.00000E+00
         0.00000E+00
         0.00000E+00
         0.00000E+00
         0.00000E+00
         0.00000E+00
         0.00000E+00
         0.00000E+00
         0.00000E+00
         0.00000E+00
         0.00000E+00
         0.00000E+00
         0.00000E+00
         0.00000E+00
         0.00000E+00
         0.00000E+00
         0.00000E+00
         0.00000E+00
         0.00000E+00
         0.00000E+00
         0.00000E+00
         0.00000E+00
         0.00000E+00
         0.00000E+00
         0.00000E+00
         0.00000E+00
         0.00000E+00
         0.00000E+00
         0.00000E+00
         0.00000E+00
         0.00000E+00
         0.00000E+00
         0.00000E+00
         0.00000E+00
         0.00000E+00
         0.00000E+00
         0.00000E+00
         0.00000E+00
         0.00000E+00
         0.00000E+00
         0.00000E+00
         0.00000E+00
         0.00000E+00
         0.00000E+00
         0.00000E+00
         0.00000E+00
         0.00000E+00
         0.00000E+00
         0.00000E+00
         0.00000E+00
         0.00000E+00
         0.00000E+00
         0.00000E+00
         0.00000E+00
         0.00000E+00
         0.00000E+00
         0.00000E+00
         0.00000E+00
         0.00000E+00
         0.00000E+00
         0.00000E+00
         0.00000E+00
         0.00000E+00
         0.00000E+00
         0.00000E+00
         0.00000E+00
         0.00000E+00
         0.00000E+00
         0.00000E+00
         0.00000E+00
         0.00000E+00
         0.00000E+00
         0.00000E+00
         0.00000E+00
         0.00000E+00
         0.00000E+00
         0.00000E+00
         0.00000E+00
         0.00000E+00
         0.00000E+00
         0.00000E+00
         0.00000E+00
         0.00000E+00
         0.00000E+00
         0.00000E+00
         0.00000E+00
         0.00000E+00
         0.00000E+00
         0.00000E+00
         0.00000E+00
         0.00000E+00
         0.00000E+00
         0.00000E+00
         0.00000E+00
         0.00000E+00
         0.00000E+00
         0.00000E+00
         0.00000E+00
         0.00000E+00
         0.00000E+00
         0.00000E+00
         0.00000E+00
         0.00000E+00
         0.00000E+00
         0.00000E+00
         0.00000E+00
         0.00000E+00
         0.00000E+00
         0.00000E+00
         0.00000E+00
         0.00000E+00
         0.00000E+00
         0.00000E+00
         0.00000E+00
         0.00000E+00
         0.00000E+00
         0.00000E+00
         0.00000E+00
         0.00000E+00
         0.00000E+00
         0.00000E+00
         0.00000E+00
         0.00000E+00
         0.00000E+00
         0.00000E+00
         0.00000E+00
         0.00000E+00
         0.00000E+00
         0.00000E+00
         0.00000E+00
         0.00000E+00
         0.00000E+00
         0.00000E+00
         0.00000E+00
         0.00000E+00
         0.00000E+00
         0.00000E+00
         0.00000E+00
         0.00000E+00
         0.00000E+00
         0.00000E+00
         0.00000E+00
         0.00000E+00
         0.00000E+00
         0.00000E+00
         0.00000E+00
         0.00000E+00
         0.00000E+00
         0.00000E+00
         0.00000E+00
         0.00000E+00
         0.00000E+00
         0.00000E+00
         0.00000E+00
         0.00000E+00
         0.00000E+00
         0.00000E+00
         0.00000E+00
         0.00000E+00
         0.00000E+00
         0.00000E+00
         0.00000E+00
         0.00000E+00
         0.00000E+00
         0.00000E+00
         0.00000E+00
         0.00000E+00
         0.00000E+00
         0.00000E+00
         0.00000E+00
         0.00000E+00
         0.00000E+00
         0.00000E+00
         0.00000E+00
         0.00000E+00
         0.00000E+00
         0.00000E+00
         0.00000E+00
         0.00000E+00
         0.00000E+00
         0.00000E+00
         0.00000E+00
         0.00000E+00
         0.00000E+00
         0.00000E+00
         0.00000E+00
         0.00000E+00
         0.00000E+00
         0.00000E+00
         0.00000E+00
         0.00000E+00
         0.00000E+00
         0.00000E+00
         0.00000E+00
         0.00000E+00
         0.00000E+00
         0.00000E+00
         0.00000E+00
         0.00000E+00
         0.00000E+00
         0.00000E+00
         0.00000E+00
         0.00000E+00
         0.00000E+00
         0.00000E+00
         0.00000E+00
         0.00000E+00
         0.00000E+00
         0.00000E+00
         0.00000E+00
         0.00000E+00
         0.00000E+00
         0.00000E+00
         0.00000E+00
         0.00000E+00
         0.00000E+00
         0.00000E+00
         0.00000E+00
         0.00000E+00
         0.00000E+00
         0.00000E+00
         0.00000E+00
         0.00000E+00
         0.00000E+00
         0.00000E+00
         0.00000E+00
         0.00000E+00
         0.00000E+00
         0.00000E+00
         0.00000E+00
         0.00000E+00
         0.00000E+00
         0.00000E+00
         0.00000E+00
         0.00000E+00
         0.00000E+00
         0.00000E+00
         0.00000E+00
         0.00000E+00
         0.00000E+00
         0.00000E+00
         0.00000E+00
         0.00000E+00
         0.00000E+00
         0.00000E+00
         0.00000E+00
         0.00000E+00
         0.00000E+00
         0.00000E+00
         0.00000E+00
         0.00000E+00
         0.00000E+00
         0.00000E+00
         0.00000E+00
         0.00000E+00
         0.00000E+00
         0.00000E+00
         0.00000E+00
         0.00000E+00
         0.00000E+00
         0.00000E+00
         0.00000E+00
         0.00000E+00
         0.00000E+00
         0.00000E+00
         0.00000E+00
         0.00000E+00
         0.00000E+00
         0.00000E+00
         0.00000E+00
         0.00000E+00
         0.00000E+00
         0.00000E+00
         0.00000E+00
         0.00000E+00
         0.00000E+00
         0.00000E+00
         0.00000E+00
         0.00000E+00
         0.00000E+00
         0.00000E+00
         0.00000E+00
         0.00000E+00
         0.00000E+00
         0.00000E+00
         0.00000E+00
         0.00000E+00
         0.00000E+00
         0.00000E+00
         0.00000E+00
         0.00000E+00
         0.00000E+00
         0.00000E+00
         0.00000E+00
         0.00000E+00
         0.00000E+00
         0.00000E+00
         0.00000E+00
         0.00000E+00
         0.00000E+00
         0.00000E+00
         0.00000E+00
         0.00000E+00
         0.00000E+00
         0.00000E+00
         0.00000E+00
         0.00000E+00
         0.00000E+00
         0.00000E+00
         0.00000E+00
         0.00000E+00
         0.00000E+00
         0.00000E+00
         0.00000E+00
         0.00000E+00
         0.00000E+00
         0.00000E+00
         0.00000E+00
         0.00000E+00
         0.00000E+00
         0.00000E+00
         0.00000E+00
         0.00000E+00
         0.00000E+00
         0.00000E+00
         0.00000E+00
         0.00000E+00
         0.00000E+00
         0.00000E+00
         0.00000E+00
         0.00000E+00
         0.00000E+00
         0.00000E+00
         0.00000E+00
         0.00000E+00
         0.00000E+00
         0.00000E+00
         0.00000E+00
         0.00000E+00
         0.00000E+00
         0.00000E+00
         0.00000E+00
         0.00000E+00
         0.00000E+00
         0.00000E+00
         0.00000E+00
         0.00000E+00
         0.00000E+00
         0.00000E+00
         0.00000E+00
         0.00000E+00
         0.00000E+00
         0.00000E+00
         0.00000E+00
         0.00000E+00
         0.00000E+00
         0.00000E+00
         0.00000E+00
         0.00000E+00
         0.00000E+00
         0.00000E+00
         0.00000E+00
         0.00000E+00
         0.00000E+00
         0.00000E+00
         0.00000E+00
         0.00000E+00
         0.00000E+00
         0.00000E+00
         0.00000E+00
         0.00000E+00
         0.00000E+00
         0.00000E+00
         0.00000E+00
         0.00000E+00
         0.00000E+00
         0.00000E+00
         0.00000E+00
         0.00000E+00
         0.00000E+00
         0.00000E+00
         0.00000E+00
         0.00000E+00
         0.00000E+00
         0.00000E+00
         0.00000E+00
         0.00000E+00
         0.00000E+00
         0.00000E+00
         0.00000E+00
         0.00000E+00
         0.00000E+00
         0.00000E+00
         0.00000E+00
         0.00000E+00
         0.00000E+00
         0.00000E+00
         0.00000E+00
         0.00000E+00
         0.00000E+00
         0.00000E+00
         0.00000E+00
         0.00000E+00
         0.00000E+00
         0.00000E+00
         0.00000E+00
         0.00000E+00
         0.00000E+00
         0.00000E+00
         0.00000E+00
         0.00000E+00
         0.00000E+00
         0.00000E+00
         0.00000E+00
         0.00000E+00
         0.00000E+00
         0.00000E+00
         0.00000E+00
         0.00000E+00
         0.00000E+00
         0.00000E+00
         0.00000E+00
         0.00000E+00
         0.00000E+00
         0.00000E+00
         0.00000E+00
         0.00000E+00
         0.00000E+00
         0.00000E+00
         0.00000E+00
         0.00000E+00
         0.00000E+00
         0.00000E+00
         0.00000E+00
         0.00000E+00
         0.00000E+00
         0.00000E+00
         0.00000E+00
         0.00000E+00
         0.00000E+00
         0.00000E+00
         0.00000E+00
         0.00000E+00
         0.00000E+00
         0.00000E+00
         0.00000E+00
         0.00000E+00
         0.00000E+00
         0.00000E+00
         0.00000E+00
         0.00000E+00
         0.00000E+00
         0.00000E+00
         0.00000E+00
         0.00000E+00
         0.00000E+00
         0.00000E+00
         0.00000E+00
         0.00000E+00
         0.00000E+00
         0.00000E+00
         0.00000E+00
         0.00000E+00
         0.00000E+00
         0.00000E+00
         0.00000E+00
         0.00000E+00
         0.00000E+00
         0.00000E+00
         0.00000E+00
         0.00000E+00
         0.00000E+00
         0.00000E+00
         0.00000E+00
         0.00000E+00
         0.00000E+00
         0.00000E+00
         0.00000E+00
         0.00000E+00
         0.00000E+00
         0.00000E+00
         0.00000E+00
         0.00000E+00
         0.00000E+00
         0.00000E+00
         0.00000E+00
         0.00000E+00
         0.00000E+00
         0.00000E+00
         0.00000E+00
         0.00000E+00
         0.00000E+00
         0.00000E+00
         0.00000E+00
         0.00000E+00
         0.00000E+00
         0.00000E+00
         0.00000E+00
         0.00000E+00
         0.00000E+00
         0.00000E+00
         0.00000E+00
         0.00000E+00
         0.00000E+00
         0.00000E+00
         0.00000E+00
         0.00000E+00
         0.00000E+00
         0.00000E+00
         0.00000E+00
         0.00000E+00
         0.00000E+00
         0.00000E+00
         0.00000E+00
         0.00000E+00
         0.00000E+00
         0.00000E+00
         0.00000E+00
         0.00000E+00
         0.00000E+00
         0.00000E+00
         0.00000E+00
         0.00000E+00
         0.00000E+00
         0.00000E+00
         0.00000E+00
         0.00000E+00
         0.00000E+00
         0.00000E+00
         0.00000E+00
         0.00000E+00
         0.00000E+00
         0.00000E+00
         0.00000E+00
         0.00000E+00
         0.00000E+00
         0.00000E+00
         0.00000E+00
         0.00000E+00
         0.00000E+00
         0.00000E+00
         0.00000E+00
         0.00000E+00
         0.00000E+00
         0.00000E+00
         0.00000E+00
         0.00000E+00
         0.00000E+00
         0.00000E+00
         0.00000E+00
         0.00000E+00
         0.00000E+00
         0.00000E+00
         0.00000E+00
         0.00000E+00
         0.00000E+00
         0.00000E+00
         0.00000E+00
         0.00000E+00
         0.00000E+00
         0.00000E+00
         0.00000E+00
         0.00000E+00
         0.00000E+00
         0.00000E+00
         0.00000E+00
         0.00000E+00
         0.00000E+00
         0.00000E+00
         0.00000E+00
         0.00000E+00
         0.00000E+00
         0.00000E+00
         0.00000E+00
         0.00000E+00
         0.00000E+00
         0.00000E+00
         0.00000E+00
         0.00000E+00
         0.00000E+00
         0.00000E+00
         0.00000E+00
         0.00000E+00
         0.00000E+00
         0.00000E+00
         0.00000E+00
         0.00000E+00
         0.00000E+00
         0.00000E+00
         0.00000E+00
         0.00000E+00
         0.00000E+00
         0.00000E+00
         0.00000E+00
         0.00000E+00
         0.00000E+00
         0.00000E+00
         0.00000E+00
         0.00000E+00
         0.00000E+00
         0.00000E+00
         0.00000E+00
         0.00000E+00
         0.00000E+00
         0.00000E+00
         0.00000E+00
         0.00000E+00
         0.00000E+00
         0.00000E+00
         0.00000E+00
         0.00000E+00
         0.00000E+00
         0.00000E+00
         0.00000E+00
         0.00000E+00
         0.00000E+00
         0.00000E+00
         0.00000E+00
         0.00000E+00
         0.00000E+00
         0.00000E+00
         0.00000E+00
         0.00000E+00
         0.00000E+00
         0.00000E+00
         0.00000E+00
         0.00000E+00
         0.00000E+00
         0.00000E+00
         0.00000E+00
         0.00000E+00
         0.00000E+00
         0.00000E+00
         0.00000E+00
         0.00000E+00
         0.00000E+00
         0.00000E+00
         0.00000E+00
         0.00000E+00
         0.00000E+00
         0.00000E+00
         0.00000E+00
         0.00000E+00
         0.00000E+00
         0.00000E+00
         0.00000E+00
         0.00000E+00
         0.00000E+00
         0.00000E+00
         0.00000E+00
         0.00000E+00
         0.00000E+00
         0.00000E+00
         0.00000E+00
         0.00000E+00
         0.00000E+00
         0.00000E+00
         0.00000E+00
         0.00000E+00
         0.00000E+00
         0.00000E+00
         0.00000E+00
         0.00000E+00
         0.00000E+00
         0.00000E+00
         0.00000E+00
         0.00000E+00
         0.00000E+00
         0.00000E+00
         0.00000E+00
         0.00000E+00
         0.00000E+00
         0.00000E+00
         0.00000E+00
         0.00000E+00
         0.00000E+00
         0.00000E+00
         0.00000E+00
         0.00000E+00
         0.00000E+00
         0.00000E+00
         0.00000E+00
         0.00000E+00
         0.00000E+00
         0.00000E+00
         0.00000E+00
         0.00000E+00
         0.00000E+00
         0.00000E+00
         0.00000E+00
         0.00000E+00
         0.00000E+00
         0.00000E+00
         0.00000E+00
         0.00000E+00
         0.00000E+00
         0.00000E+00
         0.00000E+00
         0.00000E+00
         0.00000E+00
         0.00000E+00
         0.00000E+00
         0.00000E+00
         0.00000E+00
         0.00000E+00
         0.00000E+00
         0.00000E+00
         0.00000E+00
         0.00000E+00
         0.00000E+00
         0.00000E+00
         0.00000E+00
         0.00000E+00
         0.00000E+00
         0.00000E+00
         0.00000E+00
         0.00000E+00
         0.00000E+00
         0.00000E+00
         0.00000E+00
         0.00000E+00
         0.00000E+00
         0.00000E+00
         0.00000E+00
         0.00000E+00
         0.00000E+00
         0.00000E+00
         0.00000E+00
         0.00000E+00
         0.00000E+00
         0.00000E+00
         0.00000E+00
         0.00000E+00
         0.00000E+00
         0.00000E+00
         0.00000E+00
         0.00000E+00
         0.00000E+00
         0.00000E+00
         0.00000E+00
         0.00000E+00
         0.00000E+00
         0.00000E+00
         0.00000E+00
         0.00000E+00
         0.00000E+00
         0.00000E+00
         0.00000E+00
         0.00000E+00
         0.00000E+00
         0.00000E+00
         0.00000E+00
         0.00000E+00
         0.00000E+00
         0.00000E+00
         0.00000E+00
         0.00000E+00
         0.00000E+00
         0.00000E+00
         0.00000E+00
         0.00000E+00
         0.00000E+00
         0.00000E+00
         0.00000E+00
         0.00000E+00
         0.00000E+00
         0.00000E+00
         0.00000E+00
         0.00000E+00
         0.00000E+00
         0.00000E+00
         0.00000E+00
         0.00000E+00
         0.00000E+00
         0.00000E+00
         0.00000E+00
         0.00000E+00
         0.00000E+00
         0.00000E+00
         0.00000E+00
         0.00000E+00
         0.00000E+00
         0.00000E+00
         0.00000E+00
         0.00000E+00
         0.00000E+00
         0.00000E+00
         0.00000E+00
         0.00000E+00
         0.00000E+00
         0.00000E+00
         0.00000E+00
         0.00000E+00
         0.00000E+00
         0.00000E+00
         0.00000E+00
         0.00000E+00
         0.00000E+00
         0.00000E+00
         0.00000E+00
         0.00000E+00
         0.00000E+00
         0.00000E+00
         0.00000E+00
         0.00000E+00
         0.00000E+00
         0.00000E+00
         0.00000E+00
         0.00000E+00
         0.00000E+00
         0.00000E+00
         0.00000E+00
         0.00000E+00
         0.00000E+00
         0.00000E+00
         0.00000E+00
         0.00000E+00
         0.00000E+00
         0.00000E+00
         0.00000E+00
         0.00000E+00
         0.00000E+00
         0.00000E+00
         0.00000E+00
         0.00000E+00
         0.00000E+00
         0.00000E+00
         0.00000E+00
         0.00000E+00
         0.00000E+00
         0.00000E+00
         0.00000E+00
         0.00000E+00
         0.00000E+00
         0.00000E+00
         0.00000E+00
         0.00000E+00
         0.00000E+00
         0.00000E+00
         0.00000E+00
         0.00000E+00
         0.00000E+00
         0.00000E+00
         0.00000E+00
         0.00000E+00
         0.00000E+00
         0.00000E+00
         0.00000E+00
         0.00000E+00
         0.00000E+00
         0.00000E+00
         0.00000E+00
         0.00000E+00
         0.00000E+00
         0.00000E+00
         0.00000E+00
         0.00000E+00
         0.00000E+00
         0.00000E+00
         0.00000E+00
         0.00000E+00
         0.00000E+00
         0.00000E+00
         0.00000E+00
         0.00000E+00
         0.00000E+00
         0.00000E+00
         0.00000E+00
         0.00000E+00
         0.00000E+00
         0.00000E+00
         0.00000E+00
         0.00000E+00
         0.00000E+00
         0.00000E+00
         0.00000E+00
         0.00000E+00
         0.00000E+00
         0.00000E+00
         0.00000E+00
         0.00000E+00
         0.00000E+00
         0.00000E+00
         0.00000E+00
         0.00000E+00
         0.00000E+00
         0.00000E+00
         0.00000E+00
         0.00000E+00
         0.00000E+00
         0.00000E+00
         0.00000E+00
         0.00000E+00
         0.00000E+00
         0.00000E+00
         0.00000E+00
         0.00000E+00
         0.00000E+00
         0.00000E+00
         0.00000E+00
         0.00000E+00
         0.00000E+00
         0.00000E+00
         0.00000E+00
         0.00000E+00
         0.00000E+00
         0.00000E+00
         0.00000E+00
         0.00000E+00
         0.00000E+00
         0.00000E+00
         0.00000E+00
         0.00000E+00
         0.00000E+00
         0.00000E+00
         0.00000E+00
         0.00000E+00
         0.00000E+00
         0.00000E+00
         0.00000E+00
         0.00000E+00
         0.00000E+00
         0.00000E+00
         0.00000E+00
         0.00000E+00
         0.00000E+00
         0.00000E+00
         0.00000E+00
         0.00000E+00
         0.00000E+00
         0.00000E+00
         0.00000E+00
         0.00000E+00
         0.00000E+00
         0.00000E+00
         0.00000E+00
         0.00000E+00
         0.00000E+00
         0.00000E+00
         0.00000E+00
         0.00000E+00
         0.00000E+00
         0.00000E+00
         0.00000E+00
         0.00000E+00
         0.00000E+00
         0.00000E+00
         0.00000E+00
         0.00000E+00
         0.00000E+00
         0.00000E+00
         0.00000E+00
         0.00000E+00
         0.00000E+00
         0.00000E+00
         0.00000E+00
         0.00000E+00
         0.00000E+00
         0.00000E+00
         0.00000E+00
         0.00000E+00
         0.00000E+00
         0.00000E+00
         0.00000E+00
         0.00000E+00
         0.00000E+00
         0.00000E+00
         0.00000E+00
         0.00000E+00
         0.00000E+00
         0.00000E+00
         0.00000E+00
         0.00000E+00
         0.00000E+00
         0.00000E+00
         0.00000E+00
         0.00000E+00
         0.00000E+00
         0.00000E+00
         0.00000E+00
         0.00000E+00
         0.00000E+00
         0.00000E+00
         0.00000E+00
         0.00000E+00
         0.00000E+00
         0.00000E+00
         0.00000E+00
         0.00000E+00
         0.00000E+00
         0.00000E+00
         0.00000E+00
         0.00000E+00
         0.00000E+00
         0.00000E+00
         0.00000E+00
         0.00000E+00
         0.00000E+00
         0.00000E+00
         0.00000E+00
         0.00000E+00
         0.00000E+00
         0.00000E+00
         0.00000E+00
         0.00000E+00
         0.00000E+00
         0.00000E+00
         0.00000E+00
         0.00000E+00
         0.00000E+00
         0.00000E+00
         0.00000E+00
         0.00000E+00
         0.00000E+00
         0.00000E+00
         0.00000E+00
         0.00000E+00
         0.00000E+00
         0.00000E+00
         0.00000E+00
         0.00000E+00
         0.00000E+00
         0.00000E+00
         0.00000E+00
         0.00000E+00
         0.00000E+00
         0.00000E+00
         0.00000E+00
         0.00000E+00
         0.00000E+00
         0.00000E+00
         0.00000E+00
         0.00000E+00
         0.00000E+00
         0.00000E+00
         0.00000E+00
         0.00000E+00
         0.00000E+00
         0.00000E+00
         0.00000E+00
         0.00000E+00
         0.00000E+00
         0.00000E+00
         0.00000E+00
         0.00000E+00
         0.00000E+00
         0.00000E+00
         0.00000E+00
         0.00000E+00
         0.00000E+00
         0.00000E+00
         0.00000E+00
         0.00000E+00
         0.00000E+00
         0.00000E+00
         0.00000E+00
         0.00000E+00
         0.00000E+00
         0.00000E+00
         0.00000E+00
         0.00000E+00
         0.00000E+00
         0.00000E+00
         0.00000E+00
         0.00000E+00
         0.00000E+00
         0.00000E+00
         0.00000E+00
         0.00000E+00
         0.00000E+00
         0.00000E+00
         0.00000E+00
         0.00000E+00
         0.00000E+00
         0.00000E+00
         0.00000E+00
         0.00000E+00
         0.00000E+00
         0.00000E+00
         0.00000E+00
         0.00000E+00
         0.00000E+00
         0.00000E+00
         0.00000E+00
         0.00000E+00
         0.00000E+00
         0.00000E+00
         0.00000E+00
         0.00000E+00
         0.00000E+00
         0.00000E+00
         0.00000E+00
         0.00000E+00
         0.00000E+00
         0.00000E+00
         0.00000E+00
         0.00000E+00
         0.00000E+00
         0.00000E+00
         0.00000E+00
         0.00000E+00
         0.00000E+00
         0.00000E+00
         0.00000E+00
         0.00000E+00
         0.00000E+00
         0.00000E+00
         0.00000E+00
         0.00000E+00
         0.00000E+00
         0.00000E+00
         0.00000E+00
         0.00000E+00
         0.00000E+00
         0.00000E+00
         0.00000E+00
         0.00000E+00
         0.00000E+00
         0.00000E+00
         0.00000E+00
         0.00000E+00
         0.00000E+00
         0.00000E+00
         0.00000E+00
         0.00000E+00
         0.00000E+00
         0.00000E+00
         0.00000E+00
         0.00000E+00
         0.00000E+00
         0.00000E+00
         0.00000E+00
         0.00000E+00
         0.00000E+00
         0.00000E+00
         0.00000E+00
         0.00000E+00
         0.00000E+00
         0.00000E+00
         0.00000E+00
         0.00000E+00
         0.00000E+00
         0.00000E+00
         0.00000E+00
         0.00000E+00
         0.00000E+00
         0.00000E+00
         0.00000E+00
         0.00000E+00
         0.00000E+00
         0.00000E+00
         0.00000E+00
         0.00000E+00
         0.00000E+00
         0.00000E+00
         0.00000E+00
         0.00000E+00
         0.00000E+00
         0.00000E+00
         0.00000E+00
         0.00000E+00
         0.00000E+00
         0.00000E+00
         0.00000E+00
         0.00000E+00
         0.00000E+00
         0.00000E+00
         0.00000E+00
         0.00000E+00
         0.00000E+00
         0.00000E+00
         0.00000E+00
         0.00000E+00
         0.00000E+00
         0.00000E+00
         0.00000E+00
         0.00000E+00
         0.00000E+00
         0.00000E+00
         0.00000E+00
         0.00000E+00
         0.00000E+00
         0.00000E+00
         0.00000E+00
         0.00000E+00
         0.00000E+00
         0.00000E+00
         0.00000E+00
         0.00000E+00
         0.00000E+00
         0.00000E+00
         0.00000E+00
         0.00000E+00
         0.00000E+00
         0.00000E+00
         0.00000E+00
         0.00000E+00
         0.00000E+00
         0.00000E+00
         0.00000E+00
         0.00000E+00
         0.00000E+00
         0.00000E+00
         0.00000E+00
         0.00000E+00
         0.00000E+00
         0.00000E+00
         0.00000E+00
         0.00000E+00
         0.00000E+00
         0.00000E+00
         0.00000E+00
         0.00000E+00
         0.00000E+00
         0.00000E+00
         0.00000E+00
         0.00000E+00
         0.00000E+00
         0.00000E+00
         0.00000E+00
         0.00000E+00
         0.00000E+00
         0.00000E+00
         0.00000E+00
         0.00000E+00
         0.00000E+00
         0.00000E+00
         0.00000E+00
         0.00000E+00
         0.00000E+00
         0.00000E+00
         0.00000E+00
         0.00000E+00
         0.00000E+00
         0.00000E+00
         0.00000E+00
         0.00000E+00
         0.00000E+00
         0.00000E+00
         0.00000E+00
         0.00000E+00
         0.00000E+00
         0.00000E+00
         0.00000E+00
         0.00000E+00
         0.00000E+00
         0.00000E+00
         0.00000E+00
         0.00000E+00
         0.00000E+00
         0.00000E+00
         0.00000E+00
         0.00000E+00
         0.00000E+00
         0.00000E+00
         0.00000E+00
         0.00000E+00
         0.00000E+00
         0.00000E+00
         0.00000E+00
         0.00000E+00
         0.00000E+00
         0.00000E+00
         0.00000E+00
         0.00000E+00
         0.00000E+00
         0.00000E+00
         0.00000E+00
         0.00000E+00
         0.00000E+00
         0.00000E+00
         0.00000E+00
         0.00000E+00
         0.00000E+00
         0.00000E+00
         0.00000E+00
         0.00000E+00
         0.00000E+00
         0.00000E+00
         0.00000E+00
         0.00000E+00
         0.00000E+00
         0.00000E+00
         0.00000E+00
         0.00000E+00
         0.00000E+00
         0.00000E+00
         0.00000E+00
         0.00000E+00
         0.00000E+00
         0.00000E+00
         0.00000E+00
         0.00000E+00
         0.00000E+00
         0.00000E+00
         0.00000E+00
         0.00000E+00
         0.00000E+00
         0.00000E+00
         0.00000E+00
         0.00000E+00
         0.00000E+00
         0.00000E+00
         0.00000E+00
         0.00000E+00
         0.00000E+00
         0.00000E+00
         0.00000E+00
         0.00000E+00
         0.00000E+00
         0.00000E+00
         0.00000E+00
         0.00000E+00
         0.00000E+00
         0.00000E+00
         0.00000E+00
         0.00000E+00
         0.00000E+00
         0.00000E+00
         0.00000E+00
         0.00000E+00
         0.00000E+00
         0.00000E+00
         0.00000E+00
         0.00000E+00
         0.00000E+00
         0.00000E+00
         0.00000E+00
         0.00000E+00
         0.00000E+00
         0.00000E+00
         0.00000E+00
         0.00000E+00
         0.00000E+00
         0.00000E+00
         0.00000E+00
         0.00000E+00
         0.00000E+00
         0.00000E+00
         0.00000E+00
         0.00000E+00
         0.00000E+00
         0.00000E+00
         0.00000E+00
         0.00000E+00
         0.00000E+00
         0.00000E+00
         0.00000E+00
         0.00000E+00
         0.00000E+00
         0.00000E+00
         0.00000E+00
         0.00000E+00
         0.00000E+00
         0.00000E+00
         0.00000E+00
         0.00000E+00
         0.00000E+00
         0.00000E+00
         0.00000E+00
         0.00000E+00
         0.00000E+00
         0.00000E+00
         0.00000E+00
         0.00000E+00
         0.00000E+00
         0.00000E+00
         0.00000E+00
         0.00000E+00
         0.00000E+00
         0.00000E+00
         0.00000E+00
         0.00000E+00
         0.00000E+00
         0.00000E+00
         0.00000E+00
         0.00000E+00
         0.00000E+00
         0.00000E+00
         0.00000E+00
         0.00000E+00
         0.00000E+00
         0.00000E+00
         0.00000E+00
         0.00000E+00
         0.00000E+00
         0.00000E+00
         0.00000E+00
         0.00000E+00
         0.00000E+00
         0.00000E+00
         0.00000E+00
         0.00000E+00
         0.00000E+00
         0.00000E+00
         0.00000E+00
         0.00000E+00
         0.00000E+00
         0.00000E+00
         0.00000E+00
         0.00000E+00
         0.00000E+00
         0.00000E+00
         0.00000E+00
         0.00000E+00
         0.00000E+00
         0.00000E+00
         0.00000E+00
         0.00000E+00
         0.00000E+00
         0.00000E+00
         0.00000E+00
         0.00000E+00
         0.00000E+00
         0.00000E+00
         0.00000E+00
         0.00000E+00
         0.00000E+00
         0.00000E+00
         0.00000E+00
         0.00000E+00
         0.00000E+00
         0.00000E+00
         0.00000E+00
         0.00000E+00
         0.00000E+00
         0.00000E+00
         0.00000E+00
         0.00000E+00
         0.00000E+00
         0.00000E+00
         0.00000E+00
         0.00000E+00
         0.00000E+00
         0.00000E+00
         0.00000E+00
         0.00000E+00
         0.00000E+00
         0.00000E+00
         0.00000E+00
         0.00000E+00
         0.00000E+00
         0.00000E+00
         0.00000E+00
         0.00000E+00
         0.00000E+00
         0.00000E+00
         0.00000E+00
         0.00000E+00
         0.00000E+00
         0.00000E+00
         0.00000E+00
         0.00000E+00
         0.00000E+00
         0.00000E+00
         0.00000E+00
         0.00000E+00
         0.00000E+00
         0.00000E+00
         0.00000E+00
         0.00000E+00
         0.00000E+00
         0.00000E+00
         0.00000E+00
         0.00000E+00
         0.00000E+00
         0.00000E+00
         0.00000E+00
         0.00000E+00
         0.00000E+00
         0.00000E+00
         0.00000E+00
         0.00000E+00
         0.00000E+00
         0.00000E+00
         0.00000E+00
         0.00000E+00
         0.00000E+00
         0.00000E+00
         0.00000E+00
         0.00000E+00
         0.00000E+00
         0.00000E+00
         0.00000E+00
         0.00000E+00
         0.00000E+00
         0.00000E+00
         0.00000E+00
         0.00000E+00
         0.00000E+00
         0.00000E+00
         0.00000E+00
         0.00000E+00
         0.00000E+00
         0.00000E+00
         0.00000E+00
         0.00000E+00
         0.00000E+00
         0.00000E+00
         0.00000E+00
         0.00000E+00
         0.00000E+00
         0.00000E+00
         0.00000E+00
         0.00000E+00
         0.00000E+00
         0.00000E+00
         0.00000E+00
         0.00000E+00
         0.00000E+00
         0.00000E+00
         0.00000E+00
         0.00000E+00
         0.00000E+00
         0.00000E+00
         0.00000E+00
         0.00000E+00
         0.00000E+00
         0.00000E+00
         0.00000E+00
         0.00000E+00
         0.00000E+00
         0.00000E+00
         0.00000E+00
         0.00000E+00
         0.00000E+00
         0.00000E+00
         0.00000E+00
         0.00000E+00
         0.00000E+00
         0.00000E+00
         0.00000E+00
         0.00000E+00
         0.00000E+00
         0.00000E+00
         0.00000E+00
         0.00000E+00
         0.00000E+00
         0.00000E+00
         0.00000E+00
         0.00000E+00
         0.00000E+00
         0.00000E+00
         0.00000E+00
         0.00000E+00
         0.00000E+00
         0.00000E+00
         0.00000E+00
         0.00000E+00
         0.00000E+00
         0.00000E+00
         0.00000E+00
         0.00000E+00
         0.00000E+00
         0.00000E+00
         0.00000E+00
         0.00000E+00
         0.00000E+00
         0.00000E+00
         0.00000E+00
         0.00000E+00
         0.00000E+00
         0.00000E+00
         0.00000E+00
         0.00000E+00
         0.00000E+00
         0.00000E+00
         0.00000E+00
         0.00000E+00
         0.00000E+00
         0.00000E+00
         0.00000E+00
         0.00000E+00
         0.00000E+00
         0.00000E+00
         0.00000E+00
         0.00000E+00
         0.00000E+00
         0.00000E+00
         0.00000E+00
         0.00000E+00
         0.00000E+00
         0.00000E+00
         0.00000E+00
         0.00000E+00
         0.00000E+00
         0.00000E+00
         0.00000E+00
         0.00000E+00
         0.00000E+00
         0.00000E+00
         0.00000E+00
         0.00000E+00
         0.00000E+00
         0.00000E+00
         0.00000E+00
         0.00000E+00
         0.00000E+00
         0.00000E+00
         0.00000E+00
         0.00000E+00
         0.00000E+00
         0.00000E+00
         0.00000E+00
         0.00000E+00
         0.00000E+00
         0.00000E+00
         0.00000E+00
         0.00000E+00
         0.00000E+00
         0.00000E+00
         0.00000E+00
         0.00000E+00
         0.00000E+00
         0.00000E+00
         0.00000E+00
         0.00000E+00
         0.00000E+00
         0.00000E+00
         0.00000E+00
         0.00000E+00
         0.00000E+00
         0.00000E+00
         0.00000E+00
         0.00000E+00
         0.00000E+00
         0.00000E+00
         0.00000E+00
         0.00000E+00
         0.00000E+00
         0.00000E+00
         0.00000E+00
         0.00000E+00
         0.00000E+00
         0.00000E+00
         0.00000E+00
         0.00000E+00
         0.00000E+00
         0.00000E+00
         0.00000E+00
         0.00000E+00
         0.00000E+00
         0.00000E+00
         0.00000E+00
         0.00000E+00
         0.00000E+00
         0.00000E+00
         0.00000E+00
         0.00000E+00
         0.00000E+00
         0.00000E+00
         0.00000E+00
         0.00000E+00
         0.00000E+00
         0.00000E+00
         0.00000E+00
         0.00000E+00
         0.00000E+00
         0.00000E+00
         0.00000E+00
         0.00000E+00
         0.00000E+00
         0.00000E+00
         0.00000E+00
         0.00000E+00
         0.00000E+00
         0.00000E+00
         0.00000E+00
         0.00000E+00
         0.00000E+00
         0.00000E+00
         0.00000E+00
         0.00000E+00
         0.00000E+00
         0.00000E+00
         0.00000E+00
         0.00000E+00
         0.00000E+00
         0.00000E+00
         0.00000E+00
         0.00000E+00
         0.00000E+00
         0.00000E+00
         0.00000E+00
         0.00000E+00
         0.00000E+00
         0.00000E+00
         0.00000E+00
         0.00000E+00
         0.00000E+00
         0.00000E+00
         0.00000E+00
         0.00000E+00
         0.00000E+00
         0.00000E+00
         0.00000E+00
         0.00000E+00
         0.00000E+00
         0.00000E+00
         0.00000E+00
         0.00000E+00
         0.00000E+00
         0.00000E+00
         0.00000E+00
         0.00000E+00
         0.00000E+00
         0.00000E+00
         0.00000E+00
         0.00000E+00
         0.00000E+00
         0.00000E+00
         0.00000E+00
         0.00000E+00
         0.00000E+00
         0.00000E+00
         0.00000E+00
         0.00000E+00
         0.00000E+00
         0.00000E+00
         0.00000E+00
         0.00000E+00
         0.00000E+00
         0.00000E+00
         0.00000E+00
         0.00000E+00
         0.00000E+00
         0.00000E+00
         0.00000E+00
         0.00000E+00
         0.00000E+00
         0.00000E+00
         0.00000E+00
         0.00000E+00
         0.00000E+00
         0.00000E+00
         0.00000E+00
         0.00000E+00
         0.00000E+00
         0.00000E+00
         0.00000E+00
  
SCALARS                 displacement_z  double 1
LOOKUP_TABLE default
        -0.81225E-02
        -0.81096E-02
        -0.81077E-02
        -0.81316E-02
        -0.49915E-16
        -0.55971E-16
        -0.53594E-16
        -0.48689E-16
        -0.80834E-02
        -0.81121E-02
        -0.50332E-16
        -0.48710E-16
        -0.80956E-02
        -0.81139E-02
        -0.59804E-16
        -0.56231E-16
        -0.81236E-02
        -0.81271E-02
        -0.44191E-16
        -0.49012E-16
        -0.80858E-02
        -0.80747E-02
        -0.80801E-02
        -0.59272E-16
        -0.51763E-16
        -0.53452E-16
        -0.81084E-02
        -0.81011E-02
        -0.56862E-16
        -0.47954E-16
        -0.81339E-02
        -0.81402E-02
        -0.81295E-02
        -0.48526E-16
        -0.45113E-16
        -0.43862E-16
        -0.81081E-02
        -0.81343E-02
        -0.51338E-16
        -0.46846E-16
        -0.81005E-02
        -0.81226E-02
        -0.44370E-16
        -0.39281E-16
        -0.80801E-02
        -0.80905E-02
        -0.48624E-16
        -0.54330E-16
        -0.81420E-02
        -0.47501E-16
        -0.81048E-02
        -0.55816E-16
        -0.81323E-02
        -0.50160E-16
        -0.81403E-02
        -0.48115E-16
        -0.81184E-02
        -0.81358E-02
        -0.49024E-16
        -0.47745E-16
        -0.81280E-02
        -0.81046E-02
        -0.49160E-16
        -0.55575E-16
        -0.81266E-02
        -0.47437E-16
        -0.81169E-02
        -0.51772E-16
        -0.80472E-02
        -0.80754E-02
        -0.49834E-16
        -0.52217E-16
        -0.80859E-02
        -0.52655E-16
        -0.81161E-02
        -0.41601E-16
        -0.81133E-02
        -0.40380E-16
        -0.80868E-02
        -0.42577E-16
        -0.80566E-02
        -0.80944E-02
        -0.40566E-16
        -0.42293E-16
        -0.81252E-02
        -0.39390E-16
        -0.80827E-02
        -0.51654E-16
        -0.80717E-02
        -0.52867E-16
        -0.80442E-02
        -0.80816E-02
        -0.50770E-16
        -0.51362E-16
        -0.81070E-02
        -0.46652E-16
        -0.81034E-02
        -0.45987E-16
        -0.80831E-02
        -0.49230E-16
        -0.80540E-02
        -0.80880E-02
        -0.48277E-16
        -0.49694E-16
        -0.79698E-02
        -0.79832E-02
        -0.37481E-16
        -0.35254E-16
        -0.79817E-02
        -0.35790E-16
        -0.79719E-02
        -0.34317E-16
        -0.79728E-02
        -0.33839E-16
        -0.79715E-02
        -0.31978E-16
        -0.79793E-02
        -0.28409E-16
        -0.79826E-02
        -0.25581E-16
        -0.79806E-02
        -0.25403E-16
        -0.79790E-02
        -0.27548E-16
        -0.79672E-02
        -0.28952E-16
        -0.79823E-02
        -0.26436E-16
        -0.79877E-02
        -0.23830E-16
        -0.79863E-02
        -0.23803E-16
        -0.79802E-02
        -0.26605E-16
        -0.79743E-02
        -0.30336E-16
        -0.79711E-02
        -0.32590E-16
        -0.79805E-02
        -0.35197E-16
        -0.79715E-02
        -0.37708E-16
        -0.79851E-02
        -0.34544E-16
        -0.79805E-02
        -0.30304E-16
        -0.79760E-02
        -0.30210E-16
        -0.79837E-02
        -0.33053E-16
        -0.79729E-02
        -0.35238E-16
        -0.79838E-02
        -0.33441E-16
        -0.79840E-02
        -0.32329E-16
        -0.11449E-01
        -0.11446E-01
        -0.11446E-01
        -0.11449E-01
        -0.11442E-01
        -0.11447E-01
        -0.11444E-01
        -0.11447E-01
        -0.11449E-01
        -0.11449E-01
        -0.11443E-01
        -0.11441E-01
        -0.11442E-01
        -0.11446E-01
        -0.11445E-01
        -0.11450E-01
        -0.11451E-01
        -0.11450E-01
        -0.11446E-01
        -0.11450E-01
        -0.11445E-01
        -0.11449E-01
        -0.11442E-01
        -0.11444E-01
        -0.11451E-01
        -0.11445E-01
        -0.11450E-01
        -0.11451E-01
        -0.11447E-01
        -0.11450E-01
        -0.11449E-01
        -0.11445E-01
        -0.11449E-01
        -0.11447E-01
        -0.11437E-01
        -0.11441E-01
        -0.11442E-01
        -0.11448E-01
        -0.11447E-01
        -0.11443E-01
        -0.11439E-01
        -0.11444E-01
        -0.11449E-01
        -0.11442E-01
        -0.11440E-01
        -0.11437E-01
        -0.11442E-01
        -0.11446E-01
        -0.11445E-01
        -0.11442E-01
        -0.11438E-01
        -0.11443E-01
        -0.11429E-01
        -0.11431E-01
        -0.11431E-01
        -0.11430E-01
        -0.11430E-01
        -0.11430E-01
        -0.11431E-01
        -0.11431E-01
        -0.11431E-01
        -0.11430E-01
        -0.11428E-01
        -0.11431E-01
        -0.11432E-01
        -0.11432E-01
        -0.11431E-01
        -0.11430E-01
        -0.11430E-01
        -0.11431E-01
        -0.11429E-01
        -0.11432E-01
        -0.11432E-01
        -0.11431E-01
        -0.11431E-01
        -0.11430E-01
        -0.11431E-01
        -0.11432E-01
        -0.11721E-01
        -0.11721E-01
        -0.11721E-01
        -0.11721E-01
        -0.11721E-01
        -0.11721E-01
        -0.11721E-01
        -0.11721E-01
        -0.11721E-01
        -0.11721E-01
        -0.11721E-01
        -0.11721E-01
        -0.11721E-01
        -0.11721E-01
        -0.11721E-01
        -0.11721E-01
        -0.11721E-01
        -0.11721E-01
        -0.11721E-01
        -0.11721E-01
        -0.11721E-01
        -0.11721E-01
        -0.11721E-01
        -0.11721E-01
        -0.11721E-01
        -0.11721E-01
        -0.11721E-01
        -0.11721E-01
        -0.11721E-01
        -0.11721E-01
        -0.11721E-01
        -0.11721E-01
        -0.11721E-01
        -0.11721E-01
        -0.11721E-01
        -0.11721E-01
        -0.11721E-01
        -0.11721E-01
        -0.11721E-01
        -0.11721E-01
        -0.11721E-01
        -0.11721E-01
        -0.11721E-01
        -0.11721E-01
        -0.11721E-01
        -0.11721E-01
        -0.11721E-01
        -0.11721E-01
        -0.11721E-01
        -0.11721E-01
        -0.11721E-01
        -0.11721E-01
        -0.11721E-01
        -0.11721E-01
        -0.11721E-01
        -0.11721E-01
        -0.11721E-01
        -0.11721E-01
        -0.11721E-01
        -0.11721E-01
        -0.11721E-01
        -0.11721E-01
        -0.11721E-01
        -0.11721E-01
        -0.11721E-01
        -0.11721E-01
        -0.11721E-01
        -0.11721E-01
        -0.11721E-01
        -0.11721E-01
        -0.11721E-01
        -0.11721E-01
        -0.11721E-01
        -0.11721E-01
        -0.11721E-01
        -0.11721E-01
        -0.11721E-01
        -0.11721E-01
        -0.11721E-01
        -0.11721E-01
        -0.11721E-01
        -0.11721E-01
        -0.11721E-01
        -0.11721E-01
        -0.11721E-01
        -0.11721E-01
        -0.11721E-01
        -0.11721E-01
        -0.11721E-01
        -0.11721E-01
        -0.11721E-01
        -0.11721E-01
        -0.11721E-01
        -0.11721E-01
        -0.11721E-01
        -0.11721E-01
        -0.11721E-01
        -0.11721E-01
        -0.11721E-01
        -0.11721E-01
        -0.11721E-01
        -0.11721E-01
        -0.11721E-01
        -0.11721E-01
        -0.11721E-01
        -0.11721E-01
        -0.11721E-01
        -0.11721E-01
        -0.11721E-01
        -0.11721E-01
        -0.11721E-01
        -0.11721E-01
        -0.11721E-01
        -0.11721E-01
        -0.11721E-01
        -0.11721E-01
        -0.11721E-01
        -0.11721E-01
        -0.11721E-01
        -0.11721E-01
        -0.11721E-01
        -0.11721E-01
        -0.11721E-01
        -0.11721E-01
        -0.11721E-01
        -0.11721E-01
        -0.11721E-01
        -0.11721E-01
        -0.11721E-01
        -0.11721E-01
        -0.11721E-01
        -0.11721E-01
        -0.11721E-01
        -0.11721E-01
        -0.11721E-01
        -0.11721E-01
        -0.11721E-01
        -0.11721E-01
        -0.11721E-01
        -0.11721E-01
        -0.11721E-01
        -0.11721E-01
        -0.11721E-01
        -0.11721E-01
        -0.11721E-01
        -0.11721E-01
        -0.11721E-01
        -0.11721E-01
        -0.11721E-01
        -0.11721E-01
        -0.11721E-01
        -0.11721E-01
        -0.11721E-01
        -0.11721E-01
        -0.11721E-01
        -0.11721E-01
        -0.11721E-01
        -0.11721E-01
        -0.11721E-01
        -0.11721E-01
        -0.11721E-01
        -0.11721E-01
        -0.11721E-01
        -0.11721E-01
        -0.11721E-01
        -0.11721E-01
        -0.11721E-01
        -0.11721E-01
        -0.11721E-01
        -0.11721E-01
        -0.11721E-01
        -0.11721E-01
        -0.11721E-01
        -0.11721E-01
        -0.11721E-01
        -0.11721E-01
        -0.11721E-01
        -0.11721E-01
        -0.11721E-01
        -0.11721E-01
        -0.11721E-01
        -0.11721E-01
        -0.11721E-01
        -0.11721E-01
        -0.11721E-01
        -0.11721E-01
        -0.11721E-01
        -0.11721E-01
        -0.11721E-01
        -0.11721E-01
        -0.11721E-01
        -0.11721E-01
        -0.11721E-01
        -0.11721E-01
        -0.11721E-01
        -0.11721E-01
        -0.11721E-01
        -0.11721E-01
        -0.11721E-01
        -0.11721E-01
        -0.11721E-01
        -0.11721E-01
        -0.11721E-01
        -0.11721E-01
        -0.11721E-01
        -0.11721E-01
        -0.11721E-01
        -0.11721E-01
        -0.11721E-01
        -0.11721E-01
        -0.11721E-01
        -0.11721E-01
        -0.11721E-01
        -0.11721E-01
        -0.11721E-01
        -0.11721E-01
        -0.11721E-01
        -0.11721E-01
        -0.11721E-01
        -0.11721E-01
        -0.11721E-01
        -0.11721E-01
        -0.11721E-01
        -0.11721E-01
        -0.11721E-01
        -0.11721E-01
        -0.11721E-01
        -0.11721E-01
        -0.11721E-01
        -0.11721E-01
        -0.11721E-01
        -0.11721E-01
        -0.11721E-01
        -0.11721E-01
        -0.11721E-01
        -0.11721E-01
        -0.11721E-01
        -0.11721E-01
        -0.11721E-01
        -0.11721E-01
        -0.11721E-01
        -0.11721E-01
        -0.11721E-01
        -0.11721E-01
        -0.11721E-01
        -0.11721E-01
        -0.11721E-01
        -0.11721E-01
        -0.11721E-01
        -0.11721E-01
        -0.11721E-01
        -0.11721E-01
        -0.11721E-01
        -0.11721E-01
        -0.11721E-01
        -0.11721E-01
        -0.11721E-01
        -0.11721E-01
        -0.11721E-01
        -0.11721E-01
        -0.11721E-01
        -0.11721E-01
        -0.11721E-01
        -0.11721E-01
        -0.11721E-01
        -0.11721E-01
        -0.11721E-01
        -0.11721E-01
        -0.11721E-01
        -0.11721E-01
        -0.11721E-01
        -0.11721E-01
        -0.11721E-01
        -0.11721E-01
        -0.11721E-01
        -0.11721E-01
        -0.11721E-01
        -0.11721E-01
        -0.11721E-01
        -0.11721E-01
        -0.11721E-01
        -0.11721E-01
        -0.11721E-01
        -0.11721E-01
        -0.11721E-01
        -0.11721E-01
        -0.11721E-01
        -0.11721E-01
        -0.11721E-01
        -0.11721E-01
        -0.11721E-01
        -0.11721E-01
        -0.11721E-01
        -0.11721E-01
        -0.11721E-01
        -0.11721E-01
        -0.11721E-01
        -0.11721E-01
        -0.11721E-01
        -0.11721E-01
        -0.11721E-01
        -0.11721E-01
        -0.11721E-01
        -0.11721E-01
        -0.11721E-01
        -0.11721E-01
        -0.11721E-01
        -0.11721E-01
        -0.11721E-01
        -0.11721E-01
        -0.11721E-01
        -0.11721E-01
        -0.11721E-01
        -0.11721E-01
        -0.11721E-01
        -0.11721E-01
        -0.11721E-01
        -0.11721E-01
        -0.11721E-01
        -0.11721E-01
        -0.11721E-01
        -0.11721E-01
        -0.11721E-01
        -0.11721E-01
        -0.11721E-01
        -0.11721E-01
        -0.11721E-01
        -0.11721E-01
        -0.11721E-01
        -0.11721E-01
        -0.11721E-01
        -0.11721E-01
        -0.11721E-01
        -0.11721E-01
        -0.11721E-01
        -0.11721E-01
        -0.11721E-01
        -0.11721E-01
        -0.11721E-01
        -0.11721E-01
        -0.11721E-01
        -0.11721E-01
        -0.11721E-01
        -0.11721E-01
        -0.11721E-01
        -0.11721E-01
        -0.11721E-01
        -0.11721E-01
        -0.11721E-01
        -0.11721E-01
        -0.11721E-01
        -0.11721E-01
        -0.11721E-01
        -0.11721E-01
        -0.11721E-01
        -0.11721E-01
        -0.11721E-01
        -0.11721E-01
        -0.11721E-01
        -0.11721E-01
        -0.11721E-01
        -0.11721E-01
        -0.11721E-01
        -0.11721E-01
        -0.11721E-01
        -0.11721E-01
        -0.11721E-01
        -0.11721E-01
        -0.11721E-01
        -0.11721E-01
        -0.11721E-01
        -0.11721E-01
        -0.11721E-01
        -0.11721E-01
        -0.11721E-01
        -0.11721E-01
        -0.11721E-01
        -0.11721E-01
        -0.11721E-01
        -0.11721E-01
        -0.11721E-01
        -0.11721E-01
        -0.11721E-01
        -0.11721E-01
        -0.11721E-01
        -0.11721E-01
        -0.11721E-01
        -0.11721E-01
        -0.11721E-01
        -0.11721E-01
        -0.11721E-01
        -0.11721E-01
        -0.11721E-01
        -0.11721E-01
        -0.11721E-01
        -0.11721E-01
        -0.11721E-01
        -0.11721E-01
        -0.11721E-01
        -0.11721E-01
        -0.11721E-01
        -0.11721E-01
        -0.11721E-01
        -0.11721E-01
        -0.11721E-01
        -0.11721E-01
        -0.11721E-01
        -0.11721E-01
        -0.11721E-01
        -0.11721E-01
        -0.11721E-01
        -0.11721E-01
        -0.11721E-01
        -0.11721E-01
        -0.11721E-01
        -0.11721E-01
        -0.11721E-01
        -0.11721E-01
        -0.11721E-01
        -0.11721E-01
        -0.11721E-01
        -0.11721E-01
        -0.11721E-01
        -0.11721E-01
        -0.11721E-01
        -0.11721E-01
        -0.11721E-01
        -0.11721E-01
        -0.11721E-01
        -0.11721E-01
        -0.11721E-01
        -0.11721E-01
        -0.11721E-01
        -0.11721E-01
        -0.11721E-01
        -0.11721E-01
        -0.11721E-01
        -0.11721E-01
        -0.11721E-01
        -0.11721E-01
        -0.11721E-01
        -0.11721E-01
        -0.11721E-01
        -0.11721E-01
        -0.11721E-01
        -0.11721E-01
        -0.11721E-01
        -0.11721E-01
        -0.11721E-01
        -0.11721E-01
        -0.11721E-01
        -0.11721E-01
        -0.11721E-01
        -0.11721E-01
        -0.11721E-01
        -0.11721E-01
        -0.11721E-01
        -0.11721E-01
        -0.11721E-01
        -0.11721E-01
        -0.11721E-01
        -0.11721E-01
        -0.11721E-01
        -0.11721E-01
        -0.11721E-01
        -0.11721E-01
        -0.11721E-01
        -0.11721E-01
        -0.11721E-01
        -0.11721E-01
        -0.11721E-01
        -0.11721E-01
        -0.11721E-01
        -0.11721E-01
        -0.11721E-01
        -0.11721E-01
        -0.11721E-01
        -0.11721E-01
        -0.11721E-01
        -0.11721E-01
        -0.11721E-01
        -0.11721E-01
        -0.11721E-01
        -0.11721E-01
        -0.11721E-01
        -0.11721E-01
        -0.11721E-01
        -0.11721E-01
        -0.11721E-01
        -0.11721E-01
        -0.11721E-01
        -0.11721E-01
        -0.11721E-01
        -0.11721E-01
        -0.11721E-01
        -0.11721E-01
        -0.11721E-01
        -0.11721E-01
        -0.11721E-01
        -0.11721E-01
        -0.11721E-01
        -0.11721E-01
        -0.11721E-01
        -0.11721E-01
        -0.11721E-01
        -0.11721E-01
        -0.11721E-01
        -0.11721E-01
        -0.11721E-01
        -0.11721E-01
        -0.11721E-01
        -0.11721E-01
        -0.11721E-01
        -0.11721E-01
        -0.11721E-01
        -0.11721E-01
        -0.11721E-01
        -0.11721E-01
        -0.11721E-01
        -0.11721E-01
        -0.11721E-01
        -0.11721E-01
        -0.11721E-01
        -0.11721E-01
        -0.11721E-01
        -0.11721E-01
        -0.11721E-01
        -0.11721E-01
        -0.11721E-01
        -0.11721E-01
        -0.11721E-01
        -0.11721E-01
        -0.11721E-01
        -0.11721E-01
        -0.11721E-01
        -0.11721E-01
        -0.11721E-01
        -0.11721E-01
        -0.11721E-01
        -0.11721E-01
        -0.11721E-01
        -0.11721E-01
        -0.11721E-01
        -0.11721E-01
        -0.11721E-01
        -0.11721E-01
        -0.11721E-01
        -0.11721E-01
        -0.11721E-01
        -0.11721E-01
        -0.11721E-01
        -0.11721E-01
        -0.11721E-01
        -0.11721E-01
        -0.11721E-01
        -0.11721E-01
        -0.11721E-01
        -0.11721E-01
        -0.11721E-01
        -0.11721E-01
        -0.11721E-01
        -0.11721E-01
        -0.11721E-01
        -0.11721E-01
        -0.11721E-01
        -0.11721E-01
        -0.11721E-01
        -0.11721E-01
        -0.11721E-01
        -0.11721E-01
        -0.11721E-01
        -0.11721E-01
        -0.11721E-01
        -0.11721E-01
        -0.11721E-01
        -0.11721E-01
        -0.11721E-01
        -0.11721E-01
        -0.11721E-01
        -0.11721E-01
        -0.11721E-01
        -0.11721E-01
        -0.11721E-01
        -0.11721E-01
        -0.11721E-01
        -0.11721E-01
        -0.11721E-01
        -0.11721E-01
        -0.11721E-01
        -0.11721E-01
        -0.11721E-01
        -0.11721E-01
        -0.11721E-01
        -0.11721E-01
        -0.11721E-01
        -0.11721E-01
        -0.11721E-01
        -0.11721E-01
        -0.11721E-01
        -0.11721E-01
        -0.11721E-01
        -0.11721E-01
        -0.11721E-01
        -0.11721E-01
        -0.11721E-01
        -0.11721E-01
        -0.11721E-01
        -0.11721E-01
        -0.11721E-01
        -0.11721E-01
        -0.11721E-01
        -0.11721E-01
        -0.11721E-01
        -0.11721E-01
        -0.11721E-01
        -0.11721E-01
        -0.11721E-01
        -0.11721E-01
        -0.11721E-01
        -0.11721E-01
        -0.11721E-01
        -0.11721E-01
        -0.11721E-01
        -0.11721E-01
        -0.11721E-01
        -0.11721E-01
        -0.11721E-01
        -0.11721E-01
        -0.11721E-01
        -0.11721E-01
        -0.11721E-01
        -0.11721E-01
        -0.11721E-01
        -0.11721E-01
        -0.11721E-01
        -0.11721E-01
        -0.11721E-01
        -0.11721E-01
        -0.11721E-01
        -0.11721E-01
        -0.11721E-01
        -0.11721E-01
        -0.11721E-01
        -0.11721E-01
        -0.11721E-01
        -0.11721E-01
        -0.11721E-01
        -0.11721E-01
        -0.11721E-01
        -0.11721E-01
        -0.11721E-01
        -0.11721E-01
        -0.11721E-01
        -0.11721E-01
        -0.11721E-01
        -0.11721E-01
        -0.11721E-01
        -0.11721E-01
        -0.11721E-01
        -0.11721E-01
        -0.11721E-01
        -0.11721E-01
        -0.11721E-01
        -0.11721E-01
        -0.11721E-01
        -0.11721E-01
        -0.11721E-01
        -0.11721E-01
        -0.11721E-01
        -0.11721E-01
        -0.11721E-01
        -0.11721E-01
        -0.11721E-01
        -0.11721E-01
        -0.11721E-01
        -0.11721E-01
        -0.11721E-01
        -0.11721E-01
        -0.11721E-01
        -0.11721E-01
        -0.11721E-01
        -0.11721E-01
        -0.11721E-01
        -0.11721E-01
        -0.11721E-01
        -0.11721E-01
        -0.11721E-01
        -0.11721E-01
        -0.11721E-01
        -0.11721E-01
        -0.11721E-01
        -0.11721E-01
        -0.11721E-01
        -0.11721E-01
        -0.11721E-01
        -0.11721E-01
        -0.11721E-01
        -0.11721E-01
        -0.11721E-01
        -0.11721E-01
        -0.11721E-01
        -0.11721E-01
        -0.11721E-01
        -0.11721E-01
        -0.11721E-01
        -0.11721E-01
        -0.11721E-01
        -0.11721E-01
        -0.11721E-01
        -0.11721E-01
        -0.11721E-01
        -0.11721E-01
        -0.11721E-01
        -0.11721E-01
        -0.11721E-01
        -0.11721E-01
        -0.11721E-01
        -0.11721E-01
        -0.11721E-01
        -0.11721E-01
        -0.11721E-01
        -0.11721E-01
        -0.11721E-01
        -0.11721E-01
        -0.11721E-01
        -0.11721E-01
        -0.11721E-01
        -0.11721E-01
        -0.11721E-01
        -0.11721E-01
        -0.11721E-01
        -0.11721E-01
        -0.11721E-01
        -0.11721E-01
        -0.11721E-01
        -0.11721E-01
        -0.11721E-01
        -0.11721E-01
        -0.11721E-01
        -0.11721E-01
        -0.11721E-01
        -0.11721E-01
        -0.11721E-01
        -0.11721E-01
        -0.11721E-01
        -0.11721E-01
        -0.11721E-01
        -0.11721E-01
        -0.11721E-01
        -0.11721E-01
        -0.11721E-01
        -0.11721E-01
        -0.11721E-01
        -0.11721E-01
        -0.11721E-01
        -0.11721E-01
        -0.11721E-01
        -0.11721E-01
        -0.11721E-01
        -0.11721E-01
        -0.11721E-01
        -0.11721E-01
        -0.11721E-01
        -0.11721E-01
        -0.11721E-01
        -0.11721E-01
        -0.11721E-01
        -0.11721E-01
        -0.11721E-01
        -0.11721E-01
        -0.11721E-01
        -0.11721E-01
        -0.11721E-01
        -0.11721E-01
        -0.11721E-01
        -0.11721E-01
        -0.11721E-01
        -0.11721E-01
        -0.11721E-01
        -0.11721E-01
        -0.11721E-01
        -0.11721E-01
        -0.11721E-01
        -0.11721E-01
        -0.11721E-01
        -0.11721E-01
        -0.11721E-01
        -0.11721E-01
        -0.11721E-01
        -0.11721E-01
        -0.11721E-01
        -0.11721E-01
        -0.11721E-01
        -0.11721E-01
        -0.11721E-01
        -0.11721E-01
        -0.11721E-01
        -0.11721E-01
        -0.11721E-01
        -0.11721E-01
        -0.11721E-01
        -0.11721E-01
        -0.11721E-01
        -0.11721E-01
        -0.11721E-01
        -0.11721E-01
        -0.11721E-01
        -0.11721E-01
        -0.11721E-01
        -0.11721E-01
        -0.11721E-01
        -0.11721E-01
        -0.11721E-01
        -0.11721E-01
        -0.11721E-01
        -0.11721E-01
        -0.11721E-01
        -0.11721E-01
        -0.11721E-01
        -0.11721E-01
        -0.11721E-01
        -0.11721E-01
        -0.11721E-01
        -0.11721E-01
        -0.11721E-01
        -0.11721E-01
        -0.11721E-01
        -0.11721E-01
        -0.11721E-01
        -0.11721E-01
        -0.11721E-01
        -0.11721E-01
        -0.11721E-01
        -0.11721E-01
        -0.11721E-01
        -0.11721E-01
        -0.11721E-01
        -0.11721E-01
        -0.11721E-01
        -0.11721E-01
        -0.11721E-01
        -0.11721E-01
        -0.11721E-01
        -0.11721E-01
        -0.11721E-01
        -0.11721E-01
        -0.11721E-01
        -0.11721E-01
        -0.11721E-01
        -0.11721E-01
        -0.11721E-01
        -0.11721E-01
        -0.11721E-01
        -0.11721E-01
        -0.11721E-01
        -0.11721E-01
        -0.11721E-01
        -0.11721E-01
        -0.11721E-01
        -0.11721E-01
        -0.11721E-01
        -0.11721E-01
        -0.11721E-01
        -0.11721E-01
        -0.11721E-01
        -0.11721E-01
        -0.11721E-01
        -0.11721E-01
        -0.11721E-01
        -0.11721E-01
        -0.11721E-01
        -0.11721E-01
        -0.11721E-01
        -0.11721E-01
        -0.11721E-01
        -0.11721E-01
        -0.11721E-01
        -0.11721E-01
        -0.11721E-01
        -0.11721E-01
        -0.11721E-01
        -0.11721E-01
        -0.11721E-01
        -0.11721E-01
        -0.11721E-01
        -0.11721E-01
        -0.11721E-01
        -0.11721E-01
        -0.11721E-01
        -0.11721E-01
        -0.11721E-01
        -0.11721E-01
        -0.11721E-01
        -0.11721E-01
        -0.11721E-01
        -0.11721E-01
        -0.11721E-01
        -0.11721E-01
        -0.11721E-01
        -0.11721E-01
        -0.11721E-01
        -0.11721E-01
        -0.11721E-01
        -0.11721E-01
        -0.11721E-01
        -0.11721E-01
        -0.11721E-01
        -0.11721E-01
        -0.11721E-01
        -0.11721E-01
        -0.11721E-01
        -0.11721E-01
        -0.11721E-01
        -0.11721E-01
        -0.11721E-01
        -0.11721E-01
        -0.11721E-01
        -0.11721E-01
        -0.11721E-01
        -0.11721E-01
        -0.11721E-01
        -0.11721E-01
        -0.11721E-01
        -0.11721E-01
        -0.11721E-01
        -0.11721E-01
        -0.11721E-01
        -0.11721E-01
        -0.11721E-01
        -0.11721E-01
        -0.11721E-01
        -0.11721E-01
        -0.11721E-01
        -0.11721E-01
        -0.11721E-01
        -0.11721E-01
        -0.11721E-01
        -0.11721E-01
        -0.11721E-01
        -0.11721E-01
        -0.11721E-01
        -0.11721E-01
        -0.11721E-01
        -0.11721E-01
        -0.11721E-01
        -0.11721E-01
        -0.11721E-01
        -0.11721E-01
        -0.11721E-01
        -0.11721E-01
        -0.11721E-01
        -0.11721E-01
        -0.11721E-01
        -0.11721E-01
        -0.11721E-01
        -0.11721E-01
        -0.11721E-01
        -0.11721E-01
        -0.11721E-01
        -0.11721E-01
        -0.11721E-01
        -0.11721E-01
        -0.11721E-01
        -0.11721E-01
        -0.11721E-01
        -0.11721E-01
        -0.11721E-01
        -0.11721E-01
        -0.11721E-01
        -0.11721E-01
        -0.11721E-01
        -0.11721E-01
        -0.11721E-01
        -0.11721E-01
        -0.11721E-01
        -0.11721E-01
        -0.11721E-01
        -0.11721E-01
        -0.11721E-01
        -0.11721E-01
        -0.11721E-01
        -0.11721E-01
        -0.11721E-01
        -0.11721E-01
        -0.11721E-01
        -0.11721E-01
        -0.11721E-01
        -0.11721E-01
        -0.11721E-01
        -0.11721E-01
        -0.11721E-01
        -0.11721E-01
        -0.11721E-01
        -0.11721E-01
        -0.11721E-01
        -0.11721E-01
        -0.11721E-01
        -0.11721E-01
        -0.11721E-01
        -0.11721E-01
        -0.11721E-01
        -0.11721E-01
        -0.11721E-01
        -0.11721E-01
        -0.11721E-01
        -0.11721E-01
        -0.11721E-01
        -0.11721E-01
        -0.11721E-01
        -0.11721E-01
        -0.11721E-01
        -0.11721E-01
        -0.11721E-01
        -0.11721E-01
        -0.11721E-01
        -0.11721E-01
        -0.11721E-01
        -0.11721E-01
        -0.11721E-01
        -0.11721E-01
        -0.11721E-01
        -0.11721E-01
        -0.11721E-01
        -0.11721E-01
        -0.11721E-01
        -0.11721E-01
        -0.11721E-01
        -0.11721E-01
        -0.11721E-01
        -0.11721E-01
        -0.11721E-01
        -0.11721E-01
        -0.11721E-01
        -0.11721E-01
        -0.11721E-01
        -0.11721E-01
        -0.11721E-01
        -0.11721E-01
        -0.11721E-01
        -0.11721E-01
        -0.11721E-01
        -0.11721E-01
        -0.11721E-01
        -0.11721E-01
        -0.11721E-01
        -0.11721E-01
        -0.11721E-01
        -0.11721E-01
        -0.11721E-01
        -0.11721E-01
        -0.11721E-01
        -0.11721E-01
        -0.11721E-01
        -0.11721E-01
        -0.11721E-01
        -0.11721E-01
        -0.11721E-01
        -0.11721E-01
        -0.11721E-01
        -0.11721E-01
        -0.11721E-01
        -0.11721E-01
        -0.11721E-01
        -0.11721E-01
        -0.11721E-01
        -0.11721E-01
        -0.11721E-01
        -0.11721E-01
        -0.11721E-01
        -0.11721E-01
        -0.11721E-01
        -0.11721E-01
        -0.11721E-01
        -0.11721E-01
        -0.11721E-01
        -0.11721E-01
        -0.11721E-01
        -0.11721E-01
        -0.11721E-01
        -0.11721E-01
        -0.11721E-01
        -0.11721E-01
        -0.11721E-01
        -0.11721E-01
        -0.11721E-01
        -0.11721E-01
        -0.11721E-01
        -0.11721E-01
        -0.11721E-01
        -0.11721E-01
        -0.11721E-01
        -0.11721E-01
        -0.11721E-01
        -0.11721E-01
        -0.11721E-01
        -0.11721E-01
        -0.11721E-01
        -0.11721E-01
        -0.11721E-01
        -0.11721E-01
        -0.11721E-01
        -0.11721E-01
        -0.11721E-01
        -0.11721E-01
        -0.11721E-01
        -0.11721E-01
        -0.11721E-01
        -0.11721E-01
        -0.11721E-01
        -0.11721E-01
        -0.11721E-01
        -0.11721E-01
        -0.11721E-01
        -0.11721E-01
        -0.11721E-01
        -0.11721E-01
        -0.11721E-01
        -0.11721E-01
        -0.11721E-01
        -0.11721E-01
        -0.11721E-01
        -0.11721E-01
        -0.11721E-01
        -0.11721E-01
        -0.11721E-01
        -0.11721E-01
        -0.11721E-01
        -0.11721E-01
        -0.11721E-01
        -0.11721E-01
        -0.11721E-01
        -0.11721E-01
        -0.11721E-01
        -0.11721E-01
        -0.11721E-01
        -0.11721E-01
        -0.11721E-01
        -0.11721E-01
        -0.11721E-01
        -0.11721E-01
        -0.11721E-01
        -0.11721E-01
        -0.11721E-01
        -0.11721E-01
        -0.11721E-01
        -0.11721E-01
        -0.11721E-01
        -0.11721E-01
        -0.11721E-01
        -0.11721E-01
        -0.11721E-01
        -0.11721E-01
        -0.11721E-01
        -0.11721E-01
        -0.11721E-01
        -0.11721E-01
        -0.11721E-01
        -0.11721E-01
        -0.11721E-01
        -0.11721E-01
        -0.11721E-01
        -0.11721E-01
        -0.11721E-01
        -0.11721E-01
        -0.11721E-01
        -0.11721E-01
        -0.11721E-01
        -0.11721E-01
        -0.11721E-01
        -0.11721E-01
        -0.11721E-01
        -0.11721E-01
        -0.11721E-01
        -0.11721E-01
        -0.11721E-01
        -0.11721E-01
        -0.11721E-01
        -0.11721E-01
        -0.11721E-01
        -0.11721E-01
        -0.11721E-01
        -0.11721E-01
        -0.11721E-01
        -0.11721E-01
        -0.11721E-01
        -0.11721E-01
        -0.11721E-01
        -0.11721E-01
        -0.11721E-01
        -0.11721E-01
        -0.11721E-01
        -0.11721E-01
        -0.11721E-01
        -0.11721E-01
        -0.11721E-01
        -0.11721E-01
        -0.11721E-01
        -0.11721E-01
        -0.11721E-01
        -0.11721E-01
        -0.11721E-01
        -0.11721E-01
        -0.11721E-01
        -0.11721E-01
        -0.11721E-01
        -0.11721E-01
        -0.11721E-01
        -0.11721E-01
        -0.11721E-01
        -0.11721E-01
        -0.11721E-01
        -0.11721E-01
        -0.11721E-01
        -0.11721E-01
        -0.11721E-01
        -0.11721E-01
        -0.11721E-01
        -0.11721E-01
        -0.11721E-01
        -0.11721E-01
        -0.11721E-01
        -0.11721E-01
        -0.11721E-01
        -0.11721E-01
        -0.11721E-01
        -0.11721E-01
        -0.11721E-01
        -0.11721E-01
        -0.11721E-01
        -0.11721E-01
        -0.11721E-01
        -0.11721E-01
        -0.11721E-01
        -0.11721E-01
        -0.11721E-01
        -0.11721E-01
        -0.11721E-01
        -0.11721E-01
        -0.11721E-01
        -0.11721E-01
        -0.11721E-01
        -0.11721E-01
        -0.11721E-01
        -0.11721E-01
        -0.11721E-01
        -0.11721E-01
        -0.11721E-01
        -0.11721E-01
        -0.11721E-01
        -0.11721E-01
        -0.11721E-01
        -0.11721E-01
        -0.11721E-01
        -0.11721E-01
        -0.11721E-01
        -0.11721E-01
        -0.11721E-01
        -0.11721E-01
        -0.11721E-01
        -0.11721E-01
        -0.11721E-01
        -0.11721E-01
        -0.11721E-01
        -0.11721E-01
        -0.11721E-01
        -0.11721E-01
        -0.11721E-01
        -0.11721E-01
        -0.11721E-01
        -0.11721E-01
        -0.11721E-01
        -0.11721E-01
        -0.11721E-01
        -0.11721E-01
        -0.11721E-01
        -0.11721E-01
        -0.11721E-01
        -0.11721E-01
        -0.11721E-01
        -0.11721E-01
        -0.11721E-01
        -0.11721E-01
        -0.11721E-01
        -0.11721E-01
        -0.11721E-01
        -0.11721E-01
        -0.11721E-01
        -0.11721E-01
        -0.11721E-01
        -0.11721E-01
        -0.11721E-01
        -0.11721E-01
        -0.11721E-01
        -0.11721E-01
        -0.11721E-01
        -0.11721E-01
        -0.11721E-01
        -0.11721E-01
        -0.11721E-01
        -0.11721E-01
        -0.11721E-01
        -0.11721E-01
        -0.11721E-01
        -0.11721E-01
        -0.11721E-01
        -0.11721E-01
        -0.11721E-01
        -0.11721E-01
        -0.11721E-01
        -0.11721E-01
        -0.11721E-01
        -0.11721E-01
        -0.11721E-01
        -0.11721E-01
        -0.11721E-01
        -0.11721E-01
        -0.11721E-01
        -0.11721E-01
        -0.11721E-01
        -0.11721E-01
        -0.11721E-01
        -0.11721E-01
        -0.11721E-01
        -0.11721E-01
        -0.11721E-01
        -0.11721E-01
        -0.11721E-01
        -0.11721E-01
        -0.11721E-01
        -0.11721E-01
        -0.11721E-01
        -0.11721E-01
        -0.11721E-01
        -0.11721E-01
        -0.11721E-01
        -0.11721E-01
        -0.11721E-01
        -0.11721E-01
        -0.11721E-01
        -0.11721E-01
        -0.11721E-01
        -0.11721E-01
        -0.11721E-01
        -0.11721E-01
        -0.11721E-01
        -0.11721E-01
        -0.11721E-01
        -0.11721E-01
        -0.11721E-01
        -0.11721E-01
        -0.11721E-01
        -0.11721E-01
        -0.11721E-01
        -0.11721E-01
        -0.11721E-01
        -0.11721E-01
        -0.11721E-01
        -0.11721E-01
        -0.11721E-01
        -0.11721E-01
        -0.11721E-01
        -0.11721E-01
        -0.11721E-01
        -0.11721E-01
        -0.11721E-01
        -0.11721E-01
        -0.11721E-01
        -0.11721E-01
        -0.11721E-01
        -0.11721E-01
        -0.11721E-01
        -0.11721E-01
        -0.11721E-01
        -0.11721E-01
        -0.11721E-01
        -0.11721E-01
        -0.11721E-01
        -0.11721E-01
        -0.11721E-01
        -0.11721E-01
        -0.11721E-01
        -0.11721E-01
        -0.11721E-01
        -0.11721E-01
        -0.11721E-01
        -0.11721E-01
        -0.11721E-01
        -0.11721E-01
        -0.11721E-01
        -0.11721E-01
        -0.11721E-01
        -0.11721E-01
        -0.11721E-01
        -0.11721E-01
        -0.11721E-01
        -0.11721E-01
        -0.11721E-01
        -0.11721E-01
        -0.11721E-01
        -0.11721E-01
        -0.11721E-01
        -0.11721E-01
        -0.11721E-01
        -0.11721E-01
        -0.11721E-01
        -0.11721E-01
        -0.11721E-01
        -0.11721E-01
        -0.11721E-01
        -0.11721E-01
        -0.11721E-01
        -0.11721E-01
        -0.11721E-01
        -0.11721E-01
        -0.11721E-01
        -0.11721E-01
        -0.11721E-01
        -0.11721E-01
        -0.11721E-01
        -0.11721E-01
        -0.11721E-01
        -0.11721E-01
        -0.11721E-01
        -0.11721E-01
        -0.11721E-01
        -0.11721E-01
        -0.11721E-01
        -0.11721E-01
        -0.11721E-01
        -0.11721E-01
        -0.11721E-01
        -0.11721E-01
        -0.11721E-01
        -0.11721E-01
        -0.11721E-01
        -0.11721E-01
        -0.11721E-01
        -0.11721E-01
        -0.11721E-01
        -0.11721E-01
        -0.11721E-01
        -0.11721E-01
        -0.11721E-01
        -0.11721E-01
        -0.11721E-01
        -0.11721E-01
        -0.11721E-01
        -0.11721E-01
        -0.11721E-01
        -0.11721E-01
        -0.11721E-01
        -0.11721E-01
        -0.11721E-01
        -0.11721E-01
        -0.11721E-01
        -0.11721E-01
        -0.11721E-01
        -0.11721E-01
        -0.11721E-01
        -0.11721E-01
        -0.11721E-01
        -0.11721E-01
        -0.11721E-01
        -0.11721E-01
        -0.11721E-01
        -0.11721E-01
        -0.11721E-01
        -0.11721E-01
        -0.11721E-01
        -0.11721E-01
        -0.11721E-01
        -0.11721E-01
        -0.11721E-01
        -0.11721E-01
        -0.11721E-01
        -0.11721E-01
        -0.11721E-01
        -0.11721E-01
        -0.11721E-01
        -0.11721E-01
        -0.11721E-01
        -0.11721E-01
        -0.11721E-01
        -0.11721E-01
        -0.11721E-01
        -0.11721E-01
        -0.11721E-01
        -0.11721E-01
        -0.11721E-01
        -0.11721E-01
        -0.11721E-01
        -0.11721E-01
        -0.11721E-01
        -0.11721E-01
        -0.11721E-01
        -0.11721E-01
        -0.11721E-01
        -0.11721E-01
        -0.11721E-01
        -0.11721E-01
        -0.11721E-01
        -0.11721E-01
        -0.11721E-01
        -0.11721E-01
        -0.11721E-01
        -0.11721E-01
        -0.11721E-01
        -0.11721E-01
        -0.11721E-01
        -0.11721E-01
        -0.11721E-01
        -0.11721E-01
        -0.11721E-01
        -0.11721E-01
        -0.11721E-01
        -0.11721E-01
        -0.11721E-01
        -0.11721E-01
        -0.11721E-01
        -0.11721E-01
        -0.11721E-01
        -0.11721E-01
        -0.11721E-01
        -0.11721E-01
        -0.11721E-01
        -0.11721E-01
        -0.11721E-01
        -0.11721E-01
        -0.11721E-01
        -0.11721E-01
        -0.11721E-01
        -0.11721E-01
        -0.11721E-01
        -0.11721E-01
        -0.11721E-01
        -0.11721E-01
        -0.11721E-01
        -0.11721E-01
        -0.11721E-01
        -0.11721E-01
        -0.11721E-01
        -0.11721E-01
        -0.11721E-01
        -0.11721E-01
        -0.11721E-01
        -0.11721E-01
        -0.11721E-01
        -0.11721E-01
        -0.11721E-01
        -0.11721E-01
        -0.11721E-01
        -0.11721E-01
        -0.11721E-01
        -0.11721E-01
        -0.11721E-01
        -0.11721E-01
        -0.11721E-01
        -0.11721E-01
        -0.11721E-01
        -0.11721E-01
        -0.11721E-01
        -0.11721E-01
        -0.11721E-01
        -0.11721E-01
        -0.11721E-01
        -0.11721E-01
        -0.11721E-01
        -0.11721E-01
        -0.11721E-01
        -0.11721E-01
        -0.11721E-01
        -0.11721E-01
        -0.11721E-01
        -0.11721E-01
        -0.11721E-01
        -0.11721E-01
        -0.11721E-01
        -0.11721E-01
        -0.11721E-01
        -0.11721E-01
        -0.11721E-01
        -0.11721E-01
        -0.11721E-01
        -0.11721E-01
        -0.11721E-01
        -0.11721E-01
        -0.11721E-01
        -0.11721E-01
        -0.11721E-01
        -0.11721E-01
        -0.11721E-01
        -0.11721E-01
        -0.11721E-01
        -0.11721E-01
        -0.11721E-01
        -0.11721E-01
        -0.11721E-01
        -0.11721E-01
        -0.11721E-01
        -0.11721E-01
        -0.11721E-01
        -0.11721E-01
        -0.11721E-01
        -0.11721E-01
        -0.11721E-01
        -0.11721E-01
        -0.11721E-01
        -0.11721E-01
        -0.11721E-01
        -0.11721E-01
        -0.11721E-01
        -0.11721E-01
        -0.11721E-01
        -0.11721E-01
        -0.11721E-01
        -0.11721E-01
        -0.11721E-01
        -0.11721E-01
        -0.11721E-01
        -0.11721E-01
        -0.11721E-01
        -0.11721E-01
        -0.11721E-01
        -0.11721E-01
        -0.11721E-01
        -0.11721E-01
        -0.11721E-01
        -0.11721E-01
        -0.11721E-01
        -0.11721E-01
        -0.11721E-01
        -0.11721E-01
        -0.11721E-01
        -0.11721E-01
        -0.11721E-01
        -0.11721E-01
        -0.11721E-01
        -0.11721E-01
        -0.11721E-01
        -0.11721E-01
        -0.11721E-01
        -0.11721E-01
        -0.11721E-01
        -0.11721E-01
        -0.11721E-01
        -0.11721E-01
        -0.11721E-01
        -0.11721E-01
        -0.11721E-01
        -0.11721E-01
        -0.11721E-01
        -0.11721E-01
        -0.11721E-01
        -0.11721E-01
        -0.11721E-01
        -0.11721E-01
        -0.11721E-01
        -0.11721E-01
        -0.11721E-01
        -0.11721E-01
        -0.11721E-01
        -0.11721E-01
        -0.11721E-01
        -0.11721E-01
        -0.11721E-01
        -0.11721E-01
        -0.11721E-01
        -0.11721E-01
        -0.11721E-01
        -0.11721E-01
        -0.11721E-01
        -0.11721E-01
        -0.11721E-01
        -0.11721E-01
        -0.11721E-01
        -0.11721E-01
        -0.11721E-01
        -0.11721E-01
        -0.11721E-01
        -0.11721E-01
        -0.11721E-01
        -0.11721E-01
        -0.11721E-01
        -0.11721E-01
        -0.11721E-01
        -0.11721E-01
        -0.11721E-01
        -0.11721E-01
        -0.11721E-01
        -0.11721E-01
        -0.11721E-01
        -0.11721E-01
        -0.11721E-01
        -0.11721E-01
        -0.11721E-01
        -0.11721E-01
        -0.11721E-01
        -0.11721E-01
        -0.11721E-01
        -0.11721E-01
        -0.11721E-01
        -0.11721E-01
        -0.11721E-01
        -0.11721E-01
        -0.11721E-01
        -0.11721E-01
        -0.11721E-01
        -0.11721E-01
        -0.11721E-01
        -0.11721E-01
        -0.11721E-01
        -0.11721E-01
        -0.11721E-01
        -0.11721E-01
        -0.11721E-01
        -0.11721E-01
  
SCALARS                     velocity_x  double 1
LOOKUP_TABLE default
         0.00000E+00
         0.00000E+00
         0.00000E+00
         0.00000E+00
         0.00000E+00
         0.00000E+00
         0.00000E+00
         0.00000E+00
         0.00000E+00
         0.00000E+00
         0.00000E+00
         0.00000E+00
         0.00000E+00
         0.00000E+00
         0.00000E+00
         0.00000E+00
         0.00000E+00
         0.00000E+00
         0.00000E+00
         0.00000E+00
         0.00000E+00
         0.00000E+00
         0.00000E+00
         0.00000E+00
         0.00000E+00
         0.00000E+00
         0.00000E+00
         0.00000E+00
         0.00000E+00
         0.00000E+00
         0.00000E+00
         0.00000E+00
         0.00000E+00
         0.00000E+00
         0.00000E+00
         0.00000E+00
         0.00000E+00
         0.00000E+00
         0.00000E+00
         0.00000E+00
         0.00000E+00
         0.00000E+00
         0.00000E+00
         0.00000E+00
         0.00000E+00
         0.00000E+00
         0.00000E+00
         0.00000E+00
         0.00000E+00
         0.00000E+00
         0.00000E+00
         0.00000E+00
         0.00000E+00
         0.00000E+00
         0.00000E+00
         0.00000E+00
         0.00000E+00
         0.00000E+00
         0.00000E+00
         0.00000E+00
         0.00000E+00
         0.00000E+00
         0.00000E+00
         0.00000E+00
         0.00000E+00
         0.00000E+00
         0.00000E+00
         0.00000E+00
         0.00000E+00
         0.00000E+00
         0.00000E+00
         0.00000E+00
         0.00000E+00
         0.00000E+00
         0.00000E+00
         0.00000E+00
         0.00000E+00
         0.00000E+00
         0.00000E+00
         0.00000E+00
         0.00000E+00
         0.00000E+00
         0.00000E+00
         0.00000E+00
         0.00000E+00
         0.00000E+00
         0.00000E+00
         0.00000E+00
         0.00000E+00
         0.00000E+00
         0.00000E+00
         0.00000E+00
         0.00000E+00
         0.00000E+00
         0.00000E+00
         0.00000E+00
         0.00000E+00
         0.00000E+00
         0.00000E+00
         0.00000E+00
         0.00000E+00
         0.00000E+00
         0.00000E+00
         0.00000E+00
         0.00000E+00
         0.00000E+00
         0.00000E+00
         0.00000E+00
         0.00000E+00
         0.00000E+00
         0.00000E+00
         0.00000E+00
         0.00000E+00
         0.00000E+00
         0.00000E+00
         0.00000E+00
         0.00000E+00
         0.00000E+00
         0.00000E+00
         0.00000E+00
         0.00000E+00
         0.00000E+00
         0.00000E+00
         0.00000E+00
         0.00000E+00
         0.00000E+00
         0.00000E+00
         0.00000E+00
         0.00000E+00
         0.00000E+00
         0.00000E+00
         0.00000E+00
         0.00000E+00
         0.00000E+00
         0.00000E+00
         0.00000E+00
         0.00000E+00
         0.00000E+00
         0.00000E+00
         0.00000E+00
         0.00000E+00
         0.00000E+00
         0.00000E+00
         0.00000E+00
         0.00000E+00
         0.00000E+00
         0.00000E+00
         0.00000E+00
         0.00000E+00
         0.00000E+00
         0.00000E+00
         0.00000E+00
         0.00000E+00
         0.00000E+00
         0.00000E+00
         0.00000E+00
         0.00000E+00
         0.00000E+00
         0.00000E+00
         0.00000E+00
         0.00000E+00
         0.00000E+00
         0.00000E+00
         0.00000E+00
         0.00000E+00
         0.00000E+00
         0.00000E+00
         0.00000E+00
         0.00000E+00
         0.00000E+00
         0.00000E+00
         0.00000E+00
         0.00000E+00
         0.00000E+00
         0.00000E+00
         0.00000E+00
         0.00000E+00
         0.00000E+00
         0.00000E+00
         0.00000E+00
         0.00000E+00
         0.00000E+00
         0.00000E+00
         0.00000E+00
         0.00000E+00
         0.00000E+00
         0.00000E+00
         0.00000E+00
         0.00000E+00
         0.00000E+00
         0.00000E+00
         0.00000E+00
         0.00000E+00
         0.00000E+00
         0.00000E+00
         0.00000E+00
         0.00000E+00
         0.00000E+00
         0.00000E+00
         0.00000E+00
         0.00000E+00
         0.00000E+00
         0.00000E+00
         0.00000E+00
         0.00000E+00
         0.00000E+00
         0.00000E+00
         0.00000E+00
         0.00000E+00
         0.00000E+00
         0.00000E+00
         0.00000E+00
         0.00000E+00
         0.00000E+00
         0.00000E+00
         0.00000E+00
         0.00000E+00
         0.00000E+00
         0.00000E+00
         0.00000E+00
         0.00000E+00
         0.00000E+00
         0.00000E+00
         0.00000E+00
         0.00000E+00
         0.00000E+00
         0.00000E+00
         0.00000E+00
         0.00000E+00
         0.00000E+00
         0.00000E+00
         0.00000E+00
         0.00000E+00
         0.00000E+00
         0.00000E+00
         0.00000E+00
         0.00000E+00
         0.00000E+00
         0.00000E+00
         0.00000E+00
         0.00000E+00
         0.00000E+00
         0.00000E+00
         0.00000E+00
         0.00000E+00
         0.00000E+00
         0.00000E+00
         0.00000E+00
         0.00000E+00
         0.00000E+00
         0.00000E+00
         0.00000E+00
         0.00000E+00
         0.00000E+00
         0.00000E+00
         0.00000E+00
         0.00000E+00
         0.00000E+00
         0.00000E+00
         0.00000E+00
         0.00000E+00
         0.00000E+00
         0.00000E+00
         0.00000E+00
         0.00000E+00
         0.00000E+00
         0.00000E+00
         0.00000E+00
         0.00000E+00
         0.00000E+00
         0.00000E+00
         0.00000E+00
         0.00000E+00
         0.00000E+00
         0.00000E+00
         0.00000E+00
         0.00000E+00
         0.00000E+00
         0.00000E+00
         0.00000E+00
         0.00000E+00
         0.00000E+00
         0.00000E+00
         0.00000E+00
         0.00000E+00
         0.00000E+00
         0.00000E+00
         0.00000E+00
         0.00000E+00
         0.00000E+00
         0.00000E+00
         0.00000E+00
         0.00000E+00
         0.00000E+00
         0.00000E+00
         0.00000E+00
         0.00000E+00
         0.00000E+00
         0.00000E+00
         0.00000E+00
         0.00000E+00
         0.00000E+00
         0.00000E+00
         0.00000E+00
         0.00000E+00
         0.00000E+00
         0.00000E+00
         0.00000E+00
         0.00000E+00
         0.00000E+00
         0.00000E+00
         0.00000E+00
         0.00000E+00
         0.00000E+00
         0.00000E+00
         0.00000E+00
         0.00000E+00
         0.00000E+00
         0.00000E+00
         0.00000E+00
         0.00000E+00
         0.00000E+00
         0.00000E+00
         0.00000E+00
         0.00000E+00
         0.00000E+00
         0.00000E+00
         0.00000E+00
         0.00000E+00
         0.00000E+00
         0.00000E+00
         0.00000E+00
         0.00000E+00
         0.00000E+00
         0.00000E+00
         0.00000E+00
         0.00000E+00
         0.00000E+00
         0.00000E+00
         0.00000E+00
         0.00000E+00
         0.00000E+00
         0.00000E+00
         0.00000E+00
         0.00000E+00
         0.00000E+00
         0.00000E+00
         0.00000E+00
         0.00000E+00
         0.00000E+00
         0.00000E+00
         0.00000E+00
         0.00000E+00
         0.00000E+00
         0.00000E+00
         0.00000E+00
         0.00000E+00
         0.00000E+00
         0.00000E+00
         0.00000E+00
         0.00000E+00
         0.00000E+00
         0.00000E+00
         0.00000E+00
         0.00000E+00
         0.00000E+00
         0.00000E+00
         0.00000E+00
         0.00000E+00
         0.00000E+00
         0.00000E+00
         0.00000E+00
         0.00000E+00
         0.00000E+00
         0.00000E+00
         0.00000E+00
         0.00000E+00
         0.00000E+00
         0.00000E+00
         0.00000E+00
         0.00000E+00
         0.00000E+00
         0.00000E+00
         0.00000E+00
         0.00000E+00
         0.00000E+00
         0.00000E+00
         0.00000E+00
         0.00000E+00
         0.00000E+00
         0.00000E+00
         0.00000E+00
         0.00000E+00
         0.00000E+00
         0.00000E+00
         0.00000E+00
         0.00000E+00
         0.00000E+00
         0.00000E+00
         0.00000E+00
         0.00000E+00
         0.00000E+00
         0.00000E+00
         0.00000E+00
         0.00000E+00
         0.00000E+00
         0.00000E+00
         0.00000E+00
         0.00000E+00
         0.00000E+00
         0.00000E+00
         0.00000E+00
         0.00000E+00
         0.00000E+00
         0.00000E+00
         0.00000E+00
         0.00000E+00
         0.00000E+00
         0.00000E+00
         0.00000E+00
         0.00000E+00
         0.00000E+00
         0.00000E+00
         0.00000E+00
         0.00000E+00
         0.00000E+00
         0.00000E+00
         0.00000E+00
         0.00000E+00
         0.00000E+00
         0.00000E+00
         0.00000E+00
         0.00000E+00
         0.00000E+00
         0.00000E+00
         0.00000E+00
         0.00000E+00
         0.00000E+00
         0.00000E+00
         0.00000E+00
         0.00000E+00
         0.00000E+00
         0.00000E+00
         0.00000E+00
         0.00000E+00
         0.00000E+00
         0.00000E+00
         0.00000E+00
         0.00000E+00
         0.00000E+00
         0.00000E+00
         0.00000E+00
         0.00000E+00
         0.00000E+00
         0.00000E+00
         0.00000E+00
         0.00000E+00
         0.00000E+00
         0.00000E+00
         0.00000E+00
         0.00000E+00
         0.00000E+00
         0.00000E+00
         0.00000E+00
         0.00000E+00
         0.00000E+00
         0.00000E+00
         0.00000E+00
         0.00000E+00
         0.00000E+00
         0.00000E+00
         0.00000E+00
         0.00000E+00
         0.00000E+00
         0.00000E+00
         0.00000E+00
         0.00000E+00
         0.00000E+00
         0.00000E+00
         0.00000E+00
         0.00000E+00
         0.00000E+00
         0.00000E+00
         0.00000E+00
         0.00000E+00
         0.00000E+00
         0.00000E+00
         0.00000E+00
         0.00000E+00
         0.00000E+00
         0.00000E+00
         0.00000E+00
         0.00000E+00
         0.00000E+00
         0.00000E+00
         0.00000E+00
         0.00000E+00
         0.00000E+00
         0.00000E+00
         0.00000E+00
         0.00000E+00
         0.00000E+00
         0.00000E+00
         0.00000E+00
         0.00000E+00
         0.00000E+00
         0.00000E+00
         0.00000E+00
         0.00000E+00
         0.00000E+00
         0.00000E+00
         0.00000E+00
         0.00000E+00
         0.00000E+00
         0.00000E+00
         0.00000E+00
         0.00000E+00
         0.00000E+00
         0.00000E+00
         0.00000E+00
         0.00000E+00
         0.00000E+00
         0.00000E+00
         0.00000E+00
         0.00000E+00
         0.00000E+00
         0.00000E+00
         0.00000E+00
         0.00000E+00
         0.00000E+00
         0.00000E+00
         0.00000E+00
         0.00000E+00
         0.00000E+00
         0.00000E+00
         0.00000E+00
         0.00000E+00
         0.00000E+00
         0.00000E+00
         0.00000E+00
         0.00000E+00
         0.00000E+00
         0.00000E+00
         0.00000E+00
         0.00000E+00
         0.00000E+00
         0.00000E+00
         0.00000E+00
         0.00000E+00
         0.00000E+00
         0.00000E+00
         0.00000E+00
         0.00000E+00
         0.00000E+00
         0.00000E+00
         0.00000E+00
         0.00000E+00
         0.00000E+00
         0.00000E+00
         0.00000E+00
         0.00000E+00
         0.00000E+00
         0.00000E+00
         0.00000E+00
         0.00000E+00
         0.00000E+00
         0.00000E+00
         0.00000E+00
         0.00000E+00
         0.00000E+00
         0.00000E+00
         0.00000E+00
         0.00000E+00
         0.00000E+00
         0.00000E+00
         0.00000E+00
         0.00000E+00
         0.00000E+00
         0.00000E+00
         0.00000E+00
         0.00000E+00
         0.00000E+00
         0.00000E+00
         0.00000E+00
         0.00000E+00
         0.00000E+00
         0.00000E+00
         0.00000E+00
         0.00000E+00
         0.00000E+00
         0.00000E+00
         0.00000E+00
         0.00000E+00
         0.00000E+00
         0.00000E+00
         0.00000E+00
         0.00000E+00
         0.00000E+00
         0.00000E+00
         0.00000E+00
         0.00000E+00
         0.00000E+00
         0.00000E+00
         0.00000E+00
         0.00000E+00
         0.00000E+00
         0.00000E+00
         0.00000E+00
         0.00000E+00
         0.00000E+00
         0.00000E+00
         0.00000E+00
         0.00000E+00
         0.00000E+00
         0.00000E+00
         0.00000E+00
         0.00000E+00
         0.00000E+00
         0.00000E+00
         0.00000E+00
         0.00000E+00
         0.00000E+00
         0.00000E+00
         0.00000E+00
         0.00000E+00
         0.00000E+00
         0.00000E+00
         0.00000E+00
         0.00000E+00
         0.00000E+00
         0.00000E+00
         0.00000E+00
         0.00000E+00
         0.00000E+00
         0.00000E+00
         0.00000E+00
         0.00000E+00
         0.00000E+00
         0.00000E+00
         0.00000E+00
         0.00000E+00
         0.00000E+00
         0.00000E+00
         0.00000E+00
         0.00000E+00
         0.00000E+00
         0.00000E+00
         0.00000E+00
         0.00000E+00
         0.00000E+00
         0.00000E+00
         0.00000E+00
         0.00000E+00
         0.00000E+00
         0.00000E+00
         0.00000E+00
         0.00000E+00
         0.00000E+00
         0.00000E+00
         0.00000E+00
         0.00000E+00
         0.00000E+00
         0.00000E+00
         0.00000E+00
         0.00000E+00
         0.00000E+00
         0.00000E+00
         0.00000E+00
         0.00000E+00
         0.00000E+00
         0.00000E+00
         0.00000E+00
         0.00000E+00
         0.00000E+00
         0.00000E+00
         0.00000E+00
         0.00000E+00
         0.00000E+00
         0.00000E+00
         0.00000E+00
         0.00000E+00
         0.00000E+00
         0.00000E+00
         0.00000E+00
         0.00000E+00
         0.00000E+00
         0.00000E+00
         0.00000E+00
         0.00000E+00
         0.00000E+00
         0.00000E+00
         0.00000E+00
         0.00000E+00
         0.00000E+00
         0.00000E+00
         0.00000E+00
         0.00000E+00
         0.00000E+00
         0.00000E+00
         0.00000E+00
         0.00000E+00
         0.00000E+00
         0.00000E+00
         0.00000E+00
         0.00000E+00
         0.00000E+00
         0.00000E+00
         0.00000E+00
         0.00000E+00
         0.00000E+00
         0.00000E+00
         0.00000E+00
         0.00000E+00
         0.00000E+00
         0.00000E+00
         0.00000E+00
         0.00000E+00
         0.00000E+00
         0.00000E+00
         0.00000E+00
         0.00000E+00
         0.00000E+00
         0.00000E+00
         0.00000E+00
         0.00000E+00
         0.00000E+00
         0.00000E+00
         0.00000E+00
         0.00000E+00
         0.00000E+00
         0.00000E+00
         0.00000E+00
         0.00000E+00
         0.00000E+00
         0.00000E+00
         0.00000E+00
         0.00000E+00
         0.00000E+00
         0.00000E+00
         0.00000E+00
         0.00000E+00
         0.00000E+00
         0.00000E+00
         0.00000E+00
         0.00000E+00
         0.00000E+00
         0.00000E+00
         0.00000E+00
         0.00000E+00
         0.00000E+00
         0.00000E+00
         0.00000E+00
         0.00000E+00
         0.00000E+00
         0.00000E+00
         0.00000E+00
         0.00000E+00
         0.00000E+00
         0.00000E+00
         0.00000E+00
         0.00000E+00
         0.00000E+00
         0.00000E+00
         0.00000E+00
         0.00000E+00
         0.00000E+00
         0.00000E+00
         0.00000E+00
         0.00000E+00
         0.00000E+00
         0.00000E+00
         0.00000E+00
         0.00000E+00
         0.00000E+00
         0.00000E+00
         0.00000E+00
         0.00000E+00
         0.00000E+00
         0.00000E+00
         0.00000E+00
         0.00000E+00
         0.00000E+00
         0.00000E+00
         0.00000E+00
         0.00000E+00
         0.00000E+00
         0.00000E+00
         0.00000E+00
         0.00000E+00
         0.00000E+00
         0.00000E+00
         0.00000E+00
         0.00000E+00
         0.00000E+00
         0.00000E+00
         0.00000E+00
         0.00000E+00
         0.00000E+00
         0.00000E+00
         0.00000E+00
         0.00000E+00
         0.00000E+00
         0.00000E+00
         0.00000E+00
         0.00000E+00
         0.00000E+00
         0.00000E+00
         0.00000E+00
         0.00000E+00
         0.00000E+00
         0.00000E+00
         0.00000E+00
         0.00000E+00
         0.00000E+00
         0.00000E+00
         0.00000E+00
         0.00000E+00
         0.00000E+00
         0.00000E+00
         0.00000E+00
         0.00000E+00
         0.00000E+00
         0.00000E+00
         0.00000E+00
         0.00000E+00
         0.00000E+00
         0.00000E+00
         0.00000E+00
         0.00000E+00
         0.00000E+00
         0.00000E+00
         0.00000E+00
         0.00000E+00
         0.00000E+00
         0.00000E+00
         0.00000E+00
         0.00000E+00
         0.00000E+00
         0.00000E+00
         0.00000E+00
         0.00000E+00
         0.00000E+00
         0.00000E+00
         0.00000E+00
         0.00000E+00
         0.00000E+00
         0.00000E+00
         0.00000E+00
         0.00000E+00
         0.00000E+00
         0.00000E+00
         0.00000E+00
         0.00000E+00
         0.00000E+00
         0.00000E+00
         0.00000E+00
         0.00000E+00
         0.00000E+00
         0.00000E+00
         0.00000E+00
         0.00000E+00
         0.00000E+00
         0.00000E+00
         0.00000E+00
         0.00000E+00
         0.00000E+00
         0.00000E+00
         0.00000E+00
         0.00000E+00
         0.00000E+00
         0.00000E+00
         0.00000E+00
         0.00000E+00
         0.00000E+00
         0.00000E+00
         0.00000E+00
         0.00000E+00
         0.00000E+00
         0.00000E+00
         0.00000E+00
         0.00000E+00
         0.00000E+00
         0.00000E+00
         0.00000E+00
         0.00000E+00
         0.00000E+00
         0.00000E+00
         0.00000E+00
         0.00000E+00
         0.00000E+00
         0.00000E+00
         0.00000E+00
         0.00000E+00
         0.00000E+00
         0.00000E+00
         0.00000E+00
         0.00000E+00
         0.00000E+00
         0.00000E+00
         0.00000E+00
         0.00000E+00
         0.00000E+00
         0.00000E+00
         0.00000E+00
         0.00000E+00
         0.00000E+00
         0.00000E+00
         0.00000E+00
         0.00000E+00
         0.00000E+00
         0.00000E+00
         0.00000E+00
         0.00000E+00
         0.00000E+00
         0.00000E+00
         0.00000E+00
         0.00000E+00
         0.00000E+00
         0.00000E+00
         0.00000E+00
         0.00000E+00
         0.00000E+00
         0.00000E+00
         0.00000E+00
         0.00000E+00
         0.00000E+00
         0.00000E+00
         0.00000E+00
         0.00000E+00
         0.00000E+00
         0.00000E+00
         0.00000E+00
         0.00000E+00
         0.00000E+00
         0.00000E+00
         0.00000E+00
         0.00000E+00
         0.00000E+00
         0.00000E+00
         0.00000E+00
         0.00000E+00
         0.00000E+00
         0.00000E+00
         0.00000E+00
         0.00000E+00
         0.00000E+00
         0.00000E+00
         0.00000E+00
         0.00000E+00
         0.00000E+00
         0.00000E+00
         0.00000E+00
         0.00000E+00
         0.00000E+00
         0.00000E+00
         0.00000E+00
         0.00000E+00
         0.00000E+00
         0.00000E+00
         0.00000E+00
         0.00000E+00
         0.00000E+00
         0.00000E+00
         0.00000E+00
         0.00000E+00
         0.00000E+00
         0.00000E+00
         0.00000E+00
         0.00000E+00
         0.00000E+00
         0.00000E+00
         0.00000E+00
         0.00000E+00
         0.00000E+00
         0.00000E+00
         0.00000E+00
         0.00000E+00
         0.00000E+00
         0.00000E+00
         0.00000E+00
         0.00000E+00
         0.00000E+00
         0.00000E+00
         0.00000E+00
         0.00000E+00
         0.00000E+00
         0.00000E+00
         0.00000E+00
         0.00000E+00
         0.00000E+00
         0.00000E+00
         0.00000E+00
         0.00000E+00
         0.00000E+00
         0.00000E+00
         0.00000E+00
         0.00000E+00
         0.00000E+00
         0.00000E+00
         0.00000E+00
         0.00000E+00
         0.00000E+00
         0.00000E+00
         0.00000E+00
         0.00000E+00
         0.00000E+00
         0.00000E+00
         0.00000E+00
         0.00000E+00
         0.00000E+00
         0.00000E+00
         0.00000E+00
         0.00000E+00
         0.00000E+00
         0.00000E+00
         0.00000E+00
         0.00000E+00
         0.00000E+00
         0.00000E+00
         0.00000E+00
         0.00000E+00
         0.00000E+00
         0.00000E+00
         0.00000E+00
         0.00000E+00
         0.00000E+00
         0.00000E+00
         0.00000E+00
         0.00000E+00
         0.00000E+00
         0.00000E+00
         0.00000E+00
         0.00000E+00
         0.00000E+00
         0.00000E+00
         0.00000E+00
         0.00000E+00
         0.00000E+00
         0.00000E+00
         0.00000E+00
         0.00000E+00
         0.00000E+00
         0.00000E+00
         0.00000E+00
         0.00000E+00
         0.00000E+00
         0.00000E+00
         0.00000E+00
         0.00000E+00
         0.00000E+00
         0.00000E+00
         0.00000E+00
         0.00000E+00
         0.00000E+00
         0.00000E+00
         0.00000E+00
         0.00000E+00
         0.00000E+00
         0.00000E+00
         0.00000E+00
         0.00000E+00
         0.00000E+00
         0.00000E+00
         0.00000E+00
         0.00000E+00
         0.00000E+00
         0.00000E+00
         0.00000E+00
         0.00000E+00
         0.00000E+00
         0.00000E+00
         0.00000E+00
         0.00000E+00
         0.00000E+00
         0.00000E+00
         0.00000E+00
         0.00000E+00
         0.00000E+00
         0.00000E+00
         0.00000E+00
         0.00000E+00
         0.00000E+00
         0.00000E+00
         0.00000E+00
         0.00000E+00
         0.00000E+00
         0.00000E+00
         0.00000E+00
         0.00000E+00
         0.00000E+00
         0.00000E+00
         0.00000E+00
         0.00000E+00
         0.00000E+00
         0.00000E+00
         0.00000E+00
         0.00000E+00
         0.00000E+00
         0.00000E+00
         0.00000E+00
         0.00000E+00
         0.00000E+00
         0.00000E+00
         0.00000E+00
         0.00000E+00
         0.00000E+00
         0.00000E+00
         0.00000E+00
         0.00000E+00
         0.00000E+00
         0.00000E+00
         0.00000E+00
         0.00000E+00
         0.00000E+00
         0.00000E+00
         0.00000E+00
         0.00000E+00
         0.00000E+00
         0.00000E+00
         0.00000E+00
         0.00000E+00
         0.00000E+00
         0.00000E+00
         0.00000E+00
         0.00000E+00
         0.00000E+00
         0.00000E+00
         0.00000E+00
         0.00000E+00
         0.00000E+00
         0.00000E+00
         0.00000E+00
         0.00000E+00
         0.00000E+00
         0.00000E+00
         0.00000E+00
         0.00000E+00
         0.00000E+00
         0.00000E+00
         0.00000E+00
         0.00000E+00
         0.00000E+00
         0.00000E+00
         0.00000E+00
         0.00000E+00
         0.00000E+00
         0.00000E+00
         0.00000E+00
         0.00000E+00
         0.00000E+00
         0.00000E+00
         0.00000E+00
         0.00000E+00
         0.00000E+00
         0.00000E+00
         0.00000E+00
         0.00000E+00
         0.00000E+00
         0.00000E+00
         0.00000E+00
         0.00000E+00
         0.00000E+00
         0.00000E+00
         0.00000E+00
         0.00000E+00
         0.00000E+00
         0.00000E+00
         0.00000E+00
         0.00000E+00
         0.00000E+00
         0.00000E+00
         0.00000E+00
         0.00000E+00
         0.00000E+00
         0.00000E+00
         0.00000E+00
         0.00000E+00
         0.00000E+00
         0.00000E+00
         0.00000E+00
         0.00000E+00
         0.00000E+00
         0.00000E+00
         0.00000E+00
         0.00000E+00
         0.00000E+00
         0.00000E+00
         0.00000E+00
         0.00000E+00
         0.00000E+00
         0.00000E+00
         0.00000E+00
         0.00000E+00
         0.00000E+00
         0.00000E+00
         0.00000E+00
         0.00000E+00
         0.00000E+00
         0.00000E+00
         0.00000E+00
         0.00000E+00
         0.00000E+00
         0.00000E+00
         0.00000E+00
         0.00000E+00
         0.00000E+00
         0.00000E+00
         0.00000E+00
         0.00000E+00
         0.00000E+00
         0.00000E+00
         0.00000E+00
         0.00000E+00
         0.00000E+00
         0.00000E+00
         0.00000E+00
         0.00000E+00
         0.00000E+00
         0.00000E+00
         0.00000E+00
         0.00000E+00
         0.00000E+00
         0.00000E+00
         0.00000E+00
         0.00000E+00
         0.00000E+00
         0.00000E+00
         0.00000E+00
         0.00000E+00
         0.00000E+00
         0.00000E+00
         0.00000E+00
         0.00000E+00
         0.00000E+00
         0.00000E+00
         0.00000E+00
         0.00000E+00
         0.00000E+00
         0.00000E+00
         0.00000E+00
         0.00000E+00
         0.00000E+00
         0.00000E+00
         0.00000E+00
         0.00000E+00
         0.00000E+00
         0.00000E+00
         0.00000E+00
         0.00000E+00
         0.00000E+00
         0.00000E+00
         0.00000E+00
         0.00000E+00
         0.00000E+00
         0.00000E+00
         0.00000E+00
         0.00000E+00
         0.00000E+00
         0.00000E+00
         0.00000E+00
         0.00000E+00
         0.00000E+00
         0.00000E+00
         0.00000E+00
         0.00000E+00
         0.00000E+00
         0.00000E+00
         0.00000E+00
         0.00000E+00
         0.00000E+00
         0.00000E+00
         0.00000E+00
         0.00000E+00
         0.00000E+00
         0.00000E+00
         0.00000E+00
         0.00000E+00
         0.00000E+00
         0.00000E+00
         0.00000E+00
         0.00000E+00
         0.00000E+00
         0.00000E+00
         0.00000E+00
         0.00000E+00
         0.00000E+00
         0.00000E+00
         0.00000E+00
         0.00000E+00
         0.00000E+00
         0.00000E+00
         0.00000E+00
         0.00000E+00
         0.00000E+00
         0.00000E+00
         0.00000E+00
         0.00000E+00
         0.00000E+00
         0.00000E+00
         0.00000E+00
         0.00000E+00
         0.00000E+00
         0.00000E+00
         0.00000E+00
         0.00000E+00
         0.00000E+00
         0.00000E+00
         0.00000E+00
         0.00000E+00
         0.00000E+00
         0.00000E+00
         0.00000E+00
         0.00000E+00
         0.00000E+00
         0.00000E+00
         0.00000E+00
         0.00000E+00
         0.00000E+00
         0.00000E+00
         0.00000E+00
         0.00000E+00
         0.00000E+00
         0.00000E+00
         0.00000E+00
         0.00000E+00
         0.00000E+00
         0.00000E+00
         0.00000E+00
         0.00000E+00
         0.00000E+00
         0.00000E+00
         0.00000E+00
         0.00000E+00
         0.00000E+00
         0.00000E+00
         0.00000E+00
         0.00000E+00
         0.00000E+00
         0.00000E+00
         0.00000E+00
         0.00000E+00
         0.00000E+00
         0.00000E+00
         0.00000E+00
         0.00000E+00
         0.00000E+00
         0.00000E+00
         0.00000E+00
         0.00000E+00
         0.00000E+00
         0.00000E+00
         0.00000E+00
         0.00000E+00
         0.00000E+00
         0.00000E+00
         0.00000E+00
         0.00000E+00
         0.00000E+00
         0.00000E+00
         0.00000E+00
         0.00000E+00
         0.00000E+00
         0.00000E+00
         0.00000E+00
         0.00000E+00
         0.00000E+00
         0.00000E+00
         0.00000E+00
         0.00000E+00
         0.00000E+00
         0.00000E+00
         0.00000E+00
         0.00000E+00
         0.00000E+00
         0.00000E+00
         0.00000E+00
         0.00000E+00
         0.00000E+00
         0.00000E+00
         0.00000E+00
         0.00000E+00
         0.00000E+00
         0.00000E+00
         0.00000E+00
         0.00000E+00
         0.00000E+00
         0.00000E+00
         0.00000E+00
         0.00000E+00
         0.00000E+00
         0.00000E+00
         0.00000E+00
         0.00000E+00
         0.00000E+00
         0.00000E+00
         0.00000E+00
         0.00000E+00
         0.00000E+00
         0.00000E+00
         0.00000E+00
         0.00000E+00
         0.00000E+00
         0.00000E+00
         0.00000E+00
         0.00000E+00
         0.00000E+00
         0.00000E+00
         0.00000E+00
         0.00000E+00
         0.00000E+00
         0.00000E+00
         0.00000E+00
         0.00000E+00
         0.00000E+00
         0.00000E+00
         0.00000E+00
         0.00000E+00
         0.00000E+00
         0.00000E+00
         0.00000E+00
         0.00000E+00
         0.00000E+00
         0.00000E+00
         0.00000E+00
         0.00000E+00
         0.00000E+00
         0.00000E+00
         0.00000E+00
         0.00000E+00
         0.00000E+00
         0.00000E+00
         0.00000E+00
         0.00000E+00
         0.00000E+00
         0.00000E+00
         0.00000E+00
         0.00000E+00
         0.00000E+00
         0.00000E+00
         0.00000E+00
         0.00000E+00
         0.00000E+00
         0.00000E+00
         0.00000E+00
         0.00000E+00
         0.00000E+00
         0.00000E+00
         0.00000E+00
         0.00000E+00
         0.00000E+00
         0.00000E+00
         0.00000E+00
         0.00000E+00
         0.00000E+00
         0.00000E+00
         0.00000E+00
         0.00000E+00
         0.00000E+00
         0.00000E+00
         0.00000E+00
         0.00000E+00
         0.00000E+00
         0.00000E+00
         0.00000E+00
         0.00000E+00
         0.00000E+00
         0.00000E+00
         0.00000E+00
         0.00000E+00
         0.00000E+00
         0.00000E+00
         0.00000E+00
         0.00000E+00
         0.00000E+00
         0.00000E+00
         0.00000E+00
         0.00000E+00
         0.00000E+00
         0.00000E+00
         0.00000E+00
         0.00000E+00
         0.00000E+00
         0.00000E+00
         0.00000E+00
         0.00000E+00
         0.00000E+00
         0.00000E+00
         0.00000E+00
         0.00000E+00
         0.00000E+00
         0.00000E+00
         0.00000E+00
         0.00000E+00
         0.00000E+00
         0.00000E+00
         0.00000E+00
         0.00000E+00
         0.00000E+00
         0.00000E+00
         0.00000E+00
         0.00000E+00
         0.00000E+00
         0.00000E+00
         0.00000E+00
         0.00000E+00
         0.00000E+00
         0.00000E+00
         0.00000E+00
         0.00000E+00
         0.00000E+00
         0.00000E+00
         0.00000E+00
         0.00000E+00
         0.00000E+00
         0.00000E+00
         0.00000E+00
         0.00000E+00
         0.00000E+00
         0.00000E+00
         0.00000E+00
         0.00000E+00
         0.00000E+00
         0.00000E+00
         0.00000E+00
         0.00000E+00
         0.00000E+00
         0.00000E+00
         0.00000E+00
         0.00000E+00
         0.00000E+00
         0.00000E+00
         0.00000E+00
         0.00000E+00
         0.00000E+00
         0.00000E+00
         0.00000E+00
         0.00000E+00
         0.00000E+00
         0.00000E+00
         0.00000E+00
         0.00000E+00
         0.00000E+00
         0.00000E+00
         0.00000E+00
         0.00000E+00
         0.00000E+00
         0.00000E+00
         0.00000E+00
         0.00000E+00
         0.00000E+00
         0.00000E+00
         0.00000E+00
         0.00000E+00
         0.00000E+00
         0.00000E+00
         0.00000E+00
         0.00000E+00
         0.00000E+00
         0.00000E+00
         0.00000E+00
         0.00000E+00
         0.00000E+00
         0.00000E+00
         0.00000E+00
         0.00000E+00
         0.00000E+00
         0.00000E+00
         0.00000E+00
         0.00000E+00
         0.00000E+00
         0.00000E+00
         0.00000E+00
         0.00000E+00
         0.00000E+00
         0.00000E+00
         0.00000E+00
         0.00000E+00
         0.00000E+00
         0.00000E+00
         0.00000E+00
         0.00000E+00
         0.00000E+00
         0.00000E+00
         0.00000E+00
         0.00000E+00
         0.00000E+00
         0.00000E+00
         0.00000E+00
         0.00000E+00
         0.00000E+00
         0.00000E+00
         0.00000E+00
         0.00000E+00
         0.00000E+00
         0.00000E+00
         0.00000E+00
         0.00000E+00
         0.00000E+00
         0.00000E+00
         0.00000E+00
         0.00000E+00
         0.00000E+00
         0.00000E+00
         0.00000E+00
         0.00000E+00
         0.00000E+00
         0.00000E+00
         0.00000E+00
         0.00000E+00
         0.00000E+00
         0.00000E+00
         0.00000E+00
         0.00000E+00
         0.00000E+00
         0.00000E+00
         0.00000E+00
         0.00000E+00
         0.00000E+00
         0.00000E+00
         0.00000E+00
         0.00000E+00
         0.00000E+00
         0.00000E+00
         0.00000E+00
         0.00000E+00
         0.00000E+00
         0.00000E+00
         0.00000E+00
         0.00000E+00
         0.00000E+00
         0.00000E+00
         0.00000E+00
         0.00000E+00
         0.00000E+00
         0.00000E+00
         0.00000E+00
         0.00000E+00
         0.00000E+00
         0.00000E+00
         0.00000E+00
         0.00000E+00
         0.00000E+00
         0.00000E+00
         0.00000E+00
         0.00000E+00
         0.00000E+00
         0.00000E+00
         0.00000E+00
         0.00000E+00
         0.00000E+00
         0.00000E+00
         0.00000E+00
         0.00000E+00
         0.00000E+00
         0.00000E+00
         0.00000E+00
         0.00000E+00
         0.00000E+00
         0.00000E+00
         0.00000E+00
         0.00000E+00
         0.00000E+00
         0.00000E+00
         0.00000E+00
         0.00000E+00
         0.00000E+00
         0.00000E+00
         0.00000E+00
         0.00000E+00
         0.00000E+00
         0.00000E+00
         0.00000E+00
         0.00000E+00
         0.00000E+00
         0.00000E+00
         0.00000E+00
         0.00000E+00
         0.00000E+00
         0.00000E+00
         0.00000E+00
         0.00000E+00
         0.00000E+00
         0.00000E+00
         0.00000E+00
         0.00000E+00
         0.00000E+00
         0.00000E+00
         0.00000E+00
         0.00000E+00
         0.00000E+00
         0.00000E+00
         0.00000E+00
         0.00000E+00
         0.00000E+00
         0.00000E+00
         0.00000E+00
         0.00000E+00
         0.00000E+00
         0.00000E+00
         0.00000E+00
         0.00000E+00
         0.00000E+00
         0.00000E+00
         0.00000E+00
         0.00000E+00
         0.00000E+00
         0.00000E+00
         0.00000E+00
         0.00000E+00
         0.00000E+00
         0.00000E+00
         0.00000E+00
         0.00000E+00
         0.00000E+00
         0.00000E+00
         0.00000E+00
         0.00000E+00
         0.00000E+00
         0.00000E+00
         0.00000E+00
         0.00000E+00
         0.00000E+00
         0.00000E+00
         0.00000E+00
         0.00000E+00
         0.00000E+00
         0.00000E+00
         0.00000E+00
         0.00000E+00
         0.00000E+00
         0.00000E+00
         0.00000E+00
         0.00000E+00
         0.00000E+00
         0.00000E+00
         0.00000E+00
         0.00000E+00
         0.00000E+00
         0.00000E+00
         0.00000E+00
         0.00000E+00
         0.00000E+00
         0.00000E+00
         0.00000E+00
         0.00000E+00
         0.00000E+00
         0.00000E+00
         0.00000E+00
         0.00000E+00
         0.00000E+00
         0.00000E+00
         0.00000E+00
         0.00000E+00
         0.00000E+00
         0.00000E+00
         0.00000E+00
         0.00000E+00
         0.00000E+00
         0.00000E+00
         0.00000E+00
         0.00000E+00
         0.00000E+00
         0.00000E+00
         0.00000E+00
         0.00000E+00
         0.00000E+00
         0.00000E+00
         0.00000E+00
         0.00000E+00
         0.00000E+00
         0.00000E+00
         0.00000E+00
         0.00000E+00
         0.00000E+00
         0.00000E+00
         0.00000E+00
         0.00000E+00
         0.00000E+00
         0.00000E+00
         0.00000E+00
         0.00000E+00
         0.00000E+00
         0.00000E+00
         0.00000E+00
         0.00000E+00
         0.00000E+00
         0.00000E+00
         0.00000E+00
         0.00000E+00
         0.00000E+00
         0.00000E+00
         0.00000E+00
         0.00000E+00
         0.00000E+00
         0.00000E+00
         0.00000E+00
         0.00000E+00
         0.00000E+00
         0.00000E+00
         0.00000E+00
         0.00000E+00
         0.00000E+00
         0.00000E+00
         0.00000E+00
         0.00000E+00
         0.00000E+00
         0.00000E+00
         0.00000E+00
         0.00000E+00
         0.00000E+00
         0.00000E+00
         0.00000E+00
         0.00000E+00
         0.00000E+00
         0.00000E+00
         0.00000E+00
         0.00000E+00
         0.00000E+00
         0.00000E+00
         0.00000E+00
         0.00000E+00
         0.00000E+00
         0.00000E+00
         0.00000E+00
         0.00000E+00
         0.00000E+00
         0.00000E+00
         0.00000E+00
         0.00000E+00
         0.00000E+00
         0.00000E+00
         0.00000E+00
         0.00000E+00
         0.00000E+00
         0.00000E+00
         0.00000E+00
         0.00000E+00
         0.00000E+00
         0.00000E+00
         0.00000E+00
         0.00000E+00
         0.00000E+00
         0.00000E+00
         0.00000E+00
         0.00000E+00
         0.00000E+00
         0.00000E+00
         0.00000E+00
         0.00000E+00
         0.00000E+00
         0.00000E+00
         0.00000E+00
         0.00000E+00
         0.00000E+00
         0.00000E+00
         0.00000E+00
         0.00000E+00
         0.00000E+00
         0.00000E+00
         0.00000E+00
         0.00000E+00
         0.00000E+00
         0.00000E+00
         0.00000E+00
         0.00000E+00
         0.00000E+00
         0.00000E+00
         0.00000E+00
         0.00000E+00
         0.00000E+00
         0.00000E+00
         0.00000E+00
         0.00000E+00
         0.00000E+00
         0.00000E+00
         0.00000E+00
         0.00000E+00
         0.00000E+00
         0.00000E+00
         0.00000E+00
         0.00000E+00
         0.00000E+00
         0.00000E+00
         0.00000E+00
         0.00000E+00
         0.00000E+00
         0.00000E+00
         0.00000E+00
         0.00000E+00
         0.00000E+00
         0.00000E+00
         0.00000E+00
         0.00000E+00
         0.00000E+00
         0.00000E+00
         0.00000E+00
         0.00000E+00
         0.00000E+00
         0.00000E+00
         0.00000E+00
         0.00000E+00
         0.00000E+00
         0.00000E+00
         0.00000E+00
         0.00000E+00
         0.00000E+00
         0.00000E+00
         0.00000E+00
         0.00000E+00
         0.00000E+00
         0.00000E+00
         0.00000E+00
         0.00000E+00
         0.00000E+00
         0.00000E+00
         0.00000E+00
         0.00000E+00
         0.00000E+00
         0.00000E+00
         0.00000E+00
         0.00000E+00
         0.00000E+00
         0.00000E+00
         0.00000E+00
         0.00000E+00
         0.00000E+00
         0.00000E+00
         0.00000E+00
         0.00000E+00
         0.00000E+00
         0.00000E+00
         0.00000E+00
         0.00000E+00
         0.00000E+00
         0.00000E+00
         0.00000E+00
         0.00000E+00
         0.00000E+00
         0.00000E+00
         0.00000E+00
         0.00000E+00
         0.00000E+00
         0.00000E+00
         0.00000E+00
         0.00000E+00
         0.00000E+00
         0.00000E+00
         0.00000E+00
         0.00000E+00
         0.00000E+00
  
SCALARS                     velocity_y  double 1
LOOKUP_TABLE default
         0.00000E+00
         0.00000E+00
         0.00000E+00
         0.00000E+00
         0.00000E+00
         0.00000E+00
         0.00000E+00
         0.00000E+00
         0.00000E+00
         0.00000E+00
         0.00000E+00
         0.00000E+00
         0.00000E+00
         0.00000E+00
         0.00000E+00
         0.00000E+00
         0.00000E+00
         0.00000E+00
         0.00000E+00
         0.00000E+00
         0.00000E+00
         0.00000E+00
         0.00000E+00
         0.00000E+00
         0.00000E+00
         0.00000E+00
         0.00000E+00
         0.00000E+00
         0.00000E+00
         0.00000E+00
         0.00000E+00
         0.00000E+00
         0.00000E+00
         0.00000E+00
         0.00000E+00
         0.00000E+00
         0.00000E+00
         0.00000E+00
         0.00000E+00
         0.00000E+00
         0.00000E+00
         0.00000E+00
         0.00000E+00
         0.00000E+00
         0.00000E+00
         0.00000E+00
         0.00000E+00
         0.00000E+00
         0.00000E+00
         0.00000E+00
         0.00000E+00
         0.00000E+00
         0.00000E+00
         0.00000E+00
         0.00000E+00
         0.00000E+00
         0.00000E+00
         0.00000E+00
         0.00000E+00
         0.00000E+00
         0.00000E+00
         0.00000E+00
         0.00000E+00
         0.00000E+00
         0.00000E+00
         0.00000E+00
         0.00000E+00
         0.00000E+00
         0.00000E+00
         0.00000E+00
         0.00000E+00
         0.00000E+00
         0.00000E+00
         0.00000E+00
         0.00000E+00
         0.00000E+00
         0.00000E+00
         0.00000E+00
         0.00000E+00
         0.00000E+00
         0.00000E+00
         0.00000E+00
         0.00000E+00
         0.00000E+00
         0.00000E+00
         0.00000E+00
         0.00000E+00
         0.00000E+00
         0.00000E+00
         0.00000E+00
         0.00000E+00
         0.00000E+00
         0.00000E+00
         0.00000E+00
         0.00000E+00
         0.00000E+00
         0.00000E+00
         0.00000E+00
         0.00000E+00
         0.00000E+00
         0.00000E+00
         0.00000E+00
         0.00000E+00
         0.00000E+00
         0.00000E+00
         0.00000E+00
         0.00000E+00
         0.00000E+00
         0.00000E+00
         0.00000E+00
         0.00000E+00
         0.00000E+00
         0.00000E+00
         0.00000E+00
         0.00000E+00
         0.00000E+00
         0.00000E+00
         0.00000E+00
         0.00000E+00
         0.00000E+00
         0.00000E+00
         0.00000E+00
         0.00000E+00
         0.00000E+00
         0.00000E+00
         0.00000E+00
         0.00000E+00
         0.00000E+00
         0.00000E+00
         0.00000E+00
         0.00000E+00
         0.00000E+00
         0.00000E+00
         0.00000E+00
         0.00000E+00
         0.00000E+00
         0.00000E+00
         0.00000E+00
         0.00000E+00
         0.00000E+00
         0.00000E+00
         0.00000E+00
         0.00000E+00
         0.00000E+00
         0.00000E+00
         0.00000E+00
         0.00000E+00
         0.00000E+00
         0.00000E+00
         0.00000E+00
         0.00000E+00
         0.00000E+00
         0.00000E+00
         0.00000E+00
         0.00000E+00
         0.00000E+00
         0.00000E+00
         0.00000E+00
         0.00000E+00
         0.00000E+00
         0.00000E+00
         0.00000E+00
         0.00000E+00
         0.00000E+00
         0.00000E+00
         0.00000E+00
         0.00000E+00
         0.00000E+00
         0.00000E+00
         0.00000E+00
         0.00000E+00
         0.00000E+00
         0.00000E+00
         0.00000E+00
         0.00000E+00
         0.00000E+00
         0.00000E+00
         0.00000E+00
         0.00000E+00
         0.00000E+00
         0.00000E+00
         0.00000E+00
         0.00000E+00
         0.00000E+00
         0.00000E+00
         0.00000E+00
         0.00000E+00
         0.00000E+00
         0.00000E+00
         0.00000E+00
         0.00000E+00
         0.00000E+00
         0.00000E+00
         0.00000E+00
         0.00000E+00
         0.00000E+00
         0.00000E+00
         0.00000E+00
         0.00000E+00
         0.00000E+00
         0.00000E+00
         0.00000E+00
         0.00000E+00
         0.00000E+00
         0.00000E+00
         0.00000E+00
         0.00000E+00
         0.00000E+00
         0.00000E+00
         0.00000E+00
         0.00000E+00
         0.00000E+00
         0.00000E+00
         0.00000E+00
         0.00000E+00
         0.00000E+00
         0.00000E+00
         0.00000E+00
         0.00000E+00
         0.00000E+00
         0.00000E+00
         0.00000E+00
         0.00000E+00
         0.00000E+00
         0.00000E+00
         0.00000E+00
         0.00000E+00
         0.00000E+00
         0.00000E+00
         0.00000E+00
         0.00000E+00
         0.00000E+00
         0.00000E+00
         0.00000E+00
         0.00000E+00
         0.00000E+00
         0.00000E+00
         0.00000E+00
         0.00000E+00
         0.00000E+00
         0.00000E+00
         0.00000E+00
         0.00000E+00
         0.00000E+00
         0.00000E+00
         0.00000E+00
         0.00000E+00
         0.00000E+00
         0.00000E+00
         0.00000E+00
         0.00000E+00
         0.00000E+00
         0.00000E+00
         0.00000E+00
         0.00000E+00
         0.00000E+00
         0.00000E+00
         0.00000E+00
         0.00000E+00
         0.00000E+00
         0.00000E+00
         0.00000E+00
         0.00000E+00
         0.00000E+00
         0.00000E+00
         0.00000E+00
         0.00000E+00
         0.00000E+00
         0.00000E+00
         0.00000E+00
         0.00000E+00
         0.00000E+00
         0.00000E+00
         0.00000E+00
         0.00000E+00
         0.00000E+00
         0.00000E+00
         0.00000E+00
         0.00000E+00
         0.00000E+00
         0.00000E+00
         0.00000E+00
         0.00000E+00
         0.00000E+00
         0.00000E+00
         0.00000E+00
         0.00000E+00
         0.00000E+00
         0.00000E+00
         0.00000E+00
         0.00000E+00
         0.00000E+00
         0.00000E+00
         0.00000E+00
         0.00000E+00
         0.00000E+00
         0.00000E+00
         0.00000E+00
         0.00000E+00
         0.00000E+00
         0.00000E+00
         0.00000E+00
         0.00000E+00
         0.00000E+00
         0.00000E+00
         0.00000E+00
         0.00000E+00
         0.00000E+00
         0.00000E+00
         0.00000E+00
         0.00000E+00
         0.00000E+00
         0.00000E+00
         0.00000E+00
         0.00000E+00
         0.00000E+00
         0.00000E+00
         0.00000E+00
         0.00000E+00
         0.00000E+00
         0.00000E+00
         0.00000E+00
         0.00000E+00
         0.00000E+00
         0.00000E+00
         0.00000E+00
         0.00000E+00
         0.00000E+00
         0.00000E+00
         0.00000E+00
         0.00000E+00
         0.00000E+00
         0.00000E+00
         0.00000E+00
         0.00000E+00
         0.00000E+00
         0.00000E+00
         0.00000E+00
         0.00000E+00
         0.00000E+00
         0.00000E+00
         0.00000E+00
         0.00000E+00
         0.00000E+00
         0.00000E+00
         0.00000E+00
         0.00000E+00
         0.00000E+00
         0.00000E+00
         0.00000E+00
         0.00000E+00
         0.00000E+00
         0.00000E+00
         0.00000E+00
         0.00000E+00
         0.00000E+00
         0.00000E+00
         0.00000E+00
         0.00000E+00
         0.00000E+00
         0.00000E+00
         0.00000E+00
         0.00000E+00
         0.00000E+00
         0.00000E+00
         0.00000E+00
         0.00000E+00
         0.00000E+00
         0.00000E+00
         0.00000E+00
         0.00000E+00
         0.00000E+00
         0.00000E+00
         0.00000E+00
         0.00000E+00
         0.00000E+00
         0.00000E+00
         0.00000E+00
         0.00000E+00
         0.00000E+00
         0.00000E+00
         0.00000E+00
         0.00000E+00
         0.00000E+00
         0.00000E+00
         0.00000E+00
         0.00000E+00
         0.00000E+00
         0.00000E+00
         0.00000E+00
         0.00000E+00
         0.00000E+00
         0.00000E+00
         0.00000E+00
         0.00000E+00
         0.00000E+00
         0.00000E+00
         0.00000E+00
         0.00000E+00
         0.00000E+00
         0.00000E+00
         0.00000E+00
         0.00000E+00
         0.00000E+00
         0.00000E+00
         0.00000E+00
         0.00000E+00
         0.00000E+00
         0.00000E+00
         0.00000E+00
         0.00000E+00
         0.00000E+00
         0.00000E+00
         0.00000E+00
         0.00000E+00
         0.00000E+00
         0.00000E+00
         0.00000E+00
         0.00000E+00
         0.00000E+00
         0.00000E+00
         0.00000E+00
         0.00000E+00
         0.00000E+00
         0.00000E+00
         0.00000E+00
         0.00000E+00
         0.00000E+00
         0.00000E+00
         0.00000E+00
         0.00000E+00
         0.00000E+00
         0.00000E+00
         0.00000E+00
         0.00000E+00
         0.00000E+00
         0.00000E+00
         0.00000E+00
         0.00000E+00
         0.00000E+00
         0.00000E+00
         0.00000E+00
         0.00000E+00
         0.00000E+00
         0.00000E+00
         0.00000E+00
         0.00000E+00
         0.00000E+00
         0.00000E+00
         0.00000E+00
         0.00000E+00
         0.00000E+00
         0.00000E+00
         0.00000E+00
         0.00000E+00
         0.00000E+00
         0.00000E+00
         0.00000E+00
         0.00000E+00
         0.00000E+00
         0.00000E+00
         0.00000E+00
         0.00000E+00
         0.00000E+00
         0.00000E+00
         0.00000E+00
         0.00000E+00
         0.00000E+00
         0.00000E+00
         0.00000E+00
         0.00000E+00
         0.00000E+00
         0.00000E+00
         0.00000E+00
         0.00000E+00
         0.00000E+00
         0.00000E+00
         0.00000E+00
         0.00000E+00
         0.00000E+00
         0.00000E+00
         0.00000E+00
         0.00000E+00
         0.00000E+00
         0.00000E+00
         0.00000E+00
         0.00000E+00
         0.00000E+00
         0.00000E+00
         0.00000E+00
         0.00000E+00
         0.00000E+00
         0.00000E+00
         0.00000E+00
         0.00000E+00
         0.00000E+00
         0.00000E+00
         0.00000E+00
         0.00000E+00
         0.00000E+00
         0.00000E+00
         0.00000E+00
         0.00000E+00
         0.00000E+00
         0.00000E+00
         0.00000E+00
         0.00000E+00
         0.00000E+00
         0.00000E+00
         0.00000E+00
         0.00000E+00
         0.00000E+00
         0.00000E+00
         0.00000E+00
         0.00000E+00
         0.00000E+00
         0.00000E+00
         0.00000E+00
         0.00000E+00
         0.00000E+00
         0.00000E+00
         0.00000E+00
         0.00000E+00
         0.00000E+00
         0.00000E+00
         0.00000E+00
         0.00000E+00
         0.00000E+00
         0.00000E+00
         0.00000E+00
         0.00000E+00
         0.00000E+00
         0.00000E+00
         0.00000E+00
         0.00000E+00
         0.00000E+00
         0.00000E+00
         0.00000E+00
         0.00000E+00
         0.00000E+00
         0.00000E+00
         0.00000E+00
         0.00000E+00
         0.00000E+00
         0.00000E+00
         0.00000E+00
         0.00000E+00
         0.00000E+00
         0.00000E+00
         0.00000E+00
         0.00000E+00
         0.00000E+00
         0.00000E+00
         0.00000E+00
         0.00000E+00
         0.00000E+00
         0.00000E+00
         0.00000E+00
         0.00000E+00
         0.00000E+00
         0.00000E+00
         0.00000E+00
         0.00000E+00
         0.00000E+00
         0.00000E+00
         0.00000E+00
         0.00000E+00
         0.00000E+00
         0.00000E+00
         0.00000E+00
         0.00000E+00
         0.00000E+00
         0.00000E+00
         0.00000E+00
         0.00000E+00
         0.00000E+00
         0.00000E+00
         0.00000E+00
         0.00000E+00
         0.00000E+00
         0.00000E+00
         0.00000E+00
         0.00000E+00
         0.00000E+00
         0.00000E+00
         0.00000E+00
         0.00000E+00
         0.00000E+00
         0.00000E+00
         0.00000E+00
         0.00000E+00
         0.00000E+00
         0.00000E+00
         0.00000E+00
         0.00000E+00
         0.00000E+00
         0.00000E+00
         0.00000E+00
         0.00000E+00
         0.00000E+00
         0.00000E+00
         0.00000E+00
         0.00000E+00
         0.00000E+00
         0.00000E+00
         0.00000E+00
         0.00000E+00
         0.00000E+00
         0.00000E+00
         0.00000E+00
         0.00000E+00
         0.00000E+00
         0.00000E+00
         0.00000E+00
         0.00000E+00
         0.00000E+00
         0.00000E+00
         0.00000E+00
         0.00000E+00
         0.00000E+00
         0.00000E+00
         0.00000E+00
         0.00000E+00
         0.00000E+00
         0.00000E+00
         0.00000E+00
         0.00000E+00
         0.00000E+00
         0.00000E+00
         0.00000E+00
         0.00000E+00
         0.00000E+00
         0.00000E+00
         0.00000E+00
         0.00000E+00
         0.00000E+00
         0.00000E+00
         0.00000E+00
         0.00000E+00
         0.00000E+00
         0.00000E+00
         0.00000E+00
         0.00000E+00
         0.00000E+00
         0.00000E+00
         0.00000E+00
         0.00000E+00
         0.00000E+00
         0.00000E+00
         0.00000E+00
         0.00000E+00
         0.00000E+00
         0.00000E+00
         0.00000E+00
         0.00000E+00
         0.00000E+00
         0.00000E+00
         0.00000E+00
         0.00000E+00
         0.00000E+00
         0.00000E+00
         0.00000E+00
         0.00000E+00
         0.00000E+00
         0.00000E+00
         0.00000E+00
         0.00000E+00
         0.00000E+00
         0.00000E+00
         0.00000E+00
         0.00000E+00
         0.00000E+00
         0.00000E+00
         0.00000E+00
         0.00000E+00
         0.00000E+00
         0.00000E+00
         0.00000E+00
         0.00000E+00
         0.00000E+00
         0.00000E+00
         0.00000E+00
         0.00000E+00
         0.00000E+00
         0.00000E+00
         0.00000E+00
         0.00000E+00
         0.00000E+00
         0.00000E+00
         0.00000E+00
         0.00000E+00
         0.00000E+00
         0.00000E+00
         0.00000E+00
         0.00000E+00
         0.00000E+00
         0.00000E+00
         0.00000E+00
         0.00000E+00
         0.00000E+00
         0.00000E+00
         0.00000E+00
         0.00000E+00
         0.00000E+00
         0.00000E+00
         0.00000E+00
         0.00000E+00
         0.00000E+00
         0.00000E+00
         0.00000E+00
         0.00000E+00
         0.00000E+00
         0.00000E+00
         0.00000E+00
         0.00000E+00
         0.00000E+00
         0.00000E+00
         0.00000E+00
         0.00000E+00
         0.00000E+00
         0.00000E+00
         0.00000E+00
         0.00000E+00
         0.00000E+00
         0.00000E+00
         0.00000E+00
         0.00000E+00
         0.00000E+00
         0.00000E+00
         0.00000E+00
         0.00000E+00
         0.00000E+00
         0.00000E+00
         0.00000E+00
         0.00000E+00
         0.00000E+00
         0.00000E+00
         0.00000E+00
         0.00000E+00
         0.00000E+00
         0.00000E+00
         0.00000E+00
         0.00000E+00
         0.00000E+00
         0.00000E+00
         0.00000E+00
         0.00000E+00
         0.00000E+00
         0.00000E+00
         0.00000E+00
         0.00000E+00
         0.00000E+00
         0.00000E+00
         0.00000E+00
         0.00000E+00
         0.00000E+00
         0.00000E+00
         0.00000E+00
         0.00000E+00
         0.00000E+00
         0.00000E+00
         0.00000E+00
         0.00000E+00
         0.00000E+00
         0.00000E+00
         0.00000E+00
         0.00000E+00
         0.00000E+00
         0.00000E+00
         0.00000E+00
         0.00000E+00
         0.00000E+00
         0.00000E+00
         0.00000E+00
         0.00000E+00
         0.00000E+00
         0.00000E+00
         0.00000E+00
         0.00000E+00
         0.00000E+00
         0.00000E+00
         0.00000E+00
         0.00000E+00
         0.00000E+00
         0.00000E+00
         0.00000E+00
         0.00000E+00
         0.00000E+00
         0.00000E+00
         0.00000E+00
         0.00000E+00
         0.00000E+00
         0.00000E+00
         0.00000E+00
         0.00000E+00
         0.00000E+00
         0.00000E+00
         0.00000E+00
         0.00000E+00
         0.00000E+00
         0.00000E+00
         0.00000E+00
         0.00000E+00
         0.00000E+00
         0.00000E+00
         0.00000E+00
         0.00000E+00
         0.00000E+00
         0.00000E+00
         0.00000E+00
         0.00000E+00
         0.00000E+00
         0.00000E+00
         0.00000E+00
         0.00000E+00
         0.00000E+00
         0.00000E+00
         0.00000E+00
         0.00000E+00
         0.00000E+00
         0.00000E+00
         0.00000E+00
         0.00000E+00
         0.00000E+00
         0.00000E+00
         0.00000E+00
         0.00000E+00
         0.00000E+00
         0.00000E+00
         0.00000E+00
         0.00000E+00
         0.00000E+00
         0.00000E+00
         0.00000E+00
         0.00000E+00
         0.00000E+00
         0.00000E+00
         0.00000E+00
         0.00000E+00
         0.00000E+00
         0.00000E+00
         0.00000E+00
         0.00000E+00
         0.00000E+00
         0.00000E+00
         0.00000E+00
         0.00000E+00
         0.00000E+00
         0.00000E+00
         0.00000E+00
         0.00000E+00
         0.00000E+00
         0.00000E+00
         0.00000E+00
         0.00000E+00
         0.00000E+00
         0.00000E+00
         0.00000E+00
         0.00000E+00
         0.00000E+00
         0.00000E+00
         0.00000E+00
         0.00000E+00
         0.00000E+00
         0.00000E+00
         0.00000E+00
         0.00000E+00
         0.00000E+00
         0.00000E+00
         0.00000E+00
         0.00000E+00
         0.00000E+00
         0.00000E+00
         0.00000E+00
         0.00000E+00
         0.00000E+00
         0.00000E+00
         0.00000E+00
         0.00000E+00
         0.00000E+00
         0.00000E+00
         0.00000E+00
         0.00000E+00
         0.00000E+00
         0.00000E+00
         0.00000E+00
         0.00000E+00
         0.00000E+00
         0.00000E+00
         0.00000E+00
         0.00000E+00
         0.00000E+00
         0.00000E+00
         0.00000E+00
         0.00000E+00
         0.00000E+00
         0.00000E+00
         0.00000E+00
         0.00000E+00
         0.00000E+00
         0.00000E+00
         0.00000E+00
         0.00000E+00
         0.00000E+00
         0.00000E+00
         0.00000E+00
         0.00000E+00
         0.00000E+00
         0.00000E+00
         0.00000E+00
         0.00000E+00
         0.00000E+00
         0.00000E+00
         0.00000E+00
         0.00000E+00
         0.00000E+00
         0.00000E+00
         0.00000E+00
         0.00000E+00
         0.00000E+00
         0.00000E+00
         0.00000E+00
         0.00000E+00
         0.00000E+00
         0.00000E+00
         0.00000E+00
         0.00000E+00
         0.00000E+00
         0.00000E+00
         0.00000E+00
         0.00000E+00
         0.00000E+00
         0.00000E+00
         0.00000E+00
         0.00000E+00
         0.00000E+00
         0.00000E+00
         0.00000E+00
         0.00000E+00
         0.00000E+00
         0.00000E+00
         0.00000E+00
         0.00000E+00
         0.00000E+00
         0.00000E+00
         0.00000E+00
         0.00000E+00
         0.00000E+00
         0.00000E+00
         0.00000E+00
         0.00000E+00
         0.00000E+00
         0.00000E+00
         0.00000E+00
         0.00000E+00
         0.00000E+00
         0.00000E+00
         0.00000E+00
         0.00000E+00
         0.00000E+00
         0.00000E+00
         0.00000E+00
         0.00000E+00
         0.00000E+00
         0.00000E+00
         0.00000E+00
         0.00000E+00
         0.00000E+00
         0.00000E+00
         0.00000E+00
         0.00000E+00
         0.00000E+00
         0.00000E+00
         0.00000E+00
         0.00000E+00
         0.00000E+00
         0.00000E+00
         0.00000E+00
         0.00000E+00
         0.00000E+00
         0.00000E+00
         0.00000E+00
         0.00000E+00
         0.00000E+00
         0.00000E+00
         0.00000E+00
         0.00000E+00
         0.00000E+00
         0.00000E+00
         0.00000E+00
         0.00000E+00
         0.00000E+00
         0.00000E+00
         0.00000E+00
         0.00000E+00
         0.00000E+00
         0.00000E+00
         0.00000E+00
         0.00000E+00
         0.00000E+00
         0.00000E+00
         0.00000E+00
         0.00000E+00
         0.00000E+00
         0.00000E+00
         0.00000E+00
         0.00000E+00
         0.00000E+00
         0.00000E+00
         0.00000E+00
         0.00000E+00
         0.00000E+00
         0.00000E+00
         0.00000E+00
         0.00000E+00
         0.00000E+00
         0.00000E+00
         0.00000E+00
         0.00000E+00
         0.00000E+00
         0.00000E+00
         0.00000E+00
         0.00000E+00
         0.00000E+00
         0.00000E+00
         0.00000E+00
         0.00000E+00
         0.00000E+00
         0.00000E+00
         0.00000E+00
         0.00000E+00
         0.00000E+00
         0.00000E+00
         0.00000E+00
         0.00000E+00
         0.00000E+00
         0.00000E+00
         0.00000E+00
         0.00000E+00
         0.00000E+00
         0.00000E+00
         0.00000E+00
         0.00000E+00
         0.00000E+00
         0.00000E+00
         0.00000E+00
         0.00000E+00
         0.00000E+00
         0.00000E+00
         0.00000E+00
         0.00000E+00
         0.00000E+00
         0.00000E+00
         0.00000E+00
         0.00000E+00
         0.00000E+00
         0.00000E+00
         0.00000E+00
         0.00000E+00
         0.00000E+00
         0.00000E+00
         0.00000E+00
         0.00000E+00
         0.00000E+00
         0.00000E+00
         0.00000E+00
         0.00000E+00
         0.00000E+00
         0.00000E+00
         0.00000E+00
         0.00000E+00
         0.00000E+00
         0.00000E+00
         0.00000E+00
         0.00000E+00
         0.00000E+00
         0.00000E+00
         0.00000E+00
         0.00000E+00
         0.00000E+00
         0.00000E+00
         0.00000E+00
         0.00000E+00
         0.00000E+00
         0.00000E+00
         0.00000E+00
         0.00000E+00
         0.00000E+00
         0.00000E+00
         0.00000E+00
         0.00000E+00
         0.00000E+00
         0.00000E+00
         0.00000E+00
         0.00000E+00
         0.00000E+00
         0.00000E+00
         0.00000E+00
         0.00000E+00
         0.00000E+00
         0.00000E+00
         0.00000E+00
         0.00000E+00
         0.00000E+00
         0.00000E+00
         0.00000E+00
         0.00000E+00
         0.00000E+00
         0.00000E+00
         0.00000E+00
         0.00000E+00
         0.00000E+00
         0.00000E+00
         0.00000E+00
         0.00000E+00
         0.00000E+00
         0.00000E+00
         0.00000E+00
         0.00000E+00
         0.00000E+00
         0.00000E+00
         0.00000E+00
         0.00000E+00
         0.00000E+00
         0.00000E+00
         0.00000E+00
         0.00000E+00
         0.00000E+00
         0.00000E+00
         0.00000E+00
         0.00000E+00
         0.00000E+00
         0.00000E+00
         0.00000E+00
         0.00000E+00
         0.00000E+00
         0.00000E+00
         0.00000E+00
         0.00000E+00
         0.00000E+00
         0.00000E+00
         0.00000E+00
         0.00000E+00
         0.00000E+00
         0.00000E+00
         0.00000E+00
         0.00000E+00
         0.00000E+00
         0.00000E+00
         0.00000E+00
         0.00000E+00
         0.00000E+00
         0.00000E+00
         0.00000E+00
         0.00000E+00
         0.00000E+00
         0.00000E+00
         0.00000E+00
         0.00000E+00
         0.00000E+00
         0.00000E+00
         0.00000E+00
         0.00000E+00
         0.00000E+00
         0.00000E+00
         0.00000E+00
         0.00000E+00
         0.00000E+00
         0.00000E+00
         0.00000E+00
         0.00000E+00
         0.00000E+00
         0.00000E+00
         0.00000E+00
         0.00000E+00
         0.00000E+00
         0.00000E+00
         0.00000E+00
         0.00000E+00
         0.00000E+00
         0.00000E+00
         0.00000E+00
         0.00000E+00
         0.00000E+00
         0.00000E+00
         0.00000E+00
         0.00000E+00
         0.00000E+00
         0.00000E+00
         0.00000E+00
         0.00000E+00
         0.00000E+00
         0.00000E+00
         0.00000E+00
         0.00000E+00
         0.00000E+00
         0.00000E+00
         0.00000E+00
         0.00000E+00
         0.00000E+00
         0.00000E+00
         0.00000E+00
         0.00000E+00
         0.00000E+00
         0.00000E+00
         0.00000E+00
         0.00000E+00
         0.00000E+00
         0.00000E+00
         0.00000E+00
         0.00000E+00
         0.00000E+00
         0.00000E+00
         0.00000E+00
         0.00000E+00
         0.00000E+00
         0.00000E+00
         0.00000E+00
         0.00000E+00
         0.00000E+00
         0.00000E+00
         0.00000E+00
         0.00000E+00
         0.00000E+00
         0.00000E+00
         0.00000E+00
         0.00000E+00
         0.00000E+00
         0.00000E+00
         0.00000E+00
         0.00000E+00
         0.00000E+00
         0.00000E+00
         0.00000E+00
         0.00000E+00
         0.00000E+00
         0.00000E+00
         0.00000E+00
         0.00000E+00
         0.00000E+00
         0.00000E+00
         0.00000E+00
         0.00000E+00
         0.00000E+00
         0.00000E+00
         0.00000E+00
         0.00000E+00
         0.00000E+00
         0.00000E+00
         0.00000E+00
         0.00000E+00
         0.00000E+00
         0.00000E+00
         0.00000E+00
         0.00000E+00
         0.00000E+00
         0.00000E+00
         0.00000E+00
         0.00000E+00
         0.00000E+00
         0.00000E+00
         0.00000E+00
         0.00000E+00
         0.00000E+00
         0.00000E+00
         0.00000E+00
         0.00000E+00
         0.00000E+00
         0.00000E+00
         0.00000E+00
         0.00000E+00
         0.00000E+00
         0.00000E+00
         0.00000E+00
         0.00000E+00
         0.00000E+00
         0.00000E+00
         0.00000E+00
         0.00000E+00
         0.00000E+00
         0.00000E+00
         0.00000E+00
         0.00000E+00
         0.00000E+00
         0.00000E+00
         0.00000E+00
         0.00000E+00
         0.00000E+00
         0.00000E+00
         0.00000E+00
         0.00000E+00
         0.00000E+00
         0.00000E+00
         0.00000E+00
         0.00000E+00
         0.00000E+00
         0.00000E+00
         0.00000E+00
         0.00000E+00
         0.00000E+00
         0.00000E+00
         0.00000E+00
         0.00000E+00
         0.00000E+00
         0.00000E+00
         0.00000E+00
         0.00000E+00
         0.00000E+00
         0.00000E+00
         0.00000E+00
         0.00000E+00
         0.00000E+00
         0.00000E+00
         0.00000E+00
         0.00000E+00
         0.00000E+00
         0.00000E+00
         0.00000E+00
         0.00000E+00
         0.00000E+00
         0.00000E+00
         0.00000E+00
         0.00000E+00
         0.00000E+00
         0.00000E+00
         0.00000E+00
         0.00000E+00
         0.00000E+00
         0.00000E+00
         0.00000E+00
         0.00000E+00
         0.00000E+00
         0.00000E+00
         0.00000E+00
         0.00000E+00
         0.00000E+00
         0.00000E+00
         0.00000E+00
         0.00000E+00
         0.00000E+00
         0.00000E+00
         0.00000E+00
         0.00000E+00
         0.00000E+00
         0.00000E+00
         0.00000E+00
         0.00000E+00
         0.00000E+00
         0.00000E+00
         0.00000E+00
         0.00000E+00
         0.00000E+00
         0.00000E+00
         0.00000E+00
         0.00000E+00
         0.00000E+00
         0.00000E+00
         0.00000E+00
         0.00000E+00
         0.00000E+00
         0.00000E+00
         0.00000E+00
         0.00000E+00
         0.00000E+00
         0.00000E+00
         0.00000E+00
         0.00000E+00
         0.00000E+00
         0.00000E+00
         0.00000E+00
         0.00000E+00
         0.00000E+00
         0.00000E+00
         0.00000E+00
         0.00000E+00
         0.00000E+00
         0.00000E+00
         0.00000E+00
         0.00000E+00
         0.00000E+00
         0.00000E+00
         0.00000E+00
         0.00000E+00
         0.00000E+00
         0.00000E+00
         0.00000E+00
         0.00000E+00
         0.00000E+00
         0.00000E+00
         0.00000E+00
         0.00000E+00
         0.00000E+00
         0.00000E+00
         0.00000E+00
         0.00000E+00
         0.00000E+00
         0.00000E+00
         0.00000E+00
         0.00000E+00
         0.00000E+00
         0.00000E+00
         0.00000E+00
         0.00000E+00
         0.00000E+00
         0.00000E+00
         0.00000E+00
         0.00000E+00
         0.00000E+00
         0.00000E+00
         0.00000E+00
         0.00000E+00
         0.00000E+00
         0.00000E+00
         0.00000E+00
         0.00000E+00
         0.00000E+00
         0.00000E+00
         0.00000E+00
         0.00000E+00
         0.00000E+00
         0.00000E+00
         0.00000E+00
         0.00000E+00
         0.00000E+00
         0.00000E+00
         0.00000E+00
         0.00000E+00
         0.00000E+00
         0.00000E+00
         0.00000E+00
         0.00000E+00
         0.00000E+00
         0.00000E+00
         0.00000E+00
         0.00000E+00
         0.00000E+00
         0.00000E+00
         0.00000E+00
         0.00000E+00
         0.00000E+00
         0.00000E+00
         0.00000E+00
         0.00000E+00
         0.00000E+00
         0.00000E+00
         0.00000E+00
         0.00000E+00
         0.00000E+00
         0.00000E+00
         0.00000E+00
         0.00000E+00
         0.00000E+00
         0.00000E+00
         0.00000E+00
         0.00000E+00
         0.00000E+00
         0.00000E+00
         0.00000E+00
         0.00000E+00
         0.00000E+00
         0.00000E+00
         0.00000E+00
         0.00000E+00
         0.00000E+00
         0.00000E+00
         0.00000E+00
         0.00000E+00
         0.00000E+00
         0.00000E+00
         0.00000E+00
         0.00000E+00
         0.00000E+00
         0.00000E+00
         0.00000E+00
         0.00000E+00
         0.00000E+00
         0.00000E+00
         0.00000E+00
         0.00000E+00
         0.00000E+00
         0.00000E+00
         0.00000E+00
         0.00000E+00
         0.00000E+00
         0.00000E+00
         0.00000E+00
         0.00000E+00
         0.00000E+00
         0.00000E+00
         0.00000E+00
         0.00000E+00
         0.00000E+00
         0.00000E+00
         0.00000E+00
         0.00000E+00
         0.00000E+00
         0.00000E+00
         0.00000E+00
         0.00000E+00
         0.00000E+00
         0.00000E+00
         0.00000E+00
         0.00000E+00
         0.00000E+00
         0.00000E+00
         0.00000E+00
         0.00000E+00
         0.00000E+00
         0.00000E+00
         0.00000E+00
         0.00000E+00
         0.00000E+00
         0.00000E+00
         0.00000E+00
         0.00000E+00
         0.00000E+00
         0.00000E+00
         0.00000E+00
         0.00000E+00
         0.00000E+00
         0.00000E+00
         0.00000E+00
         0.00000E+00
         0.00000E+00
         0.00000E+00
         0.00000E+00
         0.00000E+00
         0.00000E+00
         0.00000E+00
         0.00000E+00
         0.00000E+00
         0.00000E+00
         0.00000E+00
         0.00000E+00
         0.00000E+00
         0.00000E+00
         0.00000E+00
         0.00000E+00
         0.00000E+00
         0.00000E+00
         0.00000E+00
         0.00000E+00
         0.00000E+00
         0.00000E+00
         0.00000E+00
         0.00000E+00
         0.00000E+00
         0.00000E+00
         0.00000E+00
         0.00000E+00
         0.00000E+00
         0.00000E+00
         0.00000E+00
         0.00000E+00
         0.00000E+00
         0.00000E+00
         0.00000E+00
         0.00000E+00
         0.00000E+00
         0.00000E+00
         0.00000E+00
         0.00000E+00
         0.00000E+00
         0.00000E+00
         0.00000E+00
         0.00000E+00
         0.00000E+00
         0.00000E+00
         0.00000E+00
         0.00000E+00
         0.00000E+00
         0.00000E+00
         0.00000E+00
         0.00000E+00
         0.00000E+00
         0.00000E+00
         0.00000E+00
         0.00000E+00
         0.00000E+00
         0.00000E+00
         0.00000E+00
         0.00000E+00
         0.00000E+00
         0.00000E+00
         0.00000E+00
         0.00000E+00
         0.00000E+00
         0.00000E+00
         0.00000E+00
         0.00000E+00
         0.00000E+00
         0.00000E+00
         0.00000E+00
         0.00000E+00
         0.00000E+00
         0.00000E+00
         0.00000E+00
         0.00000E+00
         0.00000E+00
         0.00000E+00
         0.00000E+00
         0.00000E+00
         0.00000E+00
         0.00000E+00
         0.00000E+00
         0.00000E+00
         0.00000E+00
         0.00000E+00
         0.00000E+00
         0.00000E+00
         0.00000E+00
         0.00000E+00
         0.00000E+00
         0.00000E+00
         0.00000E+00
         0.00000E+00
         0.00000E+00
         0.00000E+00
         0.00000E+00
         0.00000E+00
         0.00000E+00
         0.00000E+00
         0.00000E+00
         0.00000E+00
         0.00000E+00
         0.00000E+00
         0.00000E+00
         0.00000E+00
         0.00000E+00
         0.00000E+00
         0.00000E+00
         0.00000E+00
         0.00000E+00
         0.00000E+00
         0.00000E+00
         0.00000E+00
         0.00000E+00
         0.00000E+00
         0.00000E+00
         0.00000E+00
         0.00000E+00
         0.00000E+00
         0.00000E+00
         0.00000E+00
         0.00000E+00
         0.00000E+00
         0.00000E+00
         0.00000E+00
         0.00000E+00
         0.00000E+00
         0.00000E+00
         0.00000E+00
         0.00000E+00
         0.00000E+00
         0.00000E+00
         0.00000E+00
         0.00000E+00
         0.00000E+00
         0.00000E+00
         0.00000E+00
         0.00000E+00
         0.00000E+00
         0.00000E+00
         0.00000E+00
         0.00000E+00
         0.00000E+00
         0.00000E+00
         0.00000E+00
         0.00000E+00
         0.00000E+00
         0.00000E+00
         0.00000E+00
         0.00000E+00
         0.00000E+00
         0.00000E+00
         0.00000E+00
         0.00000E+00
         0.00000E+00
         0.00000E+00
         0.00000E+00
         0.00000E+00
         0.00000E+00
         0.00000E+00
         0.00000E+00
         0.00000E+00
         0.00000E+00
         0.00000E+00
         0.00000E+00
         0.00000E+00
         0.00000E+00
         0.00000E+00
         0.00000E+00
         0.00000E+00
         0.00000E+00
         0.00000E+00
         0.00000E+00
         0.00000E+00
         0.00000E+00
         0.00000E+00
         0.00000E+00
         0.00000E+00
         0.00000E+00
         0.00000E+00
         0.00000E+00
         0.00000E+00
         0.00000E+00
         0.00000E+00
         0.00000E+00
         0.00000E+00
         0.00000E+00
         0.00000E+00
         0.00000E+00
         0.00000E+00
         0.00000E+00
         0.00000E+00
         0.00000E+00
         0.00000E+00
         0.00000E+00
         0.00000E+00
         0.00000E+00
         0.00000E+00
         0.00000E+00
         0.00000E+00
         0.00000E+00
         0.00000E+00
         0.00000E+00
         0.00000E+00
         0.00000E+00
         0.00000E+00
         0.00000E+00
         0.00000E+00
         0.00000E+00
         0.00000E+00
         0.00000E+00
         0.00000E+00
         0.00000E+00
         0.00000E+00
         0.00000E+00
         0.00000E+00
         0.00000E+00
         0.00000E+00
         0.00000E+00
         0.00000E+00
         0.00000E+00
         0.00000E+00
         0.00000E+00
         0.00000E+00
         0.00000E+00
         0.00000E+00
         0.00000E+00
         0.00000E+00
         0.00000E+00
         0.00000E+00
         0.00000E+00
         0.00000E+00
         0.00000E+00
         0.00000E+00
         0.00000E+00
         0.00000E+00
         0.00000E+00
         0.00000E+00
         0.00000E+00
         0.00000E+00
         0.00000E+00
         0.00000E+00
         0.00000E+00
         0.00000E+00
         0.00000E+00
         0.00000E+00
         0.00000E+00
         0.00000E+00
         0.00000E+00
         0.00000E+00
         0.00000E+00
         0.00000E+00
         0.00000E+00
         0.00000E+00
         0.00000E+00
         0.00000E+00
         0.00000E+00
         0.00000E+00
         0.00000E+00
         0.00000E+00
         0.00000E+00
         0.00000E+00
         0.00000E+00
         0.00000E+00
         0.00000E+00
         0.00000E+00
         0.00000E+00
         0.00000E+00
         0.00000E+00
         0.00000E+00
         0.00000E+00
         0.00000E+00
         0.00000E+00
         0.00000E+00
         0.00000E+00
         0.00000E+00
         0.00000E+00
         0.00000E+00
         0.00000E+00
         0.00000E+00
         0.00000E+00
         0.00000E+00
         0.00000E+00
         0.00000E+00
         0.00000E+00
         0.00000E+00
         0.00000E+00
         0.00000E+00
         0.00000E+00
         0.00000E+00
         0.00000E+00
         0.00000E+00
         0.00000E+00
         0.00000E+00
         0.00000E+00
         0.00000E+00
         0.00000E+00
         0.00000E+00
         0.00000E+00
         0.00000E+00
         0.00000E+00
         0.00000E+00
         0.00000E+00
         0.00000E+00
         0.00000E+00
         0.00000E+00
         0.00000E+00
         0.00000E+00
         0.00000E+00
         0.00000E+00
         0.00000E+00
         0.00000E+00
         0.00000E+00
         0.00000E+00
         0.00000E+00
         0.00000E+00
         0.00000E+00
         0.00000E+00
         0.00000E+00
         0.00000E+00
         0.00000E+00
         0.00000E+00
         0.00000E+00
         0.00000E+00
         0.00000E+00
         0.00000E+00
         0.00000E+00
         0.00000E+00
         0.00000E+00
         0.00000E+00
         0.00000E+00
         0.00000E+00
         0.00000E+00
         0.00000E+00
         0.00000E+00
         0.00000E+00
         0.00000E+00
         0.00000E+00
         0.00000E+00
         0.00000E+00
         0.00000E+00
         0.00000E+00
         0.00000E+00
         0.00000E+00
         0.00000E+00
         0.00000E+00
         0.00000E+00
         0.00000E+00
         0.00000E+00
         0.00000E+00
         0.00000E+00
         0.00000E+00
         0.00000E+00
         0.00000E+00
         0.00000E+00
         0.00000E+00
         0.00000E+00
         0.00000E+00
         0.00000E+00
         0.00000E+00
         0.00000E+00
         0.00000E+00
         0.00000E+00
         0.00000E+00
         0.00000E+00
         0.00000E+00
         0.00000E+00
         0.00000E+00
         0.00000E+00
         0.00000E+00
         0.00000E+00
         0.00000E+00
         0.00000E+00
         0.00000E+00
         0.00000E+00
         0.00000E+00
         0.00000E+00
         0.00000E+00
         0.00000E+00
         0.00000E+00
         0.00000E+00
         0.00000E+00
         0.00000E+00
         0.00000E+00
         0.00000E+00
         0.00000E+00
         0.00000E+00
         0.00000E+00
         0.00000E+00
         0.00000E+00
         0.00000E+00
         0.00000E+00
         0.00000E+00
         0.00000E+00
         0.00000E+00
         0.00000E+00
         0.00000E+00
         0.00000E+00
         0.00000E+00
         0.00000E+00
         0.00000E+00
         0.00000E+00
         0.00000E+00
         0.00000E+00
         0.00000E+00
         0.00000E+00
         0.00000E+00
         0.00000E+00
         0.00000E+00
         0.00000E+00
         0.00000E+00
         0.00000E+00
         0.00000E+00
         0.00000E+00
         0.00000E+00
         0.00000E+00
         0.00000E+00
         0.00000E+00
         0.00000E+00
         0.00000E+00
         0.00000E+00
         0.00000E+00
         0.00000E+00
         0.00000E+00
         0.00000E+00
         0.00000E+00
         0.00000E+00
  
SCALARS                     velocity_z  double 1
LOOKUP_TABLE default
        -0.37300E+03
        -0.37300E+03
        -0.37300E+03
        -0.37300E+03
         0.00000E+00
         0.00000E+00
         0.00000E+00
         0.00000E+00
        -0.37300E+03
        -0.37300E+03
         0.00000E+00
         0.00000E+00
        -0.37300E+03
        -0.37300E+03
         0.00000E+00
         0.00000E+00
        -0.37300E+03
        -0.37300E+03
         0.00000E+00
         0.00000E+00
        -0.37300E+03
        -0.37300E+03
        -0.37300E+03
         0.00000E+00
         0.00000E+00
         0.00000E+00
        -0.37300E+03
        -0.37300E+03
         0.00000E+00
         0.00000E+00
        -0.37300E+03
        -0.37300E+03
        -0.37300E+03
         0.00000E+00
         0.00000E+00
         0.00000E+00
        -0.37300E+03
        -0.37300E+03
         0.00000E+00
         0.00000E+00
        -0.37300E+03
        -0.37300E+03
         0.00000E+00
         0.00000E+00
        -0.37300E+03
        -0.37300E+03
         0.00000E+00
         0.00000E+00
        -0.37300E+03
         0.00000E+00
        -0.37300E+03
         0.00000E+00
        -0.37300E+03
         0.00000E+00
        -0.37300E+03
         0.00000E+00
        -0.37300E+03
        -0.37300E+03
         0.00000E+00
         0.00000E+00
        -0.37300E+03
        -0.37300E+03
         0.00000E+00
         0.00000E+00
        -0.37300E+03
         0.00000E+00
        -0.37300E+03
         0.00000E+00
        -0.37300E+03
        -0.37300E+03
         0.00000E+00
         0.00000E+00
        -0.37300E+03
         0.00000E+00
        -0.37300E+03
         0.00000E+00
        -0.37300E+03
         0.00000E+00
        -0.37300E+03
         0.00000E+00
        -0.37300E+03
        -0.37300E+03
         0.00000E+00
         0.00000E+00
        -0.37300E+03
         0.00000E+00
        -0.37300E+03
         0.00000E+00
        -0.37300E+03
         0.00000E+00
        -0.37300E+03
        -0.37300E+03
         0.00000E+00
         0.00000E+00
        -0.37300E+03
         0.00000E+00
        -0.37300E+03
         0.00000E+00
        -0.37300E+03
         0.00000E+00
        -0.37300E+03
        -0.37300E+03
         0.00000E+00
         0.00000E+00
        -0.37300E+03
        -0.37300E+03
         0.00000E+00
         0.00000E+00
        -0.37300E+03
         0.00000E+00
        -0.37300E+03
         0.00000E+00
        -0.37300E+03
         0.00000E+00
        -0.37300E+03
         0.00000E+00
        -0.37300E+03
         0.00000E+00
        -0.37300E+03
         0.00000E+00
        -0.37300E+03
         0.00000E+00
        -0.37300E+03
         0.00000E+00
        -0.37300E+03
         0.00000E+00
        -0.37300E+03
         0.00000E+00
        -0.37300E+03
         0.00000E+00
        -0.37300E+03
         0.00000E+00
        -0.37300E+03
         0.00000E+00
        -0.37300E+03
         0.00000E+00
        -0.37300E+03
         0.00000E+00
        -0.37300E+03
         0.00000E+00
        -0.37300E+03
         0.00000E+00
        -0.37300E+03
         0.00000E+00
        -0.37300E+03
         0.00000E+00
        -0.37300E+03
         0.00000E+00
        -0.37300E+03
         0.00000E+00
        -0.37300E+03
         0.00000E+00
        -0.37300E+03
         0.00000E+00
        -0.37300E+03
         0.00000E+00
        -0.37300E+03
        -0.37300E+03
        -0.37300E+03
        -0.37300E+03
        -0.37300E+03
        -0.37300E+03
        -0.37300E+03
        -0.37300E+03
        -0.37300E+03
        -0.37300E+03
        -0.37300E+03
        -0.37300E+03
        -0.37300E+03
        -0.37300E+03
        -0.37300E+03
        -0.37300E+03
        -0.37300E+03
        -0.37300E+03
        -0.37300E+03
        -0.37300E+03
        -0.37300E+03
        -0.37300E+03
        -0.37300E+03
        -0.37300E+03
        -0.37300E+03
        -0.37300E+03
        -0.37300E+03
        -0.37300E+03
        -0.37300E+03
        -0.37300E+03
        -0.37300E+03
        -0.37300E+03
        -0.37300E+03
        -0.37300E+03
        -0.37300E+03
        -0.37300E+03
        -0.37300E+03
        -0.37300E+03
        -0.37300E+03
        -0.37300E+03
        -0.37300E+03
        -0.37300E+03
        -0.37300E+03
        -0.37300E+03
        -0.37300E+03
        -0.37300E+03
        -0.37300E+03
        -0.37300E+03
        -0.37300E+03
        -0.37300E+03
        -0.37300E+03
        -0.37300E+03
        -0.37300E+03
        -0.37300E+03
        -0.37300E+03
        -0.37300E+03
        -0.37300E+03
        -0.37300E+03
        -0.37300E+03
        -0.37300E+03
        -0.37300E+03
        -0.37300E+03
        -0.37300E+03
        -0.37300E+03
        -0.37300E+03
        -0.37300E+03
        -0.37300E+03
        -0.37300E+03
        -0.37300E+03
        -0.37300E+03
        -0.37300E+03
        -0.37300E+03
        -0.37300E+03
        -0.37300E+03
        -0.37300E+03
        -0.37300E+03
        -0.37300E+03
        -0.37300E+03
        -0.37300E+03
        -0.37300E+03
        -0.37300E+03
        -0.37300E+03
        -0.37300E+03
        -0.37300E+03
        -0.37300E+03
        -0.37300E+03
        -0.37300E+03
        -0.37300E+03
        -0.37300E+03
        -0.37300E+03
        -0.37300E+03
        -0.37300E+03
        -0.37300E+03
        -0.37300E+03
        -0.37300E+03
        -0.37300E+03
        -0.37300E+03
        -0.37300E+03
        -0.37300E+03
        -0.37300E+03
        -0.37300E+03
        -0.37300E+03
        -0.37300E+03
        -0.37300E+03
        -0.37300E+03
        -0.37300E+03
        -0.37300E+03
        -0.37300E+03
        -0.37300E+03
        -0.37300E+03
        -0.37300E+03
        -0.37300E+03
        -0.37300E+03
        -0.37300E+03
        -0.37300E+03
        -0.37300E+03
        -0.37300E+03
        -0.37300E+03
        -0.37300E+03
        -0.37300E+03
        -0.37300E+03
        -0.37300E+03
        -0.37300E+03
        -0.37300E+03
        -0.37300E+03
        -0.37300E+03
        -0.37300E+03
        -0.37300E+03
        -0.37300E+03
        -0.37300E+03
        -0.37300E+03
        -0.37300E+03
        -0.37300E+03
        -0.37300E+03
        -0.37300E+03
        -0.37300E+03
        -0.37300E+03
        -0.37300E+03
        -0.37300E+03
        -0.37300E+03
        -0.37300E+03
        -0.37300E+03
        -0.37300E+03
        -0.37300E+03
        -0.37300E+03
        -0.37300E+03
        -0.37300E+03
        -0.37300E+03
        -0.37300E+03
        -0.37300E+03
        -0.37300E+03
        -0.37300E+03
        -0.37300E+03
        -0.37300E+03
        -0.37300E+03
        -0.37300E+03
        -0.37300E+03
        -0.37300E+03
        -0.37300E+03
        -0.37300E+03
        -0.37300E+03
        -0.37300E+03
        -0.37300E+03
        -0.37300E+03
        -0.37300E+03
        -0.37300E+03
        -0.37300E+03
        -0.37300E+03
        -0.37300E+03
        -0.37300E+03
        -0.37300E+03
        -0.37300E+03
        -0.37300E+03
        -0.37300E+03
        -0.37300E+03
        -0.37300E+03
        -0.37300E+03
        -0.37300E+03
        -0.37300E+03
        -0.37300E+03
        -0.37300E+03
        -0.37300E+03
        -0.37300E+03
        -0.37300E+03
        -0.37300E+03
        -0.37300E+03
        -0.37300E+03
        -0.37300E+03
        -0.37300E+03
        -0.37300E+03
        -0.37300E+03
        -0.37300E+03
        -0.37300E+03
        -0.37300E+03
        -0.37300E+03
        -0.37300E+03
        -0.37300E+03
        -0.37300E+03
        -0.37300E+03
        -0.37300E+03
        -0.37300E+03
        -0.37300E+03
        -0.37300E+03
        -0.37300E+03
        -0.37300E+03
        -0.37300E+03
        -0.37300E+03
        -0.37300E+03
        -0.37300E+03
        -0.37300E+03
        -0.37300E+03
        -0.37300E+03
        -0.37300E+03
        -0.37300E+03
        -0.37300E+03
        -0.37300E+03
        -0.37300E+03
        -0.37300E+03
        -0.37300E+03
        -0.37300E+03
        -0.37300E+03
        -0.37300E+03
        -0.37300E+03
        -0.37300E+03
        -0.37300E+03
        -0.37300E+03
        -0.37300E+03
        -0.37300E+03
        -0.37300E+03
        -0.37300E+03
        -0.37300E+03
        -0.37300E+03
        -0.37300E+03
        -0.37300E+03
        -0.37300E+03
        -0.37300E+03
        -0.37300E+03
        -0.37300E+03
        -0.37300E+03
        -0.37300E+03
        -0.37300E+03
        -0.37300E+03
        -0.37300E+03
        -0.37300E+03
        -0.37300E+03
        -0.37300E+03
        -0.37300E+03
        -0.37300E+03
        -0.37300E+03
        -0.37300E+03
        -0.37300E+03
        -0.37300E+03
        -0.37300E+03
        -0.37300E+03
        -0.37300E+03
        -0.37300E+03
        -0.37300E+03
        -0.37300E+03
        -0.37300E+03
        -0.37300E+03
        -0.37300E+03
        -0.37300E+03
        -0.37300E+03
        -0.37300E+03
        -0.37300E+03
        -0.37300E+03
        -0.37300E+03
        -0.37300E+03
        -0.37300E+03
        -0.37300E+03
        -0.37300E+03
        -0.37300E+03
        -0.37300E+03
        -0.37300E+03
        -0.37300E+03
        -0.37300E+03
        -0.37300E+03
        -0.37300E+03
        -0.37300E+03
        -0.37300E+03
        -0.37300E+03
        -0.37300E+03
        -0.37300E+03
        -0.37300E+03
        -0.37300E+03
        -0.37300E+03
        -0.37300E+03
        -0.37300E+03
        -0.37300E+03
        -0.37300E+03
        -0.37300E+03
        -0.37300E+03
        -0.37300E+03
        -0.37300E+03
        -0.37300E+03
        -0.37300E+03
        -0.37300E+03
        -0.37300E+03
        -0.37300E+03
        -0.37300E+03
        -0.37300E+03
        -0.37300E+03
        -0.37300E+03
        -0.37300E+03
        -0.37300E+03
        -0.37300E+03
        -0.37300E+03
        -0.37300E+03
        -0.37300E+03
        -0.37300E+03
        -0.37300E+03
        -0.37300E+03
        -0.37300E+03
        -0.37300E+03
        -0.37300E+03
        -0.37300E+03
        -0.37300E+03
        -0.37300E+03
        -0.37300E+03
        -0.37300E+03
        -0.37300E+03
        -0.37300E+03
        -0.37300E+03
        -0.37300E+03
        -0.37300E+03
        -0.37300E+03
        -0.37300E+03
        -0.37300E+03
        -0.37300E+03
        -0.37300E+03
        -0.37300E+03
        -0.37300E+03
        -0.37300E+03
        -0.37300E+03
        -0.37300E+03
        -0.37300E+03
        -0.37300E+03
        -0.37300E+03
        -0.37300E+03
        -0.37300E+03
        -0.37300E+03
        -0.37300E+03
        -0.37300E+03
        -0.37300E+03
        -0.37300E+03
        -0.37300E+03
        -0.37300E+03
        -0.37300E+03
        -0.37300E+03
        -0.37300E+03
        -0.37300E+03
        -0.37300E+03
        -0.37300E+03
        -0.37300E+03
        -0.37300E+03
        -0.37300E+03
        -0.37300E+03
        -0.37300E+03
        -0.37300E+03
        -0.37300E+03
        -0.37300E+03
        -0.37300E+03
        -0.37300E+03
        -0.37300E+03
        -0.37300E+03
        -0.37300E+03
        -0.37300E+03
        -0.37300E+03
        -0.37300E+03
        -0.37300E+03
        -0.37300E+03
        -0.37300E+03
        -0.37300E+03
        -0.37300E+03
        -0.37300E+03
        -0.37300E+03
        -0.37300E+03
        -0.37300E+03
        -0.37300E+03
        -0.37300E+03
        -0.37300E+03
        -0.37300E+03
        -0.37300E+03
        -0.37300E+03
        -0.37300E+03
        -0.37300E+03
        -0.37300E+03
        -0.37300E+03
        -0.37300E+03
        -0.37300E+03
        -0.37300E+03
        -0.37300E+03
        -0.37300E+03
        -0.37300E+03
        -0.37300E+03
        -0.37300E+03
        -0.37300E+03
        -0.37300E+03
        -0.37300E+03
        -0.37300E+03
        -0.37300E+03
        -0.37300E+03
        -0.37300E+03
        -0.37300E+03
        -0.37300E+03
        -0.37300E+03
        -0.37300E+03
        -0.37300E+03
        -0.37300E+03
        -0.37300E+03
        -0.37300E+03
        -0.37300E+03
        -0.37300E+03
        -0.37300E+03
        -0.37300E+03
        -0.37300E+03
        -0.37300E+03
        -0.37300E+03
        -0.37300E+03
        -0.37300E+03
        -0.37300E+03
        -0.37300E+03
        -0.37300E+03
        -0.37300E+03
        -0.37300E+03
        -0.37300E+03
        -0.37300E+03
        -0.37300E+03
        -0.37300E+03
        -0.37300E+03
        -0.37300E+03
        -0.37300E+03
        -0.37300E+03
        -0.37300E+03
        -0.37300E+03
        -0.37300E+03
        -0.37300E+03
        -0.37300E+03
        -0.37300E+03
        -0.37300E+03
        -0.37300E+03
        -0.37300E+03
        -0.37300E+03
        -0.37300E+03
        -0.37300E+03
        -0.37300E+03
        -0.37300E+03
        -0.37300E+03
        -0.37300E+03
        -0.37300E+03
        -0.37300E+03
        -0.37300E+03
        -0.37300E+03
        -0.37300E+03
        -0.37300E+03
        -0.37300E+03
        -0.37300E+03
        -0.37300E+03
        -0.37300E+03
        -0.37300E+03
        -0.37300E+03
        -0.37300E+03
        -0.37300E+03
        -0.37300E+03
        -0.37300E+03
        -0.37300E+03
        -0.37300E+03
        -0.37300E+03
        -0.37300E+03
        -0.37300E+03
        -0.37300E+03
        -0.37300E+03
        -0.37300E+03
        -0.37300E+03
        -0.37300E+03
        -0.37300E+03
        -0.37300E+03
        -0.37300E+03
        -0.37300E+03
        -0.37300E+03
        -0.37300E+03
        -0.37300E+03
        -0.37300E+03
        -0.37300E+03
        -0.37300E+03
        -0.37300E+03
        -0.37300E+03
        -0.37300E+03
        -0.37300E+03
        -0.37300E+03
        -0.37300E+03
        -0.37300E+03
        -0.37300E+03
        -0.37300E+03
        -0.37300E+03
        -0.37300E+03
        -0.37300E+03
        -0.37300E+03
        -0.37300E+03
        -0.37300E+03
        -0.37300E+03
        -0.37300E+03
        -0.37300E+03
        -0.37300E+03
        -0.37300E+03
        -0.37300E+03
        -0.37300E+03
        -0.37300E+03
        -0.37300E+03
        -0.37300E+03
        -0.37300E+03
        -0.37300E+03
        -0.37300E+03
        -0.37300E+03
        -0.37300E+03
        -0.37300E+03
        -0.37300E+03
        -0.37300E+03
        -0.37300E+03
        -0.37300E+03
        -0.37300E+03
        -0.37300E+03
        -0.37300E+03
        -0.37300E+03
        -0.37300E+03
        -0.37300E+03
        -0.37300E+03
        -0.37300E+03
        -0.37300E+03
        -0.37300E+03
        -0.37300E+03
        -0.37300E+03
        -0.37300E+03
        -0.37300E+03
        -0.37300E+03
        -0.37300E+03
        -0.37300E+03
        -0.37300E+03
        -0.37300E+03
        -0.37300E+03
        -0.37300E+03
        -0.37300E+03
        -0.37300E+03
        -0.37300E+03
        -0.37300E+03
        -0.37300E+03
        -0.37300E+03
        -0.37300E+03
        -0.37300E+03
        -0.37300E+03
        -0.37300E+03
        -0.37300E+03
        -0.37300E+03
        -0.37300E+03
        -0.37300E+03
        -0.37300E+03
        -0.37300E+03
        -0.37300E+03
        -0.37300E+03
        -0.37300E+03
        -0.37300E+03
        -0.37300E+03
        -0.37300E+03
        -0.37300E+03
        -0.37300E+03
        -0.37300E+03
        -0.37300E+03
        -0.37300E+03
        -0.37300E+03
        -0.37300E+03
        -0.37300E+03
        -0.37300E+03
        -0.37300E+03
        -0.37300E+03
        -0.37300E+03
        -0.37300E+03
        -0.37300E+03
        -0.37300E+03
        -0.37300E+03
        -0.37300E+03
        -0.37300E+03
        -0.37300E+03
        -0.37300E+03
        -0.37300E+03
        -0.37300E+03
        -0.37300E+03
        -0.37300E+03
        -0.37300E+03
        -0.37300E+03
        -0.37300E+03
        -0.37300E+03
        -0.37300E+03
        -0.37300E+03
        -0.37300E+03
        -0.37300E+03
        -0.37300E+03
        -0.37300E+03
        -0.37300E+03
        -0.37300E+03
        -0.37300E+03
        -0.37300E+03
        -0.37300E+03
        -0.37300E+03
        -0.37300E+03
        -0.37300E+03
        -0.37300E+03
        -0.37300E+03
        -0.37300E+03
        -0.37300E+03
        -0.37300E+03
        -0.37300E+03
        -0.37300E+03
        -0.37300E+03
        -0.37300E+03
        -0.37300E+03
        -0.37300E+03
        -0.37300E+03
        -0.37300E+03
        -0.37300E+03
        -0.37300E+03
        -0.37300E+03
        -0.37300E+03
        -0.37300E+03
        -0.37300E+03
        -0.37300E+03
        -0.37300E+03
        -0.37300E+03
        -0.37300E+03
        -0.37300E+03
        -0.37300E+03
        -0.37300E+03
        -0.37300E+03
        -0.37300E+03
        -0.37300E+03
        -0.37300E+03
        -0.37300E+03
        -0.37300E+03
        -0.37300E+03
        -0.37300E+03
        -0.37300E+03
        -0.37300E+03
        -0.37300E+03
        -0.37300E+03
        -0.37300E+03
        -0.37300E+03
        -0.37300E+03
        -0.37300E+03
        -0.37300E+03
        -0.37300E+03
        -0.37300E+03
        -0.37300E+03
        -0.37300E+03
        -0.37300E+03
        -0.37300E+03
        -0.37300E+03
        -0.37300E+03
        -0.37300E+03
        -0.37300E+03
        -0.37300E+03
        -0.37300E+03
        -0.37300E+03
        -0.37300E+03
        -0.37300E+03
        -0.37300E+03
        -0.37300E+03
        -0.37300E+03
        -0.37300E+03
        -0.37300E+03
        -0.37300E+03
        -0.37300E+03
        -0.37300E+03
        -0.37300E+03
        -0.37300E+03
        -0.37300E+03
        -0.37300E+03
        -0.37300E+03
        -0.37300E+03
        -0.37300E+03
        -0.37300E+03
        -0.37300E+03
        -0.37300E+03
        -0.37300E+03
        -0.37300E+03
        -0.37300E+03
        -0.37300E+03
        -0.37300E+03
        -0.37300E+03
        -0.37300E+03
        -0.37300E+03
        -0.37300E+03
        -0.37300E+03
        -0.37300E+03
        -0.37300E+03
        -0.37300E+03
        -0.37300E+03
        -0.37300E+03
        -0.37300E+03
        -0.37300E+03
        -0.37300E+03
        -0.37300E+03
        -0.37300E+03
        -0.37300E+03
        -0.37300E+03
        -0.37300E+03
        -0.37300E+03
        -0.37300E+03
        -0.37300E+03
        -0.37300E+03
        -0.37300E+03
        -0.37300E+03
        -0.37300E+03
        -0.37300E+03
        -0.37300E+03
        -0.37300E+03
        -0.37300E+03
        -0.37300E+03
        -0.37300E+03
        -0.37300E+03
        -0.37300E+03
        -0.37300E+03
        -0.37300E+03
        -0.37300E+03
        -0.37300E+03
        -0.37300E+03
        -0.37300E+03
        -0.37300E+03
        -0.37300E+03
        -0.37300E+03
        -0.37300E+03
        -0.37300E+03
        -0.37300E+03
        -0.37300E+03
        -0.37300E+03
        -0.37300E+03
        -0.37300E+03
        -0.37300E+03
        -0.37300E+03
        -0.37300E+03
        -0.37300E+03
        -0.37300E+03
        -0.37300E+03
        -0.37300E+03
        -0.37300E+03
        -0.37300E+03
        -0.37300E+03
        -0.37300E+03
        -0.37300E+03
        -0.37300E+03
        -0.37300E+03
        -0.37300E+03
        -0.37300E+03
        -0.37300E+03
        -0.37300E+03
        -0.37300E+03
        -0.37300E+03
        -0.37300E+03
        -0.37300E+03
        -0.37300E+03
        -0.37300E+03
        -0.37300E+03
        -0.37300E+03
        -0.37300E+03
        -0.37300E+03
        -0.37300E+03
        -0.37300E+03
        -0.37300E+03
        -0.37300E+03
        -0.37300E+03
        -0.37300E+03
        -0.37300E+03
        -0.37300E+03
        -0.37300E+03
        -0.37300E+03
        -0.37300E+03
        -0.37300E+03
        -0.37300E+03
        -0.37300E+03
        -0.37300E+03
        -0.37300E+03
        -0.37300E+03
        -0.37300E+03
        -0.37300E+03
        -0.37300E+03
        -0.37300E+03
        -0.37300E+03
        -0.37300E+03
        -0.37300E+03
        -0.37300E+03
        -0.37300E+03
        -0.37300E+03
        -0.37300E+03
        -0.37300E+03
        -0.37300E+03
        -0.37300E+03
        -0.37300E+03
        -0.37300E+03
        -0.37300E+03
        -0.37300E+03
        -0.37300E+03
        -0.37300E+03
        -0.37300E+03
        -0.37300E+03
        -0.37300E+03
        -0.37300E+03
        -0.37300E+03
        -0.37300E+03
        -0.37300E+03
        -0.37300E+03
        -0.37300E+03
        -0.37300E+03
        -0.37300E+03
        -0.37300E+03
        -0.37300E+03
        -0.37300E+03
        -0.37300E+03
        -0.37300E+03
        -0.37300E+03
        -0.37300E+03
        -0.37300E+03
        -0.37300E+03
        -0.37300E+03
        -0.37300E+03
        -0.37300E+03
        -0.37300E+03
        -0.37300E+03
        -0.37300E+03
        -0.37300E+03
        -0.37300E+03
        -0.37300E+03
        -0.37300E+03
        -0.37300E+03
        -0.37300E+03
        -0.37300E+03
        -0.37300E+03
        -0.37300E+03
        -0.37300E+03
        -0.37300E+03
        -0.37300E+03
        -0.37300E+03
        -0.37300E+03
        -0.37300E+03
        -0.37300E+03
        -0.37300E+03
        -0.37300E+03
        -0.37300E+03
        -0.37300E+03
        -0.37300E+03
        -0.37300E+03
        -0.37300E+03
        -0.37300E+03
        -0.37300E+03
        -0.37300E+03
        -0.37300E+03
        -0.37300E+03
        -0.37300E+03
        -0.37300E+03
        -0.37300E+03
        -0.37300E+03
        -0.37300E+03
        -0.37300E+03
        -0.37300E+03
        -0.37300E+03
        -0.37300E+03
        -0.37300E+03
        -0.37300E+03
        -0.37300E+03
        -0.37300E+03
        -0.37300E+03
        -0.37300E+03
        -0.37300E+03
        -0.37300E+03
        -0.37300E+03
        -0.37300E+03
        -0.37300E+03
        -0.37300E+03
        -0.37300E+03
        -0.37300E+03
        -0.37300E+03
        -0.37300E+03
        -0.37300E+03
        -0.37300E+03
        -0.37300E+03
        -0.37300E+03
        -0.37300E+03
        -0.37300E+03
        -0.37300E+03
        -0.37300E+03
        -0.37300E+03
        -0.37300E+03
        -0.37300E+03
        -0.37300E+03
        -0.37300E+03
        -0.37300E+03
        -0.37300E+03
        -0.37300E+03
        -0.37300E+03
        -0.37300E+03
        -0.37300E+03
        -0.37300E+03
        -0.37300E+03
        -0.37300E+03
        -0.37300E+03
        -0.37300E+03
        -0.37300E+03
        -0.37300E+03
        -0.37300E+03
        -0.37300E+03
        -0.37300E+03
        -0.37300E+03
        -0.37300E+03
        -0.37300E+03
        -0.37300E+03
        -0.37300E+03
        -0.37300E+03
        -0.37300E+03
        -0.37300E+03
        -0.37300E+03
        -0.37300E+03
        -0.37300E+03
        -0.37300E+03
        -0.37300E+03
        -0.37300E+03
        -0.37300E+03
        -0.37300E+03
        -0.37300E+03
        -0.37300E+03
        -0.37300E+03
        -0.37300E+03
        -0.37300E+03
        -0.37300E+03
        -0.37300E+03
        -0.37300E+03
        -0.37300E+03
        -0.37300E+03
        -0.37300E+03
        -0.37300E+03
        -0.37300E+03
        -0.37300E+03
        -0.37300E+03
        -0.37300E+03
        -0.37300E+03
        -0.37300E+03
        -0.37300E+03
        -0.37300E+03
        -0.37300E+03
        -0.37300E+03
        -0.37300E+03
        -0.37300E+03
        -0.37300E+03
        -0.37300E+03
        -0.37300E+03
        -0.37300E+03
        -0.37300E+03
        -0.37300E+03
        -0.37300E+03
        -0.37300E+03
        -0.37300E+03
        -0.37300E+03
        -0.37300E+03
        -0.37300E+03
        -0.37300E+03
        -0.37300E+03
        -0.37300E+03
        -0.37300E+03
        -0.37300E+03
        -0.37300E+03
        -0.37300E+03
        -0.37300E+03
        -0.37300E+03
        -0.37300E+03
        -0.37300E+03
        -0.37300E+03
        -0.37300E+03
        -0.37300E+03
        -0.37300E+03
        -0.37300E+03
        -0.37300E+03
        -0.37300E+03
        -0.37300E+03
        -0.37300E+03
        -0.37300E+03
        -0.37300E+03
        -0.37300E+03
        -0.37300E+03
        -0.37300E+03
        -0.37300E+03
        -0.37300E+03
        -0.37300E+03
        -0.37300E+03
        -0.37300E+03
        -0.37300E+03
        -0.37300E+03
        -0.37300E+03
        -0.37300E+03
        -0.37300E+03
        -0.37300E+03
        -0.37300E+03
        -0.37300E+03
        -0.37300E+03
        -0.37300E+03
        -0.37300E+03
        -0.37300E+03
        -0.37300E+03
        -0.37300E+03
        -0.37300E+03
        -0.37300E+03
        -0.37300E+03
        -0.37300E+03
        -0.37300E+03
        -0.37300E+03
        -0.37300E+03
        -0.37300E+03
        -0.37300E+03
        -0.37300E+03
        -0.37300E+03
        -0.37300E+03
        -0.37300E+03
        -0.37300E+03
        -0.37300E+03
        -0.37300E+03
        -0.37300E+03
        -0.37300E+03
        -0.37300E+03
        -0.37300E+03
        -0.37300E+03
        -0.37300E+03
        -0.37300E+03
        -0.37300E+03
        -0.37300E+03
        -0.37300E+03
        -0.37300E+03
        -0.37300E+03
        -0.37300E+03
        -0.37300E+03
        -0.37300E+03
        -0.37300E+03
        -0.37300E+03
        -0.37300E+03
        -0.37300E+03
        -0.37300E+03
        -0.37300E+03
        -0.37300E+03
        -0.37300E+03
        -0.37300E+03
        -0.37300E+03
        -0.37300E+03
        -0.37300E+03
        -0.37300E+03
        -0.37300E+03
        -0.37300E+03
        -0.37300E+03
        -0.37300E+03
        -0.37300E+03
        -0.37300E+03
        -0.37300E+03
        -0.37300E+03
        -0.37300E+03
        -0.37300E+03
        -0.37300E+03
        -0.37300E+03
        -0.37300E+03
        -0.37300E+03
        -0.37300E+03
        -0.37300E+03
        -0.37300E+03
        -0.37300E+03
        -0.37300E+03
        -0.37300E+03
        -0.37300E+03
        -0.37300E+03
        -0.37300E+03
        -0.37300E+03
        -0.37300E+03
        -0.37300E+03
        -0.37300E+03
        -0.37300E+03
        -0.37300E+03
        -0.37300E+03
        -0.37300E+03
        -0.37300E+03
        -0.37300E+03
        -0.37300E+03
        -0.37300E+03
        -0.37300E+03
        -0.37300E+03
        -0.37300E+03
        -0.37300E+03
        -0.37300E+03
        -0.37300E+03
        -0.37300E+03
        -0.37300E+03
        -0.37300E+03
        -0.37300E+03
        -0.37300E+03
        -0.37300E+03
        -0.37300E+03
        -0.37300E+03
        -0.37300E+03
        -0.37300E+03
        -0.37300E+03
        -0.37300E+03
        -0.37300E+03
        -0.37300E+03
        -0.37300E+03
        -0.37300E+03
        -0.37300E+03
        -0.37300E+03
        -0.37300E+03
        -0.37300E+03
        -0.37300E+03
        -0.37300E+03
        -0.37300E+03
        -0.37300E+03
        -0.37300E+03
        -0.37300E+03
        -0.37300E+03
        -0.37300E+03
        -0.37300E+03
        -0.37300E+03
        -0.37300E+03
        -0.37300E+03
        -0.37300E+03
        -0.37300E+03
        -0.37300E+03
        -0.37300E+03
        -0.37300E+03
        -0.37300E+03
        -0.37300E+03
        -0.37300E+03
        -0.37300E+03
        -0.37300E+03
        -0.37300E+03
        -0.37300E+03
        -0.37300E+03
        -0.37300E+03
        -0.37300E+03
        -0.37300E+03
        -0.37300E+03
        -0.37300E+03
        -0.37300E+03
        -0.37300E+03
        -0.37300E+03
        -0.37300E+03
        -0.37300E+03
        -0.37300E+03
        -0.37300E+03
        -0.37300E+03
        -0.37300E+03
        -0.37300E+03
        -0.37300E+03
        -0.37300E+03
        -0.37300E+03
        -0.37300E+03
        -0.37300E+03
        -0.37300E+03
        -0.37300E+03
        -0.37300E+03
        -0.37300E+03
        -0.37300E+03
        -0.37300E+03
        -0.37300E+03
        -0.37300E+03
        -0.37300E+03
        -0.37300E+03
        -0.37300E+03
        -0.37300E+03
        -0.37300E+03
        -0.37300E+03
        -0.37300E+03
        -0.37300E+03
        -0.37300E+03
        -0.37300E+03
        -0.37300E+03
        -0.37300E+03
        -0.37300E+03
        -0.37300E+03
        -0.37300E+03
        -0.37300E+03
        -0.37300E+03
        -0.37300E+03
        -0.37300E+03
        -0.37300E+03
        -0.37300E+03
        -0.37300E+03
        -0.37300E+03
        -0.37300E+03
        -0.37300E+03
        -0.37300E+03
        -0.37300E+03
        -0.37300E+03
        -0.37300E+03
        -0.37300E+03
        -0.37300E+03
        -0.37300E+03
        -0.37300E+03
        -0.37300E+03
        -0.37300E+03
        -0.37300E+03
        -0.37300E+03
        -0.37300E+03
        -0.37300E+03
        -0.37300E+03
        -0.37300E+03
        -0.37300E+03
        -0.37300E+03
        -0.37300E+03
        -0.37300E+03
        -0.37300E+03
        -0.37300E+03
        -0.37300E+03
        -0.37300E+03
        -0.37300E+03
        -0.37300E+03
        -0.37300E+03
        -0.37300E+03
        -0.37300E+03
        -0.37300E+03
        -0.37300E+03
        -0.37300E+03
        -0.37300E+03
        -0.37300E+03
        -0.37300E+03
        -0.37300E+03
        -0.37300E+03
        -0.37300E+03
        -0.37300E+03
        -0.37300E+03
        -0.37300E+03
        -0.37300E+03
        -0.37300E+03
        -0.37300E+03
        -0.37300E+03
        -0.37300E+03
        -0.37300E+03
        -0.37300E+03
        -0.37300E+03
        -0.37300E+03
        -0.37300E+03
        -0.37300E+03
        -0.37300E+03
        -0.37300E+03
        -0.37300E+03
        -0.37300E+03
        -0.37300E+03
        -0.37300E+03
        -0.37300E+03
        -0.37300E+03
        -0.37300E+03
        -0.37300E+03
        -0.37300E+03
        -0.37300E+03
        -0.37300E+03
        -0.37300E+03
        -0.37300E+03
        -0.37300E+03
        -0.37300E+03
        -0.37300E+03
        -0.37300E+03
        -0.37300E+03
        -0.37300E+03
        -0.37300E+03
        -0.37300E+03
        -0.37300E+03
        -0.37300E+03
        -0.37300E+03
        -0.37300E+03
        -0.37300E+03
        -0.37300E+03
        -0.37300E+03
        -0.37300E+03
        -0.37300E+03
        -0.37300E+03
        -0.37300E+03
        -0.37300E+03
        -0.37300E+03
        -0.37300E+03
        -0.37300E+03
        -0.37300E+03
        -0.37300E+03
        -0.37300E+03
        -0.37300E+03
        -0.37300E+03
        -0.37300E+03
        -0.37300E+03
        -0.37300E+03
        -0.37300E+03
        -0.37300E+03
        -0.37300E+03
        -0.37300E+03
        -0.37300E+03
        -0.37300E+03
        -0.37300E+03
        -0.37300E+03
        -0.37300E+03
        -0.37300E+03
        -0.37300E+03
        -0.37300E+03
        -0.37300E+03
        -0.37300E+03
        -0.37300E+03
        -0.37300E+03
        -0.37300E+03
        -0.37300E+03
        -0.37300E+03
        -0.37300E+03
        -0.37300E+03
        -0.37300E+03
        -0.37300E+03
        -0.37300E+03
        -0.37300E+03
        -0.37300E+03
        -0.37300E+03
        -0.37300E+03
        -0.37300E+03
        -0.37300E+03
        -0.37300E+03
        -0.37300E+03
        -0.37300E+03
        -0.37300E+03
        -0.37300E+03
        -0.37300E+03
        -0.37300E+03
        -0.37300E+03
        -0.37300E+03
        -0.37300E+03
        -0.37300E+03
        -0.37300E+03
        -0.37300E+03
        -0.37300E+03
        -0.37300E+03
        -0.37300E+03
        -0.37300E+03
        -0.37300E+03
        -0.37300E+03
        -0.37300E+03
        -0.37300E+03
        -0.37300E+03
        -0.37300E+03
        -0.37300E+03
        -0.37300E+03
        -0.37300E+03
        -0.37300E+03
        -0.37300E+03
        -0.37300E+03
        -0.37300E+03
        -0.37300E+03
        -0.37300E+03
        -0.37300E+03
        -0.37300E+03
        -0.37300E+03
        -0.37300E+03
        -0.37300E+03
        -0.37300E+03
        -0.37300E+03
        -0.37300E+03
        -0.37300E+03
        -0.37300E+03
        -0.37300E+03
        -0.37300E+03
        -0.37300E+03
        -0.37300E+03
        -0.37300E+03
        -0.37300E+03
        -0.37300E+03
        -0.37300E+03
        -0.37300E+03
        -0.37300E+03
        -0.37300E+03
        -0.37300E+03
        -0.37300E+03
        -0.37300E+03
        -0.37300E+03
        -0.37300E+03
        -0.37300E+03
        -0.37300E+03
        -0.37300E+03
        -0.37300E+03
        -0.37300E+03
        -0.37300E+03
        -0.37300E+03
        -0.37300E+03
        -0.37300E+03
        -0.37300E+03
        -0.37300E+03
        -0.37300E+03
        -0.37300E+03
        -0.37300E+03
        -0.37300E+03
        -0.37300E+03
        -0.37300E+03
        -0.37300E+03
        -0.37300E+03
        -0.37300E+03
        -0.37300E+03
        -0.37300E+03
        -0.37300E+03
        -0.37300E+03
        -0.37300E+03
        -0.37300E+03
        -0.37300E+03
        -0.37300E+03
        -0.37300E+03
        -0.37300E+03
        -0.37300E+03
        -0.37300E+03
        -0.37300E+03
        -0.37300E+03
        -0.37300E+03
        -0.37300E+03
        -0.37300E+03
        -0.37300E+03
        -0.37300E+03
        -0.37300E+03
        -0.37300E+03
        -0.37300E+03
        -0.37300E+03
        -0.37300E+03
        -0.37300E+03
        -0.37300E+03
        -0.37300E+03
        -0.37300E+03
        -0.37300E+03
        -0.37300E+03
        -0.37300E+03
        -0.37300E+03
        -0.37300E+03
        -0.37300E+03
        -0.37300E+03
        -0.37300E+03
        -0.37300E+03
        -0.37300E+03
        -0.37300E+03
        -0.37300E+03
        -0.37300E+03
        -0.37300E+03
        -0.37300E+03
        -0.37300E+03
        -0.37300E+03
        -0.37300E+03
        -0.37300E+03
        -0.37300E+03
        -0.37300E+03
        -0.37300E+03
        -0.37300E+03
        -0.37300E+03
        -0.37300E+03
        -0.37300E+03
        -0.37300E+03
        -0.37300E+03
        -0.37300E+03
        -0.37300E+03
        -0.37300E+03
        -0.37300E+03
        -0.37300E+03
        -0.37300E+03
        -0.37300E+03
        -0.37300E+03
        -0.37300E+03
        -0.37300E+03
        -0.37300E+03
        -0.37300E+03
        -0.37300E+03
        -0.37300E+03
        -0.37300E+03
        -0.37300E+03
        -0.37300E+03
        -0.37300E+03
        -0.37300E+03
        -0.37300E+03
        -0.37300E+03
        -0.37300E+03
        -0.37300E+03
        -0.37300E+03
        -0.37300E+03
        -0.37300E+03
        -0.37300E+03
        -0.37300E+03
        -0.37300E+03
        -0.37300E+03
        -0.37300E+03
        -0.37300E+03
        -0.37300E+03
        -0.37300E+03
        -0.37300E+03
        -0.37300E+03
        -0.37300E+03
        -0.37300E+03
        -0.37300E+03
        -0.37300E+03
        -0.37300E+03
        -0.37300E+03
        -0.37300E+03
        -0.37300E+03
        -0.37300E+03
        -0.37300E+03
        -0.37300E+03
        -0.37300E+03
        -0.37300E+03
        -0.37300E+03
        -0.37300E+03
        -0.37300E+03
        -0.37300E+03
        -0.37300E+03
        -0.37300E+03
        -0.37300E+03
        -0.37300E+03
        -0.37300E+03
        -0.37300E+03
        -0.37300E+03
        -0.37300E+03
        -0.37300E+03
        -0.37300E+03
        -0.37300E+03
        -0.37300E+03
        -0.37300E+03
        -0.37300E+03
        -0.37300E+03
        -0.37300E+03
        -0.37300E+03
        -0.37300E+03
        -0.37300E+03
        -0.37300E+03
        -0.37300E+03
        -0.37300E+03
        -0.37300E+03
        -0.37300E+03
        -0.37300E+03
        -0.37300E+03
        -0.37300E+03
        -0.37300E+03
        -0.37300E+03
        -0.37300E+03
        -0.37300E+03
        -0.37300E+03
        -0.37300E+03
        -0.37300E+03
        -0.37300E+03
        -0.37300E+03
        -0.37300E+03
        -0.37300E+03
        -0.37300E+03
        -0.37300E+03
        -0.37300E+03
        -0.37300E+03
        -0.37300E+03
        -0.37300E+03
        -0.37300E+03
        -0.37300E+03
        -0.37300E+03
        -0.37300E+03
        -0.37300E+03
        -0.37300E+03
        -0.37300E+03
        -0.37300E+03
        -0.37300E+03
        -0.37300E+03
        -0.37300E+03
        -0.37300E+03
        -0.37300E+03
        -0.37300E+03
        -0.37300E+03
        -0.37300E+03
        -0.37300E+03
        -0.37300E+03
        -0.37300E+03
        -0.37300E+03
        -0.37300E+03
        -0.37300E+03
        -0.37300E+03
        -0.37300E+03
        -0.37300E+03
        -0.37300E+03
        -0.37300E+03
        -0.37300E+03
        -0.37300E+03
        -0.37300E+03
        -0.37300E+03
        -0.37300E+03
        -0.37300E+03
        -0.37300E+03
        -0.37300E+03
        -0.37300E+03
        -0.37300E+03
        -0.37300E+03
        -0.37300E+03
        -0.37300E+03
        -0.37300E+03
        -0.37300E+03
        -0.37300E+03
        -0.37300E+03
        -0.37300E+03
        -0.37300E+03
        -0.37300E+03
        -0.37300E+03
        -0.37300E+03
        -0.37300E+03
        -0.37300E+03
        -0.37300E+03
        -0.37300E+03
        -0.37300E+03
        -0.37300E+03
        -0.37300E+03
        -0.37300E+03
        -0.37300E+03
        -0.37300E+03
        -0.37300E+03
        -0.37300E+03
        -0.37300E+03
        -0.37300E+03
        -0.37300E+03
        -0.37300E+03
        -0.37300E+03
        -0.37300E+03
        -0.37300E+03
        -0.37300E+03
        -0.37300E+03
        -0.37300E+03
        -0.37300E+03
        -0.37300E+03
        -0.37300E+03
        -0.37300E+03
        -0.37300E+03
        -0.37300E+03
        -0.37300E+03
        -0.37300E+03
        -0.37300E+03
        -0.37300E+03
        -0.37300E+03
        -0.37300E+03
        -0.37300E+03
        -0.37300E+03
        -0.37300E+03
        -0.37300E+03
        -0.37300E+03
        -0.37300E+03
        -0.37300E+03
        -0.37300E+03
        -0.37300E+03
        -0.37300E+03
        -0.37300E+03
        -0.37300E+03
        -0.37300E+03
        -0.37300E+03
        -0.37300E+03
        -0.37300E+03
        -0.37300E+03
        -0.37300E+03
        -0.37300E+03
        -0.37300E+03
        -0.37300E+03
        -0.37300E+03
        -0.37300E+03
        -0.37300E+03
        -0.37300E+03
        -0.37300E+03
        -0.37300E+03
        -0.37300E+03
        -0.37300E+03
        -0.37300E+03
        -0.37300E+03
        -0.37300E+03
        -0.37300E+03
        -0.37300E+03
        -0.37300E+03
        -0.37300E+03
        -0.37300E+03
        -0.37300E+03
        -0.37300E+03
        -0.37300E+03
        -0.37300E+03
        -0.37300E+03
        -0.37300E+03
        -0.37300E+03
        -0.37300E+03
        -0.37300E+03
        -0.37300E+03
        -0.37300E+03
        -0.37300E+03
        -0.37300E+03
        -0.37300E+03
        -0.37300E+03
        -0.37300E+03
        -0.37300E+03
        -0.37300E+03
        -0.37300E+03
        -0.37300E+03
        -0.37300E+03
        -0.37300E+03
        -0.37300E+03
        -0.37300E+03
        -0.37300E+03
        -0.37300E+03
        -0.37300E+03
        -0.37300E+03
        -0.37300E+03
        -0.37300E+03
        -0.37300E+03
        -0.37300E+03
        -0.37300E+03
        -0.37300E+03
        -0.37300E+03
        -0.37300E+03
        -0.37300E+03
        -0.37300E+03
        -0.37300E+03
        -0.37300E+03
        -0.37300E+03
        -0.37300E+03
        -0.37300E+03
        -0.37300E+03
        -0.37300E+03
        -0.37300E+03
        -0.37300E+03
        -0.37300E+03
        -0.37300E+03
        -0.37300E+03
        -0.37300E+03
        -0.37300E+03
        -0.37300E+03
        -0.37300E+03
        -0.37300E+03
        -0.37300E+03
        -0.37300E+03
        -0.37300E+03
        -0.37300E+03
        -0.37300E+03
        -0.37300E+03
        -0.37300E+03
        -0.37300E+03
        -0.37300E+03
        -0.37300E+03
        -0.37300E+03
        -0.37300E+03
        -0.37300E+03
        -0.37300E+03
        -0.37300E+03
        -0.37300E+03
        -0.37300E+03
        -0.37300E+03
        -0.37300E+03
        -0.37300E+03
        -0.37300E+03
        -0.37300E+03
        -0.37300E+03
        -0.37300E+03
        -0.37300E+03
        -0.37300E+03
        -0.37300E+03
        -0.37300E+03
        -0.37300E+03
        -0.37300E+03
        -0.37300E+03
        -0.37300E+03
        -0.37300E+03
        -0.37300E+03
        -0.37300E+03
        -0.37300E+03
        -0.37300E+03
        -0.37300E+03
        -0.37300E+03
        -0.37300E+03
        -0.37300E+03
        -0.37300E+03
        -0.37300E+03
        -0.37300E+03
        -0.37300E+03
        -0.37300E+03
        -0.37300E+03
        -0.37300E+03
        -0.37300E+03
        -0.37300E+03
        -0.37300E+03
        -0.37300E+03
        -0.37300E+03
        -0.37300E+03
        -0.37300E+03
        -0.37300E+03
        -0.37300E+03
        -0.37300E+03
        -0.37300E+03
        -0.37300E+03
        -0.37300E+03
        -0.37300E+03
        -0.37300E+03
        -0.37300E+03
        -0.37300E+03
        -0.37300E+03
        -0.37300E+03
        -0.37300E+03
        -0.37300E+03
        -0.37300E+03
        -0.37300E+03
        -0.37300E+03
        -0.37300E+03
  
SCALARS                 acceleration_x  double 1
LOOKUP_TABLE default
         0.00000E+00
         0.00000E+00
         0.00000E+00
         0.00000E+00
         0.00000E+00
         0.00000E+00
         0.00000E+00
         0.00000E+00
         0.00000E+00
         0.00000E+00
         0.00000E+00
         0.00000E+00
         0.00000E+00
         0.00000E+00
         0.00000E+00
         0.00000E+00
         0.00000E+00
         0.00000E+00
         0.00000E+00
         0.00000E+00
         0.00000E+00
         0.00000E+00
         0.00000E+00
         0.00000E+00
         0.00000E+00
         0.00000E+00
         0.00000E+00
         0.00000E+00
         0.00000E+00
         0.00000E+00
         0.00000E+00
         0.00000E+00
         0.00000E+00
         0.00000E+00
         0.00000E+00
         0.00000E+00
         0.00000E+00
         0.00000E+00
         0.00000E+00
         0.00000E+00
         0.00000E+00
         0.00000E+00
         0.00000E+00
         0.00000E+00
         0.00000E+00
         0.00000E+00
         0.00000E+00
         0.00000E+00
         0.00000E+00
         0.00000E+00
         0.00000E+00
         0.00000E+00
         0.00000E+00
         0.00000E+00
         0.00000E+00
         0.00000E+00
         0.00000E+00
         0.00000E+00
         0.00000E+00
         0.00000E+00
         0.00000E+00
         0.00000E+00
         0.00000E+00
         0.00000E+00
         0.00000E+00
         0.00000E+00
         0.00000E+00
         0.00000E+00
         0.00000E+00
         0.00000E+00
         0.00000E+00
         0.00000E+00
         0.00000E+00
         0.00000E+00
         0.00000E+00
         0.00000E+00
         0.00000E+00
         0.00000E+00
         0.00000E+00
         0.00000E+00
         0.00000E+00
         0.00000E+00
         0.00000E+00
         0.00000E+00
         0.00000E+00
         0.00000E+00
         0.00000E+00
         0.00000E+00
         0.00000E+00
         0.00000E+00
         0.00000E+00
         0.00000E+00
         0.00000E+00
         0.00000E+00
         0.00000E+00
         0.00000E+00
         0.00000E+00
         0.00000E+00
         0.00000E+00
         0.00000E+00
         0.00000E+00
         0.00000E+00
         0.00000E+00
         0.00000E+00
         0.00000E+00
         0.00000E+00
         0.00000E+00
         0.00000E+00
         0.00000E+00
         0.00000E+00
         0.00000E+00
         0.00000E+00
         0.00000E+00
         0.00000E+00
         0.00000E+00
         0.00000E+00
         0.00000E+00
         0.00000E+00
         0.00000E+00
         0.00000E+00
         0.00000E+00
         0.00000E+00
         0.00000E+00
         0.00000E+00
         0.00000E+00
         0.00000E+00
         0.00000E+00
         0.00000E+00
         0.00000E+00
         0.00000E+00
         0.00000E+00
         0.00000E+00
         0.00000E+00
         0.00000E+00
         0.00000E+00
         0.00000E+00
         0.00000E+00
         0.00000E+00
         0.00000E+00
         0.00000E+00
         0.00000E+00
         0.00000E+00
         0.00000E+00
         0.00000E+00
         0.00000E+00
         0.00000E+00
         0.00000E+00
         0.00000E+00
         0.00000E+00
         0.00000E+00
         0.00000E+00
         0.00000E+00
         0.00000E+00
         0.00000E+00
         0.00000E+00
         0.00000E+00
         0.00000E+00
         0.00000E+00
         0.00000E+00
         0.00000E+00
         0.00000E+00
         0.00000E+00
         0.00000E+00
         0.00000E+00
         0.00000E+00
         0.00000E+00
         0.00000E+00
         0.00000E+00
         0.00000E+00
         0.00000E+00
         0.00000E+00
         0.00000E+00
         0.00000E+00
         0.00000E+00
         0.00000E+00
         0.00000E+00
         0.00000E+00
         0.00000E+00
         0.00000E+00
         0.00000E+00
         0.00000E+00
         0.00000E+00
         0.00000E+00
         0.00000E+00
         0.00000E+00
         0.00000E+00
         0.00000E+00
         0.00000E+00
         0.00000E+00
         0.00000E+00
         0.00000E+00
         0.00000E+00
         0.00000E+00
         0.00000E+00
         0.00000E+00
         0.00000E+00
         0.00000E+00
         0.00000E+00
         0.00000E+00
         0.00000E+00
         0.00000E+00
         0.00000E+00
         0.00000E+00
         0.00000E+00
         0.00000E+00
         0.00000E+00
         0.00000E+00
         0.00000E+00
         0.00000E+00
         0.00000E+00
         0.00000E+00
         0.00000E+00
         0.00000E+00
         0.00000E+00
         0.00000E+00
         0.00000E+00
         0.00000E+00
         0.00000E+00
         0.00000E+00
         0.00000E+00
         0.00000E+00
         0.00000E+00
         0.00000E+00
         0.00000E+00
         0.00000E+00
         0.00000E+00
         0.00000E+00
         0.00000E+00
         0.00000E+00
         0.00000E+00
         0.00000E+00
         0.00000E+00
         0.00000E+00
         0.00000E+00
         0.00000E+00
         0.00000E+00
         0.00000E+00
         0.00000E+00
         0.00000E+00
         0.00000E+00
         0.00000E+00
         0.00000E+00
         0.00000E+00
         0.00000E+00
         0.00000E+00
         0.00000E+00
         0.00000E+00
         0.00000E+00
         0.00000E+00
         0.00000E+00
         0.00000E+00
         0.00000E+00
         0.00000E+00
         0.00000E+00
         0.00000E+00
         0.00000E+00
         0.00000E+00
         0.00000E+00
         0.00000E+00
         0.00000E+00
         0.00000E+00
         0.00000E+00
         0.00000E+00
         0.00000E+00
         0.00000E+00
         0.00000E+00
         0.00000E+00
         0.00000E+00
         0.00000E+00
         0.00000E+00
         0.00000E+00
         0.00000E+00
         0.00000E+00
         0.00000E+00
         0.00000E+00
         0.00000E+00
         0.00000E+00
         0.00000E+00
         0.00000E+00
         0.00000E+00
         0.00000E+00
         0.00000E+00
         0.00000E+00
         0.00000E+00
         0.00000E+00
         0.00000E+00
         0.00000E+00
         0.00000E+00
         0.00000E+00
         0.00000E+00
         0.00000E+00
         0.00000E+00
         0.00000E+00
         0.00000E+00
         0.00000E+00
         0.00000E+00
         0.00000E+00
         0.00000E+00
         0.00000E+00
         0.00000E+00
         0.00000E+00
         0.00000E+00
         0.00000E+00
         0.00000E+00
         0.00000E+00
         0.00000E+00
         0.00000E+00
         0.00000E+00
         0.00000E+00
         0.00000E+00
         0.00000E+00
         0.00000E+00
         0.00000E+00
         0.00000E+00
         0.00000E+00
         0.00000E+00
         0.00000E+00
         0.00000E+00
         0.00000E+00
         0.00000E+00
         0.00000E+00
         0.00000E+00
         0.00000E+00
         0.00000E+00
         0.00000E+00
         0.00000E+00
         0.00000E+00
         0.00000E+00
         0.00000E+00
         0.00000E+00
         0.00000E+00
         0.00000E+00
         0.00000E+00
         0.00000E+00
         0.00000E+00
         0.00000E+00
         0.00000E+00
         0.00000E+00
         0.00000E+00
         0.00000E+00
         0.00000E+00
         0.00000E+00
         0.00000E+00
         0.00000E+00
         0.00000E+00
         0.00000E+00
         0.00000E+00
         0.00000E+00
         0.00000E+00
         0.00000E+00
         0.00000E+00
         0.00000E+00
         0.00000E+00
         0.00000E+00
         0.00000E+00
         0.00000E+00
         0.00000E+00
         0.00000E+00
         0.00000E+00
         0.00000E+00
         0.00000E+00
         0.00000E+00
         0.00000E+00
         0.00000E+00
         0.00000E+00
         0.00000E+00
         0.00000E+00
         0.00000E+00
         0.00000E+00
         0.00000E+00
         0.00000E+00
         0.00000E+00
         0.00000E+00
         0.00000E+00
         0.00000E+00
         0.00000E+00
         0.00000E+00
         0.00000E+00
         0.00000E+00
         0.00000E+00
         0.00000E+00
         0.00000E+00
         0.00000E+00
         0.00000E+00
         0.00000E+00
         0.00000E+00
         0.00000E+00
         0.00000E+00
         0.00000E+00
         0.00000E+00
         0.00000E+00
         0.00000E+00
         0.00000E+00
         0.00000E+00
         0.00000E+00
         0.00000E+00
         0.00000E+00
         0.00000E+00
         0.00000E+00
         0.00000E+00
         0.00000E+00
         0.00000E+00
         0.00000E+00
         0.00000E+00
         0.00000E+00
         0.00000E+00
         0.00000E+00
         0.00000E+00
         0.00000E+00
         0.00000E+00
         0.00000E+00
         0.00000E+00
         0.00000E+00
         0.00000E+00
         0.00000E+00
         0.00000E+00
         0.00000E+00
         0.00000E+00
         0.00000E+00
         0.00000E+00
         0.00000E+00
         0.00000E+00
         0.00000E+00
         0.00000E+00
         0.00000E+00
         0.00000E+00
         0.00000E+00
         0.00000E+00
         0.00000E+00
         0.00000E+00
         0.00000E+00
         0.00000E+00
         0.00000E+00
         0.00000E+00
         0.00000E+00
         0.00000E+00
         0.00000E+00
         0.00000E+00
         0.00000E+00
         0.00000E+00
         0.00000E+00
         0.00000E+00
         0.00000E+00
         0.00000E+00
         0.00000E+00
         0.00000E+00
         0.00000E+00
         0.00000E+00
         0.00000E+00
         0.00000E+00
         0.00000E+00
         0.00000E+00
         0.00000E+00
         0.00000E+00
         0.00000E+00
         0.00000E+00
         0.00000E+00
         0.00000E+00
         0.00000E+00
         0.00000E+00
         0.00000E+00
         0.00000E+00
         0.00000E+00
         0.00000E+00
         0.00000E+00
         0.00000E+00
         0.00000E+00
         0.00000E+00
         0.00000E+00
         0.00000E+00
         0.00000E+00
         0.00000E+00
         0.00000E+00
         0.00000E+00
         0.00000E+00
         0.00000E+00
         0.00000E+00
         0.00000E+00
         0.00000E+00
         0.00000E+00
         0.00000E+00
         0.00000E+00
         0.00000E+00
         0.00000E+00
         0.00000E+00
         0.00000E+00
         0.00000E+00
         0.00000E+00
         0.00000E+00
         0.00000E+00
         0.00000E+00
         0.00000E+00
         0.00000E+00
         0.00000E+00
         0.00000E+00
         0.00000E+00
         0.00000E+00
         0.00000E+00
         0.00000E+00
         0.00000E+00
         0.00000E+00
         0.00000E+00
         0.00000E+00
         0.00000E+00
         0.00000E+00
         0.00000E+00
         0.00000E+00
         0.00000E+00
         0.00000E+00
         0.00000E+00
         0.00000E+00
         0.00000E+00
         0.00000E+00
         0.00000E+00
         0.00000E+00
         0.00000E+00
         0.00000E+00
         0.00000E+00
         0.00000E+00
         0.00000E+00
         0.00000E+00
         0.00000E+00
         0.00000E+00
         0.00000E+00
         0.00000E+00
         0.00000E+00
         0.00000E+00
         0.00000E+00
         0.00000E+00
         0.00000E+00
         0.00000E+00
         0.00000E+00
         0.00000E+00
         0.00000E+00
         0.00000E+00
         0.00000E+00
         0.00000E+00
         0.00000E+00
         0.00000E+00
         0.00000E+00
         0.00000E+00
         0.00000E+00
         0.00000E+00
         0.00000E+00
         0.00000E+00
         0.00000E+00
         0.00000E+00
         0.00000E+00
         0.00000E+00
         0.00000E+00
         0.00000E+00
         0.00000E+00
         0.00000E+00
         0.00000E+00
         0.00000E+00
         0.00000E+00
         0.00000E+00
         0.00000E+00
         0.00000E+00
         0.00000E+00
         0.00000E+00
         0.00000E+00
         0.00000E+00
         0.00000E+00
         0.00000E+00
         0.00000E+00
         0.00000E+00
         0.00000E+00
         0.00000E+00
         0.00000E+00
         0.00000E+00
         0.00000E+00
         0.00000E+00
         0.00000E+00
         0.00000E+00
         0.00000E+00
         0.00000E+00
         0.00000E+00
         0.00000E+00
         0.00000E+00
         0.00000E+00
         0.00000E+00
         0.00000E+00
         0.00000E+00
         0.00000E+00
         0.00000E+00
         0.00000E+00
         0.00000E+00
         0.00000E+00
         0.00000E+00
         0.00000E+00
         0.00000E+00
         0.00000E+00
         0.00000E+00
         0.00000E+00
         0.00000E+00
         0.00000E+00
         0.00000E+00
         0.00000E+00
         0.00000E+00
         0.00000E+00
         0.00000E+00
         0.00000E+00
         0.00000E+00
         0.00000E+00
         0.00000E+00
         0.00000E+00
         0.00000E+00
         0.00000E+00
         0.00000E+00
         0.00000E+00
         0.00000E+00
         0.00000E+00
         0.00000E+00
         0.00000E+00
         0.00000E+00
         0.00000E+00
         0.00000E+00
         0.00000E+00
         0.00000E+00
         0.00000E+00
         0.00000E+00
         0.00000E+00
         0.00000E+00
         0.00000E+00
         0.00000E+00
         0.00000E+00
         0.00000E+00
         0.00000E+00
         0.00000E+00
         0.00000E+00
         0.00000E+00
         0.00000E+00
         0.00000E+00
         0.00000E+00
         0.00000E+00
         0.00000E+00
         0.00000E+00
         0.00000E+00
         0.00000E+00
         0.00000E+00
         0.00000E+00
         0.00000E+00
         0.00000E+00
         0.00000E+00
         0.00000E+00
         0.00000E+00
         0.00000E+00
         0.00000E+00
         0.00000E+00
         0.00000E+00
         0.00000E+00
         0.00000E+00
         0.00000E+00
         0.00000E+00
         0.00000E+00
         0.00000E+00
         0.00000E+00
         0.00000E+00
         0.00000E+00
         0.00000E+00
         0.00000E+00
         0.00000E+00
         0.00000E+00
         0.00000E+00
         0.00000E+00
         0.00000E+00
         0.00000E+00
         0.00000E+00
         0.00000E+00
         0.00000E+00
         0.00000E+00
         0.00000E+00
         0.00000E+00
         0.00000E+00
         0.00000E+00
         0.00000E+00
         0.00000E+00
         0.00000E+00
         0.00000E+00
         0.00000E+00
         0.00000E+00
         0.00000E+00
         0.00000E+00
         0.00000E+00
         0.00000E+00
         0.00000E+00
         0.00000E+00
         0.00000E+00
         0.00000E+00
         0.00000E+00
         0.00000E+00
         0.00000E+00
         0.00000E+00
         0.00000E+00
         0.00000E+00
         0.00000E+00
         0.00000E+00
         0.00000E+00
         0.00000E+00
         0.00000E+00
         0.00000E+00
         0.00000E+00
         0.00000E+00
         0.00000E+00
         0.00000E+00
         0.00000E+00
         0.00000E+00
         0.00000E+00
         0.00000E+00
         0.00000E+00
         0.00000E+00
         0.00000E+00
         0.00000E+00
         0.00000E+00
         0.00000E+00
         0.00000E+00
         0.00000E+00
         0.00000E+00
         0.00000E+00
         0.00000E+00
         0.00000E+00
         0.00000E+00
         0.00000E+00
         0.00000E+00
         0.00000E+00
         0.00000E+00
         0.00000E+00
         0.00000E+00
         0.00000E+00
         0.00000E+00
         0.00000E+00
         0.00000E+00
         0.00000E+00
         0.00000E+00
         0.00000E+00
         0.00000E+00
         0.00000E+00
         0.00000E+00
         0.00000E+00
         0.00000E+00
         0.00000E+00
         0.00000E+00
         0.00000E+00
         0.00000E+00
         0.00000E+00
         0.00000E+00
         0.00000E+00
         0.00000E+00
         0.00000E+00
         0.00000E+00
         0.00000E+00
         0.00000E+00
         0.00000E+00
         0.00000E+00
         0.00000E+00
         0.00000E+00
         0.00000E+00
         0.00000E+00
         0.00000E+00
         0.00000E+00
         0.00000E+00
         0.00000E+00
         0.00000E+00
         0.00000E+00
         0.00000E+00
         0.00000E+00
         0.00000E+00
         0.00000E+00
         0.00000E+00
         0.00000E+00
         0.00000E+00
         0.00000E+00
         0.00000E+00
         0.00000E+00
         0.00000E+00
         0.00000E+00
         0.00000E+00
         0.00000E+00
         0.00000E+00
         0.00000E+00
         0.00000E+00
         0.00000E+00
         0.00000E+00
         0.00000E+00
         0.00000E+00
         0.00000E+00
         0.00000E+00
         0.00000E+00
         0.00000E+00
         0.00000E+00
         0.00000E+00
         0.00000E+00
         0.00000E+00
         0.00000E+00
         0.00000E+00
         0.00000E+00
         0.00000E+00
         0.00000E+00
         0.00000E+00
         0.00000E+00
         0.00000E+00
         0.00000E+00
         0.00000E+00
         0.00000E+00
         0.00000E+00
         0.00000E+00
         0.00000E+00
         0.00000E+00
         0.00000E+00
         0.00000E+00
         0.00000E+00
         0.00000E+00
         0.00000E+00
         0.00000E+00
         0.00000E+00
         0.00000E+00
         0.00000E+00
         0.00000E+00
         0.00000E+00
         0.00000E+00
         0.00000E+00
         0.00000E+00
         0.00000E+00
         0.00000E+00
         0.00000E+00
         0.00000E+00
         0.00000E+00
         0.00000E+00
         0.00000E+00
         0.00000E+00
         0.00000E+00
         0.00000E+00
         0.00000E+00
         0.00000E+00
         0.00000E+00
         0.00000E+00
         0.00000E+00
         0.00000E+00
         0.00000E+00
         0.00000E+00
         0.00000E+00
         0.00000E+00
         0.00000E+00
         0.00000E+00
         0.00000E+00
         0.00000E+00
         0.00000E+00
         0.00000E+00
         0.00000E+00
         0.00000E+00
         0.00000E+00
         0.00000E+00
         0.00000E+00
         0.00000E+00
         0.00000E+00
         0.00000E+00
         0.00000E+00
         0.00000E+00
         0.00000E+00
         0.00000E+00
         0.00000E+00
         0.00000E+00
         0.00000E+00
         0.00000E+00
         0.00000E+00
         0.00000E+00
         0.00000E+00
         0.00000E+00
         0.00000E+00
         0.00000E+00
         0.00000E+00
         0.00000E+00
         0.00000E+00
         0.00000E+00
         0.00000E+00
         0.00000E+00
         0.00000E+00
         0.00000E+00
         0.00000E+00
         0.00000E+00
         0.00000E+00
         0.00000E+00
         0.00000E+00
         0.00000E+00
         0.00000E+00
         0.00000E+00
         0.00000E+00
         0.00000E+00
         0.00000E+00
         0.00000E+00
         0.00000E+00
         0.00000E+00
         0.00000E+00
         0.00000E+00
         0.00000E+00
         0.00000E+00
         0.00000E+00
         0.00000E+00
         0.00000E+00
         0.00000E+00
         0.00000E+00
         0.00000E+00
         0.00000E+00
         0.00000E+00
         0.00000E+00
         0.00000E+00
         0.00000E+00
         0.00000E+00
         0.00000E+00
         0.00000E+00
         0.00000E+00
         0.00000E+00
         0.00000E+00
         0.00000E+00
         0.00000E+00
         0.00000E+00
         0.00000E+00
         0.00000E+00
         0.00000E+00
         0.00000E+00
         0.00000E+00
         0.00000E+00
         0.00000E+00
         0.00000E+00
         0.00000E+00
         0.00000E+00
         0.00000E+00
         0.00000E+00
         0.00000E+00
         0.00000E+00
         0.00000E+00
         0.00000E+00
         0.00000E+00
         0.00000E+00
         0.00000E+00
         0.00000E+00
         0.00000E+00
         0.00000E+00
         0.00000E+00
         0.00000E+00
         0.00000E+00
         0.00000E+00
         0.00000E+00
         0.00000E+00
         0.00000E+00
         0.00000E+00
         0.00000E+00
         0.00000E+00
         0.00000E+00
         0.00000E+00
         0.00000E+00
         0.00000E+00
         0.00000E+00
         0.00000E+00
         0.00000E+00
         0.00000E+00
         0.00000E+00
         0.00000E+00
         0.00000E+00
         0.00000E+00
         0.00000E+00
         0.00000E+00
         0.00000E+00
         0.00000E+00
         0.00000E+00
         0.00000E+00
         0.00000E+00
         0.00000E+00
         0.00000E+00
         0.00000E+00
         0.00000E+00
         0.00000E+00
         0.00000E+00
         0.00000E+00
         0.00000E+00
         0.00000E+00
         0.00000E+00
         0.00000E+00
         0.00000E+00
         0.00000E+00
         0.00000E+00
         0.00000E+00
         0.00000E+00
         0.00000E+00
         0.00000E+00
         0.00000E+00
         0.00000E+00
         0.00000E+00
         0.00000E+00
         0.00000E+00
         0.00000E+00
         0.00000E+00
         0.00000E+00
         0.00000E+00
         0.00000E+00
         0.00000E+00
         0.00000E+00
         0.00000E+00
         0.00000E+00
         0.00000E+00
         0.00000E+00
         0.00000E+00
         0.00000E+00
         0.00000E+00
         0.00000E+00
         0.00000E+00
         0.00000E+00
         0.00000E+00
         0.00000E+00
         0.00000E+00
         0.00000E+00
         0.00000E+00
         0.00000E+00
         0.00000E+00
         0.00000E+00
         0.00000E+00
         0.00000E+00
         0.00000E+00
         0.00000E+00
         0.00000E+00
         0.00000E+00
         0.00000E+00
         0.00000E+00
         0.00000E+00
         0.00000E+00
         0.00000E+00
         0.00000E+00
         0.00000E+00
         0.00000E+00
         0.00000E+00
         0.00000E+00
         0.00000E+00
         0.00000E+00
         0.00000E+00
         0.00000E+00
         0.00000E+00
         0.00000E+00
         0.00000E+00
         0.00000E+00
         0.00000E+00
         0.00000E+00
         0.00000E+00
         0.00000E+00
         0.00000E+00
         0.00000E+00
         0.00000E+00
         0.00000E+00
         0.00000E+00
         0.00000E+00
         0.00000E+00
         0.00000E+00
         0.00000E+00
         0.00000E+00
         0.00000E+00
         0.00000E+00
         0.00000E+00
         0.00000E+00
         0.00000E+00
         0.00000E+00
         0.00000E+00
         0.00000E+00
         0.00000E+00
         0.00000E+00
         0.00000E+00
         0.00000E+00
         0.00000E+00
         0.00000E+00
         0.00000E+00
         0.00000E+00
         0.00000E+00
         0.00000E+00
         0.00000E+00
         0.00000E+00
         0.00000E+00
         0.00000E+00
         0.00000E+00
         0.00000E+00
         0.00000E+00
         0.00000E+00
         0.00000E+00
         0.00000E+00
         0.00000E+00
         0.00000E+00
         0.00000E+00
         0.00000E+00
         0.00000E+00
         0.00000E+00
         0.00000E+00
         0.00000E+00
         0.00000E+00
         0.00000E+00
         0.00000E+00
         0.00000E+00
         0.00000E+00
         0.00000E+00
         0.00000E+00
         0.00000E+00
         0.00000E+00
         0.00000E+00
         0.00000E+00
         0.00000E+00
         0.00000E+00
         0.00000E+00
         0.00000E+00
         0.00000E+00
         0.00000E+00
         0.00000E+00
         0.00000E+00
         0.00000E+00
         0.00000E+00
         0.00000E+00
         0.00000E+00
         0.00000E+00
         0.00000E+00
         0.00000E+00
         0.00000E+00
         0.00000E+00
         0.00000E+00
         0.00000E+00
         0.00000E+00
         0.00000E+00
         0.00000E+00
         0.00000E+00
         0.00000E+00
         0.00000E+00
         0.00000E+00
         0.00000E+00
         0.00000E+00
         0.00000E+00
         0.00000E+00
         0.00000E+00
         0.00000E+00
         0.00000E+00
         0.00000E+00
         0.00000E+00
         0.00000E+00
         0.00000E+00
         0.00000E+00
         0.00000E+00
         0.00000E+00
         0.00000E+00
         0.00000E+00
         0.00000E+00
         0.00000E+00
         0.00000E+00
         0.00000E+00
         0.00000E+00
         0.00000E+00
         0.00000E+00
         0.00000E+00
         0.00000E+00
         0.00000E+00
         0.00000E+00
         0.00000E+00
         0.00000E+00
         0.00000E+00
         0.00000E+00
         0.00000E+00
         0.00000E+00
         0.00000E+00
         0.00000E+00
         0.00000E+00
         0.00000E+00
         0.00000E+00
         0.00000E+00
         0.00000E+00
         0.00000E+00
         0.00000E+00
         0.00000E+00
         0.00000E+00
         0.00000E+00
         0.00000E+00
         0.00000E+00
         0.00000E+00
         0.00000E+00
         0.00000E+00
         0.00000E+00
         0.00000E+00
         0.00000E+00
         0.00000E+00
         0.00000E+00
         0.00000E+00
         0.00000E+00
         0.00000E+00
         0.00000E+00
         0.00000E+00
         0.00000E+00
         0.00000E+00
         0.00000E+00
         0.00000E+00
         0.00000E+00
         0.00000E+00
         0.00000E+00
         0.00000E+00
         0.00000E+00
         0.00000E+00
         0.00000E+00
         0.00000E+00
         0.00000E+00
         0.00000E+00
         0.00000E+00
         0.00000E+00
         0.00000E+00
         0.00000E+00
         0.00000E+00
         0.00000E+00
         0.00000E+00
         0.00000E+00
         0.00000E+00
         0.00000E+00
         0.00000E+00
         0.00000E+00
         0.00000E+00
         0.00000E+00
         0.00000E+00
         0.00000E+00
         0.00000E+00
         0.00000E+00
         0.00000E+00
         0.00000E+00
         0.00000E+00
         0.00000E+00
         0.00000E+00
         0.00000E+00
         0.00000E+00
         0.00000E+00
         0.00000E+00
         0.00000E+00
         0.00000E+00
         0.00000E+00
         0.00000E+00
         0.00000E+00
         0.00000E+00
         0.00000E+00
         0.00000E+00
         0.00000E+00
         0.00000E+00
         0.00000E+00
         0.00000E+00
         0.00000E+00
         0.00000E+00
         0.00000E+00
         0.00000E+00
         0.00000E+00
         0.00000E+00
         0.00000E+00
         0.00000E+00
         0.00000E+00
         0.00000E+00
         0.00000E+00
         0.00000E+00
         0.00000E+00
         0.00000E+00
         0.00000E+00
         0.00000E+00
         0.00000E+00
         0.00000E+00
         0.00000E+00
         0.00000E+00
         0.00000E+00
         0.00000E+00
         0.00000E+00
         0.00000E+00
         0.00000E+00
         0.00000E+00
         0.00000E+00
         0.00000E+00
         0.00000E+00
         0.00000E+00
         0.00000E+00
         0.00000E+00
         0.00000E+00
         0.00000E+00
         0.00000E+00
         0.00000E+00
         0.00000E+00
         0.00000E+00
         0.00000E+00
         0.00000E+00
         0.00000E+00
         0.00000E+00
         0.00000E+00
         0.00000E+00
         0.00000E+00
         0.00000E+00
         0.00000E+00
         0.00000E+00
         0.00000E+00
         0.00000E+00
         0.00000E+00
         0.00000E+00
         0.00000E+00
         0.00000E+00
         0.00000E+00
         0.00000E+00
         0.00000E+00
         0.00000E+00
         0.00000E+00
         0.00000E+00
         0.00000E+00
         0.00000E+00
         0.00000E+00
         0.00000E+00
         0.00000E+00
         0.00000E+00
         0.00000E+00
         0.00000E+00
         0.00000E+00
         0.00000E+00
         0.00000E+00
         0.00000E+00
         0.00000E+00
         0.00000E+00
         0.00000E+00
         0.00000E+00
         0.00000E+00
         0.00000E+00
         0.00000E+00
         0.00000E+00
         0.00000E+00
         0.00000E+00
         0.00000E+00
         0.00000E+00
         0.00000E+00
         0.00000E+00
         0.00000E+00
         0.00000E+00
         0.00000E+00
         0.00000E+00
         0.00000E+00
         0.00000E+00
         0.00000E+00
         0.00000E+00
         0.00000E+00
         0.00000E+00
         0.00000E+00
         0.00000E+00
         0.00000E+00
         0.00000E+00
         0.00000E+00
         0.00000E+00
         0.00000E+00
         0.00000E+00
         0.00000E+00
         0.00000E+00
         0.00000E+00
         0.00000E+00
         0.00000E+00
         0.00000E+00
         0.00000E+00
         0.00000E+00
         0.00000E+00
         0.00000E+00
         0.00000E+00
         0.00000E+00
         0.00000E+00
         0.00000E+00
         0.00000E+00
         0.00000E+00
         0.00000E+00
         0.00000E+00
         0.00000E+00
         0.00000E+00
         0.00000E+00
         0.00000E+00
         0.00000E+00
         0.00000E+00
         0.00000E+00
         0.00000E+00
         0.00000E+00
         0.00000E+00
         0.00000E+00
         0.00000E+00
         0.00000E+00
         0.00000E+00
         0.00000E+00
         0.00000E+00
         0.00000E+00
         0.00000E+00
         0.00000E+00
         0.00000E+00
         0.00000E+00
         0.00000E+00
         0.00000E+00
         0.00000E+00
         0.00000E+00
         0.00000E+00
         0.00000E+00
         0.00000E+00
         0.00000E+00
         0.00000E+00
         0.00000E+00
         0.00000E+00
         0.00000E+00
         0.00000E+00
         0.00000E+00
         0.00000E+00
         0.00000E+00
         0.00000E+00
         0.00000E+00
         0.00000E+00
         0.00000E+00
         0.00000E+00
         0.00000E+00
         0.00000E+00
         0.00000E+00
         0.00000E+00
         0.00000E+00
         0.00000E+00
         0.00000E+00
         0.00000E+00
         0.00000E+00
         0.00000E+00
         0.00000E+00
         0.00000E+00
         0.00000E+00
         0.00000E+00
         0.00000E+00
         0.00000E+00
         0.00000E+00
         0.00000E+00
         0.00000E+00
         0.00000E+00
         0.00000E+00
         0.00000E+00
         0.00000E+00
         0.00000E+00
         0.00000E+00
         0.00000E+00
         0.00000E+00
         0.00000E+00
         0.00000E+00
         0.00000E+00
         0.00000E+00
         0.00000E+00
         0.00000E+00
         0.00000E+00
         0.00000E+00
         0.00000E+00
         0.00000E+00
         0.00000E+00
         0.00000E+00
         0.00000E+00
         0.00000E+00
         0.00000E+00
         0.00000E+00
         0.00000E+00
         0.00000E+00
         0.00000E+00
         0.00000E+00
         0.00000E+00
         0.00000E+00
         0.00000E+00
         0.00000E+00
         0.00000E+00
         0.00000E+00
         0.00000E+00
         0.00000E+00
         0.00000E+00
         0.00000E+00
         0.00000E+00
         0.00000E+00
         0.00000E+00
         0.00000E+00
         0.00000E+00
         0.00000E+00
         0.00000E+00
         0.00000E+00
         0.00000E+00
         0.00000E+00
         0.00000E+00
         0.00000E+00
         0.00000E+00
         0.00000E+00
         0.00000E+00
         0.00000E+00
         0.00000E+00
         0.00000E+00
         0.00000E+00
         0.00000E+00
         0.00000E+00
         0.00000E+00
         0.00000E+00
         0.00000E+00
         0.00000E+00
         0.00000E+00
         0.00000E+00
         0.00000E+00
         0.00000E+00
         0.00000E+00
         0.00000E+00
         0.00000E+00
         0.00000E+00
         0.00000E+00
         0.00000E+00
         0.00000E+00
         0.00000E+00
         0.00000E+00
         0.00000E+00
         0.00000E+00
         0.00000E+00
         0.00000E+00
         0.00000E+00
         0.00000E+00
         0.00000E+00
         0.00000E+00
         0.00000E+00
         0.00000E+00
         0.00000E+00
         0.00000E+00
         0.00000E+00
         0.00000E+00
         0.00000E+00
         0.00000E+00
         0.00000E+00
         0.00000E+00
         0.00000E+00
         0.00000E+00
         0.00000E+00
         0.00000E+00
         0.00000E+00
         0.00000E+00
         0.00000E+00
         0.00000E+00
         0.00000E+00
         0.00000E+00
         0.00000E+00
         0.00000E+00
         0.00000E+00
         0.00000E+00
         0.00000E+00
         0.00000E+00
         0.00000E+00
         0.00000E+00
         0.00000E+00
         0.00000E+00
         0.00000E+00
         0.00000E+00
         0.00000E+00
         0.00000E+00
         0.00000E+00
         0.00000E+00
         0.00000E+00
         0.00000E+00
         0.00000E+00
         0.00000E+00
         0.00000E+00
         0.00000E+00
         0.00000E+00
         0.00000E+00
         0.00000E+00
         0.00000E+00
         0.00000E+00
         0.00000E+00
         0.00000E+00
         0.00000E+00
         0.00000E+00
         0.00000E+00
         0.00000E+00
         0.00000E+00
         0.00000E+00
         0.00000E+00
         0.00000E+00
         0.00000E+00
         0.00000E+00
         0.00000E+00
         0.00000E+00
         0.00000E+00
         0.00000E+00
         0.00000E+00
         0.00000E+00
         0.00000E+00
         0.00000E+00
         0.00000E+00
         0.00000E+00
         0.00000E+00
         0.00000E+00
         0.00000E+00
         0.00000E+00
         0.00000E+00
         0.00000E+00
         0.00000E+00
         0.00000E+00
         0.00000E+00
         0.00000E+00
         0.00000E+00
         0.00000E+00
         0.00000E+00
         0.00000E+00
         0.00000E+00
         0.00000E+00
         0.00000E+00
         0.00000E+00
         0.00000E+00
         0.00000E+00
         0.00000E+00
         0.00000E+00
         0.00000E+00
         0.00000E+00
         0.00000E+00
         0.00000E+00
         0.00000E+00
         0.00000E+00
         0.00000E+00
         0.00000E+00
         0.00000E+00
         0.00000E+00
         0.00000E+00
         0.00000E+00
         0.00000E+00
         0.00000E+00
         0.00000E+00
         0.00000E+00
         0.00000E+00
         0.00000E+00
         0.00000E+00
         0.00000E+00
         0.00000E+00
         0.00000E+00
         0.00000E+00
         0.00000E+00
         0.00000E+00
         0.00000E+00
         0.00000E+00
         0.00000E+00
         0.00000E+00
         0.00000E+00
         0.00000E+00
         0.00000E+00
         0.00000E+00
         0.00000E+00
         0.00000E+00
         0.00000E+00
         0.00000E+00
         0.00000E+00
         0.00000E+00
         0.00000E+00
         0.00000E+00
         0.00000E+00
         0.00000E+00
         0.00000E+00
         0.00000E+00
         0.00000E+00
         0.00000E+00
         0.00000E+00
         0.00000E+00
         0.00000E+00
         0.00000E+00
         0.00000E+00
         0.00000E+00
         0.00000E+00
         0.00000E+00
         0.00000E+00
         0.00000E+00
         0.00000E+00
         0.00000E+00
         0.00000E+00
         0.00000E+00
         0.00000E+00
         0.00000E+00
         0.00000E+00
         0.00000E+00
         0.00000E+00
         0.00000E+00
         0.00000E+00
         0.00000E+00
         0.00000E+00
         0.00000E+00
         0.00000E+00
         0.00000E+00
         0.00000E+00
         0.00000E+00
         0.00000E+00
         0.00000E+00
         0.00000E+00
         0.00000E+00
         0.00000E+00
         0.00000E+00
         0.00000E+00
         0.00000E+00
         0.00000E+00
         0.00000E+00
         0.00000E+00
         0.00000E+00
         0.00000E+00
         0.00000E+00
         0.00000E+00
         0.00000E+00
         0.00000E+00
         0.00000E+00
         0.00000E+00
         0.00000E+00
         0.00000E+00
         0.00000E+00
         0.00000E+00
         0.00000E+00
         0.00000E+00
         0.00000E+00
         0.00000E+00
         0.00000E+00
         0.00000E+00
         0.00000E+00
         0.00000E+00
         0.00000E+00
         0.00000E+00
         0.00000E+00
         0.00000E+00
         0.00000E+00
         0.00000E+00
         0.00000E+00
         0.00000E+00
         0.00000E+00
         0.00000E+00
         0.00000E+00
         0.00000E+00
         0.00000E+00
         0.00000E+00
         0.00000E+00
         0.00000E+00
         0.00000E+00
         0.00000E+00
         0.00000E+00
         0.00000E+00
         0.00000E+00
         0.00000E+00
         0.00000E+00
         0.00000E+00
         0.00000E+00
         0.00000E+00
         0.00000E+00
         0.00000E+00
         0.00000E+00
         0.00000E+00
         0.00000E+00
         0.00000E+00
         0.00000E+00
         0.00000E+00
         0.00000E+00
         0.00000E+00
         0.00000E+00
         0.00000E+00
         0.00000E+00
         0.00000E+00
         0.00000E+00
         0.00000E+00
         0.00000E+00
         0.00000E+00
         0.00000E+00
         0.00000E+00
         0.00000E+00
         0.00000E+00
         0.00000E+00
         0.00000E+00
         0.00000E+00
         0.00000E+00
         0.00000E+00
         0.00000E+00
         0.00000E+00
         0.00000E+00
         0.00000E+00
         0.00000E+00
         0.00000E+00
         0.00000E+00
         0.00000E+00
         0.00000E+00
         0.00000E+00
         0.00000E+00
         0.00000E+00
         0.00000E+00
         0.00000E+00
         0.00000E+00
         0.00000E+00
         0.00000E+00
         0.00000E+00
         0.00000E+00
         0.00000E+00
         0.00000E+00
         0.00000E+00
         0.00000E+00
         0.00000E+00
         0.00000E+00
         0.00000E+00
         0.00000E+00
         0.00000E+00
         0.00000E+00
         0.00000E+00
         0.00000E+00
         0.00000E+00
         0.00000E+00
         0.00000E+00
         0.00000E+00
         0.00000E+00
         0.00000E+00
         0.00000E+00
         0.00000E+00
         0.00000E+00
         0.00000E+00
         0.00000E+00
         0.00000E+00
         0.00000E+00
         0.00000E+00
         0.00000E+00
         0.00000E+00
         0.00000E+00
         0.00000E+00
         0.00000E+00
         0.00000E+00
         0.00000E+00
         0.00000E+00
         0.00000E+00
         0.00000E+00
         0.00000E+00
         0.00000E+00
         0.00000E+00
         0.00000E+00
         0.00000E+00
         0.00000E+00
         0.00000E+00
         0.00000E+00
         0.00000E+00
         0.00000E+00
         0.00000E+00
         0.00000E+00
         0.00000E+00
         0.00000E+00
         0.00000E+00
         0.00000E+00
         0.00000E+00
         0.00000E+00
         0.00000E+00
         0.00000E+00
         0.00000E+00
         0.00000E+00
         0.00000E+00
         0.00000E+00
         0.00000E+00
         0.00000E+00
         0.00000E+00
         0.00000E+00
         0.00000E+00
         0.00000E+00
         0.00000E+00
         0.00000E+00
         0.00000E+00
         0.00000E+00
         0.00000E+00
         0.00000E+00
         0.00000E+00
         0.00000E+00
         0.00000E+00
         0.00000E+00
         0.00000E+00
         0.00000E+00
         0.00000E+00
         0.00000E+00
         0.00000E+00
         0.00000E+00
         0.00000E+00
         0.00000E+00
         0.00000E+00
         0.00000E+00
         0.00000E+00
         0.00000E+00
         0.00000E+00
         0.00000E+00
         0.00000E+00
         0.00000E+00
         0.00000E+00
         0.00000E+00
         0.00000E+00
         0.00000E+00
         0.00000E+00
         0.00000E+00
         0.00000E+00
         0.00000E+00
         0.00000E+00
         0.00000E+00
         0.00000E+00
         0.00000E+00
         0.00000E+00
         0.00000E+00
         0.00000E+00
         0.00000E+00
         0.00000E+00
         0.00000E+00
         0.00000E+00
         0.00000E+00
         0.00000E+00
         0.00000E+00
         0.00000E+00
         0.00000E+00
         0.00000E+00
         0.00000E+00
         0.00000E+00
         0.00000E+00
         0.00000E+00
         0.00000E+00
         0.00000E+00
         0.00000E+00
         0.00000E+00
         0.00000E+00
         0.00000E+00
         0.00000E+00
         0.00000E+00
         0.00000E+00
         0.00000E+00
         0.00000E+00
         0.00000E+00
         0.00000E+00
         0.00000E+00
         0.00000E+00
         0.00000E+00
         0.00000E+00
         0.00000E+00
         0.00000E+00
         0.00000E+00
         0.00000E+00
         0.00000E+00
         0.00000E+00
         0.00000E+00
         0.00000E+00
         0.00000E+00
         0.00000E+00
         0.00000E+00
         0.00000E+00
         0.00000E+00
         0.00000E+00
         0.00000E+00
         0.00000E+00
         0.00000E+00
         0.00000E+00
         0.00000E+00
         0.00000E+00
         0.00000E+00
         0.00000E+00
         0.00000E+00
         0.00000E+00
         0.00000E+00
         0.00000E+00
         0.00000E+00
         0.00000E+00
         0.00000E+00
         0.00000E+00
         0.00000E+00
         0.00000E+00
         0.00000E+00
         0.00000E+00
         0.00000E+00
         0.00000E+00
  
SCALARS                 acceleration_y  double 1
LOOKUP_TABLE default
         0.00000E+00
         0.00000E+00
         0.00000E+00
         0.00000E+00
         0.00000E+00
         0.00000E+00
         0.00000E+00
         0.00000E+00
         0.00000E+00
         0.00000E+00
         0.00000E+00
         0.00000E+00
         0.00000E+00
         0.00000E+00
         0.00000E+00
         0.00000E+00
         0.00000E+00
         0.00000E+00
         0.00000E+00
         0.00000E+00
         0.00000E+00
         0.00000E+00
         0.00000E+00
         0.00000E+00
         0.00000E+00
         0.00000E+00
         0.00000E+00
         0.00000E+00
         0.00000E+00
         0.00000E+00
         0.00000E+00
         0.00000E+00
         0.00000E+00
         0.00000E+00
         0.00000E+00
         0.00000E+00
         0.00000E+00
         0.00000E+00
         0.00000E+00
         0.00000E+00
         0.00000E+00
         0.00000E+00
         0.00000E+00
         0.00000E+00
         0.00000E+00
         0.00000E+00
         0.00000E+00
         0.00000E+00
         0.00000E+00
         0.00000E+00
         0.00000E+00
         0.00000E+00
         0.00000E+00
         0.00000E+00
         0.00000E+00
         0.00000E+00
         0.00000E+00
         0.00000E+00
         0.00000E+00
         0.00000E+00
         0.00000E+00
         0.00000E+00
         0.00000E+00
         0.00000E+00
         0.00000E+00
         0.00000E+00
         0.00000E+00
         0.00000E+00
         0.00000E+00
         0.00000E+00
         0.00000E+00
         0.00000E+00
         0.00000E+00
         0.00000E+00
         0.00000E+00
         0.00000E+00
         0.00000E+00
         0.00000E+00
         0.00000E+00
         0.00000E+00
         0.00000E+00
         0.00000E+00
         0.00000E+00
         0.00000E+00
         0.00000E+00
         0.00000E+00
         0.00000E+00
         0.00000E+00
         0.00000E+00
         0.00000E+00
         0.00000E+00
         0.00000E+00
         0.00000E+00
         0.00000E+00
         0.00000E+00
         0.00000E+00
         0.00000E+00
         0.00000E+00
         0.00000E+00
         0.00000E+00
         0.00000E+00
         0.00000E+00
         0.00000E+00
         0.00000E+00
         0.00000E+00
         0.00000E+00
         0.00000E+00
         0.00000E+00
         0.00000E+00
         0.00000E+00
         0.00000E+00
         0.00000E+00
         0.00000E+00
         0.00000E+00
         0.00000E+00
         0.00000E+00
         0.00000E+00
         0.00000E+00
         0.00000E+00
         0.00000E+00
         0.00000E+00
         0.00000E+00
         0.00000E+00
         0.00000E+00
         0.00000E+00
         0.00000E+00
         0.00000E+00
         0.00000E+00
         0.00000E+00
         0.00000E+00
         0.00000E+00
         0.00000E+00
         0.00000E+00
         0.00000E+00
         0.00000E+00
         0.00000E+00
         0.00000E+00
         0.00000E+00
         0.00000E+00
         0.00000E+00
         0.00000E+00
         0.00000E+00
         0.00000E+00
         0.00000E+00
         0.00000E+00
         0.00000E+00
         0.00000E+00
         0.00000E+00
         0.00000E+00
         0.00000E+00
         0.00000E+00
         0.00000E+00
         0.00000E+00
         0.00000E+00
         0.00000E+00
         0.00000E+00
         0.00000E+00
         0.00000E+00
         0.00000E+00
         0.00000E+00
         0.00000E+00
         0.00000E+00
         0.00000E+00
         0.00000E+00
         0.00000E+00
         0.00000E+00
         0.00000E+00
         0.00000E+00
         0.00000E+00
         0.00000E+00
         0.00000E+00
         0.00000E+00
         0.00000E+00
         0.00000E+00
         0.00000E+00
         0.00000E+00
         0.00000E+00
         0.00000E+00
         0.00000E+00
         0.00000E+00
         0.00000E+00
         0.00000E+00
         0.00000E+00
         0.00000E+00
         0.00000E+00
         0.00000E+00
         0.00000E+00
         0.00000E+00
         0.00000E+00
         0.00000E+00
         0.00000E+00
         0.00000E+00
         0.00000E+00
         0.00000E+00
         0.00000E+00
         0.00000E+00
         0.00000E+00
         0.00000E+00
         0.00000E+00
         0.00000E+00
         0.00000E+00
         0.00000E+00
         0.00000E+00
         0.00000E+00
         0.00000E+00
         0.00000E+00
         0.00000E+00
         0.00000E+00
         0.00000E+00
         0.00000E+00
         0.00000E+00
         0.00000E+00
         0.00000E+00
         0.00000E+00
         0.00000E+00
         0.00000E+00
         0.00000E+00
         0.00000E+00
         0.00000E+00
         0.00000E+00
         0.00000E+00
         0.00000E+00
         0.00000E+00
         0.00000E+00
         0.00000E+00
         0.00000E+00
         0.00000E+00
         0.00000E+00
         0.00000E+00
         0.00000E+00
         0.00000E+00
         0.00000E+00
         0.00000E+00
         0.00000E+00
         0.00000E+00
         0.00000E+00
         0.00000E+00
         0.00000E+00
         0.00000E+00
         0.00000E+00
         0.00000E+00
         0.00000E+00
         0.00000E+00
         0.00000E+00
         0.00000E+00
         0.00000E+00
         0.00000E+00
         0.00000E+00
         0.00000E+00
         0.00000E+00
         0.00000E+00
         0.00000E+00
         0.00000E+00
         0.00000E+00
         0.00000E+00
         0.00000E+00
         0.00000E+00
         0.00000E+00
         0.00000E+00
         0.00000E+00
         0.00000E+00
         0.00000E+00
         0.00000E+00
         0.00000E+00
         0.00000E+00
         0.00000E+00
         0.00000E+00
         0.00000E+00
         0.00000E+00
         0.00000E+00
         0.00000E+00
         0.00000E+00
         0.00000E+00
         0.00000E+00
         0.00000E+00
         0.00000E+00
         0.00000E+00
         0.00000E+00
         0.00000E+00
         0.00000E+00
         0.00000E+00
         0.00000E+00
         0.00000E+00
         0.00000E+00
         0.00000E+00
         0.00000E+00
         0.00000E+00
         0.00000E+00
         0.00000E+00
         0.00000E+00
         0.00000E+00
         0.00000E+00
         0.00000E+00
         0.00000E+00
         0.00000E+00
         0.00000E+00
         0.00000E+00
         0.00000E+00
         0.00000E+00
         0.00000E+00
         0.00000E+00
         0.00000E+00
         0.00000E+00
         0.00000E+00
         0.00000E+00
         0.00000E+00
         0.00000E+00
         0.00000E+00
         0.00000E+00
         0.00000E+00
         0.00000E+00
         0.00000E+00
         0.00000E+00
         0.00000E+00
         0.00000E+00
         0.00000E+00
         0.00000E+00
         0.00000E+00
         0.00000E+00
         0.00000E+00
         0.00000E+00
         0.00000E+00
         0.00000E+00
         0.00000E+00
         0.00000E+00
         0.00000E+00
         0.00000E+00
         0.00000E+00
         0.00000E+00
         0.00000E+00
         0.00000E+00
         0.00000E+00
         0.00000E+00
         0.00000E+00
         0.00000E+00
         0.00000E+00
         0.00000E+00
         0.00000E+00
         0.00000E+00
         0.00000E+00
         0.00000E+00
         0.00000E+00
         0.00000E+00
         0.00000E+00
         0.00000E+00
         0.00000E+00
         0.00000E+00
         0.00000E+00
         0.00000E+00
         0.00000E+00
         0.00000E+00
         0.00000E+00
         0.00000E+00
         0.00000E+00
         0.00000E+00
         0.00000E+00
         0.00000E+00
         0.00000E+00
         0.00000E+00
         0.00000E+00
         0.00000E+00
         0.00000E+00
         0.00000E+00
         0.00000E+00
         0.00000E+00
         0.00000E+00
         0.00000E+00
         0.00000E+00
         0.00000E+00
         0.00000E+00
         0.00000E+00
         0.00000E+00
         0.00000E+00
         0.00000E+00
         0.00000E+00
         0.00000E+00
         0.00000E+00
         0.00000E+00
         0.00000E+00
         0.00000E+00
         0.00000E+00
         0.00000E+00
         0.00000E+00
         0.00000E+00
         0.00000E+00
         0.00000E+00
         0.00000E+00
         0.00000E+00
         0.00000E+00
         0.00000E+00
         0.00000E+00
         0.00000E+00
         0.00000E+00
         0.00000E+00
         0.00000E+00
         0.00000E+00
         0.00000E+00
         0.00000E+00
         0.00000E+00
         0.00000E+00
         0.00000E+00
         0.00000E+00
         0.00000E+00
         0.00000E+00
         0.00000E+00
         0.00000E+00
         0.00000E+00
         0.00000E+00
         0.00000E+00
         0.00000E+00
         0.00000E+00
         0.00000E+00
         0.00000E+00
         0.00000E+00
         0.00000E+00
         0.00000E+00
         0.00000E+00
         0.00000E+00
         0.00000E+00
         0.00000E+00
         0.00000E+00
         0.00000E+00
         0.00000E+00
         0.00000E+00
         0.00000E+00
         0.00000E+00
         0.00000E+00
         0.00000E+00
         0.00000E+00
         0.00000E+00
         0.00000E+00
         0.00000E+00
         0.00000E+00
         0.00000E+00
         0.00000E+00
         0.00000E+00
         0.00000E+00
         0.00000E+00
         0.00000E+00
         0.00000E+00
         0.00000E+00
         0.00000E+00
         0.00000E+00
         0.00000E+00
         0.00000E+00
         0.00000E+00
         0.00000E+00
         0.00000E+00
         0.00000E+00
         0.00000E+00
         0.00000E+00
         0.00000E+00
         0.00000E+00
         0.00000E+00
         0.00000E+00
         0.00000E+00
         0.00000E+00
         0.00000E+00
         0.00000E+00
         0.00000E+00
         0.00000E+00
         0.00000E+00
         0.00000E+00
         0.00000E+00
         0.00000E+00
         0.00000E+00
         0.00000E+00
         0.00000E+00
         0.00000E+00
         0.00000E+00
         0.00000E+00
         0.00000E+00
         0.00000E+00
         0.00000E+00
         0.00000E+00
         0.00000E+00
         0.00000E+00
         0.00000E+00
         0.00000E+00
         0.00000E+00
         0.00000E+00
         0.00000E+00
         0.00000E+00
         0.00000E+00
         0.00000E+00
         0.00000E+00
         0.00000E+00
         0.00000E+00
         0.00000E+00
         0.00000E+00
         0.00000E+00
         0.00000E+00
         0.00000E+00
         0.00000E+00
         0.00000E+00
         0.00000E+00
         0.00000E+00
         0.00000E+00
         0.00000E+00
         0.00000E+00
         0.00000E+00
         0.00000E+00
         0.00000E+00
         0.00000E+00
         0.00000E+00
         0.00000E+00
         0.00000E+00
         0.00000E+00
         0.00000E+00
         0.00000E+00
         0.00000E+00
         0.00000E+00
         0.00000E+00
         0.00000E+00
         0.00000E+00
         0.00000E+00
         0.00000E+00
         0.00000E+00
         0.00000E+00
         0.00000E+00
         0.00000E+00
         0.00000E+00
         0.00000E+00
         0.00000E+00
         0.00000E+00
         0.00000E+00
         0.00000E+00
         0.00000E+00
         0.00000E+00
         0.00000E+00
         0.00000E+00
         0.00000E+00
         0.00000E+00
         0.00000E+00
         0.00000E+00
         0.00000E+00
         0.00000E+00
         0.00000E+00
         0.00000E+00
         0.00000E+00
         0.00000E+00
         0.00000E+00
         0.00000E+00
         0.00000E+00
         0.00000E+00
         0.00000E+00
         0.00000E+00
         0.00000E+00
         0.00000E+00
         0.00000E+00
         0.00000E+00
         0.00000E+00
         0.00000E+00
         0.00000E+00
         0.00000E+00
         0.00000E+00
         0.00000E+00
         0.00000E+00
         0.00000E+00
         0.00000E+00
         0.00000E+00
         0.00000E+00
         0.00000E+00
         0.00000E+00
         0.00000E+00
         0.00000E+00
         0.00000E+00
         0.00000E+00
         0.00000E+00
         0.00000E+00
         0.00000E+00
         0.00000E+00
         0.00000E+00
         0.00000E+00
         0.00000E+00
         0.00000E+00
         0.00000E+00
         0.00000E+00
         0.00000E+00
         0.00000E+00
         0.00000E+00
         0.00000E+00
         0.00000E+00
         0.00000E+00
         0.00000E+00
         0.00000E+00
         0.00000E+00
         0.00000E+00
         0.00000E+00
         0.00000E+00
         0.00000E+00
         0.00000E+00
         0.00000E+00
         0.00000E+00
         0.00000E+00
         0.00000E+00
         0.00000E+00
         0.00000E+00
         0.00000E+00
         0.00000E+00
         0.00000E+00
         0.00000E+00
         0.00000E+00
         0.00000E+00
         0.00000E+00
         0.00000E+00
         0.00000E+00
         0.00000E+00
         0.00000E+00
         0.00000E+00
         0.00000E+00
         0.00000E+00
         0.00000E+00
         0.00000E+00
         0.00000E+00
         0.00000E+00
         0.00000E+00
         0.00000E+00
         0.00000E+00
         0.00000E+00
         0.00000E+00
         0.00000E+00
         0.00000E+00
         0.00000E+00
         0.00000E+00
         0.00000E+00
         0.00000E+00
         0.00000E+00
         0.00000E+00
         0.00000E+00
         0.00000E+00
         0.00000E+00
         0.00000E+00
         0.00000E+00
         0.00000E+00
         0.00000E+00
         0.00000E+00
         0.00000E+00
         0.00000E+00
         0.00000E+00
         0.00000E+00
         0.00000E+00
         0.00000E+00
         0.00000E+00
         0.00000E+00
         0.00000E+00
         0.00000E+00
         0.00000E+00
         0.00000E+00
         0.00000E+00
         0.00000E+00
         0.00000E+00
         0.00000E+00
         0.00000E+00
         0.00000E+00
         0.00000E+00
         0.00000E+00
         0.00000E+00
         0.00000E+00
         0.00000E+00
         0.00000E+00
         0.00000E+00
         0.00000E+00
         0.00000E+00
         0.00000E+00
         0.00000E+00
         0.00000E+00
         0.00000E+00
         0.00000E+00
         0.00000E+00
         0.00000E+00
         0.00000E+00
         0.00000E+00
         0.00000E+00
         0.00000E+00
         0.00000E+00
         0.00000E+00
         0.00000E+00
         0.00000E+00
         0.00000E+00
         0.00000E+00
         0.00000E+00
         0.00000E+00
         0.00000E+00
         0.00000E+00
         0.00000E+00
         0.00000E+00
         0.00000E+00
         0.00000E+00
         0.00000E+00
         0.00000E+00
         0.00000E+00
         0.00000E+00
         0.00000E+00
         0.00000E+00
         0.00000E+00
         0.00000E+00
         0.00000E+00
         0.00000E+00
         0.00000E+00
         0.00000E+00
         0.00000E+00
         0.00000E+00
         0.00000E+00
         0.00000E+00
         0.00000E+00
         0.00000E+00
         0.00000E+00
         0.00000E+00
         0.00000E+00
         0.00000E+00
         0.00000E+00
         0.00000E+00
         0.00000E+00
         0.00000E+00
         0.00000E+00
         0.00000E+00
         0.00000E+00
         0.00000E+00
         0.00000E+00
         0.00000E+00
         0.00000E+00
         0.00000E+00
         0.00000E+00
         0.00000E+00
         0.00000E+00
         0.00000E+00
         0.00000E+00
         0.00000E+00
         0.00000E+00
         0.00000E+00
         0.00000E+00
         0.00000E+00
         0.00000E+00
         0.00000E+00
         0.00000E+00
         0.00000E+00
         0.00000E+00
         0.00000E+00
         0.00000E+00
         0.00000E+00
         0.00000E+00
         0.00000E+00
         0.00000E+00
         0.00000E+00
         0.00000E+00
         0.00000E+00
         0.00000E+00
         0.00000E+00
         0.00000E+00
         0.00000E+00
         0.00000E+00
         0.00000E+00
         0.00000E+00
         0.00000E+00
         0.00000E+00
         0.00000E+00
         0.00000E+00
         0.00000E+00
         0.00000E+00
         0.00000E+00
         0.00000E+00
         0.00000E+00
         0.00000E+00
         0.00000E+00
         0.00000E+00
         0.00000E+00
         0.00000E+00
         0.00000E+00
         0.00000E+00
         0.00000E+00
         0.00000E+00
         0.00000E+00
         0.00000E+00
         0.00000E+00
         0.00000E+00
         0.00000E+00
         0.00000E+00
         0.00000E+00
         0.00000E+00
         0.00000E+00
         0.00000E+00
         0.00000E+00
         0.00000E+00
         0.00000E+00
         0.00000E+00
         0.00000E+00
         0.00000E+00
         0.00000E+00
         0.00000E+00
         0.00000E+00
         0.00000E+00
         0.00000E+00
         0.00000E+00
         0.00000E+00
         0.00000E+00
         0.00000E+00
         0.00000E+00
         0.00000E+00
         0.00000E+00
         0.00000E+00
         0.00000E+00
         0.00000E+00
         0.00000E+00
         0.00000E+00
         0.00000E+00
         0.00000E+00
         0.00000E+00
         0.00000E+00
         0.00000E+00
         0.00000E+00
         0.00000E+00
         0.00000E+00
         0.00000E+00
         0.00000E+00
         0.00000E+00
         0.00000E+00
         0.00000E+00
         0.00000E+00
         0.00000E+00
         0.00000E+00
         0.00000E+00
         0.00000E+00
         0.00000E+00
         0.00000E+00
         0.00000E+00
         0.00000E+00
         0.00000E+00
         0.00000E+00
         0.00000E+00
         0.00000E+00
         0.00000E+00
         0.00000E+00
         0.00000E+00
         0.00000E+00
         0.00000E+00
         0.00000E+00
         0.00000E+00
         0.00000E+00
         0.00000E+00
         0.00000E+00
         0.00000E+00
         0.00000E+00
         0.00000E+00
         0.00000E+00
         0.00000E+00
         0.00000E+00
         0.00000E+00
         0.00000E+00
         0.00000E+00
         0.00000E+00
         0.00000E+00
         0.00000E+00
         0.00000E+00
         0.00000E+00
         0.00000E+00
         0.00000E+00
         0.00000E+00
         0.00000E+00
         0.00000E+00
         0.00000E+00
         0.00000E+00
         0.00000E+00
         0.00000E+00
         0.00000E+00
         0.00000E+00
         0.00000E+00
         0.00000E+00
         0.00000E+00
         0.00000E+00
         0.00000E+00
         0.00000E+00
         0.00000E+00
         0.00000E+00
         0.00000E+00
         0.00000E+00
         0.00000E+00
         0.00000E+00
         0.00000E+00
         0.00000E+00
         0.00000E+00
         0.00000E+00
         0.00000E+00
         0.00000E+00
         0.00000E+00
         0.00000E+00
         0.00000E+00
         0.00000E+00
         0.00000E+00
         0.00000E+00
         0.00000E+00
         0.00000E+00
         0.00000E+00
         0.00000E+00
         0.00000E+00
         0.00000E+00
         0.00000E+00
         0.00000E+00
         0.00000E+00
         0.00000E+00
         0.00000E+00
         0.00000E+00
         0.00000E+00
         0.00000E+00
         0.00000E+00
         0.00000E+00
         0.00000E+00
         0.00000E+00
         0.00000E+00
         0.00000E+00
         0.00000E+00
         0.00000E+00
         0.00000E+00
         0.00000E+00
         0.00000E+00
         0.00000E+00
         0.00000E+00
         0.00000E+00
         0.00000E+00
         0.00000E+00
         0.00000E+00
         0.00000E+00
         0.00000E+00
         0.00000E+00
         0.00000E+00
         0.00000E+00
         0.00000E+00
         0.00000E+00
         0.00000E+00
         0.00000E+00
         0.00000E+00
         0.00000E+00
         0.00000E+00
         0.00000E+00
         0.00000E+00
         0.00000E+00
         0.00000E+00
         0.00000E+00
         0.00000E+00
         0.00000E+00
         0.00000E+00
         0.00000E+00
         0.00000E+00
         0.00000E+00
         0.00000E+00
         0.00000E+00
         0.00000E+00
         0.00000E+00
         0.00000E+00
         0.00000E+00
         0.00000E+00
         0.00000E+00
         0.00000E+00
         0.00000E+00
         0.00000E+00
         0.00000E+00
         0.00000E+00
         0.00000E+00
         0.00000E+00
         0.00000E+00
         0.00000E+00
         0.00000E+00
         0.00000E+00
         0.00000E+00
         0.00000E+00
         0.00000E+00
         0.00000E+00
         0.00000E+00
         0.00000E+00
         0.00000E+00
         0.00000E+00
         0.00000E+00
         0.00000E+00
         0.00000E+00
         0.00000E+00
         0.00000E+00
         0.00000E+00
         0.00000E+00
         0.00000E+00
         0.00000E+00
         0.00000E+00
         0.00000E+00
         0.00000E+00
         0.00000E+00
         0.00000E+00
         0.00000E+00
         0.00000E+00
         0.00000E+00
         0.00000E+00
         0.00000E+00
         0.00000E+00
         0.00000E+00
         0.00000E+00
         0.00000E+00
         0.00000E+00
         0.00000E+00
         0.00000E+00
         0.00000E+00
         0.00000E+00
         0.00000E+00
         0.00000E+00
         0.00000E+00
         0.00000E+00
         0.00000E+00
         0.00000E+00
         0.00000E+00
         0.00000E+00
         0.00000E+00
         0.00000E+00
         0.00000E+00
         0.00000E+00
         0.00000E+00
         0.00000E+00
         0.00000E+00
         0.00000E+00
         0.00000E+00
         0.00000E+00
         0.00000E+00
         0.00000E+00
         0.00000E+00
         0.00000E+00
         0.00000E+00
         0.00000E+00
         0.00000E+00
         0.00000E+00
         0.00000E+00
         0.00000E+00
         0.00000E+00
         0.00000E+00
         0.00000E+00
         0.00000E+00
         0.00000E+00
         0.00000E+00
         0.00000E+00
         0.00000E+00
         0.00000E+00
         0.00000E+00
         0.00000E+00
         0.00000E+00
         0.00000E+00
         0.00000E+00
         0.00000E+00
         0.00000E+00
         0.00000E+00
         0.00000E+00
         0.00000E+00
         0.00000E+00
         0.00000E+00
         0.00000E+00
         0.00000E+00
         0.00000E+00
         0.00000E+00
         0.00000E+00
         0.00000E+00
         0.00000E+00
         0.00000E+00
         0.00000E+00
         0.00000E+00
         0.00000E+00
         0.00000E+00
         0.00000E+00
         0.00000E+00
         0.00000E+00
         0.00000E+00
         0.00000E+00
         0.00000E+00
         0.00000E+00
         0.00000E+00
         0.00000E+00
         0.00000E+00
         0.00000E+00
         0.00000E+00
         0.00000E+00
         0.00000E+00
         0.00000E+00
         0.00000E+00
         0.00000E+00
         0.00000E+00
         0.00000E+00
         0.00000E+00
         0.00000E+00
         0.00000E+00
         0.00000E+00
         0.00000E+00
         0.00000E+00
         0.00000E+00
         0.00000E+00
         0.00000E+00
         0.00000E+00
         0.00000E+00
         0.00000E+00
         0.00000E+00
         0.00000E+00
         0.00000E+00
         0.00000E+00
         0.00000E+00
         0.00000E+00
         0.00000E+00
         0.00000E+00
         0.00000E+00
         0.00000E+00
         0.00000E+00
         0.00000E+00
         0.00000E+00
         0.00000E+00
         0.00000E+00
         0.00000E+00
         0.00000E+00
         0.00000E+00
         0.00000E+00
         0.00000E+00
         0.00000E+00
         0.00000E+00
         0.00000E+00
         0.00000E+00
         0.00000E+00
         0.00000E+00
         0.00000E+00
         0.00000E+00
         0.00000E+00
         0.00000E+00
         0.00000E+00
         0.00000E+00
         0.00000E+00
         0.00000E+00
         0.00000E+00
         0.00000E+00
         0.00000E+00
         0.00000E+00
         0.00000E+00
         0.00000E+00
         0.00000E+00
         0.00000E+00
         0.00000E+00
         0.00000E+00
         0.00000E+00
         0.00000E+00
         0.00000E+00
         0.00000E+00
         0.00000E+00
         0.00000E+00
         0.00000E+00
         0.00000E+00
         0.00000E+00
         0.00000E+00
         0.00000E+00
         0.00000E+00
         0.00000E+00
         0.00000E+00
         0.00000E+00
         0.00000E+00
         0.00000E+00
         0.00000E+00
         0.00000E+00
         0.00000E+00
         0.00000E+00
         0.00000E+00
         0.00000E+00
         0.00000E+00
         0.00000E+00
         0.00000E+00
         0.00000E+00
         0.00000E+00
         0.00000E+00
         0.00000E+00
         0.00000E+00
         0.00000E+00
         0.00000E+00
         0.00000E+00
         0.00000E+00
         0.00000E+00
         0.00000E+00
         0.00000E+00
         0.00000E+00
         0.00000E+00
         0.00000E+00
         0.00000E+00
         0.00000E+00
         0.00000E+00
         0.00000E+00
         0.00000E+00
         0.00000E+00
         0.00000E+00
         0.00000E+00
         0.00000E+00
         0.00000E+00
         0.00000E+00
         0.00000E+00
         0.00000E+00
         0.00000E+00
         0.00000E+00
         0.00000E+00
         0.00000E+00
         0.00000E+00
         0.00000E+00
         0.00000E+00
         0.00000E+00
         0.00000E+00
         0.00000E+00
         0.00000E+00
         0.00000E+00
         0.00000E+00
         0.00000E+00
         0.00000E+00
         0.00000E+00
         0.00000E+00
         0.00000E+00
         0.00000E+00
         0.00000E+00
         0.00000E+00
         0.00000E+00
         0.00000E+00
         0.00000E+00
         0.00000E+00
         0.00000E+00
         0.00000E+00
         0.00000E+00
         0.00000E+00
         0.00000E+00
         0.00000E+00
         0.00000E+00
         0.00000E+00
         0.00000E+00
         0.00000E+00
         0.00000E+00
         0.00000E+00
         0.00000E+00
         0.00000E+00
         0.00000E+00
         0.00000E+00
         0.00000E+00
         0.00000E+00
         0.00000E+00
         0.00000E+00
         0.00000E+00
         0.00000E+00
         0.00000E+00
         0.00000E+00
         0.00000E+00
         0.00000E+00
         0.00000E+00
         0.00000E+00
         0.00000E+00
         0.00000E+00
         0.00000E+00
         0.00000E+00
         0.00000E+00
         0.00000E+00
         0.00000E+00
         0.00000E+00
         0.00000E+00
         0.00000E+00
         0.00000E+00
         0.00000E+00
         0.00000E+00
         0.00000E+00
         0.00000E+00
         0.00000E+00
         0.00000E+00
         0.00000E+00
         0.00000E+00
         0.00000E+00
         0.00000E+00
         0.00000E+00
         0.00000E+00
         0.00000E+00
         0.00000E+00
         0.00000E+00
         0.00000E+00
         0.00000E+00
         0.00000E+00
         0.00000E+00
         0.00000E+00
         0.00000E+00
         0.00000E+00
         0.00000E+00
         0.00000E+00
         0.00000E+00
         0.00000E+00
         0.00000E+00
         0.00000E+00
         0.00000E+00
         0.00000E+00
         0.00000E+00
         0.00000E+00
         0.00000E+00
         0.00000E+00
         0.00000E+00
         0.00000E+00
         0.00000E+00
         0.00000E+00
         0.00000E+00
         0.00000E+00
         0.00000E+00
         0.00000E+00
         0.00000E+00
         0.00000E+00
         0.00000E+00
         0.00000E+00
         0.00000E+00
         0.00000E+00
         0.00000E+00
         0.00000E+00
         0.00000E+00
         0.00000E+00
         0.00000E+00
         0.00000E+00
         0.00000E+00
         0.00000E+00
         0.00000E+00
         0.00000E+00
         0.00000E+00
         0.00000E+00
         0.00000E+00
         0.00000E+00
         0.00000E+00
         0.00000E+00
         0.00000E+00
         0.00000E+00
         0.00000E+00
         0.00000E+00
         0.00000E+00
         0.00000E+00
         0.00000E+00
         0.00000E+00
         0.00000E+00
         0.00000E+00
         0.00000E+00
         0.00000E+00
         0.00000E+00
         0.00000E+00
         0.00000E+00
         0.00000E+00
         0.00000E+00
         0.00000E+00
         0.00000E+00
         0.00000E+00
         0.00000E+00
         0.00000E+00
         0.00000E+00
         0.00000E+00
         0.00000E+00
         0.00000E+00
         0.00000E+00
         0.00000E+00
         0.00000E+00
         0.00000E+00
         0.00000E+00
         0.00000E+00
         0.00000E+00
         0.00000E+00
         0.00000E+00
         0.00000E+00
         0.00000E+00
         0.00000E+00
         0.00000E+00
         0.00000E+00
         0.00000E+00
         0.00000E+00
         0.00000E+00
         0.00000E+00
         0.00000E+00
         0.00000E+00
         0.00000E+00
         0.00000E+00
         0.00000E+00
         0.00000E+00
         0.00000E+00
         0.00000E+00
         0.00000E+00
         0.00000E+00
         0.00000E+00
         0.00000E+00
         0.00000E+00
         0.00000E+00
         0.00000E+00
         0.00000E+00
         0.00000E+00
         0.00000E+00
         0.00000E+00
         0.00000E+00
         0.00000E+00
         0.00000E+00
         0.00000E+00
         0.00000E+00
         0.00000E+00
         0.00000E+00
         0.00000E+00
         0.00000E+00
         0.00000E+00
         0.00000E+00
         0.00000E+00
         0.00000E+00
         0.00000E+00
         0.00000E+00
         0.00000E+00
         0.00000E+00
         0.00000E+00
         0.00000E+00
         0.00000E+00
         0.00000E+00
         0.00000E+00
         0.00000E+00
         0.00000E+00
         0.00000E+00
         0.00000E+00
         0.00000E+00
         0.00000E+00
         0.00000E+00
         0.00000E+00
         0.00000E+00
         0.00000E+00
         0.00000E+00
         0.00000E+00
         0.00000E+00
         0.00000E+00
         0.00000E+00
         0.00000E+00
         0.00000E+00
         0.00000E+00
         0.00000E+00
         0.00000E+00
         0.00000E+00
         0.00000E+00
         0.00000E+00
         0.00000E+00
         0.00000E+00
         0.00000E+00
         0.00000E+00
         0.00000E+00
         0.00000E+00
         0.00000E+00
         0.00000E+00
         0.00000E+00
         0.00000E+00
         0.00000E+00
         0.00000E+00
         0.00000E+00
         0.00000E+00
         0.00000E+00
         0.00000E+00
         0.00000E+00
         0.00000E+00
         0.00000E+00
         0.00000E+00
         0.00000E+00
         0.00000E+00
         0.00000E+00
         0.00000E+00
         0.00000E+00
         0.00000E+00
         0.00000E+00
         0.00000E+00
         0.00000E+00
         0.00000E+00
         0.00000E+00
         0.00000E+00
         0.00000E+00
         0.00000E+00
         0.00000E+00
         0.00000E+00
         0.00000E+00
         0.00000E+00
         0.00000E+00
         0.00000E+00
         0.00000E+00
         0.00000E+00
         0.00000E+00
         0.00000E+00
         0.00000E+00
         0.00000E+00
         0.00000E+00
         0.00000E+00
         0.00000E+00
         0.00000E+00
         0.00000E+00
         0.00000E+00
         0.00000E+00
         0.00000E+00
         0.00000E+00
         0.00000E+00
         0.00000E+00
         0.00000E+00
         0.00000E+00
         0.00000E+00
         0.00000E+00
         0.00000E+00
         0.00000E+00
         0.00000E+00
         0.00000E+00
         0.00000E+00
         0.00000E+00
         0.00000E+00
         0.00000E+00
         0.00000E+00
         0.00000E+00
         0.00000E+00
         0.00000E+00
         0.00000E+00
         0.00000E+00
         0.00000E+00
         0.00000E+00
         0.00000E+00
         0.00000E+00
         0.00000E+00
         0.00000E+00
         0.00000E+00
         0.00000E+00
         0.00000E+00
         0.00000E+00
         0.00000E+00
         0.00000E+00
         0.00000E+00
         0.00000E+00
         0.00000E+00
         0.00000E+00
         0.00000E+00
         0.00000E+00
         0.00000E+00
         0.00000E+00
         0.00000E+00
         0.00000E+00
         0.00000E+00
         0.00000E+00
         0.00000E+00
         0.00000E+00
         0.00000E+00
         0.00000E+00
         0.00000E+00
         0.00000E+00
         0.00000E+00
         0.00000E+00
         0.00000E+00
         0.00000E+00
         0.00000E+00
         0.00000E+00
         0.00000E+00
         0.00000E+00
         0.00000E+00
         0.00000E+00
         0.00000E+00
         0.00000E+00
         0.00000E+00
         0.00000E+00
         0.00000E+00
         0.00000E+00
         0.00000E+00
         0.00000E+00
         0.00000E+00
         0.00000E+00
         0.00000E+00
         0.00000E+00
         0.00000E+00
         0.00000E+00
         0.00000E+00
         0.00000E+00
         0.00000E+00
         0.00000E+00
         0.00000E+00
         0.00000E+00
         0.00000E+00
         0.00000E+00
         0.00000E+00
         0.00000E+00
         0.00000E+00
         0.00000E+00
         0.00000E+00
         0.00000E+00
         0.00000E+00
         0.00000E+00
         0.00000E+00
         0.00000E+00
         0.00000E+00
         0.00000E+00
         0.00000E+00
         0.00000E+00
         0.00000E+00
         0.00000E+00
         0.00000E+00
         0.00000E+00
         0.00000E+00
         0.00000E+00
         0.00000E+00
         0.00000E+00
         0.00000E+00
         0.00000E+00
         0.00000E+00
         0.00000E+00
         0.00000E+00
         0.00000E+00
         0.00000E+00
         0.00000E+00
         0.00000E+00
         0.00000E+00
         0.00000E+00
         0.00000E+00
         0.00000E+00
         0.00000E+00
         0.00000E+00
         0.00000E+00
         0.00000E+00
         0.00000E+00
         0.00000E+00
         0.00000E+00
         0.00000E+00
         0.00000E+00
         0.00000E+00
         0.00000E+00
         0.00000E+00
         0.00000E+00
         0.00000E+00
         0.00000E+00
         0.00000E+00
         0.00000E+00
         0.00000E+00
         0.00000E+00
         0.00000E+00
         0.00000E+00
         0.00000E+00
         0.00000E+00
         0.00000E+00
         0.00000E+00
         0.00000E+00
         0.00000E+00
         0.00000E+00
         0.00000E+00
         0.00000E+00
         0.00000E+00
         0.00000E+00
         0.00000E+00
         0.00000E+00
         0.00000E+00
         0.00000E+00
         0.00000E+00
         0.00000E+00
         0.00000E+00
         0.00000E+00
         0.00000E+00
         0.00000E+00
         0.00000E+00
         0.00000E+00
         0.00000E+00
         0.00000E+00
         0.00000E+00
         0.00000E+00
         0.00000E+00
         0.00000E+00
         0.00000E+00
         0.00000E+00
         0.00000E+00
         0.00000E+00
         0.00000E+00
         0.00000E+00
         0.00000E+00
         0.00000E+00
         0.00000E+00
         0.00000E+00
         0.00000E+00
         0.00000E+00
         0.00000E+00
         0.00000E+00
         0.00000E+00
         0.00000E+00
         0.00000E+00
         0.00000E+00
         0.00000E+00
         0.00000E+00
         0.00000E+00
         0.00000E+00
         0.00000E+00
         0.00000E+00
         0.00000E+00
         0.00000E+00
         0.00000E+00
         0.00000E+00
         0.00000E+00
         0.00000E+00
         0.00000E+00
         0.00000E+00
         0.00000E+00
         0.00000E+00
         0.00000E+00
         0.00000E+00
         0.00000E+00
         0.00000E+00
         0.00000E+00
         0.00000E+00
         0.00000E+00
         0.00000E+00
         0.00000E+00
         0.00000E+00
         0.00000E+00
         0.00000E+00
         0.00000E+00
         0.00000E+00
         0.00000E+00
         0.00000E+00
         0.00000E+00
         0.00000E+00
         0.00000E+00
         0.00000E+00
         0.00000E+00
         0.00000E+00
         0.00000E+00
         0.00000E+00
         0.00000E+00
         0.00000E+00
         0.00000E+00
         0.00000E+00
         0.00000E+00
         0.00000E+00
         0.00000E+00
         0.00000E+00
         0.00000E+00
         0.00000E+00
         0.00000E+00
         0.00000E+00
         0.00000E+00
         0.00000E+00
         0.00000E+00
         0.00000E+00
         0.00000E+00
         0.00000E+00
         0.00000E+00
         0.00000E+00
         0.00000E+00
         0.00000E+00
         0.00000E+00
         0.00000E+00
         0.00000E+00
         0.00000E+00
         0.00000E+00
         0.00000E+00
         0.00000E+00
         0.00000E+00
         0.00000E+00
         0.00000E+00
         0.00000E+00
         0.00000E+00
         0.00000E+00
         0.00000E+00
         0.00000E+00
         0.00000E+00
         0.00000E+00
         0.00000E+00
         0.00000E+00
         0.00000E+00
         0.00000E+00
         0.00000E+00
         0.00000E+00
         0.00000E+00
         0.00000E+00
         0.00000E+00
         0.00000E+00
         0.00000E+00
         0.00000E+00
         0.00000E+00
         0.00000E+00
         0.00000E+00
         0.00000E+00
         0.00000E+00
         0.00000E+00
         0.00000E+00
         0.00000E+00
         0.00000E+00
         0.00000E+00
         0.00000E+00
         0.00000E+00
         0.00000E+00
         0.00000E+00
         0.00000E+00
         0.00000E+00
         0.00000E+00
         0.00000E+00
         0.00000E+00
         0.00000E+00
         0.00000E+00
         0.00000E+00
         0.00000E+00
         0.00000E+00
         0.00000E+00
         0.00000E+00
         0.00000E+00
         0.00000E+00
         0.00000E+00
         0.00000E+00
         0.00000E+00
         0.00000E+00
         0.00000E+00
         0.00000E+00
         0.00000E+00
         0.00000E+00
         0.00000E+00
         0.00000E+00
         0.00000E+00
         0.00000E+00
         0.00000E+00
         0.00000E+00
         0.00000E+00
         0.00000E+00
         0.00000E+00
         0.00000E+00
         0.00000E+00
         0.00000E+00
         0.00000E+00
         0.00000E+00
         0.00000E+00
         0.00000E+00
         0.00000E+00
         0.00000E+00
         0.00000E+00
         0.00000E+00
         0.00000E+00
         0.00000E+00
         0.00000E+00
         0.00000E+00
         0.00000E+00
         0.00000E+00
         0.00000E+00
         0.00000E+00
         0.00000E+00
         0.00000E+00
         0.00000E+00
         0.00000E+00
         0.00000E+00
         0.00000E+00
         0.00000E+00
         0.00000E+00
         0.00000E+00
         0.00000E+00
         0.00000E+00
         0.00000E+00
         0.00000E+00
         0.00000E+00
         0.00000E+00
         0.00000E+00
         0.00000E+00
         0.00000E+00
         0.00000E+00
         0.00000E+00
         0.00000E+00
         0.00000E+00
         0.00000E+00
         0.00000E+00
         0.00000E+00
         0.00000E+00
         0.00000E+00
         0.00000E+00
         0.00000E+00
         0.00000E+00
         0.00000E+00
         0.00000E+00
         0.00000E+00
         0.00000E+00
         0.00000E+00
         0.00000E+00
         0.00000E+00
         0.00000E+00
         0.00000E+00
         0.00000E+00
         0.00000E+00
         0.00000E+00
         0.00000E+00
         0.00000E+00
         0.00000E+00
         0.00000E+00
         0.00000E+00
         0.00000E+00
         0.00000E+00
         0.00000E+00
         0.00000E+00
         0.00000E+00
         0.00000E+00
         0.00000E+00
         0.00000E+00
         0.00000E+00
         0.00000E+00
         0.00000E+00
         0.00000E+00
         0.00000E+00
         0.00000E+00
         0.00000E+00
         0.00000E+00
         0.00000E+00
         0.00000E+00
         0.00000E+00
         0.00000E+00
         0.00000E+00
         0.00000E+00
         0.00000E+00
         0.00000E+00
         0.00000E+00
         0.00000E+00
         0.00000E+00
         0.00000E+00
         0.00000E+00
         0.00000E+00
         0.00000E+00
         0.00000E+00
         0.00000E+00
         0.00000E+00
         0.00000E+00
         0.00000E+00
         0.00000E+00
         0.00000E+00
         0.00000E+00
         0.00000E+00
         0.00000E+00
         0.00000E+00
         0.00000E+00
         0.00000E+00
         0.00000E+00
         0.00000E+00
         0.00000E+00
         0.00000E+00
         0.00000E+00
         0.00000E+00
         0.00000E+00
         0.00000E+00
         0.00000E+00
         0.00000E+00
         0.00000E+00
         0.00000E+00
         0.00000E+00
         0.00000E+00
         0.00000E+00
         0.00000E+00
         0.00000E+00
         0.00000E+00
         0.00000E+00
         0.00000E+00
         0.00000E+00
         0.00000E+00
         0.00000E+00
         0.00000E+00
         0.00000E+00
         0.00000E+00
         0.00000E+00
         0.00000E+00
         0.00000E+00
         0.00000E+00
         0.00000E+00
         0.00000E+00
         0.00000E+00
         0.00000E+00
         0.00000E+00
         0.00000E+00
         0.00000E+00
         0.00000E+00
         0.00000E+00
  
SCALARS                 acceleration_z  double 1
LOOKUP_TABLE default
         0.00000E+00
         0.00000E+00
         0.00000E+00
         0.00000E+00
         0.00000E+00
         0.00000E+00
         0.00000E+00
         0.00000E+00
         0.00000E+00
         0.00000E+00
         0.00000E+00
         0.00000E+00
         0.00000E+00
         0.00000E+00
         0.00000E+00
         0.00000E+00
         0.00000E+00
         0.00000E+00
         0.00000E+00
         0.00000E+00
         0.00000E+00
         0.00000E+00
         0.00000E+00
         0.00000E+00
         0.00000E+00
         0.00000E+00
         0.00000E+00
         0.00000E+00
         0.00000E+00
         0.00000E+00
         0.00000E+00
         0.00000E+00
         0.00000E+00
         0.00000E+00
         0.00000E+00
         0.00000E+00
         0.00000E+00
         0.00000E+00
         0.00000E+00
         0.00000E+00
         0.00000E+00
         0.00000E+00
         0.00000E+00
         0.00000E+00
         0.00000E+00
         0.00000E+00
         0.00000E+00
         0.00000E+00
         0.00000E+00
         0.00000E+00
         0.00000E+00
         0.00000E+00
         0.00000E+00
         0.00000E+00
         0.00000E+00
         0.00000E+00
         0.00000E+00
         0.00000E+00
         0.00000E+00
         0.00000E+00
         0.00000E+00
         0.00000E+00
         0.00000E+00
         0.00000E+00
         0.00000E+00
         0.00000E+00
         0.00000E+00
         0.00000E+00
         0.00000E+00
         0.00000E+00
         0.00000E+00
         0.00000E+00
         0.00000E+00
         0.00000E+00
         0.00000E+00
         0.00000E+00
         0.00000E+00
         0.00000E+00
         0.00000E+00
         0.00000E+00
         0.00000E+00
         0.00000E+00
         0.00000E+00
         0.00000E+00
         0.00000E+00
         0.00000E+00
         0.00000E+00
         0.00000E+00
         0.00000E+00
         0.00000E+00
         0.00000E+00
         0.00000E+00
         0.00000E+00
         0.00000E+00
         0.00000E+00
         0.00000E+00
         0.00000E+00
         0.00000E+00
         0.00000E+00
         0.00000E+00
         0.00000E+00
         0.00000E+00
         0.00000E+00
         0.00000E+00
         0.00000E+00
         0.00000E+00
         0.00000E+00
         0.00000E+00
         0.00000E+00
         0.00000E+00
         0.00000E+00
         0.00000E+00
         0.00000E+00
         0.00000E+00
         0.00000E+00
         0.00000E+00
         0.00000E+00
         0.00000E+00
         0.00000E+00
         0.00000E+00
         0.00000E+00
         0.00000E+00
         0.00000E+00
         0.00000E+00
         0.00000E+00
         0.00000E+00
         0.00000E+00
         0.00000E+00
         0.00000E+00
         0.00000E+00
         0.00000E+00
         0.00000E+00
         0.00000E+00
         0.00000E+00
         0.00000E+00
         0.00000E+00
         0.00000E+00
         0.00000E+00
         0.00000E+00
         0.00000E+00
         0.00000E+00
         0.00000E+00
         0.00000E+00
         0.00000E+00
         0.00000E+00
         0.00000E+00
         0.00000E+00
         0.00000E+00
         0.00000E+00
         0.00000E+00
         0.00000E+00
         0.00000E+00
         0.00000E+00
         0.00000E+00
         0.00000E+00
         0.00000E+00
         0.00000E+00
         0.00000E+00
         0.00000E+00
         0.00000E+00
         0.00000E+00
         0.00000E+00
         0.00000E+00
         0.00000E+00
         0.00000E+00
         0.00000E+00
         0.00000E+00
         0.00000E+00
         0.00000E+00
         0.00000E+00
         0.00000E+00
         0.00000E+00
         0.00000E+00
         0.00000E+00
         0.00000E+00
         0.00000E+00
         0.00000E+00
         0.00000E+00
         0.00000E+00
         0.00000E+00
         0.00000E+00
         0.00000E+00
         0.00000E+00
         0.00000E+00
         0.00000E+00
         0.00000E+00
         0.00000E+00
         0.00000E+00
         0.00000E+00
         0.00000E+00
         0.00000E+00
         0.00000E+00
         0.00000E+00
         0.00000E+00
         0.00000E+00
         0.00000E+00
         0.00000E+00
         0.00000E+00
         0.00000E+00
         0.00000E+00
         0.00000E+00
         0.00000E+00
         0.00000E+00
         0.00000E+00
         0.00000E+00
         0.00000E+00
         0.00000E+00
         0.00000E+00
         0.00000E+00
         0.00000E+00
         0.00000E+00
         0.00000E+00
         0.00000E+00
         0.00000E+00
         0.00000E+00
         0.00000E+00
         0.00000E+00
         0.00000E+00
         0.00000E+00
         0.00000E+00
         0.00000E+00
         0.00000E+00
         0.00000E+00
         0.00000E+00
         0.00000E+00
         0.00000E+00
         0.00000E+00
         0.00000E+00
         0.00000E+00
         0.00000E+00
         0.00000E+00
         0.00000E+00
         0.00000E+00
         0.00000E+00
         0.00000E+00
         0.00000E+00
         0.00000E+00
         0.00000E+00
         0.00000E+00
         0.00000E+00
         0.00000E+00
         0.00000E+00
         0.00000E+00
         0.00000E+00
         0.00000E+00
         0.00000E+00
         0.00000E+00
         0.00000E+00
         0.00000E+00
         0.00000E+00
         0.00000E+00
         0.00000E+00
         0.00000E+00
         0.00000E+00
         0.00000E+00
         0.00000E+00
         0.00000E+00
         0.00000E+00
         0.00000E+00
         0.00000E+00
         0.00000E+00
         0.00000E+00
         0.00000E+00
         0.00000E+00
         0.00000E+00
         0.00000E+00
         0.00000E+00
         0.00000E+00
         0.00000E+00
         0.00000E+00
         0.00000E+00
         0.00000E+00
         0.00000E+00
         0.00000E+00
         0.00000E+00
         0.00000E+00
         0.00000E+00
         0.00000E+00
         0.00000E+00
         0.00000E+00
         0.00000E+00
         0.00000E+00
         0.00000E+00
         0.00000E+00
         0.00000E+00
         0.00000E+00
         0.00000E+00
         0.00000E+00
         0.00000E+00
         0.00000E+00
         0.00000E+00
         0.00000E+00
         0.00000E+00
         0.00000E+00
         0.00000E+00
         0.00000E+00
         0.00000E+00
         0.00000E+00
         0.00000E+00
         0.00000E+00
         0.00000E+00
         0.00000E+00
         0.00000E+00
         0.00000E+00
         0.00000E+00
         0.00000E+00
         0.00000E+00
         0.00000E+00
         0.00000E+00
         0.00000E+00
         0.00000E+00
         0.00000E+00
         0.00000E+00
         0.00000E+00
         0.00000E+00
         0.00000E+00
         0.00000E+00
         0.00000E+00
         0.00000E+00
         0.00000E+00
         0.00000E+00
         0.00000E+00
         0.00000E+00
         0.00000E+00
         0.00000E+00
         0.00000E+00
         0.00000E+00
         0.00000E+00
         0.00000E+00
         0.00000E+00
         0.00000E+00
         0.00000E+00
         0.00000E+00
         0.00000E+00
         0.00000E+00
         0.00000E+00
         0.00000E+00
         0.00000E+00
         0.00000E+00
         0.00000E+00
         0.00000E+00
         0.00000E+00
         0.00000E+00
         0.00000E+00
         0.00000E+00
         0.00000E+00
         0.00000E+00
         0.00000E+00
         0.00000E+00
         0.00000E+00
         0.00000E+00
         0.00000E+00
         0.00000E+00
         0.00000E+00
         0.00000E+00
         0.00000E+00
         0.00000E+00
         0.00000E+00
         0.00000E+00
         0.00000E+00
         0.00000E+00
         0.00000E+00
         0.00000E+00
         0.00000E+00
         0.00000E+00
         0.00000E+00
         0.00000E+00
         0.00000E+00
         0.00000E+00
         0.00000E+00
         0.00000E+00
         0.00000E+00
         0.00000E+00
         0.00000E+00
         0.00000E+00
         0.00000E+00
         0.00000E+00
         0.00000E+00
         0.00000E+00
         0.00000E+00
         0.00000E+00
         0.00000E+00
         0.00000E+00
         0.00000E+00
         0.00000E+00
         0.00000E+00
         0.00000E+00
         0.00000E+00
         0.00000E+00
         0.00000E+00
         0.00000E+00
         0.00000E+00
         0.00000E+00
         0.00000E+00
         0.00000E+00
         0.00000E+00
         0.00000E+00
         0.00000E+00
         0.00000E+00
         0.00000E+00
         0.00000E+00
         0.00000E+00
         0.00000E+00
         0.00000E+00
         0.00000E+00
         0.00000E+00
         0.00000E+00
         0.00000E+00
         0.00000E+00
         0.00000E+00
         0.00000E+00
         0.00000E+00
         0.00000E+00
         0.00000E+00
         0.00000E+00
         0.00000E+00
         0.00000E+00
         0.00000E+00
         0.00000E+00
         0.00000E+00
         0.00000E+00
         0.00000E+00
         0.00000E+00
         0.00000E+00
         0.00000E+00
         0.00000E+00
         0.00000E+00
         0.00000E+00
         0.00000E+00
         0.00000E+00
         0.00000E+00
         0.00000E+00
         0.00000E+00
         0.00000E+00
         0.00000E+00
         0.00000E+00
         0.00000E+00
         0.00000E+00
         0.00000E+00
         0.00000E+00
         0.00000E+00
         0.00000E+00
         0.00000E+00
         0.00000E+00
         0.00000E+00
         0.00000E+00
         0.00000E+00
         0.00000E+00
         0.00000E+00
         0.00000E+00
         0.00000E+00
         0.00000E+00
         0.00000E+00
         0.00000E+00
         0.00000E+00
         0.00000E+00
         0.00000E+00
         0.00000E+00
         0.00000E+00
         0.00000E+00
         0.00000E+00
         0.00000E+00
         0.00000E+00
         0.00000E+00
         0.00000E+00
         0.00000E+00
         0.00000E+00
         0.00000E+00
         0.00000E+00
         0.00000E+00
         0.00000E+00
         0.00000E+00
         0.00000E+00
         0.00000E+00
         0.00000E+00
         0.00000E+00
         0.00000E+00
         0.00000E+00
         0.00000E+00
         0.00000E+00
         0.00000E+00
         0.00000E+00
         0.00000E+00
         0.00000E+00
         0.00000E+00
         0.00000E+00
         0.00000E+00
         0.00000E+00
         0.00000E+00
         0.00000E+00
         0.00000E+00
         0.00000E+00
         0.00000E+00
         0.00000E+00
         0.00000E+00
         0.00000E+00
         0.00000E+00
         0.00000E+00
         0.00000E+00
         0.00000E+00
         0.00000E+00
         0.00000E+00
         0.00000E+00
         0.00000E+00
         0.00000E+00
         0.00000E+00
         0.00000E+00
         0.00000E+00
         0.00000E+00
         0.00000E+00
         0.00000E+00
         0.00000E+00
         0.00000E+00
         0.00000E+00
         0.00000E+00
         0.00000E+00
         0.00000E+00
         0.00000E+00
         0.00000E+00
         0.00000E+00
         0.00000E+00
         0.00000E+00
         0.00000E+00
         0.00000E+00
         0.00000E+00
         0.00000E+00
         0.00000E+00
         0.00000E+00
         0.00000E+00
         0.00000E+00
         0.00000E+00
         0.00000E+00
         0.00000E+00
         0.00000E+00
         0.00000E+00
         0.00000E+00
         0.00000E+00
         0.00000E+00
         0.00000E+00
         0.00000E+00
         0.00000E+00
         0.00000E+00
         0.00000E+00
         0.00000E+00
         0.00000E+00
         0.00000E+00
         0.00000E+00
         0.00000E+00
         0.00000E+00
         0.00000E+00
         0.00000E+00
         0.00000E+00
         0.00000E+00
         0.00000E+00
         0.00000E+00
         0.00000E+00
         0.00000E+00
         0.00000E+00
         0.00000E+00
         0.00000E+00
         0.00000E+00
         0.00000E+00
         0.00000E+00
         0.00000E+00
         0.00000E+00
         0.00000E+00
         0.00000E+00
         0.00000E+00
         0.00000E+00
         0.00000E+00
         0.00000E+00
         0.00000E+00
         0.00000E+00
         0.00000E+00
         0.00000E+00
         0.00000E+00
         0.00000E+00
         0.00000E+00
         0.00000E+00
         0.00000E+00
         0.00000E+00
         0.00000E+00
         0.00000E+00
         0.00000E+00
         0.00000E+00
         0.00000E+00
         0.00000E+00
         0.00000E+00
         0.00000E+00
         0.00000E+00
         0.00000E+00
         0.00000E+00
         0.00000E+00
         0.00000E+00
         0.00000E+00
         0.00000E+00
         0.00000E+00
         0.00000E+00
         0.00000E+00
         0.00000E+00
         0.00000E+00
         0.00000E+00
         0.00000E+00
         0.00000E+00
         0.00000E+00
         0.00000E+00
         0.00000E+00
         0.00000E+00
         0.00000E+00
         0.00000E+00
         0.00000E+00
         0.00000E+00
         0.00000E+00
         0.00000E+00
         0.00000E+00
         0.00000E+00
         0.00000E+00
         0.00000E+00
         0.00000E+00
         0.00000E+00
         0.00000E+00
         0.00000E+00
         0.00000E+00
         0.00000E+00
         0.00000E+00
         0.00000E+00
         0.00000E+00
         0.00000E+00
         0.00000E+00
         0.00000E+00
         0.00000E+00
         0.00000E+00
         0.00000E+00
         0.00000E+00
         0.00000E+00
         0.00000E+00
         0.00000E+00
         0.00000E+00
         0.00000E+00
         0.00000E+00
         0.00000E+00
         0.00000E+00
         0.00000E+00
         0.00000E+00
         0.00000E+00
         0.00000E+00
         0.00000E+00
         0.00000E+00
         0.00000E+00
         0.00000E+00
         0.00000E+00
         0.00000E+00
         0.00000E+00
         0.00000E+00
         0.00000E+00
         0.00000E+00
         0.00000E+00
         0.00000E+00
         0.00000E+00
         0.00000E+00
         0.00000E+00
         0.00000E+00
         0.00000E+00
         0.00000E+00
         0.00000E+00
         0.00000E+00
         0.00000E+00
         0.00000E+00
         0.00000E+00
         0.00000E+00
         0.00000E+00
         0.00000E+00
         0.00000E+00
         0.00000E+00
         0.00000E+00
         0.00000E+00
         0.00000E+00
         0.00000E+00
         0.00000E+00
         0.00000E+00
         0.00000E+00
         0.00000E+00
         0.00000E+00
         0.00000E+00
         0.00000E+00
         0.00000E+00
         0.00000E+00
         0.00000E+00
         0.00000E+00
         0.00000E+00
         0.00000E+00
         0.00000E+00
         0.00000E+00
         0.00000E+00
         0.00000E+00
         0.00000E+00
         0.00000E+00
         0.00000E+00
         0.00000E+00
         0.00000E+00
         0.00000E+00
         0.00000E+00
         0.00000E+00
         0.00000E+00
         0.00000E+00
         0.00000E+00
         0.00000E+00
         0.00000E+00
         0.00000E+00
         0.00000E+00
         0.00000E+00
         0.00000E+00
         0.00000E+00
         0.00000E+00
         0.00000E+00
         0.00000E+00
         0.00000E+00
         0.00000E+00
         0.00000E+00
         0.00000E+00
         0.00000E+00
         0.00000E+00
         0.00000E+00
         0.00000E+00
         0.00000E+00
         0.00000E+00
         0.00000E+00
         0.00000E+00
         0.00000E+00
         0.00000E+00
         0.00000E+00
         0.00000E+00
         0.00000E+00
         0.00000E+00
         0.00000E+00
         0.00000E+00
         0.00000E+00
         0.00000E+00
         0.00000E+00
         0.00000E+00
         0.00000E+00
         0.00000E+00
         0.00000E+00
         0.00000E+00
         0.00000E+00
         0.00000E+00
         0.00000E+00
         0.00000E+00
         0.00000E+00
         0.00000E+00
         0.00000E+00
         0.00000E+00
         0.00000E+00
         0.00000E+00
         0.00000E+00
         0.00000E+00
         0.00000E+00
         0.00000E+00
         0.00000E+00
         0.00000E+00
         0.00000E+00
         0.00000E+00
         0.00000E+00
         0.00000E+00
         0.00000E+00
         0.00000E+00
         0.00000E+00
         0.00000E+00
         0.00000E+00
         0.00000E+00
         0.00000E+00
         0.00000E+00
         0.00000E+00
         0.00000E+00
         0.00000E+00
         0.00000E+00
         0.00000E+00
         0.00000E+00
         0.00000E+00
         0.00000E+00
         0.00000E+00
         0.00000E+00
         0.00000E+00
         0.00000E+00
         0.00000E+00
         0.00000E+00
         0.00000E+00
         0.00000E+00
         0.00000E+00
         0.00000E+00
         0.00000E+00
         0.00000E+00
         0.00000E+00
         0.00000E+00
         0.00000E+00
         0.00000E+00
         0.00000E+00
         0.00000E+00
         0.00000E+00
         0.00000E+00
         0.00000E+00
         0.00000E+00
         0.00000E+00
         0.00000E+00
         0.00000E+00
         0.00000E+00
         0.00000E+00
         0.00000E+00
         0.00000E+00
         0.00000E+00
         0.00000E+00
         0.00000E+00
         0.00000E+00
         0.00000E+00
         0.00000E+00
         0.00000E+00
         0.00000E+00
         0.00000E+00
         0.00000E+00
         0.00000E+00
         0.00000E+00
         0.00000E+00
         0.00000E+00
         0.00000E+00
         0.00000E+00
         0.00000E+00
         0.00000E+00
         0.00000E+00
         0.00000E+00
         0.00000E+00
         0.00000E+00
         0.00000E+00
         0.00000E+00
         0.00000E+00
         0.00000E+00
         0.00000E+00
         0.00000E+00
         0.00000E+00
         0.00000E+00
         0.00000E+00
         0.00000E+00
         0.00000E+00
         0.00000E+00
         0.00000E+00
         0.00000E+00
         0.00000E+00
         0.00000E+00
         0.00000E+00
         0.00000E+00
         0.00000E+00
         0.00000E+00
         0.00000E+00
         0.00000E+00
         0.00000E+00
         0.00000E+00
         0.00000E+00
         0.00000E+00
         0.00000E+00
         0.00000E+00
         0.00000E+00
         0.00000E+00
         0.00000E+00
         0.00000E+00
         0.00000E+00
         0.00000E+00
         0.00000E+00
         0.00000E+00
         0.00000E+00
         0.00000E+00
         0.00000E+00
         0.00000E+00
         0.00000E+00
         0.00000E+00
         0.00000E+00
         0.00000E+00
         0.00000E+00
         0.00000E+00
         0.00000E+00
         0.00000E+00
         0.00000E+00
         0.00000E+00
         0.00000E+00
         0.00000E+00
         0.00000E+00
         0.00000E+00
         0.00000E+00
         0.00000E+00
         0.00000E+00
         0.00000E+00
         0.00000E+00
         0.00000E+00
         0.00000E+00
         0.00000E+00
         0.00000E+00
         0.00000E+00
         0.00000E+00
         0.00000E+00
         0.00000E+00
         0.00000E+00
         0.00000E+00
         0.00000E+00
         0.00000E+00
         0.00000E+00
         0.00000E+00
         0.00000E+00
         0.00000E+00
         0.00000E+00
         0.00000E+00
         0.00000E+00
         0.00000E+00
         0.00000E+00
         0.00000E+00
         0.00000E+00
         0.00000E+00
         0.00000E+00
         0.00000E+00
         0.00000E+00
         0.00000E+00
         0.00000E+00
         0.00000E+00
         0.00000E+00
         0.00000E+00
         0.00000E+00
         0.00000E+00
         0.00000E+00
         0.00000E+00
         0.00000E+00
         0.00000E+00
         0.00000E+00
         0.00000E+00
         0.00000E+00
         0.00000E+00
         0.00000E+00
         0.00000E+00
         0.00000E+00
         0.00000E+00
         0.00000E+00
         0.00000E+00
         0.00000E+00
         0.00000E+00
         0.00000E+00
         0.00000E+00
         0.00000E+00
         0.00000E+00
         0.00000E+00
         0.00000E+00
         0.00000E+00
         0.00000E+00
         0.00000E+00
         0.00000E+00
         0.00000E+00
         0.00000E+00
         0.00000E+00
         0.00000E+00
         0.00000E+00
         0.00000E+00
         0.00000E+00
         0.00000E+00
         0.00000E+00
         0.00000E+00
         0.00000E+00
         0.00000E+00
         0.00000E+00
         0.00000E+00
         0.00000E+00
         0.00000E+00
         0.00000E+00
         0.00000E+00
         0.00000E+00
         0.00000E+00
         0.00000E+00
         0.00000E+00
         0.00000E+00
         0.00000E+00
         0.00000E+00
         0.00000E+00
         0.00000E+00
         0.00000E+00
         0.00000E+00
         0.00000E+00
         0.00000E+00
         0.00000E+00
         0.00000E+00
         0.00000E+00
         0.00000E+00
         0.00000E+00
         0.00000E+00
         0.00000E+00
         0.00000E+00
         0.00000E+00
         0.00000E+00
         0.00000E+00
         0.00000E+00
         0.00000E+00
         0.00000E+00
         0.00000E+00
         0.00000E+00
         0.00000E+00
         0.00000E+00
         0.00000E+00
         0.00000E+00
         0.00000E+00
         0.00000E+00
         0.00000E+00
         0.00000E+00
         0.00000E+00
         0.00000E+00
         0.00000E+00
         0.00000E+00
         0.00000E+00
         0.00000E+00
         0.00000E+00
         0.00000E+00
         0.00000E+00
         0.00000E+00
         0.00000E+00
         0.00000E+00
         0.00000E+00
         0.00000E+00
         0.00000E+00
         0.00000E+00
         0.00000E+00
         0.00000E+00
         0.00000E+00
         0.00000E+00
         0.00000E+00
         0.00000E+00
         0.00000E+00
         0.00000E+00
         0.00000E+00
         0.00000E+00
         0.00000E+00
         0.00000E+00
         0.00000E+00
         0.00000E+00
         0.00000E+00
         0.00000E+00
         0.00000E+00
         0.00000E+00
         0.00000E+00
         0.00000E+00
         0.00000E+00
         0.00000E+00
         0.00000E+00
         0.00000E+00
         0.00000E+00
         0.00000E+00
         0.00000E+00
         0.00000E+00
         0.00000E+00
         0.00000E+00
         0.00000E+00
         0.00000E+00
         0.00000E+00
         0.00000E+00
         0.00000E+00
         0.00000E+00
         0.00000E+00
         0.00000E+00
         0.00000E+00
         0.00000E+00
         0.00000E+00
         0.00000E+00
         0.00000E+00
         0.00000E+00
         0.00000E+00
         0.00000E+00
         0.00000E+00
         0.00000E+00
         0.00000E+00
         0.00000E+00
         0.00000E+00
         0.00000E+00
         0.00000E+00
         0.00000E+00
         0.00000E+00
         0.00000E+00
         0.00000E+00
         0.00000E+00
         0.00000E+00
         0.00000E+00
         0.00000E+00
         0.00000E+00
         0.00000E+00
         0.00000E+00
         0.00000E+00
         0.00000E+00
         0.00000E+00
         0.00000E+00
         0.00000E+00
         0.00000E+00
         0.00000E+00
         0.00000E+00
         0.00000E+00
         0.00000E+00
         0.00000E+00
         0.00000E+00
         0.00000E+00
         0.00000E+00
         0.00000E+00
         0.00000E+00
         0.00000E+00
         0.00000E+00
         0.00000E+00
         0.00000E+00
         0.00000E+00
         0.00000E+00
         0.00000E+00
         0.00000E+00
         0.00000E+00
         0.00000E+00
         0.00000E+00
         0.00000E+00
         0.00000E+00
         0.00000E+00
         0.00000E+00
         0.00000E+00
         0.00000E+00
         0.00000E+00
         0.00000E+00
         0.00000E+00
         0.00000E+00
         0.00000E+00
         0.00000E+00
         0.00000E+00
         0.00000E+00
         0.00000E+00
         0.00000E+00
         0.00000E+00
         0.00000E+00
         0.00000E+00
         0.00000E+00
         0.00000E+00
         0.00000E+00
         0.00000E+00
         0.00000E+00
         0.00000E+00
         0.00000E+00
         0.00000E+00
         0.00000E+00
         0.00000E+00
         0.00000E+00
         0.00000E+00
         0.00000E+00
         0.00000E+00
         0.00000E+00
         0.00000E+00
         0.00000E+00
         0.00000E+00
         0.00000E+00
         0.00000E+00
         0.00000E+00
         0.00000E+00
         0.00000E+00
         0.00000E+00
         0.00000E+00
         0.00000E+00
         0.00000E+00
         0.00000E+00
         0.00000E+00
         0.00000E+00
         0.00000E+00
         0.00000E+00
         0.00000E+00
         0.00000E+00
         0.00000E+00
         0.00000E+00
         0.00000E+00
         0.00000E+00
         0.00000E+00
         0.00000E+00
         0.00000E+00
         0.00000E+00
         0.00000E+00
         0.00000E+00
         0.00000E+00
         0.00000E+00
         0.00000E+00
         0.00000E+00
         0.00000E+00
         0.00000E+00
         0.00000E+00
         0.00000E+00
         0.00000E+00
         0.00000E+00
         0.00000E+00
         0.00000E+00
         0.00000E+00
         0.00000E+00
         0.00000E+00
         0.00000E+00
         0.00000E+00
         0.00000E+00
         0.00000E+00
         0.00000E+00
         0.00000E+00
         0.00000E+00
         0.00000E+00
         0.00000E+00
         0.00000E+00
         0.00000E+00
         0.00000E+00
         0.00000E+00
         0.00000E+00
         0.00000E+00
         0.00000E+00
         0.00000E+00
         0.00000E+00
         0.00000E+00
         0.00000E+00
         0.00000E+00
         0.00000E+00
         0.00000E+00
         0.00000E+00
         0.00000E+00
         0.00000E+00
         0.00000E+00
         0.00000E+00
         0.00000E+00
         0.00000E+00
         0.00000E+00
         0.00000E+00
         0.00000E+00
         0.00000E+00
         0.00000E+00
         0.00000E+00
         0.00000E+00
         0.00000E+00
         0.00000E+00
         0.00000E+00
         0.00000E+00
         0.00000E+00
         0.00000E+00
         0.00000E+00
         0.00000E+00
         0.00000E+00
         0.00000E+00
         0.00000E+00
         0.00000E+00
         0.00000E+00
         0.00000E+00
         0.00000E+00
         0.00000E+00
         0.00000E+00
         0.00000E+00
         0.00000E+00
         0.00000E+00
         0.00000E+00
         0.00000E+00
         0.00000E+00
         0.00000E+00
         0.00000E+00
         0.00000E+00
         0.00000E+00
         0.00000E+00
         0.00000E+00
         0.00000E+00
         0.00000E+00
         0.00000E+00
         0.00000E+00
         0.00000E+00
         0.00000E+00
         0.00000E+00
         0.00000E+00
         0.00000E+00
         0.00000E+00
         0.00000E+00
         0.00000E+00
         0.00000E+00
         0.00000E+00
         0.00000E+00
         0.00000E+00
         0.00000E+00
         0.00000E+00
         0.00000E+00
         0.00000E+00
         0.00000E+00
         0.00000E+00
         0.00000E+00
         0.00000E+00
         0.00000E+00
         0.00000E+00
         0.00000E+00
         0.00000E+00
         0.00000E+00
         0.00000E+00
         0.00000E+00
         0.00000E+00
         0.00000E+00
         0.00000E+00
         0.00000E+00
         0.00000E+00
         0.00000E+00
         0.00000E+00
         0.00000E+00
         0.00000E+00
         0.00000E+00
         0.00000E+00
         0.00000E+00
         0.00000E+00
         0.00000E+00
         0.00000E+00
         0.00000E+00
         0.00000E+00
         0.00000E+00
         0.00000E+00
         0.00000E+00
         0.00000E+00
         0.00000E+00
         0.00000E+00
         0.00000E+00
         0.00000E+00
         0.00000E+00
         0.00000E+00
         0.00000E+00
         0.00000E+00
         0.00000E+00
         0.00000E+00
         0.00000E+00
         0.00000E+00
         0.00000E+00
         0.00000E+00
         0.00000E+00
         0.00000E+00
         0.00000E+00
         0.00000E+00
         0.00000E+00
         0.00000E+00
         0.00000E+00
         0.00000E+00
         0.00000E+00
         0.00000E+00
         0.00000E+00
         0.00000E+00
         0.00000E+00
         0.00000E+00
         0.00000E+00
         0.00000E+00
         0.00000E+00
         0.00000E+00
         0.00000E+00
         0.00000E+00
         0.00000E+00
         0.00000E+00
         0.00000E+00
         0.00000E+00
         0.00000E+00
         0.00000E+00
         0.00000E+00
         0.00000E+00
         0.00000E+00
         0.00000E+00
         0.00000E+00
         0.00000E+00
         0.00000E+00
         0.00000E+00
         0.00000E+00
         0.00000E+00
         0.00000E+00
         0.00000E+00
         0.00000E+00
         0.00000E+00
         0.00000E+00
         0.00000E+00
         0.00000E+00
         0.00000E+00
         0.00000E+00
         0.00000E+00
         0.00000E+00
         0.00000E+00
         0.00000E+00
         0.00000E+00
         0.00000E+00
         0.00000E+00
         0.00000E+00
         0.00000E+00
         0.00000E+00
         0.00000E+00
         0.00000E+00
         0.00000E+00
         0.00000E+00
         0.00000E+00
         0.00000E+00
         0.00000E+00
         0.00000E+00
         0.00000E+00
         0.00000E+00
         0.00000E+00
         0.00000E+00
         0.00000E+00
         0.00000E+00
         0.00000E+00
         0.00000E+00
         0.00000E+00
         0.00000E+00
         0.00000E+00
         0.00000E+00
         0.00000E+00
         0.00000E+00
         0.00000E+00
         0.00000E+00
         0.00000E+00
         0.00000E+00
         0.00000E+00
         0.00000E+00
         0.00000E+00
         0.00000E+00
         0.00000E+00
         0.00000E+00
         0.00000E+00
         0.00000E+00
         0.00000E+00
         0.00000E+00
         0.00000E+00
         0.00000E+00
         0.00000E+00
         0.00000E+00
         0.00000E+00
         0.00000E+00
         0.00000E+00
         0.00000E+00
         0.00000E+00
         0.00000E+00
         0.00000E+00
         0.00000E+00
         0.00000E+00
         0.00000E+00
         0.00000E+00
         0.00000E+00
         0.00000E+00
         0.00000E+00
         0.00000E+00
         0.00000E+00
         0.00000E+00
         0.00000E+00
         0.00000E+00
         0.00000E+00
         0.00000E+00
         0.00000E+00
         0.00000E+00
         0.00000E+00
         0.00000E+00
         0.00000E+00
         0.00000E+00
         0.00000E+00
         0.00000E+00
         0.00000E+00
         0.00000E+00
         0.00000E+00
         0.00000E+00
         0.00000E+00
         0.00000E+00
         0.00000E+00
         0.00000E+00
         0.00000E+00
         0.00000E+00
         0.00000E+00
         0.00000E+00
         0.00000E+00
         0.00000E+00
         0.00000E+00
         0.00000E+00
         0.00000E+00
         0.00000E+00
         0.00000E+00
         0.00000E+00
         0.00000E+00
         0.00000E+00
         0.00000E+00
         0.00000E+00
         0.00000E+00
         0.00000E+00
         0.00000E+00
         0.00000E+00
         0.00000E+00
         0.00000E+00
         0.00000E+00
         0.00000E+00
         0.00000E+00
         0.00000E+00
         0.00000E+00
         0.00000E+00
         0.00000E+00
         0.00000E+00
         0.00000E+00
         0.00000E+00
         0.00000E+00
         0.00000E+00
         0.00000E+00
         0.00000E+00
         0.00000E+00
         0.00000E+00
         0.00000E+00
         0.00000E+00
         0.00000E+00
         0.00000E+00
         0.00000E+00
         0.00000E+00
         0.00000E+00
         0.00000E+00
         0.00000E+00
         0.00000E+00
         0.00000E+00
         0.00000E+00
         0.00000E+00
         0.00000E+00
         0.00000E+00
         0.00000E+00
         0.00000E+00
         0.00000E+00
         0.00000E+00
         0.00000E+00
         0.00000E+00
         0.00000E+00
         0.00000E+00
         0.00000E+00
         0.00000E+00
         0.00000E+00
         0.00000E+00
         0.00000E+00
         0.00000E+00
         0.00000E+00
         0.00000E+00
         0.00000E+00
         0.00000E+00
         0.00000E+00
         0.00000E+00
         0.00000E+00
         0.00000E+00
         0.00000E+00
         0.00000E+00
         0.00000E+00
         0.00000E+00
         0.00000E+00
         0.00000E+00
         0.00000E+00
         0.00000E+00
         0.00000E+00
         0.00000E+00
         0.00000E+00
         0.00000E+00
         0.00000E+00
         0.00000E+00
         0.00000E+00
         0.00000E+00
         0.00000E+00
         0.00000E+00
         0.00000E+00
         0.00000E+00
         0.00000E+00
         0.00000E+00
         0.00000E+00
         0.00000E+00
         0.00000E+00
         0.00000E+00
         0.00000E+00
         0.00000E+00
         0.00000E+00
         0.00000E+00
         0.00000E+00
         0.00000E+00
         0.00000E+00
         0.00000E+00
         0.00000E+00
         0.00000E+00
         0.00000E+00
         0.00000E+00
         0.00000E+00
         0.00000E+00
         0.00000E+00
         0.00000E+00
         0.00000E+00
         0.00000E+00
         0.00000E+00
         0.00000E+00
         0.00000E+00
         0.00000E+00
         0.00000E+00
         0.00000E+00
         0.00000E+00
         0.00000E+00
         0.00000E+00
         0.00000E+00
         0.00000E+00
         0.00000E+00
         0.00000E+00
         0.00000E+00
         0.00000E+00
         0.00000E+00
         0.00000E+00
         0.00000E+00
         0.00000E+00
         0.00000E+00
         0.00000E+00
         0.00000E+00
         0.00000E+00
         0.00000E+00
         0.00000E+00
         0.00000E+00
         0.00000E+00
         0.00000E+00
         0.00000E+00
         0.00000E+00
         0.00000E+00
         0.00000E+00
         0.00000E+00
         0.00000E+00
         0.00000E+00
         0.00000E+00
         0.00000E+00
         0.00000E+00
         0.00000E+00
         0.00000E+00
         0.00000E+00
         0.00000E+00
         0.00000E+00
         0.00000E+00
         0.00000E+00
         0.00000E+00
         0.00000E+00
         0.00000E+00
         0.00000E+00
         0.00000E+00
         0.00000E+00
         0.00000E+00
         0.00000E+00
         0.00000E+00
         0.00000E+00
         0.00000E+00
         0.00000E+00
         0.00000E+00
         0.00000E+00
         0.00000E+00
         0.00000E+00
         0.00000E+00
         0.00000E+00
         0.00000E+00
         0.00000E+00
         0.00000E+00
         0.00000E+00
         0.00000E+00
         0.00000E+00
         0.00000E+00
         0.00000E+00
         0.00000E+00
         0.00000E+00
         0.00000E+00
         0.00000E+00
         0.00000E+00
         0.00000E+00
         0.00000E+00
         0.00000E+00
         0.00000E+00
         0.00000E+00
         0.00000E+00
         0.00000E+00
         0.00000E+00
         0.00000E+00
         0.00000E+00
         0.00000E+00
         0.00000E+00
         0.00000E+00
         0.00000E+00
         0.00000E+00
         0.00000E+00
         0.00000E+00
         0.00000E+00
         0.00000E+00
         0.00000E+00
         0.00000E+00
         0.00000E+00
         0.00000E+00
         0.00000E+00
         0.00000E+00
         0.00000E+00
         0.00000E+00
         0.00000E+00
         0.00000E+00
         0.00000E+00
         0.00000E+00
         0.00000E+00
         0.00000E+00
         0.00000E+00
         0.00000E+00
         0.00000E+00
         0.00000E+00
         0.00000E+00
         0.00000E+00
         0.00000E+00
         0.00000E+00
         0.00000E+00
         0.00000E+00
         0.00000E+00
         0.00000E+00
         0.00000E+00
         0.00000E+00
         0.00000E+00
         0.00000E+00
         0.00000E+00
         0.00000E+00
         0.00000E+00
         0.00000E+00
         0.00000E+00
         0.00000E+00
         0.00000E+00
         0.00000E+00
         0.00000E+00
         0.00000E+00
         0.00000E+00
         0.00000E+00
         0.00000E+00
         0.00000E+00
         0.00000E+00
         0.00000E+00
         0.00000E+00
         0.00000E+00
         0.00000E+00
         0.00000E+00
         0.00000E+00
         0.00000E+00
         0.00000E+00
         0.00000E+00
         0.00000E+00
         0.00000E+00
         0.00000E+00
         0.00000E+00
         0.00000E+00
         0.00000E+00
         0.00000E+00
         0.00000E+00
         0.00000E+00
         0.00000E+00
         0.00000E+00
         0.00000E+00
         0.00000E+00
         0.00000E+00
         0.00000E+00
         0.00000E+00
         0.00000E+00
         0.00000E+00
         0.00000E+00
         0.00000E+00
         0.00000E+00
         0.00000E+00
         0.00000E+00
         0.00000E+00
         0.00000E+00
         0.00000E+00
         0.00000E+00
         0.00000E+00
         0.00000E+00
         0.00000E+00
         0.00000E+00
         0.00000E+00
         0.00000E+00
         0.00000E+00
         0.00000E+00
         0.00000E+00
         0.00000E+00
         0.00000E+00
         0.00000E+00
         0.00000E+00
         0.00000E+00
         0.00000E+00
         0.00000E+00
         0.00000E+00
         0.00000E+00
         0.00000E+00
         0.00000E+00
         0.00000E+00
         0.00000E+00
         0.00000E+00
         0.00000E+00
         0.00000E+00
         0.00000E+00
         0.00000E+00
         0.00000E+00
         0.00000E+00
         0.00000E+00
         0.00000E+00
         0.00000E+00
         0.00000E+00
         0.00000E+00
         0.00000E+00
         0.00000E+00
         0.00000E+00
         0.00000E+00
         0.00000E+00
         0.00000E+00
         0.00000E+00
         0.00000E+00
         0.00000E+00
         0.00000E+00
         0.00000E+00
         0.00000E+00
         0.00000E+00
         0.00000E+00
         0.00000E+00
         0.00000E+00
         0.00000E+00
         0.00000E+00
         0.00000E+00
         0.00000E+00
         0.00000E+00
         0.00000E+00
         0.00000E+00
         0.00000E+00
         0.00000E+00
         0.00000E+00
         0.00000E+00
         0.00000E+00
         0.00000E+00
         0.00000E+00
         0.00000E+00
         0.00000E+00
         0.00000E+00
         0.00000E+00
         0.00000E+00
         0.00000E+00
         0.00000E+00
         0.00000E+00
         0.00000E+00
         0.00000E+00
         0.00000E+00
         0.00000E+00
         0.00000E+00
         0.00000E+00
         0.00000E+00
         0.00000E+00
         0.00000E+00
         0.00000E+00
         0.00000E+00
         0.00000E+00
         0.00000E+00
         0.00000E+00
         0.00000E+00
         0.00000E+00
         0.00000E+00
         0.00000E+00
         0.00000E+00
         0.00000E+00
         0.00000E+00
         0.00000E+00
         0.00000E+00
         0.00000E+00
         0.00000E+00
         0.00000E+00
         0.00000E+00
         0.00000E+00
         0.00000E+00
         0.00000E+00
         0.00000E+00
         0.00000E+00
         0.00000E+00
         0.00000E+00
         0.00000E+00
         0.00000E+00
         0.00000E+00
         0.00000E+00
         0.00000E+00
         0.00000E+00
         0.00000E+00
         0.00000E+00
         0.00000E+00
         0.00000E+00
         0.00000E+00
         0.00000E+00
         0.00000E+00
         0.00000E+00
         0.00000E+00
         0.00000E+00
         0.00000E+00
         0.00000E+00
         0.00000E+00
         0.00000E+00
         0.00000E+00
         0.00000E+00
         0.00000E+00
         0.00000E+00
         0.00000E+00
         0.00000E+00
         0.00000E+00
         0.00000E+00
         0.00000E+00
         0.00000E+00
         0.00000E+00
         0.00000E+00
         0.00000E+00
         0.00000E+00
         0.00000E+00
         0.00000E+00
         0.00000E+00
         0.00000E+00
         0.00000E+00
         0.00000E+00
         0.00000E+00
         0.00000E+00
         0.00000E+00
         0.00000E+00
         0.00000E+00
         0.00000E+00
         0.00000E+00
         0.00000E+00
         0.00000E+00
         0.00000E+00
         0.00000E+00
         0.00000E+00
         0.00000E+00
         0.00000E+00
         0.00000E+00
         0.00000E+00
         0.00000E+00
         0.00000E+00
         0.00000E+00
         0.00000E+00
         0.00000E+00
         0.00000E+00
         0.00000E+00
         0.00000E+00
         0.00000E+00
         0.00000E+00
         0.00000E+00
         0.00000E+00
         0.00000E+00
         0.00000E+00
         0.00000E+00
         0.00000E+00
         0.00000E+00
         0.00000E+00
         0.00000E+00
         0.00000E+00
         0.00000E+00
         0.00000E+00
         0.00000E+00
         0.00000E+00
         0.00000E+00
         0.00000E+00
         0.00000E+00
         0.00000E+00
         0.00000E+00
         0.00000E+00
         0.00000E+00
         0.00000E+00
         0.00000E+00
         0.00000E+00
         0.00000E+00
         0.00000E+00
         0.00000E+00
         0.00000E+00
         0.00000E+00
  
SCALARS                         fint_x  double 1
LOOKUP_TABLE default
         0.00000E+00
         0.00000E+00
         0.00000E+00
         0.00000E+00
         0.00000E+00
         0.00000E+00
         0.00000E+00
         0.00000E+00
         0.00000E+00
         0.00000E+00
         0.00000E+00
         0.00000E+00
         0.00000E+00
         0.00000E+00
         0.00000E+00
         0.00000E+00
         0.00000E+00
         0.00000E+00
         0.00000E+00
         0.00000E+00
         0.00000E+00
         0.00000E+00
         0.00000E+00
         0.00000E+00
         0.00000E+00
         0.00000E+00
         0.00000E+00
         0.00000E+00
         0.00000E+00
         0.00000E+00
         0.00000E+00
         0.00000E+00
         0.00000E+00
         0.00000E+00
         0.00000E+00
         0.00000E+00
         0.00000E+00
         0.00000E+00
         0.00000E+00
         0.00000E+00
         0.00000E+00
         0.00000E+00
         0.00000E+00
         0.00000E+00
         0.00000E+00
         0.00000E+00
         0.00000E+00
         0.00000E+00
         0.00000E+00
         0.00000E+00
         0.00000E+00
         0.00000E+00
         0.00000E+00
         0.00000E+00
         0.00000E+00
         0.00000E+00
         0.00000E+00
         0.00000E+00
         0.00000E+00
         0.00000E+00
         0.00000E+00
         0.00000E+00
         0.00000E+00
         0.00000E+00
         0.00000E+00
         0.00000E+00
         0.00000E+00
         0.00000E+00
         0.00000E+00
         0.00000E+00
         0.00000E+00
         0.00000E+00
         0.00000E+00
         0.00000E+00
         0.00000E+00
         0.00000E+00
         0.00000E+00
         0.00000E+00
         0.00000E+00
         0.00000E+00
         0.00000E+00
         0.00000E+00
         0.00000E+00
         0.00000E+00
         0.00000E+00
         0.00000E+00
         0.00000E+00
         0.00000E+00
         0.00000E+00
         0.00000E+00
         0.00000E+00
         0.00000E+00
         0.00000E+00
         0.00000E+00
         0.00000E+00
         0.00000E+00
         0.00000E+00
         0.00000E+00
         0.00000E+00
         0.00000E+00
         0.00000E+00
         0.00000E+00
         0.00000E+00
         0.00000E+00
         0.00000E+00
         0.00000E+00
         0.00000E+00
         0.00000E+00
         0.00000E+00
         0.00000E+00
         0.00000E+00
         0.00000E+00
         0.00000E+00
         0.00000E+00
         0.00000E+00
         0.00000E+00
         0.00000E+00
         0.00000E+00
         0.00000E+00
         0.00000E+00
         0.00000E+00
         0.00000E+00
         0.00000E+00
         0.00000E+00
         0.00000E+00
         0.00000E+00
         0.00000E+00
         0.00000E+00
         0.00000E+00
         0.00000E+00
         0.00000E+00
         0.00000E+00
         0.00000E+00
         0.00000E+00
         0.00000E+00
         0.00000E+00
         0.00000E+00
         0.00000E+00
         0.00000E+00
         0.00000E+00
         0.00000E+00
         0.00000E+00
         0.00000E+00
         0.00000E+00
         0.00000E+00
         0.00000E+00
         0.00000E+00
         0.00000E+00
         0.00000E+00
         0.00000E+00
         0.00000E+00
         0.00000E+00
         0.00000E+00
         0.00000E+00
         0.00000E+00
         0.00000E+00
         0.00000E+00
         0.00000E+00
         0.00000E+00
         0.00000E+00
         0.00000E+00
         0.00000E+00
         0.00000E+00
         0.00000E+00
         0.00000E+00
         0.00000E+00
         0.00000E+00
         0.00000E+00
         0.00000E+00
         0.00000E+00
         0.00000E+00
         0.00000E+00
         0.00000E+00
         0.00000E+00
         0.00000E+00
         0.00000E+00
         0.00000E+00
         0.00000E+00
         0.00000E+00
         0.00000E+00
         0.00000E+00
         0.00000E+00
         0.00000E+00
         0.00000E+00
         0.00000E+00
         0.00000E+00
         0.00000E+00
         0.00000E+00
         0.00000E+00
         0.00000E+00
         0.00000E+00
         0.00000E+00
         0.00000E+00
         0.00000E+00
         0.00000E+00
         0.00000E+00
         0.00000E+00
         0.00000E+00
         0.00000E+00
         0.00000E+00
         0.00000E+00
         0.00000E+00
         0.00000E+00
         0.00000E+00
         0.00000E+00
         0.00000E+00
         0.00000E+00
         0.00000E+00
         0.00000E+00
         0.00000E+00
         0.00000E+00
         0.00000E+00
         0.00000E+00
         0.00000E+00
         0.00000E+00
         0.00000E+00
         0.00000E+00
         0.00000E+00
         0.00000E+00
         0.00000E+00
         0.00000E+00
         0.00000E+00
         0.00000E+00
         0.00000E+00
         0.00000E+00
         0.00000E+00
         0.00000E+00
         0.00000E+00
         0.00000E+00
         0.00000E+00
         0.00000E+00
         0.00000E+00
         0.00000E+00
         0.00000E+00
         0.00000E+00
         0.00000E+00
         0.00000E+00
         0.00000E+00
         0.00000E+00
         0.00000E+00
         0.00000E+00
         0.00000E+00
         0.00000E+00
         0.00000E+00
         0.00000E+00
         0.00000E+00
         0.00000E+00
         0.00000E+00
         0.00000E+00
         0.00000E+00
         0.00000E+00
         0.00000E+00
         0.00000E+00
         0.00000E+00
         0.00000E+00
         0.00000E+00
         0.00000E+00
         0.00000E+00
         0.00000E+00
         0.00000E+00
         0.00000E+00
         0.00000E+00
         0.00000E+00
         0.00000E+00
         0.00000E+00
         0.00000E+00
         0.00000E+00
         0.00000E+00
         0.00000E+00
         0.00000E+00
         0.00000E+00
         0.00000E+00
         0.00000E+00
         0.00000E+00
         0.00000E+00
         0.00000E+00
         0.00000E+00
         0.00000E+00
         0.00000E+00
         0.00000E+00
         0.00000E+00
         0.00000E+00
         0.00000E+00
         0.00000E+00
         0.00000E+00
         0.00000E+00
         0.00000E+00
         0.00000E+00
         0.00000E+00
         0.00000E+00
         0.00000E+00
         0.00000E+00
         0.00000E+00
         0.00000E+00
         0.00000E+00
         0.00000E+00
         0.00000E+00
         0.00000E+00
         0.00000E+00
         0.00000E+00
         0.00000E+00
         0.00000E+00
         0.00000E+00
         0.00000E+00
         0.00000E+00
         0.00000E+00
         0.00000E+00
         0.00000E+00
         0.00000E+00
         0.00000E+00
         0.00000E+00
         0.00000E+00
         0.00000E+00
         0.00000E+00
         0.00000E+00
         0.00000E+00
         0.00000E+00
         0.00000E+00
         0.00000E+00
         0.00000E+00
         0.00000E+00
         0.00000E+00
         0.00000E+00
         0.00000E+00
         0.00000E+00
         0.00000E+00
         0.00000E+00
         0.00000E+00
         0.00000E+00
         0.00000E+00
         0.00000E+00
         0.00000E+00
         0.00000E+00
         0.00000E+00
         0.00000E+00
         0.00000E+00
         0.00000E+00
         0.00000E+00
         0.00000E+00
         0.00000E+00
         0.00000E+00
         0.00000E+00
         0.00000E+00
         0.00000E+00
         0.00000E+00
         0.00000E+00
         0.00000E+00
         0.00000E+00
         0.00000E+00
         0.00000E+00
         0.00000E+00
         0.00000E+00
         0.00000E+00
         0.00000E+00
         0.00000E+00
         0.00000E+00
         0.00000E+00
         0.00000E+00
         0.00000E+00
         0.00000E+00
         0.00000E+00
         0.00000E+00
         0.00000E+00
         0.00000E+00
         0.00000E+00
         0.00000E+00
         0.00000E+00
         0.00000E+00
         0.00000E+00
         0.00000E+00
         0.00000E+00
         0.00000E+00
         0.00000E+00
         0.00000E+00
         0.00000E+00
         0.00000E+00
         0.00000E+00
         0.00000E+00
         0.00000E+00
         0.00000E+00
         0.00000E+00
         0.00000E+00
         0.00000E+00
         0.00000E+00
         0.00000E+00
         0.00000E+00
         0.00000E+00
         0.00000E+00
         0.00000E+00
         0.00000E+00
         0.00000E+00
         0.00000E+00
         0.00000E+00
         0.00000E+00
         0.00000E+00
         0.00000E+00
         0.00000E+00
         0.00000E+00
         0.00000E+00
         0.00000E+00
         0.00000E+00
         0.00000E+00
         0.00000E+00
         0.00000E+00
         0.00000E+00
         0.00000E+00
         0.00000E+00
         0.00000E+00
         0.00000E+00
         0.00000E+00
         0.00000E+00
         0.00000E+00
         0.00000E+00
         0.00000E+00
         0.00000E+00
         0.00000E+00
         0.00000E+00
         0.00000E+00
         0.00000E+00
         0.00000E+00
         0.00000E+00
         0.00000E+00
         0.00000E+00
         0.00000E+00
         0.00000E+00
         0.00000E+00
         0.00000E+00
         0.00000E+00
         0.00000E+00
         0.00000E+00
         0.00000E+00
         0.00000E+00
         0.00000E+00
         0.00000E+00
         0.00000E+00
         0.00000E+00
         0.00000E+00
         0.00000E+00
         0.00000E+00
         0.00000E+00
         0.00000E+00
         0.00000E+00
         0.00000E+00
         0.00000E+00
         0.00000E+00
         0.00000E+00
         0.00000E+00
         0.00000E+00
         0.00000E+00
         0.00000E+00
         0.00000E+00
         0.00000E+00
         0.00000E+00
         0.00000E+00
         0.00000E+00
         0.00000E+00
         0.00000E+00
         0.00000E+00
         0.00000E+00
         0.00000E+00
         0.00000E+00
         0.00000E+00
         0.00000E+00
         0.00000E+00
         0.00000E+00
         0.00000E+00
         0.00000E+00
         0.00000E+00
         0.00000E+00
         0.00000E+00
         0.00000E+00
         0.00000E+00
         0.00000E+00
         0.00000E+00
         0.00000E+00
         0.00000E+00
         0.00000E+00
         0.00000E+00
         0.00000E+00
         0.00000E+00
         0.00000E+00
         0.00000E+00
         0.00000E+00
         0.00000E+00
         0.00000E+00
         0.00000E+00
         0.00000E+00
         0.00000E+00
         0.00000E+00
         0.00000E+00
         0.00000E+00
         0.00000E+00
         0.00000E+00
         0.00000E+00
         0.00000E+00
         0.00000E+00
         0.00000E+00
         0.00000E+00
         0.00000E+00
         0.00000E+00
         0.00000E+00
         0.00000E+00
         0.00000E+00
         0.00000E+00
         0.00000E+00
         0.00000E+00
         0.00000E+00
         0.00000E+00
         0.00000E+00
         0.00000E+00
         0.00000E+00
         0.00000E+00
         0.00000E+00
         0.00000E+00
         0.00000E+00
         0.00000E+00
         0.00000E+00
         0.00000E+00
         0.00000E+00
         0.00000E+00
         0.00000E+00
         0.00000E+00
         0.00000E+00
         0.00000E+00
         0.00000E+00
         0.00000E+00
         0.00000E+00
         0.00000E+00
         0.00000E+00
         0.00000E+00
         0.00000E+00
         0.00000E+00
         0.00000E+00
         0.00000E+00
         0.00000E+00
         0.00000E+00
         0.00000E+00
         0.00000E+00
         0.00000E+00
         0.00000E+00
         0.00000E+00
         0.00000E+00
         0.00000E+00
         0.00000E+00
         0.00000E+00
         0.00000E+00
         0.00000E+00
         0.00000E+00
         0.00000E+00
         0.00000E+00
         0.00000E+00
         0.00000E+00
         0.00000E+00
         0.00000E+00
         0.00000E+00
         0.00000E+00
         0.00000E+00
         0.00000E+00
         0.00000E+00
         0.00000E+00
         0.00000E+00
         0.00000E+00
         0.00000E+00
         0.00000E+00
         0.00000E+00
         0.00000E+00
         0.00000E+00
         0.00000E+00
         0.00000E+00
         0.00000E+00
         0.00000E+00
         0.00000E+00
         0.00000E+00
         0.00000E+00
         0.00000E+00
         0.00000E+00
         0.00000E+00
         0.00000E+00
         0.00000E+00
         0.00000E+00
         0.00000E+00
         0.00000E+00
         0.00000E+00
         0.00000E+00
         0.00000E+00
         0.00000E+00
         0.00000E+00
         0.00000E+00
         0.00000E+00
         0.00000E+00
         0.00000E+00
         0.00000E+00
         0.00000E+00
         0.00000E+00
         0.00000E+00
         0.00000E+00
         0.00000E+00
         0.00000E+00
         0.00000E+00
         0.00000E+00
         0.00000E+00
         0.00000E+00
         0.00000E+00
         0.00000E+00
         0.00000E+00
         0.00000E+00
         0.00000E+00
         0.00000E+00
         0.00000E+00
         0.00000E+00
         0.00000E+00
         0.00000E+00
         0.00000E+00
         0.00000E+00
         0.00000E+00
         0.00000E+00
         0.00000E+00
         0.00000E+00
         0.00000E+00
         0.00000E+00
         0.00000E+00
         0.00000E+00
         0.00000E+00
         0.00000E+00
         0.00000E+00
         0.00000E+00
         0.00000E+00
         0.00000E+00
         0.00000E+00
         0.00000E+00
         0.00000E+00
         0.00000E+00
         0.00000E+00
         0.00000E+00
         0.00000E+00
         0.00000E+00
         0.00000E+00
         0.00000E+00
         0.00000E+00
         0.00000E+00
         0.00000E+00
         0.00000E+00
         0.00000E+00
         0.00000E+00
         0.00000E+00
         0.00000E+00
         0.00000E+00
         0.00000E+00
         0.00000E+00
         0.00000E+00
         0.00000E+00
         0.00000E+00
         0.00000E+00
         0.00000E+00
         0.00000E+00
         0.00000E+00
         0.00000E+00
         0.00000E+00
         0.00000E+00
         0.00000E+00
         0.00000E+00
         0.00000E+00
         0.00000E+00
         0.00000E+00
         0.00000E+00
         0.00000E+00
         0.00000E+00
         0.00000E+00
         0.00000E+00
         0.00000E+00
         0.00000E+00
         0.00000E+00
         0.00000E+00
         0.00000E+00
         0.00000E+00
         0.00000E+00
         0.00000E+00
         0.00000E+00
         0.00000E+00
         0.00000E+00
         0.00000E+00
         0.00000E+00
         0.00000E+00
         0.00000E+00
         0.00000E+00
         0.00000E+00
         0.00000E+00
         0.00000E+00
         0.00000E+00
         0.00000E+00
         0.00000E+00
         0.00000E+00
         0.00000E+00
         0.00000E+00
         0.00000E+00
         0.00000E+00
         0.00000E+00
         0.00000E+00
         0.00000E+00
         0.00000E+00
         0.00000E+00
         0.00000E+00
         0.00000E+00
         0.00000E+00
         0.00000E+00
         0.00000E+00
         0.00000E+00
         0.00000E+00
         0.00000E+00
         0.00000E+00
         0.00000E+00
         0.00000E+00
         0.00000E+00
         0.00000E+00
         0.00000E+00
         0.00000E+00
         0.00000E+00
         0.00000E+00
         0.00000E+00
         0.00000E+00
         0.00000E+00
         0.00000E+00
         0.00000E+00
         0.00000E+00
         0.00000E+00
         0.00000E+00
         0.00000E+00
         0.00000E+00
         0.00000E+00
         0.00000E+00
         0.00000E+00
         0.00000E+00
         0.00000E+00
         0.00000E+00
         0.00000E+00
         0.00000E+00
         0.00000E+00
         0.00000E+00
         0.00000E+00
         0.00000E+00
         0.00000E+00
         0.00000E+00
         0.00000E+00
         0.00000E+00
         0.00000E+00
         0.00000E+00
         0.00000E+00
         0.00000E+00
         0.00000E+00
         0.00000E+00
         0.00000E+00
         0.00000E+00
         0.00000E+00
         0.00000E+00
         0.00000E+00
         0.00000E+00
         0.00000E+00
         0.00000E+00
         0.00000E+00
         0.00000E+00
         0.00000E+00
         0.00000E+00
         0.00000E+00
         0.00000E+00
         0.00000E+00
         0.00000E+00
         0.00000E+00
         0.00000E+00
         0.00000E+00
         0.00000E+00
         0.00000E+00
         0.00000E+00
         0.00000E+00
         0.00000E+00
         0.00000E+00
         0.00000E+00
         0.00000E+00
         0.00000E+00
         0.00000E+00
         0.00000E+00
         0.00000E+00
         0.00000E+00
         0.00000E+00
         0.00000E+00
         0.00000E+00
         0.00000E+00
         0.00000E+00
         0.00000E+00
         0.00000E+00
         0.00000E+00
         0.00000E+00
         0.00000E+00
         0.00000E+00
         0.00000E+00
         0.00000E+00
         0.00000E+00
         0.00000E+00
         0.00000E+00
         0.00000E+00
         0.00000E+00
         0.00000E+00
         0.00000E+00
         0.00000E+00
         0.00000E+00
         0.00000E+00
         0.00000E+00
         0.00000E+00
         0.00000E+00
         0.00000E+00
         0.00000E+00
         0.00000E+00
         0.00000E+00
         0.00000E+00
         0.00000E+00
         0.00000E+00
         0.00000E+00
         0.00000E+00
         0.00000E+00
         0.00000E+00
         0.00000E+00
         0.00000E+00
         0.00000E+00
         0.00000E+00
         0.00000E+00
         0.00000E+00
         0.00000E+00
         0.00000E+00
         0.00000E+00
         0.00000E+00
         0.00000E+00
         0.00000E+00
         0.00000E+00
         0.00000E+00
         0.00000E+00
         0.00000E+00
         0.00000E+00
         0.00000E+00
         0.00000E+00
         0.00000E+00
         0.00000E+00
         0.00000E+00
         0.00000E+00
         0.00000E+00
         0.00000E+00
         0.00000E+00
         0.00000E+00
         0.00000E+00
         0.00000E+00
         0.00000E+00
         0.00000E+00
         0.00000E+00
         0.00000E+00
         0.00000E+00
         0.00000E+00
         0.00000E+00
         0.00000E+00
         0.00000E+00
         0.00000E+00
         0.00000E+00
         0.00000E+00
         0.00000E+00
         0.00000E+00
         0.00000E+00
         0.00000E+00
         0.00000E+00
         0.00000E+00
         0.00000E+00
         0.00000E+00
         0.00000E+00
         0.00000E+00
         0.00000E+00
         0.00000E+00
         0.00000E+00
         0.00000E+00
         0.00000E+00
         0.00000E+00
         0.00000E+00
         0.00000E+00
         0.00000E+00
         0.00000E+00
         0.00000E+00
         0.00000E+00
         0.00000E+00
         0.00000E+00
         0.00000E+00
         0.00000E+00
         0.00000E+00
         0.00000E+00
         0.00000E+00
         0.00000E+00
         0.00000E+00
         0.00000E+00
         0.00000E+00
         0.00000E+00
         0.00000E+00
         0.00000E+00
         0.00000E+00
         0.00000E+00
         0.00000E+00
         0.00000E+00
         0.00000E+00
         0.00000E+00
         0.00000E+00
         0.00000E+00
         0.00000E+00
         0.00000E+00
         0.00000E+00
         0.00000E+00
         0.00000E+00
         0.00000E+00
         0.00000E+00
         0.00000E+00
         0.00000E+00
         0.00000E+00
         0.00000E+00
         0.00000E+00
         0.00000E+00
         0.00000E+00
         0.00000E+00
         0.00000E+00
         0.00000E+00
         0.00000E+00
         0.00000E+00
         0.00000E+00
         0.00000E+00
         0.00000E+00
         0.00000E+00
         0.00000E+00
         0.00000E+00
         0.00000E+00
         0.00000E+00
         0.00000E+00
         0.00000E+00
         0.00000E+00
         0.00000E+00
         0.00000E+00
         0.00000E+00
         0.00000E+00
         0.00000E+00
         0.00000E+00
         0.00000E+00
         0.00000E+00
         0.00000E+00
         0.00000E+00
         0.00000E+00
         0.00000E+00
         0.00000E+00
         0.00000E+00
         0.00000E+00
         0.00000E+00
         0.00000E+00
         0.00000E+00
         0.00000E+00
         0.00000E+00
         0.00000E+00
         0.00000E+00
         0.00000E+00
         0.00000E+00
         0.00000E+00
         0.00000E+00
         0.00000E+00
         0.00000E+00
         0.00000E+00
         0.00000E+00
         0.00000E+00
         0.00000E+00
         0.00000E+00
         0.00000E+00
         0.00000E+00
         0.00000E+00
         0.00000E+00
         0.00000E+00
         0.00000E+00
         0.00000E+00
         0.00000E+00
         0.00000E+00
         0.00000E+00
         0.00000E+00
         0.00000E+00
         0.00000E+00
         0.00000E+00
         0.00000E+00
         0.00000E+00
         0.00000E+00
         0.00000E+00
         0.00000E+00
         0.00000E+00
         0.00000E+00
         0.00000E+00
         0.00000E+00
         0.00000E+00
         0.00000E+00
         0.00000E+00
         0.00000E+00
         0.00000E+00
         0.00000E+00
         0.00000E+00
         0.00000E+00
         0.00000E+00
         0.00000E+00
         0.00000E+00
         0.00000E+00
         0.00000E+00
         0.00000E+00
         0.00000E+00
         0.00000E+00
         0.00000E+00
         0.00000E+00
         0.00000E+00
         0.00000E+00
         0.00000E+00
         0.00000E+00
         0.00000E+00
         0.00000E+00
         0.00000E+00
         0.00000E+00
         0.00000E+00
         0.00000E+00
         0.00000E+00
         0.00000E+00
         0.00000E+00
         0.00000E+00
         0.00000E+00
         0.00000E+00
         0.00000E+00
         0.00000E+00
         0.00000E+00
         0.00000E+00
         0.00000E+00
         0.00000E+00
         0.00000E+00
         0.00000E+00
         0.00000E+00
         0.00000E+00
         0.00000E+00
         0.00000E+00
         0.00000E+00
         0.00000E+00
         0.00000E+00
         0.00000E+00
         0.00000E+00
         0.00000E+00
         0.00000E+00
         0.00000E+00
         0.00000E+00
         0.00000E+00
         0.00000E+00
         0.00000E+00
         0.00000E+00
         0.00000E+00
         0.00000E+00
         0.00000E+00
         0.00000E+00
         0.00000E+00
         0.00000E+00
         0.00000E+00
         0.00000E+00
         0.00000E+00
         0.00000E+00
         0.00000E+00
         0.00000E+00
         0.00000E+00
         0.00000E+00
         0.00000E+00
         0.00000E+00
         0.00000E+00
         0.00000E+00
         0.00000E+00
         0.00000E+00
         0.00000E+00
         0.00000E+00
         0.00000E+00
         0.00000E+00
         0.00000E+00
         0.00000E+00
         0.00000E+00
         0.00000E+00
         0.00000E+00
         0.00000E+00
         0.00000E+00
         0.00000E+00
         0.00000E+00
         0.00000E+00
         0.00000E+00
         0.00000E+00
         0.00000E+00
         0.00000E+00
         0.00000E+00
         0.00000E+00
         0.00000E+00
         0.00000E+00
         0.00000E+00
         0.00000E+00
         0.00000E+00
         0.00000E+00
         0.00000E+00
         0.00000E+00
         0.00000E+00
         0.00000E+00
         0.00000E+00
         0.00000E+00
         0.00000E+00
         0.00000E+00
         0.00000E+00
         0.00000E+00
         0.00000E+00
         0.00000E+00
         0.00000E+00
         0.00000E+00
         0.00000E+00
         0.00000E+00
         0.00000E+00
         0.00000E+00
         0.00000E+00
         0.00000E+00
         0.00000E+00
         0.00000E+00
         0.00000E+00
         0.00000E+00
         0.00000E+00
         0.00000E+00
         0.00000E+00
         0.00000E+00
         0.00000E+00
         0.00000E+00
         0.00000E+00
         0.00000E+00
         0.00000E+00
         0.00000E+00
         0.00000E+00
         0.00000E+00
         0.00000E+00
         0.00000E+00
         0.00000E+00
         0.00000E+00
         0.00000E+00
         0.00000E+00
         0.00000E+00
         0.00000E+00
         0.00000E+00
         0.00000E+00
         0.00000E+00
         0.00000E+00
         0.00000E+00
         0.00000E+00
         0.00000E+00
         0.00000E+00
         0.00000E+00
         0.00000E+00
         0.00000E+00
         0.00000E+00
         0.00000E+00
         0.00000E+00
         0.00000E+00
         0.00000E+00
         0.00000E+00
         0.00000E+00
         0.00000E+00
         0.00000E+00
         0.00000E+00
         0.00000E+00
         0.00000E+00
         0.00000E+00
         0.00000E+00
         0.00000E+00
         0.00000E+00
         0.00000E+00
         0.00000E+00
         0.00000E+00
         0.00000E+00
         0.00000E+00
         0.00000E+00
         0.00000E+00
         0.00000E+00
         0.00000E+00
         0.00000E+00
         0.00000E+00
         0.00000E+00
         0.00000E+00
         0.00000E+00
         0.00000E+00
         0.00000E+00
         0.00000E+00
         0.00000E+00
         0.00000E+00
         0.00000E+00
         0.00000E+00
         0.00000E+00
         0.00000E+00
         0.00000E+00
         0.00000E+00
         0.00000E+00
         0.00000E+00
         0.00000E+00
         0.00000E+00
         0.00000E+00
         0.00000E+00
         0.00000E+00
         0.00000E+00
         0.00000E+00
         0.00000E+00
         0.00000E+00
         0.00000E+00
         0.00000E+00
         0.00000E+00
         0.00000E+00
         0.00000E+00
         0.00000E+00
         0.00000E+00
         0.00000E+00
         0.00000E+00
         0.00000E+00
         0.00000E+00
         0.00000E+00
         0.00000E+00
         0.00000E+00
         0.00000E+00
         0.00000E+00
         0.00000E+00
         0.00000E+00
         0.00000E+00
         0.00000E+00
         0.00000E+00
         0.00000E+00
         0.00000E+00
         0.00000E+00
         0.00000E+00
         0.00000E+00
         0.00000E+00
         0.00000E+00
         0.00000E+00
         0.00000E+00
         0.00000E+00
         0.00000E+00
         0.00000E+00
         0.00000E+00
         0.00000E+00
         0.00000E+00
         0.00000E+00
         0.00000E+00
         0.00000E+00
         0.00000E+00
         0.00000E+00
         0.00000E+00
         0.00000E+00
         0.00000E+00
         0.00000E+00
         0.00000E+00
         0.00000E+00
         0.00000E+00
         0.00000E+00
         0.00000E+00
         0.00000E+00
         0.00000E+00
         0.00000E+00
         0.00000E+00
         0.00000E+00
         0.00000E+00
         0.00000E+00
         0.00000E+00
         0.00000E+00
         0.00000E+00
         0.00000E+00
         0.00000E+00
         0.00000E+00
         0.00000E+00
         0.00000E+00
         0.00000E+00
         0.00000E+00
         0.00000E+00
         0.00000E+00
         0.00000E+00
         0.00000E+00
         0.00000E+00
         0.00000E+00
         0.00000E+00
         0.00000E+00
         0.00000E+00
         0.00000E+00
         0.00000E+00
         0.00000E+00
         0.00000E+00
         0.00000E+00
         0.00000E+00
         0.00000E+00
         0.00000E+00
         0.00000E+00
         0.00000E+00
         0.00000E+00
         0.00000E+00
         0.00000E+00
         0.00000E+00
         0.00000E+00
         0.00000E+00
         0.00000E+00
         0.00000E+00
         0.00000E+00
         0.00000E+00
         0.00000E+00
         0.00000E+00
         0.00000E+00
         0.00000E+00
         0.00000E+00
         0.00000E+00
         0.00000E+00
         0.00000E+00
         0.00000E+00
         0.00000E+00
         0.00000E+00
         0.00000E+00
         0.00000E+00
         0.00000E+00
         0.00000E+00
         0.00000E+00
         0.00000E+00
         0.00000E+00
         0.00000E+00
         0.00000E+00
         0.00000E+00
         0.00000E+00
         0.00000E+00
         0.00000E+00
         0.00000E+00
         0.00000E+00
         0.00000E+00
         0.00000E+00
         0.00000E+00
         0.00000E+00
         0.00000E+00
         0.00000E+00
         0.00000E+00
         0.00000E+00
         0.00000E+00
         0.00000E+00
         0.00000E+00
         0.00000E+00
         0.00000E+00
         0.00000E+00
         0.00000E+00
         0.00000E+00
         0.00000E+00
         0.00000E+00
         0.00000E+00
         0.00000E+00
         0.00000E+00
         0.00000E+00
         0.00000E+00
         0.00000E+00
         0.00000E+00
         0.00000E+00
         0.00000E+00
         0.00000E+00
         0.00000E+00
         0.00000E+00
         0.00000E+00
         0.00000E+00
         0.00000E+00
         0.00000E+00
         0.00000E+00
         0.00000E+00
         0.00000E+00
         0.00000E+00
         0.00000E+00
         0.00000E+00
         0.00000E+00
         0.00000E+00
         0.00000E+00
         0.00000E+00
         0.00000E+00
         0.00000E+00
         0.00000E+00
         0.00000E+00
         0.00000E+00
         0.00000E+00
         0.00000E+00
         0.00000E+00
         0.00000E+00
         0.00000E+00
         0.00000E+00
         0.00000E+00
         0.00000E+00
         0.00000E+00
         0.00000E+00
         0.00000E+00
         0.00000E+00
         0.00000E+00
         0.00000E+00
         0.00000E+00
         0.00000E+00
         0.00000E+00
         0.00000E+00
         0.00000E+00
         0.00000E+00
         0.00000E+00
         0.00000E+00
         0.00000E+00
         0.00000E+00
         0.00000E+00
         0.00000E+00
         0.00000E+00
         0.00000E+00
         0.00000E+00
         0.00000E+00
         0.00000E+00
         0.00000E+00
         0.00000E+00
         0.00000E+00
         0.00000E+00
         0.00000E+00
         0.00000E+00
         0.00000E+00
         0.00000E+00
         0.00000E+00
         0.00000E+00
         0.00000E+00
         0.00000E+00
         0.00000E+00
         0.00000E+00
         0.00000E+00
         0.00000E+00
         0.00000E+00
         0.00000E+00
         0.00000E+00
         0.00000E+00
         0.00000E+00
         0.00000E+00
         0.00000E+00
         0.00000E+00
         0.00000E+00
         0.00000E+00
         0.00000E+00
         0.00000E+00
         0.00000E+00
         0.00000E+00
         0.00000E+00
         0.00000E+00
         0.00000E+00
         0.00000E+00
         0.00000E+00
         0.00000E+00
         0.00000E+00
         0.00000E+00
         0.00000E+00
         0.00000E+00
         0.00000E+00
         0.00000E+00
         0.00000E+00
         0.00000E+00
         0.00000E+00
         0.00000E+00
         0.00000E+00
         0.00000E+00
         0.00000E+00
         0.00000E+00
         0.00000E+00
         0.00000E+00
         0.00000E+00
         0.00000E+00
         0.00000E+00
         0.00000E+00
         0.00000E+00
         0.00000E+00
         0.00000E+00
         0.00000E+00
         0.00000E+00
         0.00000E+00
         0.00000E+00
         0.00000E+00
         0.00000E+00
         0.00000E+00
         0.00000E+00
         0.00000E+00
         0.00000E+00
         0.00000E+00
         0.00000E+00
         0.00000E+00
         0.00000E+00
         0.00000E+00
         0.00000E+00
         0.00000E+00
         0.00000E+00
         0.00000E+00
         0.00000E+00
         0.00000E+00
         0.00000E+00
         0.00000E+00
         0.00000E+00
         0.00000E+00
         0.00000E+00
         0.00000E+00
         0.00000E+00
         0.00000E+00
         0.00000E+00
         0.00000E+00
         0.00000E+00
         0.00000E+00
         0.00000E+00
         0.00000E+00
         0.00000E+00
         0.00000E+00
         0.00000E+00
         0.00000E+00
         0.00000E+00
         0.00000E+00
         0.00000E+00
         0.00000E+00
         0.00000E+00
         0.00000E+00
         0.00000E+00
         0.00000E+00
         0.00000E+00
         0.00000E+00
         0.00000E+00
         0.00000E+00
         0.00000E+00
         0.00000E+00
         0.00000E+00
         0.00000E+00
         0.00000E+00
         0.00000E+00
         0.00000E+00
         0.00000E+00
         0.00000E+00
         0.00000E+00
         0.00000E+00
         0.00000E+00
         0.00000E+00
         0.00000E+00
         0.00000E+00
         0.00000E+00
         0.00000E+00
         0.00000E+00
         0.00000E+00
         0.00000E+00
         0.00000E+00
         0.00000E+00
         0.00000E+00
         0.00000E+00
         0.00000E+00
         0.00000E+00
         0.00000E+00
         0.00000E+00
         0.00000E+00
         0.00000E+00
         0.00000E+00
         0.00000E+00
         0.00000E+00
         0.00000E+00
         0.00000E+00
         0.00000E+00
         0.00000E+00
         0.00000E+00
         0.00000E+00
         0.00000E+00
         0.00000E+00
         0.00000E+00
         0.00000E+00
         0.00000E+00
         0.00000E+00
         0.00000E+00
         0.00000E+00
         0.00000E+00
         0.00000E+00
         0.00000E+00
         0.00000E+00
         0.00000E+00
         0.00000E+00
         0.00000E+00
         0.00000E+00
         0.00000E+00
         0.00000E+00
         0.00000E+00
         0.00000E+00
         0.00000E+00
         0.00000E+00
         0.00000E+00
         0.00000E+00
         0.00000E+00
         0.00000E+00
         0.00000E+00
         0.00000E+00
         0.00000E+00
         0.00000E+00
         0.00000E+00
         0.00000E+00
         0.00000E+00
         0.00000E+00
         0.00000E+00
         0.00000E+00
         0.00000E+00
         0.00000E+00
         0.00000E+00
         0.00000E+00
         0.00000E+00
         0.00000E+00
         0.00000E+00
         0.00000E+00
         0.00000E+00
         0.00000E+00
         0.00000E+00
         0.00000E+00
         0.00000E+00
         0.00000E+00
         0.00000E+00
         0.00000E+00
         0.00000E+00
         0.00000E+00
         0.00000E+00
         0.00000E+00
         0.00000E+00
         0.00000E+00
         0.00000E+00
         0.00000E+00
         0.00000E+00
         0.00000E+00
         0.00000E+00
         0.00000E+00
         0.00000E+00
         0.00000E+00
         0.00000E+00
         0.00000E+00
         0.00000E+00
         0.00000E+00
         0.00000E+00
         0.00000E+00
         0.00000E+00
         0.00000E+00
         0.00000E+00
         0.00000E+00
         0.00000E+00
         0.00000E+00
         0.00000E+00
         0.00000E+00
         0.00000E+00
         0.00000E+00
         0.00000E+00
         0.00000E+00
         0.00000E+00
         0.00000E+00
         0.00000E+00
         0.00000E+00
         0.00000E+00
         0.00000E+00
         0.00000E+00
         0.00000E+00
         0.00000E+00
         0.00000E+00
         0.00000E+00
         0.00000E+00
         0.00000E+00
         0.00000E+00
         0.00000E+00
         0.00000E+00
         0.00000E+00
         0.00000E+00
         0.00000E+00
         0.00000E+00
         0.00000E+00
         0.00000E+00
         0.00000E+00
         0.00000E+00
         0.00000E+00
         0.00000E+00
         0.00000E+00
         0.00000E+00
         0.00000E+00
         0.00000E+00
         0.00000E+00
         0.00000E+00
         0.00000E+00
         0.00000E+00
         0.00000E+00
         0.00000E+00
         0.00000E+00
         0.00000E+00
         0.00000E+00
         0.00000E+00
         0.00000E+00
         0.00000E+00
         0.00000E+00
         0.00000E+00
         0.00000E+00
         0.00000E+00
         0.00000E+00
         0.00000E+00
         0.00000E+00
         0.00000E+00
         0.00000E+00
         0.00000E+00
         0.00000E+00
         0.00000E+00
         0.00000E+00
         0.00000E+00
         0.00000E+00
         0.00000E+00
         0.00000E+00
         0.00000E+00
         0.00000E+00
         0.00000E+00
         0.00000E+00
         0.00000E+00
         0.00000E+00
         0.00000E+00
         0.00000E+00
         0.00000E+00
         0.00000E+00
         0.00000E+00
         0.00000E+00
         0.00000E+00
         0.00000E+00
         0.00000E+00
         0.00000E+00
         0.00000E+00
         0.00000E+00
         0.00000E+00
         0.00000E+00
         0.00000E+00
         0.00000E+00
         0.00000E+00
         0.00000E+00
         0.00000E+00
         0.00000E+00
         0.00000E+00
         0.00000E+00
         0.00000E+00
         0.00000E+00
         0.00000E+00
         0.00000E+00
         0.00000E+00
         0.00000E+00
         0.00000E+00
         0.00000E+00
         0.00000E+00
         0.00000E+00
         0.00000E+00
         0.00000E+00
         0.00000E+00
         0.00000E+00
         0.00000E+00
         0.00000E+00
         0.00000E+00
         0.00000E+00
         0.00000E+00
         0.00000E+00
         0.00000E+00
         0.00000E+00
         0.00000E+00
         0.00000E+00
         0.00000E+00
         0.00000E+00
         0.00000E+00
         0.00000E+00
         0.00000E+00
         0.00000E+00
         0.00000E+00
         0.00000E+00
         0.00000E+00
         0.00000E+00
         0.00000E+00
         0.00000E+00
         0.00000E+00
         0.00000E+00
         0.00000E+00
         0.00000E+00
         0.00000E+00
         0.00000E+00
         0.00000E+00
         0.00000E+00
         0.00000E+00
         0.00000E+00
         0.00000E+00
         0.00000E+00
         0.00000E+00
         0.00000E+00
         0.00000E+00
         0.00000E+00
         0.00000E+00
         0.00000E+00
         0.00000E+00
         0.00000E+00
         0.00000E+00
         0.00000E+00
         0.00000E+00
         0.00000E+00
         0.00000E+00
         0.00000E+00
         0.00000E+00
         0.00000E+00
         0.00000E+00
         0.00000E+00
         0.00000E+00
         0.00000E+00
         0.00000E+00
         0.00000E+00
         0.00000E+00
         0.00000E+00
         0.00000E+00
         0.00000E+00
         0.00000E+00
         0.00000E+00
         0.00000E+00
         0.00000E+00
         0.00000E+00
         0.00000E+00
         0.00000E+00
         0.00000E+00
         0.00000E+00
         0.00000E+00
         0.00000E+00
         0.00000E+00
         0.00000E+00
         0.00000E+00
         0.00000E+00
         0.00000E+00
         0.00000E+00
         0.00000E+00
         0.00000E+00
         0.00000E+00
         0.00000E+00
         0.00000E+00
         0.00000E+00
         0.00000E+00
         0.00000E+00
         0.00000E+00
         0.00000E+00
         0.00000E+00
         0.00000E+00
         0.00000E+00
         0.00000E+00
         0.00000E+00
         0.00000E+00
         0.00000E+00
         0.00000E+00
         0.00000E+00
         0.00000E+00
         0.00000E+00
         0.00000E+00
         0.00000E+00
         0.00000E+00
         0.00000E+00
         0.00000E+00
         0.00000E+00
         0.00000E+00
         0.00000E+00
         0.00000E+00
         0.00000E+00
         0.00000E+00
         0.00000E+00
         0.00000E+00
         0.00000E+00
         0.00000E+00
         0.00000E+00
         0.00000E+00
         0.00000E+00
         0.00000E+00
         0.00000E+00
         0.00000E+00
         0.00000E+00
         0.00000E+00
         0.00000E+00
         0.00000E+00
         0.00000E+00
         0.00000E+00
         0.00000E+00
         0.00000E+00
         0.00000E+00
         0.00000E+00
         0.00000E+00
         0.00000E+00
         0.00000E+00
         0.00000E+00
         0.00000E+00
         0.00000E+00
         0.00000E+00
         0.00000E+00
         0.00000E+00
         0.00000E+00
         0.00000E+00
         0.00000E+00
         0.00000E+00
         0.00000E+00
         0.00000E+00
         0.00000E+00
         0.00000E+00
         0.00000E+00
         0.00000E+00
         0.00000E+00
         0.00000E+00
         0.00000E+00
         0.00000E+00
         0.00000E+00
         0.00000E+00
         0.00000E+00
         0.00000E+00
         0.00000E+00
         0.00000E+00
         0.00000E+00
         0.00000E+00
         0.00000E+00
         0.00000E+00
         0.00000E+00
         0.00000E+00
         0.00000E+00
         0.00000E+00
         0.00000E+00
         0.00000E+00
         0.00000E+00
         0.00000E+00
         0.00000E+00
         0.00000E+00
         0.00000E+00
         0.00000E+00
         0.00000E+00
         0.00000E+00
         0.00000E+00
         0.00000E+00
         0.00000E+00
         0.00000E+00
         0.00000E+00
         0.00000E+00
         0.00000E+00
         0.00000E+00
         0.00000E+00
         0.00000E+00
         0.00000E+00
         0.00000E+00
         0.00000E+00
         0.00000E+00
         0.00000E+00
         0.00000E+00
         0.00000E+00
         0.00000E+00
         0.00000E+00
         0.00000E+00
         0.00000E+00
         0.00000E+00
         0.00000E+00
         0.00000E+00
         0.00000E+00
         0.00000E+00
         0.00000E+00
         0.00000E+00
         0.00000E+00
         0.00000E+00
         0.00000E+00
         0.00000E+00
         0.00000E+00
         0.00000E+00
         0.00000E+00
         0.00000E+00
  
SCALARS                         fint_y  double 1
LOOKUP_TABLE default
         0.00000E+00
         0.00000E+00
         0.00000E+00
         0.00000E+00
         0.00000E+00
         0.00000E+00
         0.00000E+00
         0.00000E+00
         0.00000E+00
         0.00000E+00
         0.00000E+00
         0.00000E+00
         0.00000E+00
         0.00000E+00
         0.00000E+00
         0.00000E+00
         0.00000E+00
         0.00000E+00
         0.00000E+00
         0.00000E+00
         0.00000E+00
         0.00000E+00
         0.00000E+00
         0.00000E+00
         0.00000E+00
         0.00000E+00
         0.00000E+00
         0.00000E+00
         0.00000E+00
         0.00000E+00
         0.00000E+00
         0.00000E+00
         0.00000E+00
         0.00000E+00
         0.00000E+00
         0.00000E+00
         0.00000E+00
         0.00000E+00
         0.00000E+00
         0.00000E+00
         0.00000E+00
         0.00000E+00
         0.00000E+00
         0.00000E+00
         0.00000E+00
         0.00000E+00
         0.00000E+00
         0.00000E+00
         0.00000E+00
         0.00000E+00
         0.00000E+00
         0.00000E+00
         0.00000E+00
         0.00000E+00
         0.00000E+00
         0.00000E+00
         0.00000E+00
         0.00000E+00
         0.00000E+00
         0.00000E+00
         0.00000E+00
         0.00000E+00
         0.00000E+00
         0.00000E+00
         0.00000E+00
         0.00000E+00
         0.00000E+00
         0.00000E+00
         0.00000E+00
         0.00000E+00
         0.00000E+00
         0.00000E+00
         0.00000E+00
         0.00000E+00
         0.00000E+00
         0.00000E+00
         0.00000E+00
         0.00000E+00
         0.00000E+00
         0.00000E+00
         0.00000E+00
         0.00000E+00
         0.00000E+00
         0.00000E+00
         0.00000E+00
         0.00000E+00
         0.00000E+00
         0.00000E+00
         0.00000E+00
         0.00000E+00
         0.00000E+00
         0.00000E+00
         0.00000E+00
         0.00000E+00
         0.00000E+00
         0.00000E+00
         0.00000E+00
         0.00000E+00
         0.00000E+00
         0.00000E+00
         0.00000E+00
         0.00000E+00
         0.00000E+00
         0.00000E+00
         0.00000E+00
         0.00000E+00
         0.00000E+00
         0.00000E+00
         0.00000E+00
         0.00000E+00
         0.00000E+00
         0.00000E+00
         0.00000E+00
         0.00000E+00
         0.00000E+00
         0.00000E+00
         0.00000E+00
         0.00000E+00
         0.00000E+00
         0.00000E+00
         0.00000E+00
         0.00000E+00
         0.00000E+00
         0.00000E+00
         0.00000E+00
         0.00000E+00
         0.00000E+00
         0.00000E+00
         0.00000E+00
         0.00000E+00
         0.00000E+00
         0.00000E+00
         0.00000E+00
         0.00000E+00
         0.00000E+00
         0.00000E+00
         0.00000E+00
         0.00000E+00
         0.00000E+00
         0.00000E+00
         0.00000E+00
         0.00000E+00
         0.00000E+00
         0.00000E+00
         0.00000E+00
         0.00000E+00
         0.00000E+00
         0.00000E+00
         0.00000E+00
         0.00000E+00
         0.00000E+00
         0.00000E+00
         0.00000E+00
         0.00000E+00
         0.00000E+00
         0.00000E+00
         0.00000E+00
         0.00000E+00
         0.00000E+00
         0.00000E+00
         0.00000E+00
         0.00000E+00
         0.00000E+00
         0.00000E+00
         0.00000E+00
         0.00000E+00
         0.00000E+00
         0.00000E+00
         0.00000E+00
         0.00000E+00
         0.00000E+00
         0.00000E+00
         0.00000E+00
         0.00000E+00
         0.00000E+00
         0.00000E+00
         0.00000E+00
         0.00000E+00
         0.00000E+00
         0.00000E+00
         0.00000E+00
         0.00000E+00
         0.00000E+00
         0.00000E+00
         0.00000E+00
         0.00000E+00
         0.00000E+00
         0.00000E+00
         0.00000E+00
         0.00000E+00
         0.00000E+00
         0.00000E+00
         0.00000E+00
         0.00000E+00
         0.00000E+00
         0.00000E+00
         0.00000E+00
         0.00000E+00
         0.00000E+00
         0.00000E+00
         0.00000E+00
         0.00000E+00
         0.00000E+00
         0.00000E+00
         0.00000E+00
         0.00000E+00
         0.00000E+00
         0.00000E+00
         0.00000E+00
         0.00000E+00
         0.00000E+00
         0.00000E+00
         0.00000E+00
         0.00000E+00
         0.00000E+00
         0.00000E+00
         0.00000E+00
         0.00000E+00
         0.00000E+00
         0.00000E+00
         0.00000E+00
         0.00000E+00
         0.00000E+00
         0.00000E+00
         0.00000E+00
         0.00000E+00
         0.00000E+00
         0.00000E+00
         0.00000E+00
         0.00000E+00
         0.00000E+00
         0.00000E+00
         0.00000E+00
         0.00000E+00
         0.00000E+00
         0.00000E+00
         0.00000E+00
         0.00000E+00
         0.00000E+00
         0.00000E+00
         0.00000E+00
         0.00000E+00
         0.00000E+00
         0.00000E+00
         0.00000E+00
         0.00000E+00
         0.00000E+00
         0.00000E+00
         0.00000E+00
         0.00000E+00
         0.00000E+00
         0.00000E+00
         0.00000E+00
         0.00000E+00
         0.00000E+00
         0.00000E+00
         0.00000E+00
         0.00000E+00
         0.00000E+00
         0.00000E+00
         0.00000E+00
         0.00000E+00
         0.00000E+00
         0.00000E+00
         0.00000E+00
         0.00000E+00
         0.00000E+00
         0.00000E+00
         0.00000E+00
         0.00000E+00
         0.00000E+00
         0.00000E+00
         0.00000E+00
         0.00000E+00
         0.00000E+00
         0.00000E+00
         0.00000E+00
         0.00000E+00
         0.00000E+00
         0.00000E+00
         0.00000E+00
         0.00000E+00
         0.00000E+00
         0.00000E+00
         0.00000E+00
         0.00000E+00
         0.00000E+00
         0.00000E+00
         0.00000E+00
         0.00000E+00
         0.00000E+00
         0.00000E+00
         0.00000E+00
         0.00000E+00
         0.00000E+00
         0.00000E+00
         0.00000E+00
         0.00000E+00
         0.00000E+00
         0.00000E+00
         0.00000E+00
         0.00000E+00
         0.00000E+00
         0.00000E+00
         0.00000E+00
         0.00000E+00
         0.00000E+00
         0.00000E+00
         0.00000E+00
         0.00000E+00
         0.00000E+00
         0.00000E+00
         0.00000E+00
         0.00000E+00
         0.00000E+00
         0.00000E+00
         0.00000E+00
         0.00000E+00
         0.00000E+00
         0.00000E+00
         0.00000E+00
         0.00000E+00
         0.00000E+00
         0.00000E+00
         0.00000E+00
         0.00000E+00
         0.00000E+00
         0.00000E+00
         0.00000E+00
         0.00000E+00
         0.00000E+00
         0.00000E+00
         0.00000E+00
         0.00000E+00
         0.00000E+00
         0.00000E+00
         0.00000E+00
         0.00000E+00
         0.00000E+00
         0.00000E+00
         0.00000E+00
         0.00000E+00
         0.00000E+00
         0.00000E+00
         0.00000E+00
         0.00000E+00
         0.00000E+00
         0.00000E+00
         0.00000E+00
         0.00000E+00
         0.00000E+00
         0.00000E+00
         0.00000E+00
         0.00000E+00
         0.00000E+00
         0.00000E+00
         0.00000E+00
         0.00000E+00
         0.00000E+00
         0.00000E+00
         0.00000E+00
         0.00000E+00
         0.00000E+00
         0.00000E+00
         0.00000E+00
         0.00000E+00
         0.00000E+00
         0.00000E+00
         0.00000E+00
         0.00000E+00
         0.00000E+00
         0.00000E+00
         0.00000E+00
         0.00000E+00
         0.00000E+00
         0.00000E+00
         0.00000E+00
         0.00000E+00
         0.00000E+00
         0.00000E+00
         0.00000E+00
         0.00000E+00
         0.00000E+00
         0.00000E+00
         0.00000E+00
         0.00000E+00
         0.00000E+00
         0.00000E+00
         0.00000E+00
         0.00000E+00
         0.00000E+00
         0.00000E+00
         0.00000E+00
         0.00000E+00
         0.00000E+00
         0.00000E+00
         0.00000E+00
         0.00000E+00
         0.00000E+00
         0.00000E+00
         0.00000E+00
         0.00000E+00
         0.00000E+00
         0.00000E+00
         0.00000E+00
         0.00000E+00
         0.00000E+00
         0.00000E+00
         0.00000E+00
         0.00000E+00
         0.00000E+00
         0.00000E+00
         0.00000E+00
         0.00000E+00
         0.00000E+00
         0.00000E+00
         0.00000E+00
         0.00000E+00
         0.00000E+00
         0.00000E+00
         0.00000E+00
         0.00000E+00
         0.00000E+00
         0.00000E+00
         0.00000E+00
         0.00000E+00
         0.00000E+00
         0.00000E+00
         0.00000E+00
         0.00000E+00
         0.00000E+00
         0.00000E+00
         0.00000E+00
         0.00000E+00
         0.00000E+00
         0.00000E+00
         0.00000E+00
         0.00000E+00
         0.00000E+00
         0.00000E+00
         0.00000E+00
         0.00000E+00
         0.00000E+00
         0.00000E+00
         0.00000E+00
         0.00000E+00
         0.00000E+00
         0.00000E+00
         0.00000E+00
         0.00000E+00
         0.00000E+00
         0.00000E+00
         0.00000E+00
         0.00000E+00
         0.00000E+00
         0.00000E+00
         0.00000E+00
         0.00000E+00
         0.00000E+00
         0.00000E+00
         0.00000E+00
         0.00000E+00
         0.00000E+00
         0.00000E+00
         0.00000E+00
         0.00000E+00
         0.00000E+00
         0.00000E+00
         0.00000E+00
         0.00000E+00
         0.00000E+00
         0.00000E+00
         0.00000E+00
         0.00000E+00
         0.00000E+00
         0.00000E+00
         0.00000E+00
         0.00000E+00
         0.00000E+00
         0.00000E+00
         0.00000E+00
         0.00000E+00
         0.00000E+00
         0.00000E+00
         0.00000E+00
         0.00000E+00
         0.00000E+00
         0.00000E+00
         0.00000E+00
         0.00000E+00
         0.00000E+00
         0.00000E+00
         0.00000E+00
         0.00000E+00
         0.00000E+00
         0.00000E+00
         0.00000E+00
         0.00000E+00
         0.00000E+00
         0.00000E+00
         0.00000E+00
         0.00000E+00
         0.00000E+00
         0.00000E+00
         0.00000E+00
         0.00000E+00
         0.00000E+00
         0.00000E+00
         0.00000E+00
         0.00000E+00
         0.00000E+00
         0.00000E+00
         0.00000E+00
         0.00000E+00
         0.00000E+00
         0.00000E+00
         0.00000E+00
         0.00000E+00
         0.00000E+00
         0.00000E+00
         0.00000E+00
         0.00000E+00
         0.00000E+00
         0.00000E+00
         0.00000E+00
         0.00000E+00
         0.00000E+00
         0.00000E+00
         0.00000E+00
         0.00000E+00
         0.00000E+00
         0.00000E+00
         0.00000E+00
         0.00000E+00
         0.00000E+00
         0.00000E+00
         0.00000E+00
         0.00000E+00
         0.00000E+00
         0.00000E+00
         0.00000E+00
         0.00000E+00
         0.00000E+00
         0.00000E+00
         0.00000E+00
         0.00000E+00
         0.00000E+00
         0.00000E+00
         0.00000E+00
         0.00000E+00
         0.00000E+00
         0.00000E+00
         0.00000E+00
         0.00000E+00
         0.00000E+00
         0.00000E+00
         0.00000E+00
         0.00000E+00
         0.00000E+00
         0.00000E+00
         0.00000E+00
         0.00000E+00
         0.00000E+00
         0.00000E+00
         0.00000E+00
         0.00000E+00
         0.00000E+00
         0.00000E+00
         0.00000E+00
         0.00000E+00
         0.00000E+00
         0.00000E+00
         0.00000E+00
         0.00000E+00
         0.00000E+00
         0.00000E+00
         0.00000E+00
         0.00000E+00
         0.00000E+00
         0.00000E+00
         0.00000E+00
         0.00000E+00
         0.00000E+00
         0.00000E+00
         0.00000E+00
         0.00000E+00
         0.00000E+00
         0.00000E+00
         0.00000E+00
         0.00000E+00
         0.00000E+00
         0.00000E+00
         0.00000E+00
         0.00000E+00
         0.00000E+00
         0.00000E+00
         0.00000E+00
         0.00000E+00
         0.00000E+00
         0.00000E+00
         0.00000E+00
         0.00000E+00
         0.00000E+00
         0.00000E+00
         0.00000E+00
         0.00000E+00
         0.00000E+00
         0.00000E+00
         0.00000E+00
         0.00000E+00
         0.00000E+00
         0.00000E+00
         0.00000E+00
         0.00000E+00
         0.00000E+00
         0.00000E+00
         0.00000E+00
         0.00000E+00
         0.00000E+00
         0.00000E+00
         0.00000E+00
         0.00000E+00
         0.00000E+00
         0.00000E+00
         0.00000E+00
         0.00000E+00
         0.00000E+00
         0.00000E+00
         0.00000E+00
         0.00000E+00
         0.00000E+00
         0.00000E+00
         0.00000E+00
         0.00000E+00
         0.00000E+00
         0.00000E+00
         0.00000E+00
         0.00000E+00
         0.00000E+00
         0.00000E+00
         0.00000E+00
         0.00000E+00
         0.00000E+00
         0.00000E+00
         0.00000E+00
         0.00000E+00
         0.00000E+00
         0.00000E+00
         0.00000E+00
         0.00000E+00
         0.00000E+00
         0.00000E+00
         0.00000E+00
         0.00000E+00
         0.00000E+00
         0.00000E+00
         0.00000E+00
         0.00000E+00
         0.00000E+00
         0.00000E+00
         0.00000E+00
         0.00000E+00
         0.00000E+00
         0.00000E+00
         0.00000E+00
         0.00000E+00
         0.00000E+00
         0.00000E+00
         0.00000E+00
         0.00000E+00
         0.00000E+00
         0.00000E+00
         0.00000E+00
         0.00000E+00
         0.00000E+00
         0.00000E+00
         0.00000E+00
         0.00000E+00
         0.00000E+00
         0.00000E+00
         0.00000E+00
         0.00000E+00
         0.00000E+00
         0.00000E+00
         0.00000E+00
         0.00000E+00
         0.00000E+00
         0.00000E+00
         0.00000E+00
         0.00000E+00
         0.00000E+00
         0.00000E+00
         0.00000E+00
         0.00000E+00
         0.00000E+00
         0.00000E+00
         0.00000E+00
         0.00000E+00
         0.00000E+00
         0.00000E+00
         0.00000E+00
         0.00000E+00
         0.00000E+00
         0.00000E+00
         0.00000E+00
         0.00000E+00
         0.00000E+00
         0.00000E+00
         0.00000E+00
         0.00000E+00
         0.00000E+00
         0.00000E+00
         0.00000E+00
         0.00000E+00
         0.00000E+00
         0.00000E+00
         0.00000E+00
         0.00000E+00
         0.00000E+00
         0.00000E+00
         0.00000E+00
         0.00000E+00
         0.00000E+00
         0.00000E+00
         0.00000E+00
         0.00000E+00
         0.00000E+00
         0.00000E+00
         0.00000E+00
         0.00000E+00
         0.00000E+00
         0.00000E+00
         0.00000E+00
         0.00000E+00
         0.00000E+00
         0.00000E+00
         0.00000E+00
         0.00000E+00
         0.00000E+00
         0.00000E+00
         0.00000E+00
         0.00000E+00
         0.00000E+00
         0.00000E+00
         0.00000E+00
         0.00000E+00
         0.00000E+00
         0.00000E+00
         0.00000E+00
         0.00000E+00
         0.00000E+00
         0.00000E+00
         0.00000E+00
         0.00000E+00
         0.00000E+00
         0.00000E+00
         0.00000E+00
         0.00000E+00
         0.00000E+00
         0.00000E+00
         0.00000E+00
         0.00000E+00
         0.00000E+00
         0.00000E+00
         0.00000E+00
         0.00000E+00
         0.00000E+00
         0.00000E+00
         0.00000E+00
         0.00000E+00
         0.00000E+00
         0.00000E+00
         0.00000E+00
         0.00000E+00
         0.00000E+00
         0.00000E+00
         0.00000E+00
         0.00000E+00
         0.00000E+00
         0.00000E+00
         0.00000E+00
         0.00000E+00
         0.00000E+00
         0.00000E+00
         0.00000E+00
         0.00000E+00
         0.00000E+00
         0.00000E+00
         0.00000E+00
         0.00000E+00
         0.00000E+00
         0.00000E+00
         0.00000E+00
         0.00000E+00
         0.00000E+00
         0.00000E+00
         0.00000E+00
         0.00000E+00
         0.00000E+00
         0.00000E+00
         0.00000E+00
         0.00000E+00
         0.00000E+00
         0.00000E+00
         0.00000E+00
         0.00000E+00
         0.00000E+00
         0.00000E+00
         0.00000E+00
         0.00000E+00
         0.00000E+00
         0.00000E+00
         0.00000E+00
         0.00000E+00
         0.00000E+00
         0.00000E+00
         0.00000E+00
         0.00000E+00
         0.00000E+00
         0.00000E+00
         0.00000E+00
         0.00000E+00
         0.00000E+00
         0.00000E+00
         0.00000E+00
         0.00000E+00
         0.00000E+00
         0.00000E+00
         0.00000E+00
         0.00000E+00
         0.00000E+00
         0.00000E+00
         0.00000E+00
         0.00000E+00
         0.00000E+00
         0.00000E+00
         0.00000E+00
         0.00000E+00
         0.00000E+00
         0.00000E+00
         0.00000E+00
         0.00000E+00
         0.00000E+00
         0.00000E+00
         0.00000E+00
         0.00000E+00
         0.00000E+00
         0.00000E+00
         0.00000E+00
         0.00000E+00
         0.00000E+00
         0.00000E+00
         0.00000E+00
         0.00000E+00
         0.00000E+00
         0.00000E+00
         0.00000E+00
         0.00000E+00
         0.00000E+00
         0.00000E+00
         0.00000E+00
         0.00000E+00
         0.00000E+00
         0.00000E+00
         0.00000E+00
         0.00000E+00
         0.00000E+00
         0.00000E+00
         0.00000E+00
         0.00000E+00
         0.00000E+00
         0.00000E+00
         0.00000E+00
         0.00000E+00
         0.00000E+00
         0.00000E+00
         0.00000E+00
         0.00000E+00
         0.00000E+00
         0.00000E+00
         0.00000E+00
         0.00000E+00
         0.00000E+00
         0.00000E+00
         0.00000E+00
         0.00000E+00
         0.00000E+00
         0.00000E+00
         0.00000E+00
         0.00000E+00
         0.00000E+00
         0.00000E+00
         0.00000E+00
         0.00000E+00
         0.00000E+00
         0.00000E+00
         0.00000E+00
         0.00000E+00
         0.00000E+00
         0.00000E+00
         0.00000E+00
         0.00000E+00
         0.00000E+00
         0.00000E+00
         0.00000E+00
         0.00000E+00
         0.00000E+00
         0.00000E+00
         0.00000E+00
         0.00000E+00
         0.00000E+00
         0.00000E+00
         0.00000E+00
         0.00000E+00
         0.00000E+00
         0.00000E+00
         0.00000E+00
         0.00000E+00
         0.00000E+00
         0.00000E+00
         0.00000E+00
         0.00000E+00
         0.00000E+00
         0.00000E+00
         0.00000E+00
         0.00000E+00
         0.00000E+00
         0.00000E+00
         0.00000E+00
         0.00000E+00
         0.00000E+00
         0.00000E+00
         0.00000E+00
         0.00000E+00
         0.00000E+00
         0.00000E+00
         0.00000E+00
         0.00000E+00
         0.00000E+00
         0.00000E+00
         0.00000E+00
         0.00000E+00
         0.00000E+00
         0.00000E+00
         0.00000E+00
         0.00000E+00
         0.00000E+00
         0.00000E+00
         0.00000E+00
         0.00000E+00
         0.00000E+00
         0.00000E+00
         0.00000E+00
         0.00000E+00
         0.00000E+00
         0.00000E+00
         0.00000E+00
         0.00000E+00
         0.00000E+00
         0.00000E+00
         0.00000E+00
         0.00000E+00
         0.00000E+00
         0.00000E+00
         0.00000E+00
         0.00000E+00
         0.00000E+00
         0.00000E+00
         0.00000E+00
         0.00000E+00
         0.00000E+00
         0.00000E+00
         0.00000E+00
         0.00000E+00
         0.00000E+00
         0.00000E+00
         0.00000E+00
         0.00000E+00
         0.00000E+00
         0.00000E+00
         0.00000E+00
         0.00000E+00
         0.00000E+00
         0.00000E+00
         0.00000E+00
         0.00000E+00
         0.00000E+00
         0.00000E+00
         0.00000E+00
         0.00000E+00
         0.00000E+00
         0.00000E+00
         0.00000E+00
         0.00000E+00
         0.00000E+00
         0.00000E+00
         0.00000E+00
         0.00000E+00
         0.00000E+00
         0.00000E+00
         0.00000E+00
         0.00000E+00
         0.00000E+00
         0.00000E+00
         0.00000E+00
         0.00000E+00
         0.00000E+00
         0.00000E+00
         0.00000E+00
         0.00000E+00
         0.00000E+00
         0.00000E+00
         0.00000E+00
         0.00000E+00
         0.00000E+00
         0.00000E+00
         0.00000E+00
         0.00000E+00
         0.00000E+00
         0.00000E+00
         0.00000E+00
         0.00000E+00
         0.00000E+00
         0.00000E+00
         0.00000E+00
         0.00000E+00
         0.00000E+00
         0.00000E+00
         0.00000E+00
         0.00000E+00
         0.00000E+00
         0.00000E+00
         0.00000E+00
         0.00000E+00
         0.00000E+00
         0.00000E+00
         0.00000E+00
         0.00000E+00
         0.00000E+00
         0.00000E+00
         0.00000E+00
         0.00000E+00
         0.00000E+00
         0.00000E+00
         0.00000E+00
         0.00000E+00
         0.00000E+00
         0.00000E+00
         0.00000E+00
         0.00000E+00
         0.00000E+00
         0.00000E+00
         0.00000E+00
         0.00000E+00
         0.00000E+00
         0.00000E+00
         0.00000E+00
         0.00000E+00
         0.00000E+00
         0.00000E+00
         0.00000E+00
         0.00000E+00
         0.00000E+00
         0.00000E+00
         0.00000E+00
         0.00000E+00
         0.00000E+00
         0.00000E+00
         0.00000E+00
         0.00000E+00
         0.00000E+00
         0.00000E+00
         0.00000E+00
         0.00000E+00
         0.00000E+00
         0.00000E+00
         0.00000E+00
         0.00000E+00
         0.00000E+00
         0.00000E+00
         0.00000E+00
         0.00000E+00
         0.00000E+00
         0.00000E+00
         0.00000E+00
         0.00000E+00
         0.00000E+00
         0.00000E+00
         0.00000E+00
         0.00000E+00
         0.00000E+00
         0.00000E+00
         0.00000E+00
         0.00000E+00
         0.00000E+00
         0.00000E+00
         0.00000E+00
         0.00000E+00
         0.00000E+00
         0.00000E+00
         0.00000E+00
         0.00000E+00
         0.00000E+00
         0.00000E+00
         0.00000E+00
         0.00000E+00
         0.00000E+00
         0.00000E+00
         0.00000E+00
         0.00000E+00
         0.00000E+00
         0.00000E+00
         0.00000E+00
         0.00000E+00
         0.00000E+00
         0.00000E+00
         0.00000E+00
         0.00000E+00
         0.00000E+00
         0.00000E+00
         0.00000E+00
         0.00000E+00
         0.00000E+00
         0.00000E+00
         0.00000E+00
         0.00000E+00
         0.00000E+00
         0.00000E+00
         0.00000E+00
         0.00000E+00
         0.00000E+00
         0.00000E+00
         0.00000E+00
         0.00000E+00
         0.00000E+00
         0.00000E+00
         0.00000E+00
         0.00000E+00
         0.00000E+00
         0.00000E+00
         0.00000E+00
         0.00000E+00
         0.00000E+00
         0.00000E+00
         0.00000E+00
         0.00000E+00
         0.00000E+00
         0.00000E+00
         0.00000E+00
         0.00000E+00
         0.00000E+00
         0.00000E+00
         0.00000E+00
         0.00000E+00
         0.00000E+00
         0.00000E+00
         0.00000E+00
         0.00000E+00
         0.00000E+00
         0.00000E+00
         0.00000E+00
         0.00000E+00
         0.00000E+00
         0.00000E+00
         0.00000E+00
         0.00000E+00
         0.00000E+00
         0.00000E+00
         0.00000E+00
         0.00000E+00
         0.00000E+00
         0.00000E+00
         0.00000E+00
         0.00000E+00
         0.00000E+00
         0.00000E+00
         0.00000E+00
         0.00000E+00
         0.00000E+00
         0.00000E+00
         0.00000E+00
         0.00000E+00
         0.00000E+00
         0.00000E+00
         0.00000E+00
         0.00000E+00
         0.00000E+00
         0.00000E+00
         0.00000E+00
         0.00000E+00
         0.00000E+00
         0.00000E+00
         0.00000E+00
         0.00000E+00
         0.00000E+00
         0.00000E+00
         0.00000E+00
         0.00000E+00
         0.00000E+00
         0.00000E+00
         0.00000E+00
         0.00000E+00
         0.00000E+00
         0.00000E+00
         0.00000E+00
         0.00000E+00
         0.00000E+00
         0.00000E+00
         0.00000E+00
         0.00000E+00
         0.00000E+00
         0.00000E+00
         0.00000E+00
         0.00000E+00
         0.00000E+00
         0.00000E+00
         0.00000E+00
         0.00000E+00
         0.00000E+00
         0.00000E+00
         0.00000E+00
         0.00000E+00
         0.00000E+00
         0.00000E+00
         0.00000E+00
         0.00000E+00
         0.00000E+00
         0.00000E+00
         0.00000E+00
         0.00000E+00
         0.00000E+00
         0.00000E+00
         0.00000E+00
         0.00000E+00
         0.00000E+00
         0.00000E+00
         0.00000E+00
         0.00000E+00
         0.00000E+00
         0.00000E+00
         0.00000E+00
         0.00000E+00
         0.00000E+00
         0.00000E+00
         0.00000E+00
         0.00000E+00
         0.00000E+00
         0.00000E+00
         0.00000E+00
         0.00000E+00
         0.00000E+00
         0.00000E+00
         0.00000E+00
         0.00000E+00
         0.00000E+00
         0.00000E+00
         0.00000E+00
         0.00000E+00
         0.00000E+00
         0.00000E+00
         0.00000E+00
         0.00000E+00
         0.00000E+00
         0.00000E+00
         0.00000E+00
         0.00000E+00
         0.00000E+00
         0.00000E+00
         0.00000E+00
         0.00000E+00
         0.00000E+00
         0.00000E+00
         0.00000E+00
         0.00000E+00
         0.00000E+00
         0.00000E+00
         0.00000E+00
         0.00000E+00
         0.00000E+00
         0.00000E+00
         0.00000E+00
         0.00000E+00
         0.00000E+00
         0.00000E+00
         0.00000E+00
         0.00000E+00
         0.00000E+00
         0.00000E+00
         0.00000E+00
         0.00000E+00
         0.00000E+00
         0.00000E+00
         0.00000E+00
         0.00000E+00
         0.00000E+00
         0.00000E+00
         0.00000E+00
         0.00000E+00
         0.00000E+00
         0.00000E+00
         0.00000E+00
         0.00000E+00
         0.00000E+00
         0.00000E+00
         0.00000E+00
         0.00000E+00
         0.00000E+00
         0.00000E+00
         0.00000E+00
         0.00000E+00
         0.00000E+00
         0.00000E+00
         0.00000E+00
         0.00000E+00
         0.00000E+00
         0.00000E+00
         0.00000E+00
         0.00000E+00
         0.00000E+00
         0.00000E+00
         0.00000E+00
         0.00000E+00
         0.00000E+00
         0.00000E+00
         0.00000E+00
         0.00000E+00
         0.00000E+00
         0.00000E+00
         0.00000E+00
         0.00000E+00
         0.00000E+00
         0.00000E+00
         0.00000E+00
         0.00000E+00
         0.00000E+00
         0.00000E+00
         0.00000E+00
         0.00000E+00
         0.00000E+00
         0.00000E+00
         0.00000E+00
         0.00000E+00
         0.00000E+00
         0.00000E+00
         0.00000E+00
         0.00000E+00
         0.00000E+00
         0.00000E+00
         0.00000E+00
         0.00000E+00
         0.00000E+00
         0.00000E+00
         0.00000E+00
         0.00000E+00
         0.00000E+00
         0.00000E+00
         0.00000E+00
         0.00000E+00
         0.00000E+00
         0.00000E+00
         0.00000E+00
         0.00000E+00
         0.00000E+00
         0.00000E+00
         0.00000E+00
         0.00000E+00
         0.00000E+00
         0.00000E+00
         0.00000E+00
         0.00000E+00
         0.00000E+00
         0.00000E+00
         0.00000E+00
         0.00000E+00
         0.00000E+00
         0.00000E+00
         0.00000E+00
         0.00000E+00
         0.00000E+00
         0.00000E+00
         0.00000E+00
         0.00000E+00
         0.00000E+00
         0.00000E+00
         0.00000E+00
         0.00000E+00
         0.00000E+00
         0.00000E+00
         0.00000E+00
         0.00000E+00
         0.00000E+00
         0.00000E+00
         0.00000E+00
         0.00000E+00
         0.00000E+00
         0.00000E+00
         0.00000E+00
         0.00000E+00
         0.00000E+00
         0.00000E+00
         0.00000E+00
         0.00000E+00
         0.00000E+00
         0.00000E+00
         0.00000E+00
         0.00000E+00
         0.00000E+00
         0.00000E+00
         0.00000E+00
         0.00000E+00
         0.00000E+00
         0.00000E+00
         0.00000E+00
         0.00000E+00
         0.00000E+00
         0.00000E+00
         0.00000E+00
         0.00000E+00
         0.00000E+00
         0.00000E+00
         0.00000E+00
         0.00000E+00
         0.00000E+00
         0.00000E+00
         0.00000E+00
         0.00000E+00
         0.00000E+00
         0.00000E+00
         0.00000E+00
         0.00000E+00
         0.00000E+00
         0.00000E+00
         0.00000E+00
         0.00000E+00
         0.00000E+00
         0.00000E+00
         0.00000E+00
         0.00000E+00
         0.00000E+00
         0.00000E+00
         0.00000E+00
         0.00000E+00
         0.00000E+00
         0.00000E+00
         0.00000E+00
         0.00000E+00
         0.00000E+00
         0.00000E+00
         0.00000E+00
         0.00000E+00
         0.00000E+00
         0.00000E+00
         0.00000E+00
         0.00000E+00
         0.00000E+00
         0.00000E+00
         0.00000E+00
         0.00000E+00
         0.00000E+00
         0.00000E+00
         0.00000E+00
         0.00000E+00
         0.00000E+00
         0.00000E+00
         0.00000E+00
         0.00000E+00
         0.00000E+00
         0.00000E+00
         0.00000E+00
         0.00000E+00
         0.00000E+00
         0.00000E+00
         0.00000E+00
         0.00000E+00
         0.00000E+00
         0.00000E+00
         0.00000E+00
         0.00000E+00
         0.00000E+00
         0.00000E+00
         0.00000E+00
         0.00000E+00
         0.00000E+00
         0.00000E+00
         0.00000E+00
         0.00000E+00
         0.00000E+00
         0.00000E+00
         0.00000E+00
         0.00000E+00
         0.00000E+00
         0.00000E+00
         0.00000E+00
         0.00000E+00
         0.00000E+00
         0.00000E+00
         0.00000E+00
         0.00000E+00
         0.00000E+00
         0.00000E+00
         0.00000E+00
         0.00000E+00
         0.00000E+00
         0.00000E+00
         0.00000E+00
         0.00000E+00
         0.00000E+00
         0.00000E+00
         0.00000E+00
         0.00000E+00
         0.00000E+00
         0.00000E+00
         0.00000E+00
         0.00000E+00
         0.00000E+00
         0.00000E+00
         0.00000E+00
         0.00000E+00
         0.00000E+00
         0.00000E+00
         0.00000E+00
         0.00000E+00
         0.00000E+00
         0.00000E+00
         0.00000E+00
         0.00000E+00
         0.00000E+00
         0.00000E+00
         0.00000E+00
         0.00000E+00
         0.00000E+00
         0.00000E+00
         0.00000E+00
         0.00000E+00
         0.00000E+00
         0.00000E+00
         0.00000E+00
         0.00000E+00
         0.00000E+00
         0.00000E+00
         0.00000E+00
         0.00000E+00
         0.00000E+00
         0.00000E+00
         0.00000E+00
         0.00000E+00
         0.00000E+00
         0.00000E+00
         0.00000E+00
         0.00000E+00
         0.00000E+00
         0.00000E+00
         0.00000E+00
         0.00000E+00
         0.00000E+00
         0.00000E+00
         0.00000E+00
         0.00000E+00
         0.00000E+00
         0.00000E+00
         0.00000E+00
         0.00000E+00
         0.00000E+00
         0.00000E+00
         0.00000E+00
         0.00000E+00
         0.00000E+00
         0.00000E+00
         0.00000E+00
         0.00000E+00
         0.00000E+00
         0.00000E+00
         0.00000E+00
         0.00000E+00
         0.00000E+00
         0.00000E+00
         0.00000E+00
         0.00000E+00
         0.00000E+00
         0.00000E+00
         0.00000E+00
         0.00000E+00
         0.00000E+00
         0.00000E+00
         0.00000E+00
         0.00000E+00
         0.00000E+00
         0.00000E+00
         0.00000E+00
         0.00000E+00
         0.00000E+00
         0.00000E+00
         0.00000E+00
         0.00000E+00
         0.00000E+00
         0.00000E+00
         0.00000E+00
         0.00000E+00
         0.00000E+00
         0.00000E+00
         0.00000E+00
         0.00000E+00
         0.00000E+00
         0.00000E+00
         0.00000E+00
         0.00000E+00
         0.00000E+00
         0.00000E+00
         0.00000E+00
         0.00000E+00
         0.00000E+00
         0.00000E+00
         0.00000E+00
         0.00000E+00
         0.00000E+00
         0.00000E+00
         0.00000E+00
         0.00000E+00
         0.00000E+00
         0.00000E+00
         0.00000E+00
         0.00000E+00
         0.00000E+00
         0.00000E+00
         0.00000E+00
         0.00000E+00
         0.00000E+00
         0.00000E+00
         0.00000E+00
         0.00000E+00
         0.00000E+00
         0.00000E+00
         0.00000E+00
         0.00000E+00
         0.00000E+00
         0.00000E+00
         0.00000E+00
         0.00000E+00
         0.00000E+00
         0.00000E+00
         0.00000E+00
         0.00000E+00
         0.00000E+00
         0.00000E+00
         0.00000E+00
         0.00000E+00
         0.00000E+00
         0.00000E+00
         0.00000E+00
         0.00000E+00
         0.00000E+00
         0.00000E+00
         0.00000E+00
         0.00000E+00
         0.00000E+00
         0.00000E+00
         0.00000E+00
         0.00000E+00
         0.00000E+00
         0.00000E+00
         0.00000E+00
         0.00000E+00
         0.00000E+00
         0.00000E+00
         0.00000E+00
         0.00000E+00
         0.00000E+00
         0.00000E+00
         0.00000E+00
         0.00000E+00
         0.00000E+00
         0.00000E+00
         0.00000E+00
         0.00000E+00
         0.00000E+00
         0.00000E+00
         0.00000E+00
         0.00000E+00
         0.00000E+00
         0.00000E+00
         0.00000E+00
         0.00000E+00
         0.00000E+00
         0.00000E+00
         0.00000E+00
         0.00000E+00
         0.00000E+00
         0.00000E+00
         0.00000E+00
         0.00000E+00
         0.00000E+00
         0.00000E+00
         0.00000E+00
         0.00000E+00
         0.00000E+00
         0.00000E+00
         0.00000E+00
         0.00000E+00
         0.00000E+00
         0.00000E+00
         0.00000E+00
         0.00000E+00
         0.00000E+00
         0.00000E+00
         0.00000E+00
         0.00000E+00
         0.00000E+00
         0.00000E+00
         0.00000E+00
         0.00000E+00
         0.00000E+00
         0.00000E+00
         0.00000E+00
         0.00000E+00
         0.00000E+00
         0.00000E+00
         0.00000E+00
         0.00000E+00
         0.00000E+00
         0.00000E+00
         0.00000E+00
         0.00000E+00
         0.00000E+00
         0.00000E+00
         0.00000E+00
         0.00000E+00
         0.00000E+00
         0.00000E+00
         0.00000E+00
         0.00000E+00
         0.00000E+00
         0.00000E+00
         0.00000E+00
         0.00000E+00
         0.00000E+00
         0.00000E+00
         0.00000E+00
         0.00000E+00
         0.00000E+00
         0.00000E+00
         0.00000E+00
         0.00000E+00
         0.00000E+00
         0.00000E+00
         0.00000E+00
         0.00000E+00
         0.00000E+00
         0.00000E+00
         0.00000E+00
         0.00000E+00
         0.00000E+00
         0.00000E+00
         0.00000E+00
         0.00000E+00
         0.00000E+00
         0.00000E+00
         0.00000E+00
         0.00000E+00
         0.00000E+00
         0.00000E+00
         0.00000E+00
         0.00000E+00
         0.00000E+00
         0.00000E+00
         0.00000E+00
         0.00000E+00
         0.00000E+00
         0.00000E+00
         0.00000E+00
         0.00000E+00
         0.00000E+00
         0.00000E+00
         0.00000E+00
         0.00000E+00
         0.00000E+00
         0.00000E+00
         0.00000E+00
         0.00000E+00
         0.00000E+00
         0.00000E+00
         0.00000E+00
         0.00000E+00
         0.00000E+00
         0.00000E+00
         0.00000E+00
         0.00000E+00
         0.00000E+00
         0.00000E+00
         0.00000E+00
         0.00000E+00
         0.00000E+00
         0.00000E+00
         0.00000E+00
         0.00000E+00
         0.00000E+00
         0.00000E+00
         0.00000E+00
         0.00000E+00
         0.00000E+00
         0.00000E+00
         0.00000E+00
         0.00000E+00
         0.00000E+00
         0.00000E+00
         0.00000E+00
         0.00000E+00
         0.00000E+00
         0.00000E+00
         0.00000E+00
         0.00000E+00
         0.00000E+00
         0.00000E+00
         0.00000E+00
         0.00000E+00
         0.00000E+00
         0.00000E+00
         0.00000E+00
         0.00000E+00
         0.00000E+00
         0.00000E+00
         0.00000E+00
         0.00000E+00
         0.00000E+00
         0.00000E+00
         0.00000E+00
         0.00000E+00
         0.00000E+00
         0.00000E+00
         0.00000E+00
         0.00000E+00
         0.00000E+00
         0.00000E+00
         0.00000E+00
         0.00000E+00
         0.00000E+00
         0.00000E+00
         0.00000E+00
         0.00000E+00
         0.00000E+00
         0.00000E+00
         0.00000E+00
         0.00000E+00
         0.00000E+00
         0.00000E+00
         0.00000E+00
         0.00000E+00
         0.00000E+00
         0.00000E+00
         0.00000E+00
         0.00000E+00
         0.00000E+00
         0.00000E+00
         0.00000E+00
         0.00000E+00
         0.00000E+00
         0.00000E+00
         0.00000E+00
         0.00000E+00
         0.00000E+00
         0.00000E+00
         0.00000E+00
         0.00000E+00
         0.00000E+00
         0.00000E+00
         0.00000E+00
         0.00000E+00
         0.00000E+00
         0.00000E+00
         0.00000E+00
         0.00000E+00
         0.00000E+00
         0.00000E+00
         0.00000E+00
         0.00000E+00
         0.00000E+00
         0.00000E+00
         0.00000E+00
         0.00000E+00
         0.00000E+00
         0.00000E+00
         0.00000E+00
         0.00000E+00
         0.00000E+00
         0.00000E+00
         0.00000E+00
         0.00000E+00
         0.00000E+00
         0.00000E+00
         0.00000E+00
         0.00000E+00
         0.00000E+00
         0.00000E+00
         0.00000E+00
         0.00000E+00
         0.00000E+00
         0.00000E+00
         0.00000E+00
         0.00000E+00
         0.00000E+00
         0.00000E+00
         0.00000E+00
         0.00000E+00
         0.00000E+00
         0.00000E+00
         0.00000E+00
         0.00000E+00
         0.00000E+00
         0.00000E+00
         0.00000E+00
         0.00000E+00
         0.00000E+00
         0.00000E+00
         0.00000E+00
         0.00000E+00
         0.00000E+00
         0.00000E+00
         0.00000E+00
         0.00000E+00
         0.00000E+00
         0.00000E+00
         0.00000E+00
         0.00000E+00
         0.00000E+00
         0.00000E+00
         0.00000E+00
         0.00000E+00
         0.00000E+00
         0.00000E+00
         0.00000E+00
         0.00000E+00
         0.00000E+00
         0.00000E+00
         0.00000E+00
         0.00000E+00
         0.00000E+00
         0.00000E+00
         0.00000E+00
         0.00000E+00
         0.00000E+00
         0.00000E+00
         0.00000E+00
         0.00000E+00
         0.00000E+00
         0.00000E+00
         0.00000E+00
         0.00000E+00
         0.00000E+00
         0.00000E+00
         0.00000E+00
         0.00000E+00
  
SCALARS                         fint_z  double 1
LOOKUP_TABLE default
         0.00000E+00
         0.00000E+00
         0.00000E+00
         0.00000E+00
         0.00000E+00
         0.00000E+00
         0.00000E+00
         0.00000E+00
         0.00000E+00
         0.00000E+00
         0.00000E+00
         0.00000E+00
         0.00000E+00
         0.00000E+00
         0.00000E+00
         0.00000E+00
         0.00000E+00
         0.00000E+00
         0.00000E+00
         0.00000E+00
         0.00000E+00
         0.00000E+00
         0.00000E+00
         0.00000E+00
         0.00000E+00
         0.00000E+00
         0.00000E+00
         0.00000E+00
         0.00000E+00
         0.00000E+00
         0.00000E+00
         0.00000E+00
         0.00000E+00
         0.00000E+00
         0.00000E+00
         0.00000E+00
         0.00000E+00
         0.00000E+00
         0.00000E+00
         0.00000E+00
         0.00000E+00
         0.00000E+00
         0.00000E+00
         0.00000E+00
         0.00000E+00
         0.00000E+00
         0.00000E+00
         0.00000E+00
         0.00000E+00
         0.00000E+00
         0.00000E+00
         0.00000E+00
         0.00000E+00
         0.00000E+00
         0.00000E+00
         0.00000E+00
         0.00000E+00
         0.00000E+00
         0.00000E+00
         0.00000E+00
         0.00000E+00
         0.00000E+00
         0.00000E+00
         0.00000E+00
         0.00000E+00
         0.00000E+00
         0.00000E+00
         0.00000E+00
         0.00000E+00
         0.00000E+00
         0.00000E+00
         0.00000E+00
         0.00000E+00
         0.00000E+00
         0.00000E+00
         0.00000E+00
         0.00000E+00
         0.00000E+00
         0.00000E+00
         0.00000E+00
         0.00000E+00
         0.00000E+00
         0.00000E+00
         0.00000E+00
         0.00000E+00
         0.00000E+00
         0.00000E+00
         0.00000E+00
         0.00000E+00
         0.00000E+00
         0.00000E+00
         0.00000E+00
         0.00000E+00
         0.00000E+00
         0.00000E+00
         0.00000E+00
         0.00000E+00
         0.00000E+00
         0.00000E+00
         0.00000E+00
         0.00000E+00
         0.00000E+00
         0.00000E+00
         0.00000E+00
         0.00000E+00
         0.00000E+00
         0.00000E+00
         0.00000E+00
         0.00000E+00
         0.00000E+00
         0.00000E+00
         0.00000E+00
         0.00000E+00
         0.00000E+00
         0.00000E+00
         0.00000E+00
         0.00000E+00
         0.00000E+00
         0.00000E+00
         0.00000E+00
         0.00000E+00
         0.00000E+00
         0.00000E+00
         0.00000E+00
         0.00000E+00
         0.00000E+00
         0.00000E+00
         0.00000E+00
         0.00000E+00
         0.00000E+00
         0.00000E+00
         0.00000E+00
         0.00000E+00
         0.00000E+00
         0.00000E+00
         0.00000E+00
         0.00000E+00
         0.00000E+00
         0.00000E+00
         0.00000E+00
         0.00000E+00
         0.00000E+00
         0.00000E+00
         0.00000E+00
         0.00000E+00
         0.00000E+00
         0.00000E+00
         0.00000E+00
         0.00000E+00
         0.00000E+00
         0.00000E+00
         0.00000E+00
         0.00000E+00
         0.00000E+00
         0.00000E+00
         0.00000E+00
         0.00000E+00
         0.00000E+00
         0.00000E+00
         0.00000E+00
         0.00000E+00
         0.00000E+00
         0.00000E+00
         0.00000E+00
         0.00000E+00
         0.00000E+00
         0.00000E+00
         0.00000E+00
         0.00000E+00
         0.00000E+00
         0.00000E+00
         0.00000E+00
         0.00000E+00
         0.00000E+00
         0.00000E+00
         0.00000E+00
         0.00000E+00
         0.00000E+00
         0.00000E+00
         0.00000E+00
         0.00000E+00
         0.00000E+00
         0.00000E+00
         0.00000E+00
         0.00000E+00
         0.00000E+00
         0.00000E+00
         0.00000E+00
         0.00000E+00
         0.00000E+00
         0.00000E+00
         0.00000E+00
         0.00000E+00
         0.00000E+00
         0.00000E+00
         0.00000E+00
         0.00000E+00
         0.00000E+00
         0.00000E+00
         0.00000E+00
         0.00000E+00
         0.00000E+00
         0.00000E+00
         0.00000E+00
         0.00000E+00
         0.00000E+00
         0.00000E+00
         0.00000E+00
         0.00000E+00
         0.00000E+00
         0.00000E+00
         0.00000E+00
         0.00000E+00
         0.00000E+00
         0.00000E+00
         0.00000E+00
         0.00000E+00
         0.00000E+00
         0.00000E+00
         0.00000E+00
         0.00000E+00
         0.00000E+00
         0.00000E+00
         0.00000E+00
         0.00000E+00
         0.00000E+00
         0.00000E+00
         0.00000E+00
         0.00000E+00
         0.00000E+00
         0.00000E+00
         0.00000E+00
         0.00000E+00
         0.00000E+00
         0.00000E+00
         0.00000E+00
         0.00000E+00
         0.00000E+00
         0.00000E+00
         0.00000E+00
         0.00000E+00
         0.00000E+00
         0.00000E+00
         0.00000E+00
         0.00000E+00
         0.00000E+00
         0.00000E+00
         0.00000E+00
         0.00000E+00
         0.00000E+00
         0.00000E+00
         0.00000E+00
         0.00000E+00
         0.00000E+00
         0.00000E+00
         0.00000E+00
         0.00000E+00
         0.00000E+00
         0.00000E+00
         0.00000E+00
         0.00000E+00
         0.00000E+00
         0.00000E+00
         0.00000E+00
         0.00000E+00
         0.00000E+00
         0.00000E+00
         0.00000E+00
         0.00000E+00
         0.00000E+00
         0.00000E+00
         0.00000E+00
         0.00000E+00
         0.00000E+00
         0.00000E+00
         0.00000E+00
         0.00000E+00
         0.00000E+00
         0.00000E+00
         0.00000E+00
         0.00000E+00
         0.00000E+00
         0.00000E+00
         0.00000E+00
         0.00000E+00
         0.00000E+00
         0.00000E+00
         0.00000E+00
         0.00000E+00
         0.00000E+00
         0.00000E+00
         0.00000E+00
         0.00000E+00
         0.00000E+00
         0.00000E+00
         0.00000E+00
         0.00000E+00
         0.00000E+00
         0.00000E+00
         0.00000E+00
         0.00000E+00
         0.00000E+00
         0.00000E+00
         0.00000E+00
         0.00000E+00
         0.00000E+00
         0.00000E+00
         0.00000E+00
         0.00000E+00
         0.00000E+00
         0.00000E+00
         0.00000E+00
         0.00000E+00
         0.00000E+00
         0.00000E+00
         0.00000E+00
         0.00000E+00
         0.00000E+00
         0.00000E+00
         0.00000E+00
         0.00000E+00
         0.00000E+00
         0.00000E+00
         0.00000E+00
         0.00000E+00
         0.00000E+00
         0.00000E+00
         0.00000E+00
         0.00000E+00
         0.00000E+00
         0.00000E+00
         0.00000E+00
         0.00000E+00
         0.00000E+00
         0.00000E+00
         0.00000E+00
         0.00000E+00
         0.00000E+00
         0.00000E+00
         0.00000E+00
         0.00000E+00
         0.00000E+00
         0.00000E+00
         0.00000E+00
         0.00000E+00
         0.00000E+00
         0.00000E+00
         0.00000E+00
         0.00000E+00
         0.00000E+00
         0.00000E+00
         0.00000E+00
         0.00000E+00
         0.00000E+00
         0.00000E+00
         0.00000E+00
         0.00000E+00
         0.00000E+00
         0.00000E+00
         0.00000E+00
         0.00000E+00
         0.00000E+00
         0.00000E+00
         0.00000E+00
         0.00000E+00
         0.00000E+00
         0.00000E+00
         0.00000E+00
         0.00000E+00
         0.00000E+00
         0.00000E+00
         0.00000E+00
         0.00000E+00
         0.00000E+00
         0.00000E+00
         0.00000E+00
         0.00000E+00
         0.00000E+00
         0.00000E+00
         0.00000E+00
         0.00000E+00
         0.00000E+00
         0.00000E+00
         0.00000E+00
         0.00000E+00
         0.00000E+00
         0.00000E+00
         0.00000E+00
         0.00000E+00
         0.00000E+00
         0.00000E+00
         0.00000E+00
         0.00000E+00
         0.00000E+00
         0.00000E+00
         0.00000E+00
         0.00000E+00
         0.00000E+00
         0.00000E+00
         0.00000E+00
         0.00000E+00
         0.00000E+00
         0.00000E+00
         0.00000E+00
         0.00000E+00
         0.00000E+00
         0.00000E+00
         0.00000E+00
         0.00000E+00
         0.00000E+00
         0.00000E+00
         0.00000E+00
         0.00000E+00
         0.00000E+00
         0.00000E+00
         0.00000E+00
         0.00000E+00
         0.00000E+00
         0.00000E+00
         0.00000E+00
         0.00000E+00
         0.00000E+00
         0.00000E+00
         0.00000E+00
         0.00000E+00
         0.00000E+00
         0.00000E+00
         0.00000E+00
         0.00000E+00
         0.00000E+00
         0.00000E+00
         0.00000E+00
         0.00000E+00
         0.00000E+00
         0.00000E+00
         0.00000E+00
         0.00000E+00
         0.00000E+00
         0.00000E+00
         0.00000E+00
         0.00000E+00
         0.00000E+00
         0.00000E+00
         0.00000E+00
         0.00000E+00
         0.00000E+00
         0.00000E+00
         0.00000E+00
         0.00000E+00
         0.00000E+00
         0.00000E+00
         0.00000E+00
         0.00000E+00
         0.00000E+00
         0.00000E+00
         0.00000E+00
         0.00000E+00
         0.00000E+00
         0.00000E+00
         0.00000E+00
         0.00000E+00
         0.00000E+00
         0.00000E+00
         0.00000E+00
         0.00000E+00
         0.00000E+00
         0.00000E+00
         0.00000E+00
         0.00000E+00
         0.00000E+00
         0.00000E+00
         0.00000E+00
         0.00000E+00
         0.00000E+00
         0.00000E+00
         0.00000E+00
         0.00000E+00
         0.00000E+00
         0.00000E+00
         0.00000E+00
         0.00000E+00
         0.00000E+00
         0.00000E+00
         0.00000E+00
         0.00000E+00
         0.00000E+00
         0.00000E+00
         0.00000E+00
         0.00000E+00
         0.00000E+00
         0.00000E+00
         0.00000E+00
         0.00000E+00
         0.00000E+00
         0.00000E+00
         0.00000E+00
         0.00000E+00
         0.00000E+00
         0.00000E+00
         0.00000E+00
         0.00000E+00
         0.00000E+00
         0.00000E+00
         0.00000E+00
         0.00000E+00
         0.00000E+00
         0.00000E+00
         0.00000E+00
         0.00000E+00
         0.00000E+00
         0.00000E+00
         0.00000E+00
         0.00000E+00
         0.00000E+00
         0.00000E+00
         0.00000E+00
         0.00000E+00
         0.00000E+00
         0.00000E+00
         0.00000E+00
         0.00000E+00
         0.00000E+00
         0.00000E+00
         0.00000E+00
         0.00000E+00
         0.00000E+00
         0.00000E+00
         0.00000E+00
         0.00000E+00
         0.00000E+00
         0.00000E+00
         0.00000E+00
         0.00000E+00
         0.00000E+00
         0.00000E+00
         0.00000E+00
         0.00000E+00
         0.00000E+00
         0.00000E+00
         0.00000E+00
         0.00000E+00
         0.00000E+00
         0.00000E+00
         0.00000E+00
         0.00000E+00
         0.00000E+00
         0.00000E+00
         0.00000E+00
         0.00000E+00
         0.00000E+00
         0.00000E+00
         0.00000E+00
         0.00000E+00
         0.00000E+00
         0.00000E+00
         0.00000E+00
         0.00000E+00
         0.00000E+00
         0.00000E+00
         0.00000E+00
         0.00000E+00
         0.00000E+00
         0.00000E+00
         0.00000E+00
         0.00000E+00
         0.00000E+00
         0.00000E+00
         0.00000E+00
         0.00000E+00
         0.00000E+00
         0.00000E+00
         0.00000E+00
         0.00000E+00
         0.00000E+00
         0.00000E+00
         0.00000E+00
         0.00000E+00
         0.00000E+00
         0.00000E+00
         0.00000E+00
         0.00000E+00
         0.00000E+00
         0.00000E+00
         0.00000E+00
         0.00000E+00
         0.00000E+00
         0.00000E+00
         0.00000E+00
         0.00000E+00
         0.00000E+00
         0.00000E+00
         0.00000E+00
         0.00000E+00
         0.00000E+00
         0.00000E+00
         0.00000E+00
         0.00000E+00
         0.00000E+00
         0.00000E+00
         0.00000E+00
         0.00000E+00
         0.00000E+00
         0.00000E+00
         0.00000E+00
         0.00000E+00
         0.00000E+00
         0.00000E+00
         0.00000E+00
         0.00000E+00
         0.00000E+00
         0.00000E+00
         0.00000E+00
         0.00000E+00
         0.00000E+00
         0.00000E+00
         0.00000E+00
         0.00000E+00
         0.00000E+00
         0.00000E+00
         0.00000E+00
         0.00000E+00
         0.00000E+00
         0.00000E+00
         0.00000E+00
         0.00000E+00
         0.00000E+00
         0.00000E+00
         0.00000E+00
         0.00000E+00
         0.00000E+00
         0.00000E+00
         0.00000E+00
         0.00000E+00
         0.00000E+00
         0.00000E+00
         0.00000E+00
         0.00000E+00
         0.00000E+00
         0.00000E+00
         0.00000E+00
         0.00000E+00
         0.00000E+00
         0.00000E+00
         0.00000E+00
         0.00000E+00
         0.00000E+00
         0.00000E+00
         0.00000E+00
         0.00000E+00
         0.00000E+00
         0.00000E+00
         0.00000E+00
         0.00000E+00
         0.00000E+00
         0.00000E+00
         0.00000E+00
         0.00000E+00
         0.00000E+00
         0.00000E+00
         0.00000E+00
         0.00000E+00
         0.00000E+00
         0.00000E+00
         0.00000E+00
         0.00000E+00
         0.00000E+00
         0.00000E+00
         0.00000E+00
         0.00000E+00
         0.00000E+00
         0.00000E+00
         0.00000E+00
         0.00000E+00
         0.00000E+00
         0.00000E+00
         0.00000E+00
         0.00000E+00
         0.00000E+00
         0.00000E+00
         0.00000E+00
         0.00000E+00
         0.00000E+00
         0.00000E+00
         0.00000E+00
         0.00000E+00
         0.00000E+00
         0.00000E+00
         0.00000E+00
         0.00000E+00
         0.00000E+00
         0.00000E+00
         0.00000E+00
         0.00000E+00
         0.00000E+00
         0.00000E+00
         0.00000E+00
         0.00000E+00
         0.00000E+00
         0.00000E+00
         0.00000E+00
         0.00000E+00
         0.00000E+00
         0.00000E+00
         0.00000E+00
         0.00000E+00
         0.00000E+00
         0.00000E+00
         0.00000E+00
         0.00000E+00
         0.00000E+00
         0.00000E+00
         0.00000E+00
         0.00000E+00
         0.00000E+00
         0.00000E+00
         0.00000E+00
         0.00000E+00
         0.00000E+00
         0.00000E+00
         0.00000E+00
         0.00000E+00
         0.00000E+00
         0.00000E+00
         0.00000E+00
         0.00000E+00
         0.00000E+00
         0.00000E+00
         0.00000E+00
         0.00000E+00
         0.00000E+00
         0.00000E+00
         0.00000E+00
         0.00000E+00
         0.00000E+00
         0.00000E+00
         0.00000E+00
         0.00000E+00
         0.00000E+00
         0.00000E+00
         0.00000E+00
         0.00000E+00
         0.00000E+00
         0.00000E+00
         0.00000E+00
         0.00000E+00
         0.00000E+00
         0.00000E+00
         0.00000E+00
         0.00000E+00
         0.00000E+00
         0.00000E+00
         0.00000E+00
         0.00000E+00
         0.00000E+00
         0.00000E+00
         0.00000E+00
         0.00000E+00
         0.00000E+00
         0.00000E+00
         0.00000E+00
         0.00000E+00
         0.00000E+00
         0.00000E+00
         0.00000E+00
         0.00000E+00
         0.00000E+00
         0.00000E+00
         0.00000E+00
         0.00000E+00
         0.00000E+00
         0.00000E+00
         0.00000E+00
         0.00000E+00
         0.00000E+00
         0.00000E+00
         0.00000E+00
         0.00000E+00
         0.00000E+00
         0.00000E+00
         0.00000E+00
         0.00000E+00
         0.00000E+00
         0.00000E+00
         0.00000E+00
         0.00000E+00
         0.00000E+00
         0.00000E+00
         0.00000E+00
         0.00000E+00
         0.00000E+00
         0.00000E+00
         0.00000E+00
         0.00000E+00
         0.00000E+00
         0.00000E+00
         0.00000E+00
         0.00000E+00
         0.00000E+00
         0.00000E+00
         0.00000E+00
         0.00000E+00
         0.00000E+00
         0.00000E+00
         0.00000E+00
         0.00000E+00
         0.00000E+00
         0.00000E+00
         0.00000E+00
         0.00000E+00
         0.00000E+00
         0.00000E+00
         0.00000E+00
         0.00000E+00
         0.00000E+00
         0.00000E+00
         0.00000E+00
         0.00000E+00
         0.00000E+00
         0.00000E+00
         0.00000E+00
         0.00000E+00
         0.00000E+00
         0.00000E+00
         0.00000E+00
         0.00000E+00
         0.00000E+00
         0.00000E+00
         0.00000E+00
         0.00000E+00
         0.00000E+00
         0.00000E+00
         0.00000E+00
         0.00000E+00
         0.00000E+00
         0.00000E+00
         0.00000E+00
         0.00000E+00
         0.00000E+00
         0.00000E+00
         0.00000E+00
         0.00000E+00
         0.00000E+00
         0.00000E+00
         0.00000E+00
         0.00000E+00
         0.00000E+00
         0.00000E+00
         0.00000E+00
         0.00000E+00
         0.00000E+00
         0.00000E+00
         0.00000E+00
         0.00000E+00
         0.00000E+00
         0.00000E+00
         0.00000E+00
         0.00000E+00
         0.00000E+00
         0.00000E+00
         0.00000E+00
         0.00000E+00
         0.00000E+00
         0.00000E+00
         0.00000E+00
         0.00000E+00
         0.00000E+00
         0.00000E+00
         0.00000E+00
         0.00000E+00
         0.00000E+00
         0.00000E+00
         0.00000E+00
         0.00000E+00
         0.00000E+00
         0.00000E+00
         0.00000E+00
         0.00000E+00
         0.00000E+00
         0.00000E+00
         0.00000E+00
         0.00000E+00
         0.00000E+00
         0.00000E+00
         0.00000E+00
         0.00000E+00
         0.00000E+00
         0.00000E+00
         0.00000E+00
         0.00000E+00
         0.00000E+00
         0.00000E+00
         0.00000E+00
         0.00000E+00
         0.00000E+00
         0.00000E+00
         0.00000E+00
         0.00000E+00
         0.00000E+00
         0.00000E+00
         0.00000E+00
         0.00000E+00
         0.00000E+00
         0.00000E+00
         0.00000E+00
         0.00000E+00
         0.00000E+00
         0.00000E+00
         0.00000E+00
         0.00000E+00
         0.00000E+00
         0.00000E+00
         0.00000E+00
         0.00000E+00
         0.00000E+00
         0.00000E+00
         0.00000E+00
         0.00000E+00
         0.00000E+00
         0.00000E+00
         0.00000E+00
         0.00000E+00
         0.00000E+00
         0.00000E+00
         0.00000E+00
         0.00000E+00
         0.00000E+00
         0.00000E+00
         0.00000E+00
         0.00000E+00
         0.00000E+00
         0.00000E+00
         0.00000E+00
         0.00000E+00
         0.00000E+00
         0.00000E+00
         0.00000E+00
         0.00000E+00
         0.00000E+00
         0.00000E+00
         0.00000E+00
         0.00000E+00
         0.00000E+00
         0.00000E+00
         0.00000E+00
         0.00000E+00
         0.00000E+00
         0.00000E+00
         0.00000E+00
         0.00000E+00
         0.00000E+00
         0.00000E+00
         0.00000E+00
         0.00000E+00
         0.00000E+00
         0.00000E+00
         0.00000E+00
         0.00000E+00
         0.00000E+00
         0.00000E+00
         0.00000E+00
         0.00000E+00
         0.00000E+00
         0.00000E+00
         0.00000E+00
         0.00000E+00
         0.00000E+00
         0.00000E+00
         0.00000E+00
         0.00000E+00
         0.00000E+00
         0.00000E+00
         0.00000E+00
         0.00000E+00
         0.00000E+00
         0.00000E+00
         0.00000E+00
         0.00000E+00
         0.00000E+00
         0.00000E+00
         0.00000E+00
         0.00000E+00
         0.00000E+00
         0.00000E+00
         0.00000E+00
         0.00000E+00
         0.00000E+00
         0.00000E+00
         0.00000E+00
         0.00000E+00
         0.00000E+00
         0.00000E+00
         0.00000E+00
         0.00000E+00
         0.00000E+00
         0.00000E+00
         0.00000E+00
         0.00000E+00
         0.00000E+00
         0.00000E+00
         0.00000E+00
         0.00000E+00
         0.00000E+00
         0.00000E+00
         0.00000E+00
         0.00000E+00
         0.00000E+00
         0.00000E+00
         0.00000E+00
         0.00000E+00
         0.00000E+00
         0.00000E+00
         0.00000E+00
         0.00000E+00
         0.00000E+00
         0.00000E+00
         0.00000E+00
         0.00000E+00
         0.00000E+00
         0.00000E+00
         0.00000E+00
         0.00000E+00
         0.00000E+00
         0.00000E+00
         0.00000E+00
         0.00000E+00
         0.00000E+00
         0.00000E+00
         0.00000E+00
         0.00000E+00
         0.00000E+00
         0.00000E+00
         0.00000E+00
         0.00000E+00
         0.00000E+00
         0.00000E+00
         0.00000E+00
         0.00000E+00
         0.00000E+00
         0.00000E+00
         0.00000E+00
         0.00000E+00
         0.00000E+00
         0.00000E+00
         0.00000E+00
         0.00000E+00
         0.00000E+00
         0.00000E+00
         0.00000E+00
         0.00000E+00
         0.00000E+00
         0.00000E+00
         0.00000E+00
         0.00000E+00
         0.00000E+00
         0.00000E+00
         0.00000E+00
         0.00000E+00
         0.00000E+00
         0.00000E+00
         0.00000E+00
         0.00000E+00
         0.00000E+00
         0.00000E+00
         0.00000E+00
         0.00000E+00
         0.00000E+00
         0.00000E+00
         0.00000E+00
         0.00000E+00
         0.00000E+00
         0.00000E+00
         0.00000E+00
         0.00000E+00
         0.00000E+00
         0.00000E+00
         0.00000E+00
         0.00000E+00
         0.00000E+00
         0.00000E+00
         0.00000E+00
         0.00000E+00
         0.00000E+00
         0.00000E+00
         0.00000E+00
         0.00000E+00
         0.00000E+00
         0.00000E+00
         0.00000E+00
         0.00000E+00
         0.00000E+00
         0.00000E+00
         0.00000E+00
         0.00000E+00
         0.00000E+00
         0.00000E+00
         0.00000E+00
         0.00000E+00
         0.00000E+00
         0.00000E+00
         0.00000E+00
         0.00000E+00
         0.00000E+00
         0.00000E+00
         0.00000E+00
         0.00000E+00
         0.00000E+00
         0.00000E+00
         0.00000E+00
         0.00000E+00
         0.00000E+00
         0.00000E+00
         0.00000E+00
         0.00000E+00
         0.00000E+00
         0.00000E+00
         0.00000E+00
         0.00000E+00
         0.00000E+00
         0.00000E+00
         0.00000E+00
         0.00000E+00
         0.00000E+00
         0.00000E+00
         0.00000E+00
         0.00000E+00
         0.00000E+00
         0.00000E+00
         0.00000E+00
         0.00000E+00
         0.00000E+00
         0.00000E+00
         0.00000E+00
         0.00000E+00
         0.00000E+00
         0.00000E+00
         0.00000E+00
         0.00000E+00
         0.00000E+00
         0.00000E+00
         0.00000E+00
         0.00000E+00
         0.00000E+00
         0.00000E+00
         0.00000E+00
         0.00000E+00
         0.00000E+00
         0.00000E+00
         0.00000E+00
         0.00000E+00
         0.00000E+00
         0.00000E+00
         0.00000E+00
         0.00000E+00
         0.00000E+00
         0.00000E+00
         0.00000E+00
         0.00000E+00
         0.00000E+00
         0.00000E+00
         0.00000E+00
         0.00000E+00
         0.00000E+00
         0.00000E+00
         0.00000E+00
         0.00000E+00
         0.00000E+00
         0.00000E+00
         0.00000E+00
         0.00000E+00
         0.00000E+00
         0.00000E+00
         0.00000E+00
         0.00000E+00
         0.00000E+00
         0.00000E+00
         0.00000E+00
         0.00000E+00
         0.00000E+00
         0.00000E+00
         0.00000E+00
         0.00000E+00
         0.00000E+00
         0.00000E+00
         0.00000E+00
         0.00000E+00
         0.00000E+00
         0.00000E+00
         0.00000E+00
         0.00000E+00
         0.00000E+00
         0.00000E+00
         0.00000E+00
         0.00000E+00
         0.00000E+00
         0.00000E+00
         0.00000E+00
         0.00000E+00
         0.00000E+00
         0.00000E+00
         0.00000E+00
         0.00000E+00
         0.00000E+00
         0.00000E+00
         0.00000E+00
         0.00000E+00
         0.00000E+00
         0.00000E+00
         0.00000E+00
         0.00000E+00
         0.00000E+00
         0.00000E+00
         0.00000E+00
         0.00000E+00
         0.00000E+00
         0.00000E+00
         0.00000E+00
         0.00000E+00
         0.00000E+00
         0.00000E+00
         0.00000E+00
         0.00000E+00
         0.00000E+00
         0.00000E+00
         0.00000E+00
         0.00000E+00
         0.00000E+00
         0.00000E+00
         0.00000E+00
         0.00000E+00
         0.00000E+00
         0.00000E+00
         0.00000E+00
         0.00000E+00
         0.00000E+00
         0.00000E+00
         0.00000E+00
         0.00000E+00
         0.00000E+00
         0.00000E+00
         0.00000E+00
         0.00000E+00
         0.00000E+00
         0.00000E+00
         0.00000E+00
         0.00000E+00
         0.00000E+00
         0.00000E+00
         0.00000E+00
         0.00000E+00
         0.00000E+00
         0.00000E+00
         0.00000E+00
         0.00000E+00
         0.00000E+00
         0.00000E+00
         0.00000E+00
         0.00000E+00
         0.00000E+00
         0.00000E+00
         0.00000E+00
         0.00000E+00
         0.00000E+00
         0.00000E+00
         0.00000E+00
         0.00000E+00
         0.00000E+00
         0.00000E+00
         0.00000E+00
         0.00000E+00
         0.00000E+00
         0.00000E+00
         0.00000E+00
         0.00000E+00
         0.00000E+00
         0.00000E+00
         0.00000E+00
         0.00000E+00
         0.00000E+00
         0.00000E+00
         0.00000E+00
         0.00000E+00
         0.00000E+00
         0.00000E+00
         0.00000E+00
         0.00000E+00
         0.00000E+00
         0.00000E+00
         0.00000E+00
         0.00000E+00
         0.00000E+00
         0.00000E+00
         0.00000E+00
         0.00000E+00
         0.00000E+00
         0.00000E+00
         0.00000E+00
         0.00000E+00
         0.00000E+00
         0.00000E+00
         0.00000E+00
         0.00000E+00
         0.00000E+00
         0.00000E+00
         0.00000E+00
         0.00000E+00
         0.00000E+00
         0.00000E+00
         0.00000E+00
         0.00000E+00
         0.00000E+00
         0.00000E+00
         0.00000E+00
         0.00000E+00
         0.00000E+00
         0.00000E+00
         0.00000E+00
         0.00000E+00
         0.00000E+00
         0.00000E+00
         0.00000E+00
         0.00000E+00
         0.00000E+00
         0.00000E+00
         0.00000E+00
         0.00000E+00
         0.00000E+00
         0.00000E+00
         0.00000E+00
         0.00000E+00
         0.00000E+00
         0.00000E+00
         0.00000E+00
         0.00000E+00
         0.00000E+00
         0.00000E+00
         0.00000E+00
         0.00000E+00
         0.00000E+00
         0.00000E+00
         0.00000E+00
         0.00000E+00
         0.00000E+00
         0.00000E+00
         0.00000E+00
         0.00000E+00
         0.00000E+00
         0.00000E+00
         0.00000E+00
         0.00000E+00
         0.00000E+00
         0.00000E+00
         0.00000E+00
         0.00000E+00
         0.00000E+00
         0.00000E+00
         0.00000E+00
         0.00000E+00
         0.00000E+00
         0.00000E+00
         0.00000E+00
         0.00000E+00
         0.00000E+00
         0.00000E+00
         0.00000E+00
         0.00000E+00
         0.00000E+00
         0.00000E+00
         0.00000E+00
         0.00000E+00
         0.00000E+00
         0.00000E+00
         0.00000E+00
         0.00000E+00
         0.00000E+00
         0.00000E+00
         0.00000E+00
         0.00000E+00
         0.00000E+00
         0.00000E+00
         0.00000E+00
         0.00000E+00
         0.00000E+00
         0.00000E+00
         0.00000E+00
         0.00000E+00
         0.00000E+00
         0.00000E+00
         0.00000E+00
         0.00000E+00
         0.00000E+00
         0.00000E+00
         0.00000E+00
         0.00000E+00
         0.00000E+00
         0.00000E+00
         0.00000E+00
         0.00000E+00
         0.00000E+00
         0.00000E+00
         0.00000E+00
         0.00000E+00
         0.00000E+00
         0.00000E+00
         0.00000E+00
         0.00000E+00
         0.00000E+00
         0.00000E+00
         0.00000E+00
         0.00000E+00
         0.00000E+00
         0.00000E+00
         0.00000E+00
         0.00000E+00
         0.00000E+00
         0.00000E+00
         0.00000E+00
         0.00000E+00
         0.00000E+00
         0.00000E+00
         0.00000E+00
         0.00000E+00
         0.00000E+00
         0.00000E+00
         0.00000E+00
         0.00000E+00
         0.00000E+00
         0.00000E+00
         0.00000E+00
         0.00000E+00
         0.00000E+00
         0.00000E+00
         0.00000E+00
         0.00000E+00
         0.00000E+00
         0.00000E+00
         0.00000E+00
         0.00000E+00
         0.00000E+00
         0.00000E+00
         0.00000E+00
         0.00000E+00
         0.00000E+00
         0.00000E+00
         0.00000E+00
         0.00000E+00
         0.00000E+00
         0.00000E+00
         0.00000E+00
         0.00000E+00
         0.00000E+00
         0.00000E+00
         0.00000E+00
         0.00000E+00
         0.00000E+00
         0.00000E+00
         0.00000E+00
         0.00000E+00
         0.00000E+00
         0.00000E+00
         0.00000E+00
         0.00000E+00
         0.00000E+00
         0.00000E+00
         0.00000E+00
         0.00000E+00
         0.00000E+00
         0.00000E+00
         0.00000E+00
         0.00000E+00
         0.00000E+00
         0.00000E+00
         0.00000E+00
         0.00000E+00
         0.00000E+00
         0.00000E+00
         0.00000E+00
         0.00000E+00
         0.00000E+00
         0.00000E+00
         0.00000E+00
         0.00000E+00
         0.00000E+00
         0.00000E+00
         0.00000E+00
         0.00000E+00
         0.00000E+00
         0.00000E+00
         0.00000E+00
         0.00000E+00
         0.00000E+00
         0.00000E+00
         0.00000E+00
         0.00000E+00
         0.00000E+00
         0.00000E+00
         0.00000E+00
         0.00000E+00
         0.00000E+00
         0.00000E+00
         0.00000E+00
         0.00000E+00
         0.00000E+00
         0.00000E+00
         0.00000E+00
         0.00000E+00
         0.00000E+00
         0.00000E+00
         0.00000E+00
         0.00000E+00
         0.00000E+00
         0.00000E+00
         0.00000E+00
         0.00000E+00
         0.00000E+00
         0.00000E+00
         0.00000E+00
         0.00000E+00
         0.00000E+00
         0.00000E+00
         0.00000E+00
         0.00000E+00
         0.00000E+00
         0.00000E+00
         0.00000E+00
         0.00000E+00
         0.00000E+00
         0.00000E+00
         0.00000E+00
         0.00000E+00
         0.00000E+00
         0.00000E+00
         0.00000E+00
         0.00000E+00
         0.00000E+00
         0.00000E+00
         0.00000E+00
         0.00000E+00
         0.00000E+00
         0.00000E+00
         0.00000E+00
         0.00000E+00
         0.00000E+00
         0.00000E+00
         0.00000E+00
         0.00000E+00
         0.00000E+00
         0.00000E+00
         0.00000E+00
         0.00000E+00
         0.00000E+00
         0.00000E+00
         0.00000E+00
         0.00000E+00
         0.00000E+00
         0.00000E+00
         0.00000E+00
         0.00000E+00
         0.00000E+00
         0.00000E+00
         0.00000E+00
         0.00000E+00
         0.00000E+00
         0.00000E+00
         0.00000E+00
         0.00000E+00
         0.00000E+00
         0.00000E+00
         0.00000E+00
         0.00000E+00
         0.00000E+00
         0.00000E+00
         0.00000E+00
         0.00000E+00
         0.00000E+00
         0.00000E+00
         0.00000E+00
         0.00000E+00
         0.00000E+00
         0.00000E+00
         0.00000E+00
         0.00000E+00
         0.00000E+00
         0.00000E+00
         0.00000E+00
         0.00000E+00
         0.00000E+00
         0.00000E+00
         0.00000E+00
         0.00000E+00
         0.00000E+00
         0.00000E+00
         0.00000E+00
         0.00000E+00
         0.00000E+00
         0.00000E+00
         0.00000E+00
         0.00000E+00
         0.00000E+00
         0.00000E+00
         0.00000E+00
         0.00000E+00
         0.00000E+00
         0.00000E+00
         0.00000E+00
         0.00000E+00
         0.00000E+00
         0.00000E+00
         0.00000E+00
         0.00000E+00
         0.00000E+00
         0.00000E+00
         0.00000E+00
         0.00000E+00
         0.00000E+00
         0.00000E+00
         0.00000E+00
         0.00000E+00
         0.00000E+00
         0.00000E+00
         0.00000E+00
         0.00000E+00
         0.00000E+00
         0.00000E+00
         0.00000E+00
         0.00000E+00
         0.00000E+00
         0.00000E+00
         0.00000E+00
         0.00000E+00
         0.00000E+00
         0.00000E+00
         0.00000E+00
         0.00000E+00
         0.00000E+00
         0.00000E+00
         0.00000E+00
         0.00000E+00
         0.00000E+00
         0.00000E+00
         0.00000E+00
         0.00000E+00
         0.00000E+00
         0.00000E+00
         0.00000E+00
         0.00000E+00
         0.00000E+00
         0.00000E+00
         0.00000E+00
         0.00000E+00
         0.00000E+00
         0.00000E+00
         0.00000E+00
         0.00000E+00
         0.00000E+00
         0.00000E+00
         0.00000E+00
         0.00000E+00
         0.00000E+00
         0.00000E+00
         0.00000E+00
         0.00000E+00
         0.00000E+00
         0.00000E+00
         0.00000E+00
         0.00000E+00
         0.00000E+00
         0.00000E+00
         0.00000E+00
         0.00000E+00
         0.00000E+00
         0.00000E+00
         0.00000E+00
         0.00000E+00
         0.00000E+00
         0.00000E+00
         0.00000E+00
         0.00000E+00
         0.00000E+00
         0.00000E+00
         0.00000E+00
         0.00000E+00
         0.00000E+00
         0.00000E+00
         0.00000E+00
         0.00000E+00
         0.00000E+00
         0.00000E+00
         0.00000E+00
         0.00000E+00
         0.00000E+00
         0.00000E+00
         0.00000E+00
         0.00000E+00
         0.00000E+00
         0.00000E+00
         0.00000E+00
         0.00000E+00
         0.00000E+00
         0.00000E+00
         0.00000E+00
         0.00000E+00
         0.00000E+00
         0.00000E+00
         0.00000E+00
         0.00000E+00
         0.00000E+00
         0.00000E+00
         0.00000E+00
         0.00000E+00
         0.00000E+00
         0.00000E+00
         0.00000E+00
         0.00000E+00
         0.00000E+00
         0.00000E+00
         0.00000E+00
         0.00000E+00
         0.00000E+00
         0.00000E+00
         0.00000E+00
         0.00000E+00
         0.00000E+00
         0.00000E+00
         0.00000E+00
         0.00000E+00
         0.00000E+00
         0.00000E+00
         0.00000E+00
         0.00000E+00
         0.00000E+00
         0.00000E+00
         0.00000E+00
         0.00000E+00
         0.00000E+00
         0.00000E+00
         0.00000E+00
         0.00000E+00
         0.00000E+00
         0.00000E+00
         0.00000E+00
         0.00000E+00
         0.00000E+00
         0.00000E+00
         0.00000E+00
         0.00000E+00
         0.00000E+00
         0.00000E+00
         0.00000E+00
         0.00000E+00
         0.00000E+00
         0.00000E+00
         0.00000E+00
         0.00000E+00
         0.00000E+00
         0.00000E+00
         0.00000E+00
         0.00000E+00
         0.00000E+00
         0.00000E+00
         0.00000E+00
         0.00000E+00
         0.00000E+00
         0.00000E+00
         0.00000E+00
         0.00000E+00
         0.00000E+00
         0.00000E+00
         0.00000E+00
         0.00000E+00
         0.00000E+00
         0.00000E+00
         0.00000E+00
         0.00000E+00
         0.00000E+00
         0.00000E+00
         0.00000E+00
         0.00000E+00
         0.00000E+00
         0.00000E+00
         0.00000E+00
         0.00000E+00
         0.00000E+00
         0.00000E+00
         0.00000E+00
         0.00000E+00
         0.00000E+00
         0.00000E+00
         0.00000E+00
         0.00000E+00
         0.00000E+00
         0.00000E+00
         0.00000E+00
         0.00000E+00
         0.00000E+00
         0.00000E+00
         0.00000E+00
         0.00000E+00
         0.00000E+00
         0.00000E+00
         0.00000E+00
         0.00000E+00
         0.00000E+00
         0.00000E+00
         0.00000E+00
         0.00000E+00
         0.00000E+00
         0.00000E+00
         0.00000E+00
         0.00000E+00
         0.00000E+00
         0.00000E+00
         0.00000E+00
         0.00000E+00
         0.00000E+00
         0.00000E+00
         0.00000E+00
         0.00000E+00
         0.00000E+00
         0.00000E+00
         0.00000E+00
         0.00000E+00
         0.00000E+00
         0.00000E+00
         0.00000E+00
         0.00000E+00
         0.00000E+00
         0.00000E+00
         0.00000E+00
         0.00000E+00
         0.00000E+00
         0.00000E+00
         0.00000E+00
         0.00000E+00
         0.00000E+00
         0.00000E+00
         0.00000E+00
         0.00000E+00
         0.00000E+00
         0.00000E+00
         0.00000E+00
         0.00000E+00
         0.00000E+00
         0.00000E+00
         0.00000E+00
         0.00000E+00
         0.00000E+00
         0.00000E+00
         0.00000E+00
         0.00000E+00
         0.00000E+00
         0.00000E+00
         0.00000E+00
         0.00000E+00
         0.00000E+00
         0.00000E+00
         0.00000E+00
         0.00000E+00
         0.00000E+00
         0.00000E+00
         0.00000E+00
         0.00000E+00
         0.00000E+00
         0.00000E+00
         0.00000E+00
         0.00000E+00
         0.00000E+00
         0.00000E+00
         0.00000E+00
         0.00000E+00
         0.00000E+00
         0.00000E+00
         0.00000E+00
         0.00000E+00
         0.00000E+00
         0.00000E+00
         0.00000E+00
         0.00000E+00
         0.00000E+00
         0.00000E+00
         0.00000E+00
         0.00000E+00
         0.00000E+00
         0.00000E+00
         0.00000E+00
         0.00000E+00
         0.00000E+00
         0.00000E+00
         0.00000E+00
         0.00000E+00
         0.00000E+00
         0.00000E+00
         0.00000E+00
         0.00000E+00
         0.00000E+00
         0.00000E+00
         0.00000E+00
         0.00000E+00
         0.00000E+00
         0.00000E+00
         0.00000E+00
         0.00000E+00
         0.00000E+00
         0.00000E+00
         0.00000E+00
         0.00000E+00
         0.00000E+00
         0.00000E+00
         0.00000E+00
         0.00000E+00
         0.00000E+00
         0.00000E+00
         0.00000E+00
         0.00000E+00
         0.00000E+00
         0.00000E+00
         0.00000E+00
         0.00000E+00
         0.00000E+00
         0.00000E+00
         0.00000E+00
         0.00000E+00
         0.00000E+00
         0.00000E+00
         0.00000E+00
         0.00000E+00
         0.00000E+00
         0.00000E+00
         0.00000E+00
         0.00000E+00
         0.00000E+00
         0.00000E+00
         0.00000E+00
         0.00000E+00
         0.00000E+00
         0.00000E+00
         0.00000E+00
         0.00000E+00
         0.00000E+00
         0.00000E+00
         0.00000E+00
         0.00000E+00
         0.00000E+00
         0.00000E+00
         0.00000E+00
         0.00000E+00
         0.00000E+00
         0.00000E+00
         0.00000E+00
         0.00000E+00
         0.00000E+00
  
SCALARS        characteristic_distance  double 1
LOOKUP_TABLE default
         0.00000E+00
         0.00000E+00
         0.00000E+00
         0.00000E+00
         0.00000E+00
         0.00000E+00
         0.00000E+00
         0.00000E+00
         0.00000E+00
         0.00000E+00
         0.00000E+00
         0.00000E+00
         0.00000E+00
         0.00000E+00
         0.00000E+00
         0.00000E+00
         0.00000E+00
         0.00000E+00
         0.00000E+00
         0.00000E+00
         0.00000E+00
         0.00000E+00
         0.00000E+00
         0.00000E+00
         0.00000E+00
         0.00000E+00
         0.00000E+00
         0.00000E+00
         0.00000E+00
         0.00000E+00
         0.00000E+00
         0.00000E+00
         0.00000E+00
         0.00000E+00
         0.00000E+00
         0.00000E+00
         0.00000E+00
         0.00000E+00
         0.00000E+00
         0.00000E+00
         0.00000E+00
         0.00000E+00
         0.00000E+00
         0.00000E+00
         0.00000E+00
         0.00000E+00
         0.00000E+00
         0.00000E+00
         0.00000E+00
         0.00000E+00
         0.00000E+00
         0.00000E+00
         0.00000E+00
         0.00000E+00
         0.00000E+00
         0.00000E+00
         0.00000E+00
         0.00000E+00
         0.00000E+00
         0.00000E+00
         0.00000E+00
         0.00000E+00
         0.00000E+00
         0.00000E+00
         0.00000E+00
         0.00000E+00
         0.00000E+00
         0.00000E+00
         0.00000E+00
         0.00000E+00
         0.00000E+00
         0.00000E+00
         0.00000E+00
         0.00000E+00
         0.00000E+00
         0.00000E+00
         0.00000E+00
         0.00000E+00
         0.00000E+00
         0.00000E+00
         0.00000E+00
         0.00000E+00
         0.00000E+00
         0.00000E+00
         0.00000E+00
         0.00000E+00
         0.00000E+00
         0.00000E+00
         0.00000E+00
         0.00000E+00
         0.00000E+00
         0.00000E+00
         0.00000E+00
         0.00000E+00
         0.00000E+00
         0.00000E+00
         0.00000E+00
         0.00000E+00
         0.00000E+00
         0.00000E+00
         0.00000E+00
         0.00000E+00
         0.00000E+00
         0.00000E+00
         0.00000E+00
         0.00000E+00
         0.00000E+00
         0.00000E+00
         0.00000E+00
         0.00000E+00
         0.00000E+00
         0.00000E+00
         0.00000E+00
         0.00000E+00
         0.00000E+00
         0.00000E+00
         0.00000E+00
         0.00000E+00
         0.00000E+00
         0.00000E+00
         0.00000E+00
         0.00000E+00
         0.00000E+00
         0.00000E+00
         0.00000E+00
         0.00000E+00
         0.00000E+00
         0.00000E+00
         0.00000E+00
         0.00000E+00
         0.00000E+00
         0.00000E+00
         0.00000E+00
         0.00000E+00
         0.00000E+00
         0.00000E+00
         0.00000E+00
         0.00000E+00
         0.00000E+00
         0.00000E+00
         0.00000E+00
         0.00000E+00
         0.00000E+00
         0.00000E+00
         0.00000E+00
         0.00000E+00
         0.00000E+00
         0.00000E+00
         0.00000E+00
         0.00000E+00
         0.00000E+00
         0.00000E+00
         0.00000E+00
         0.00000E+00
         0.00000E+00
         0.00000E+00
         0.00000E+00
         0.00000E+00
         0.00000E+00
         0.00000E+00
         0.00000E+00
         0.00000E+00
         0.00000E+00
         0.00000E+00
         0.00000E+00
         0.00000E+00
         0.00000E+00
         0.00000E+00
         0.00000E+00
         0.00000E+00
         0.00000E+00
         0.00000E+00
         0.00000E+00
         0.00000E+00
         0.00000E+00
         0.00000E+00
         0.00000E+00
         0.00000E+00
         0.00000E+00
         0.00000E+00
         0.00000E+00
         0.00000E+00
         0.00000E+00
         0.00000E+00
         0.00000E+00
         0.00000E+00
         0.00000E+00
         0.00000E+00
         0.00000E+00
         0.00000E+00
         0.00000E+00
         0.00000E+00
         0.00000E+00
         0.00000E+00
         0.00000E+00
         0.00000E+00
         0.00000E+00
         0.00000E+00
         0.00000E+00
         0.00000E+00
         0.00000E+00
         0.00000E+00
         0.00000E+00
         0.00000E+00
         0.00000E+00
         0.00000E+00
         0.00000E+00
         0.00000E+00
         0.00000E+00
         0.00000E+00
         0.00000E+00
         0.00000E+00
         0.00000E+00
         0.00000E+00
         0.00000E+00
         0.00000E+00
         0.00000E+00
         0.00000E+00
         0.00000E+00
         0.00000E+00
         0.00000E+00
         0.00000E+00
         0.00000E+00
         0.00000E+00
         0.00000E+00
         0.00000E+00
         0.00000E+00
         0.00000E+00
         0.00000E+00
         0.00000E+00
         0.00000E+00
         0.00000E+00
         0.00000E+00
         0.00000E+00
         0.00000E+00
         0.00000E+00
         0.00000E+00
         0.00000E+00
         0.00000E+00
         0.00000E+00
         0.00000E+00
         0.00000E+00
         0.00000E+00
         0.00000E+00
         0.00000E+00
         0.00000E+00
         0.00000E+00
         0.00000E+00
         0.00000E+00
         0.00000E+00
         0.00000E+00
         0.00000E+00
         0.00000E+00
         0.00000E+00
         0.00000E+00
         0.00000E+00
         0.00000E+00
         0.00000E+00
         0.00000E+00
         0.00000E+00
         0.00000E+00
         0.00000E+00
         0.00000E+00
         0.00000E+00
         0.00000E+00
         0.00000E+00
         0.00000E+00
         0.00000E+00
         0.00000E+00
         0.00000E+00
         0.00000E+00
         0.00000E+00
         0.00000E+00
         0.00000E+00
         0.00000E+00
         0.00000E+00
         0.00000E+00
         0.00000E+00
         0.00000E+00
         0.00000E+00
         0.00000E+00
         0.00000E+00
         0.00000E+00
         0.00000E+00
         0.00000E+00
         0.00000E+00
         0.00000E+00
         0.00000E+00
         0.00000E+00
         0.00000E+00
         0.00000E+00
         0.00000E+00
         0.00000E+00
         0.00000E+00
         0.00000E+00
         0.00000E+00
         0.00000E+00
         0.00000E+00
         0.00000E+00
         0.00000E+00
         0.00000E+00
         0.00000E+00
         0.00000E+00
         0.00000E+00
         0.00000E+00
         0.00000E+00
         0.00000E+00
         0.00000E+00
         0.00000E+00
         0.00000E+00
         0.00000E+00
         0.00000E+00
         0.00000E+00
         0.00000E+00
         0.00000E+00
         0.00000E+00
         0.00000E+00
         0.00000E+00
         0.00000E+00
         0.00000E+00
         0.00000E+00
         0.00000E+00
         0.00000E+00
         0.00000E+00
         0.00000E+00
         0.00000E+00
         0.00000E+00
         0.00000E+00
         0.00000E+00
         0.00000E+00
         0.00000E+00
         0.00000E+00
         0.00000E+00
         0.00000E+00
         0.00000E+00
         0.00000E+00
         0.00000E+00
         0.00000E+00
         0.00000E+00
         0.00000E+00
         0.00000E+00
         0.00000E+00
         0.00000E+00
         0.00000E+00
         0.00000E+00
         0.00000E+00
         0.00000E+00
         0.00000E+00
         0.00000E+00
         0.00000E+00
         0.00000E+00
         0.00000E+00
         0.00000E+00
         0.00000E+00
         0.00000E+00
         0.00000E+00
         0.00000E+00
         0.00000E+00
         0.00000E+00
         0.00000E+00
         0.00000E+00
         0.00000E+00
         0.00000E+00
         0.00000E+00
         0.00000E+00
         0.00000E+00
         0.00000E+00
         0.00000E+00
         0.00000E+00
         0.00000E+00
         0.00000E+00
         0.00000E+00
         0.00000E+00
         0.00000E+00
         0.00000E+00
         0.00000E+00
         0.00000E+00
         0.00000E+00
         0.00000E+00
         0.00000E+00
         0.00000E+00
         0.00000E+00
         0.00000E+00
         0.00000E+00
         0.00000E+00
         0.00000E+00
         0.00000E+00
         0.00000E+00
         0.00000E+00
         0.00000E+00
         0.00000E+00
         0.00000E+00
         0.00000E+00
         0.00000E+00
         0.00000E+00
         0.00000E+00
         0.00000E+00
         0.00000E+00
         0.00000E+00
         0.00000E+00
         0.00000E+00
         0.00000E+00
         0.00000E+00
         0.00000E+00
         0.00000E+00
         0.00000E+00
         0.00000E+00
         0.00000E+00
         0.00000E+00
         0.00000E+00
         0.00000E+00
         0.00000E+00
         0.00000E+00
         0.00000E+00
         0.00000E+00
         0.00000E+00
         0.00000E+00
         0.00000E+00
         0.00000E+00
         0.00000E+00
         0.00000E+00
         0.00000E+00
         0.00000E+00
         0.00000E+00
         0.00000E+00
         0.00000E+00
         0.00000E+00
         0.00000E+00
         0.00000E+00
         0.00000E+00
         0.00000E+00
         0.00000E+00
         0.00000E+00
         0.00000E+00
         0.00000E+00
         0.00000E+00
         0.00000E+00
         0.00000E+00
         0.00000E+00
         0.00000E+00
         0.00000E+00
         0.00000E+00
         0.00000E+00
         0.00000E+00
         0.00000E+00
         0.00000E+00
         0.00000E+00
         0.00000E+00
         0.00000E+00
         0.00000E+00
         0.00000E+00
         0.00000E+00
         0.00000E+00
         0.00000E+00
         0.00000E+00
         0.00000E+00
         0.00000E+00
         0.00000E+00
         0.00000E+00
         0.00000E+00
         0.00000E+00
         0.00000E+00
         0.00000E+00
         0.00000E+00
         0.00000E+00
         0.00000E+00
         0.00000E+00
         0.00000E+00
         0.00000E+00
         0.00000E+00
         0.00000E+00
         0.00000E+00
         0.00000E+00
         0.00000E+00
         0.00000E+00
         0.00000E+00
         0.00000E+00
         0.00000E+00
         0.00000E+00
         0.00000E+00
         0.00000E+00
         0.00000E+00
         0.00000E+00
         0.00000E+00
         0.00000E+00
         0.00000E+00
         0.00000E+00
         0.00000E+00
         0.00000E+00
         0.00000E+00
         0.00000E+00
         0.00000E+00
         0.00000E+00
         0.00000E+00
         0.00000E+00
         0.00000E+00
         0.00000E+00
         0.00000E+00
         0.00000E+00
         0.00000E+00
         0.00000E+00
         0.00000E+00
         0.00000E+00
         0.00000E+00
         0.00000E+00
         0.00000E+00
         0.00000E+00
         0.00000E+00
         0.00000E+00
         0.00000E+00
         0.00000E+00
         0.00000E+00
         0.00000E+00
         0.00000E+00
         0.00000E+00
         0.00000E+00
         0.00000E+00
         0.00000E+00
         0.00000E+00
         0.00000E+00
         0.00000E+00
         0.00000E+00
         0.00000E+00
         0.00000E+00
         0.00000E+00
         0.00000E+00
         0.00000E+00
         0.00000E+00
         0.00000E+00
         0.00000E+00
         0.00000E+00
         0.00000E+00
         0.00000E+00
         0.00000E+00
         0.00000E+00
         0.00000E+00
         0.00000E+00
         0.00000E+00
         0.00000E+00
         0.00000E+00
         0.00000E+00
         0.00000E+00
         0.00000E+00
         0.00000E+00
         0.00000E+00
         0.00000E+00
         0.00000E+00
         0.00000E+00
         0.00000E+00
         0.00000E+00
         0.00000E+00
         0.00000E+00
         0.00000E+00
         0.00000E+00
         0.00000E+00
         0.00000E+00
         0.00000E+00
         0.00000E+00
         0.00000E+00
         0.00000E+00
         0.00000E+00
         0.00000E+00
         0.00000E+00
         0.00000E+00
         0.00000E+00
         0.00000E+00
         0.00000E+00
         0.00000E+00
         0.00000E+00
         0.00000E+00
         0.00000E+00
         0.00000E+00
         0.00000E+00
         0.00000E+00
         0.00000E+00
         0.00000E+00
         0.00000E+00
         0.00000E+00
         0.00000E+00
         0.00000E+00
         0.00000E+00
         0.00000E+00
         0.00000E+00
         0.00000E+00
         0.00000E+00
         0.00000E+00
         0.00000E+00
         0.00000E+00
         0.00000E+00
         0.00000E+00
         0.00000E+00
         0.00000E+00
         0.00000E+00
         0.00000E+00
         0.00000E+00
         0.00000E+00
         0.00000E+00
         0.00000E+00
         0.00000E+00
         0.00000E+00
         0.00000E+00
         0.00000E+00
         0.00000E+00
         0.00000E+00
         0.00000E+00
         0.00000E+00
         0.00000E+00
         0.00000E+00
         0.00000E+00
         0.00000E+00
         0.00000E+00
         0.00000E+00
         0.00000E+00
         0.00000E+00
         0.00000E+00
         0.00000E+00
         0.00000E+00
         0.00000E+00
         0.00000E+00
         0.00000E+00
         0.00000E+00
         0.00000E+00
         0.00000E+00
         0.00000E+00
         0.00000E+00
         0.00000E+00
         0.00000E+00
         0.00000E+00
         0.00000E+00
         0.00000E+00
         0.00000E+00
         0.00000E+00
         0.00000E+00
         0.00000E+00
         0.00000E+00
         0.00000E+00
         0.00000E+00
         0.00000E+00
         0.00000E+00
         0.00000E+00
         0.00000E+00
         0.00000E+00
         0.00000E+00
         0.00000E+00
         0.00000E+00
         0.00000E+00
         0.00000E+00
         0.00000E+00
         0.00000E+00
         0.00000E+00
         0.00000E+00
         0.00000E+00
         0.00000E+00
         0.00000E+00
         0.00000E+00
         0.00000E+00
         0.00000E+00
         0.00000E+00
         0.00000E+00
         0.00000E+00
         0.00000E+00
         0.00000E+00
         0.00000E+00
         0.00000E+00
         0.00000E+00
         0.00000E+00
         0.00000E+00
         0.00000E+00
         0.00000E+00
         0.00000E+00
         0.00000E+00
         0.00000E+00
         0.00000E+00
         0.00000E+00
         0.00000E+00
         0.00000E+00
         0.00000E+00
         0.00000E+00
         0.00000E+00
         0.00000E+00
         0.00000E+00
         0.00000E+00
         0.00000E+00
         0.00000E+00
         0.00000E+00
         0.00000E+00
         0.00000E+00
         0.00000E+00
         0.00000E+00
         0.00000E+00
         0.00000E+00
         0.00000E+00
         0.00000E+00
         0.00000E+00
         0.00000E+00
         0.00000E+00
         0.00000E+00
         0.00000E+00
         0.00000E+00
         0.00000E+00
         0.00000E+00
         0.00000E+00
         0.00000E+00
         0.00000E+00
         0.00000E+00
         0.00000E+00
         0.00000E+00
         0.00000E+00
         0.00000E+00
         0.00000E+00
         0.00000E+00
         0.00000E+00
         0.00000E+00
         0.00000E+00
         0.00000E+00
         0.00000E+00
         0.00000E+00
         0.00000E+00
         0.00000E+00
         0.00000E+00
         0.00000E+00
         0.00000E+00
         0.00000E+00
         0.00000E+00
         0.00000E+00
         0.00000E+00
         0.00000E+00
         0.00000E+00
         0.00000E+00
         0.00000E+00
         0.00000E+00
         0.00000E+00
         0.00000E+00
         0.00000E+00
         0.00000E+00
         0.00000E+00
         0.00000E+00
         0.00000E+00
         0.00000E+00
         0.00000E+00
         0.00000E+00
         0.00000E+00
         0.00000E+00
         0.00000E+00
         0.00000E+00
         0.00000E+00
         0.00000E+00
         0.00000E+00
         0.00000E+00
         0.00000E+00
         0.00000E+00
         0.00000E+00
         0.00000E+00
         0.00000E+00
         0.00000E+00
         0.00000E+00
         0.00000E+00
         0.00000E+00
         0.00000E+00
         0.00000E+00
         0.00000E+00
         0.00000E+00
         0.00000E+00
         0.00000E+00
         0.00000E+00
         0.00000E+00
         0.00000E+00
         0.00000E+00
         0.00000E+00
         0.00000E+00
         0.00000E+00
         0.00000E+00
         0.00000E+00
         0.00000E+00
         0.00000E+00
         0.00000E+00
         0.00000E+00
         0.00000E+00
         0.00000E+00
         0.00000E+00
         0.00000E+00
         0.00000E+00
         0.00000E+00
         0.00000E+00
         0.00000E+00
         0.00000E+00
         0.00000E+00
         0.00000E+00
         0.00000E+00
         0.00000E+00
         0.00000E+00
         0.00000E+00
         0.00000E+00
         0.00000E+00
         0.00000E+00
         0.00000E+00
         0.00000E+00
         0.00000E+00
         0.00000E+00
         0.00000E+00
         0.00000E+00
         0.00000E+00
         0.00000E+00
         0.00000E+00
         0.00000E+00
         0.00000E+00
         0.00000E+00
         0.00000E+00
         0.00000E+00
         0.00000E+00
         0.00000E+00
         0.00000E+00
         0.00000E+00
         0.00000E+00
         0.00000E+00
         0.00000E+00
         0.00000E+00
         0.00000E+00
         0.00000E+00
         0.00000E+00
         0.00000E+00
         0.00000E+00
         0.00000E+00
         0.00000E+00
         0.00000E+00
         0.00000E+00
         0.00000E+00
         0.00000E+00
         0.00000E+00
         0.00000E+00
         0.00000E+00
         0.00000E+00
         0.00000E+00
         0.00000E+00
         0.00000E+00
         0.00000E+00
         0.00000E+00
         0.00000E+00
         0.00000E+00
         0.00000E+00
         0.00000E+00
         0.00000E+00
         0.00000E+00
         0.00000E+00
         0.00000E+00
         0.00000E+00
         0.00000E+00
         0.00000E+00
         0.00000E+00
         0.00000E+00
         0.00000E+00
         0.00000E+00
         0.00000E+00
         0.00000E+00
         0.00000E+00
         0.00000E+00
         0.00000E+00
         0.00000E+00
         0.00000E+00
         0.00000E+00
         0.00000E+00
         0.00000E+00
         0.00000E+00
         0.00000E+00
         0.00000E+00
         0.00000E+00
         0.00000E+00
         0.00000E+00
         0.00000E+00
         0.00000E+00
         0.00000E+00
         0.00000E+00
         0.00000E+00
         0.00000E+00
         0.00000E+00
         0.00000E+00
         0.00000E+00
         0.00000E+00
         0.00000E+00
         0.00000E+00
         0.00000E+00
         0.00000E+00
         0.00000E+00
         0.00000E+00
         0.00000E+00
         0.00000E+00
         0.00000E+00
         0.00000E+00
         0.00000E+00
         0.00000E+00
         0.00000E+00
         0.00000E+00
         0.00000E+00
         0.00000E+00
         0.00000E+00
         0.00000E+00
         0.00000E+00
         0.00000E+00
         0.00000E+00
         0.00000E+00
         0.00000E+00
         0.00000E+00
         0.00000E+00
         0.00000E+00
         0.00000E+00
         0.00000E+00
         0.00000E+00
         0.00000E+00
         0.00000E+00
         0.00000E+00
         0.00000E+00
         0.00000E+00
         0.00000E+00
         0.00000E+00
         0.00000E+00
         0.00000E+00
         0.00000E+00
         0.00000E+00
         0.00000E+00
         0.00000E+00
         0.00000E+00
         0.00000E+00
         0.00000E+00
         0.00000E+00
         0.00000E+00
         0.00000E+00
         0.00000E+00
         0.00000E+00
         0.00000E+00
         0.00000E+00
         0.00000E+00
         0.00000E+00
         0.00000E+00
         0.00000E+00
         0.00000E+00
         0.00000E+00
         0.00000E+00
         0.00000E+00
         0.00000E+00
         0.00000E+00
         0.00000E+00
         0.00000E+00
         0.00000E+00
         0.00000E+00
         0.00000E+00
         0.00000E+00
         0.00000E+00
         0.00000E+00
         0.00000E+00
         0.00000E+00
         0.00000E+00
         0.00000E+00
         0.00000E+00
         0.00000E+00
         0.00000E+00
         0.00000E+00
         0.00000E+00
         0.00000E+00
         0.00000E+00
         0.00000E+00
         0.00000E+00
         0.00000E+00
         0.00000E+00
         0.00000E+00
         0.00000E+00
         0.00000E+00
         0.00000E+00
         0.00000E+00
         0.00000E+00
         0.00000E+00
         0.00000E+00
         0.00000E+00
         0.00000E+00
         0.00000E+00
         0.00000E+00
         0.00000E+00
         0.00000E+00
         0.00000E+00
         0.00000E+00
         0.00000E+00
         0.00000E+00
         0.00000E+00
         0.00000E+00
         0.00000E+00
         0.00000E+00
         0.00000E+00
         0.00000E+00
         0.00000E+00
         0.00000E+00
         0.00000E+00
         0.00000E+00
         0.00000E+00
         0.00000E+00
         0.00000E+00
         0.00000E+00
         0.00000E+00
         0.00000E+00
         0.00000E+00
         0.00000E+00
         0.00000E+00
         0.00000E+00
         0.00000E+00
         0.00000E+00
         0.00000E+00
         0.00000E+00
         0.00000E+00
         0.00000E+00
         0.00000E+00
         0.00000E+00
         0.00000E+00
         0.00000E+00
         0.00000E+00
         0.00000E+00
         0.00000E+00
         0.00000E+00
         0.00000E+00
         0.00000E+00
         0.00000E+00
         0.00000E+00
         0.00000E+00
         0.00000E+00
         0.00000E+00
         0.00000E+00
         0.00000E+00
         0.00000E+00
         0.00000E+00
         0.00000E+00
         0.00000E+00
         0.00000E+00
         0.00000E+00
         0.00000E+00
         0.00000E+00
         0.00000E+00
         0.00000E+00
         0.00000E+00
         0.00000E+00
         0.00000E+00
         0.00000E+00
         0.00000E+00
         0.00000E+00
         0.00000E+00
         0.00000E+00
         0.00000E+00
         0.00000E+00
         0.00000E+00
         0.00000E+00
         0.00000E+00
         0.00000E+00
         0.00000E+00
         0.00000E+00
         0.00000E+00
         0.00000E+00
         0.00000E+00
         0.00000E+00
         0.00000E+00
         0.00000E+00
         0.00000E+00
         0.00000E+00
         0.00000E+00
         0.00000E+00
         0.00000E+00
         0.00000E+00
         0.00000E+00
         0.00000E+00
         0.00000E+00
         0.00000E+00
         0.00000E+00
         0.00000E+00
         0.00000E+00
         0.00000E+00
         0.00000E+00
         0.00000E+00
         0.00000E+00
         0.00000E+00
         0.00000E+00
         0.00000E+00
         0.00000E+00
         0.00000E+00
         0.00000E+00
         0.00000E+00
         0.00000E+00
         0.00000E+00
         0.00000E+00
         0.00000E+00
         0.00000E+00
         0.00000E+00
         0.00000E+00
         0.00000E+00
         0.00000E+00
         0.00000E+00
         0.00000E+00
         0.00000E+00
         0.00000E+00
         0.00000E+00
         0.00000E+00
         0.00000E+00
         0.00000E+00
         0.00000E+00
         0.00000E+00
         0.00000E+00
         0.00000E+00
         0.00000E+00
         0.00000E+00
         0.00000E+00
         0.00000E+00
         0.00000E+00
         0.00000E+00
         0.00000E+00
         0.00000E+00
         0.00000E+00
         0.00000E+00
         0.00000E+00
         0.00000E+00
         0.00000E+00
         0.00000E+00
         0.00000E+00
         0.00000E+00
         0.00000E+00
         0.00000E+00
         0.00000E+00
         0.00000E+00
         0.00000E+00
         0.00000E+00
         0.00000E+00
         0.00000E+00
         0.00000E+00
         0.00000E+00
         0.00000E+00
         0.00000E+00
         0.00000E+00
         0.00000E+00
         0.00000E+00
         0.00000E+00
         0.00000E+00
         0.00000E+00
         0.00000E+00
         0.00000E+00
         0.00000E+00
         0.00000E+00
         0.00000E+00
         0.00000E+00
         0.00000E+00
         0.00000E+00
         0.00000E+00
         0.00000E+00
         0.00000E+00
         0.00000E+00
         0.00000E+00
         0.00000E+00
         0.00000E+00
         0.00000E+00
         0.00000E+00
         0.00000E+00
         0.00000E+00
         0.00000E+00
         0.00000E+00
         0.00000E+00
         0.00000E+00
         0.00000E+00
         0.00000E+00
         0.00000E+00
         0.00000E+00
         0.00000E+00
         0.00000E+00
         0.00000E+00
         0.00000E+00
         0.00000E+00
         0.00000E+00
         0.00000E+00
         0.00000E+00
         0.00000E+00
         0.00000E+00
         0.00000E+00
         0.00000E+00
         0.00000E+00
         0.00000E+00
         0.00000E+00
         0.00000E+00
         0.00000E+00
         0.00000E+00
         0.00000E+00
         0.00000E+00
         0.00000E+00
         0.00000E+00
         0.00000E+00
         0.00000E+00
         0.00000E+00
         0.00000E+00
         0.00000E+00
         0.00000E+00
         0.00000E+00
         0.00000E+00
         0.00000E+00
         0.00000E+00
         0.00000E+00
         0.00000E+00
         0.00000E+00
         0.00000E+00
         0.00000E+00
         0.00000E+00
         0.00000E+00
         0.00000E+00
         0.00000E+00
         0.00000E+00
         0.00000E+00
         0.00000E+00
         0.00000E+00
         0.00000E+00
         0.00000E+00
         0.00000E+00
         0.00000E+00
         0.00000E+00
         0.00000E+00
         0.00000E+00
         0.00000E+00
         0.00000E+00
         0.00000E+00
         0.00000E+00
         0.00000E+00
         0.00000E+00
         0.00000E+00
         0.00000E+00
         0.00000E+00
         0.00000E+00
         0.00000E+00
         0.00000E+00
         0.00000E+00
         0.00000E+00
         0.00000E+00
         0.00000E+00
         0.00000E+00
         0.00000E+00
         0.00000E+00
         0.00000E+00
         0.00000E+00
         0.00000E+00
         0.00000E+00
         0.00000E+00
         0.00000E+00
         0.00000E+00
         0.00000E+00
         0.00000E+00
         0.00000E+00
         0.00000E+00
         0.00000E+00
         0.00000E+00
         0.00000E+00
         0.00000E+00
         0.00000E+00
         0.00000E+00
         0.00000E+00
         0.00000E+00
         0.00000E+00
         0.00000E+00
         0.00000E+00
         0.00000E+00
         0.00000E+00
         0.00000E+00
         0.00000E+00
         0.00000E+00
         0.00000E+00
         0.00000E+00
         0.00000E+00
         0.00000E+00
         0.00000E+00
         0.00000E+00
         0.00000E+00
         0.00000E+00
         0.00000E+00
         0.00000E+00
         0.00000E+00
         0.00000E+00
         0.00000E+00
         0.00000E+00
         0.00000E+00
         0.00000E+00
         0.00000E+00
         0.00000E+00
         0.00000E+00
         0.00000E+00
         0.00000E+00
         0.00000E+00
         0.00000E+00
         0.00000E+00
         0.00000E+00
         0.00000E+00
         0.00000E+00
         0.00000E+00
         0.00000E+00
         0.00000E+00
         0.00000E+00
         0.00000E+00
         0.00000E+00
         0.00000E+00
         0.00000E+00
         0.00000E+00
         0.00000E+00
         0.00000E+00
         0.00000E+00
         0.00000E+00
         0.00000E+00
         0.00000E+00
         0.00000E+00
         0.00000E+00
         0.00000E+00
         0.00000E+00
         0.00000E+00
         0.00000E+00
         0.00000E+00
         0.00000E+00
         0.00000E+00
         0.00000E+00
         0.00000E+00
         0.00000E+00
         0.00000E+00
         0.00000E+00
         0.00000E+00
         0.00000E+00
         0.00000E+00
         0.00000E+00
         0.00000E+00
         0.00000E+00
         0.00000E+00
         0.00000E+00
         0.00000E+00
         0.00000E+00
         0.00000E+00
         0.00000E+00
         0.00000E+00
         0.00000E+00
         0.00000E+00
         0.00000E+00
         0.00000E+00
         0.00000E+00
         0.00000E+00
         0.00000E+00
         0.00000E+00
         0.00000E+00
         0.00000E+00
         0.00000E+00
         0.00000E+00
         0.00000E+00
         0.00000E+00
         0.00000E+00
         0.00000E+00
         0.00000E+00
         0.00000E+00
         0.00000E+00
         0.00000E+00
         0.00000E+00
         0.00000E+00
         0.00000E+00
         0.00000E+00
         0.00000E+00
         0.00000E+00
         0.00000E+00
         0.00000E+00
         0.00000E+00
         0.00000E+00
         0.00000E+00
         0.00000E+00
         0.00000E+00
         0.00000E+00
         0.00000E+00
         0.00000E+00
         0.00000E+00
         0.00000E+00
         0.00000E+00
         0.00000E+00
         0.00000E+00
         0.00000E+00
         0.00000E+00
         0.00000E+00
         0.00000E+00
         0.00000E+00
         0.00000E+00
         0.00000E+00
         0.00000E+00
         0.00000E+00
         0.00000E+00
         0.00000E+00
         0.00000E+00
         0.00000E+00
         0.00000E+00
         0.00000E+00
         0.00000E+00
         0.00000E+00
         0.00000E+00
         0.00000E+00
         0.00000E+00
         0.00000E+00
         0.00000E+00
         0.00000E+00
         0.00000E+00
         0.00000E+00
         0.00000E+00
         0.00000E+00
         0.00000E+00
         0.00000E+00
         0.00000E+00
         0.00000E+00
         0.00000E+00
         0.00000E+00
         0.00000E+00
         0.00000E+00
         0.00000E+00
         0.00000E+00
         0.00000E+00
         0.00000E+00
         0.00000E+00
         0.00000E+00
         0.00000E+00
         0.00000E+00
         0.00000E+00
         0.00000E+00
         0.00000E+00
         0.00000E+00
         0.00000E+00
         0.00000E+00
         0.00000E+00
         0.00000E+00
         0.00000E+00
         0.00000E+00
         0.00000E+00
         0.00000E+00
         0.00000E+00
         0.00000E+00
         0.00000E+00
         0.00000E+00
         0.00000E+00
         0.00000E+00
         0.00000E+00
         0.00000E+00
         0.00000E+00
         0.00000E+00
         0.00000E+00
         0.00000E+00
         0.00000E+00
         0.00000E+00
         0.00000E+00
         0.00000E+00
         0.00000E+00
         0.00000E+00
         0.00000E+00
         0.00000E+00
         0.00000E+00
         0.00000E+00
         0.00000E+00
         0.00000E+00
         0.00000E+00
         0.00000E+00
         0.00000E+00
         0.00000E+00
         0.00000E+00
         0.00000E+00
         0.00000E+00
         0.00000E+00
         0.00000E+00
         0.00000E+00
         0.00000E+00
         0.00000E+00
         0.00000E+00
         0.00000E+00
         0.00000E+00
         0.00000E+00
         0.00000E+00
         0.00000E+00
         0.00000E+00
         0.00000E+00
         0.00000E+00
         0.00000E+00
         0.00000E+00
         0.00000E+00
         0.00000E+00
         0.00000E+00
         0.00000E+00
         0.00000E+00
         0.00000E+00
         0.00000E+00
         0.00000E+00
         0.00000E+00
         0.00000E+00
         0.00000E+00
         0.00000E+00
         0.00000E+00
         0.00000E+00
         0.00000E+00
         0.00000E+00
         0.00000E+00
         0.00000E+00
         0.00000E+00
         0.00000E+00
         0.00000E+00
         0.00000E+00
         0.00000E+00
         0.00000E+00
         0.00000E+00
         0.00000E+00
         0.00000E+00
         0.00000E+00
         0.00000E+00
         0.00000E+00
         0.00000E+00
         0.00000E+00
         0.00000E+00
         0.00000E+00
         0.00000E+00
         0.00000E+00
         0.00000E+00
         0.00000E+00
         0.00000E+00
         0.00000E+00
         0.00000E+00
         0.00000E+00
         0.00000E+00
         0.00000E+00
         0.00000E+00
         0.00000E+00
         0.00000E+00
         0.00000E+00
         0.00000E+00
         0.00000E+00
         0.00000E+00
         0.00000E+00
         0.00000E+00
         0.00000E+00
         0.00000E+00
         0.00000E+00
         0.00000E+00
         0.00000E+00
         0.00000E+00
         0.00000E+00
         0.00000E+00
         0.00000E+00
         0.00000E+00
         0.00000E+00
         0.00000E+00
         0.00000E+00
         0.00000E+00
         0.00000E+00
         0.00000E+00
         0.00000E+00
         0.00000E+00
         0.00000E+00
         0.00000E+00
         0.00000E+00
         0.00000E+00
         0.00000E+00
         0.00000E+00
         0.00000E+00
         0.00000E+00
         0.00000E+00
         0.00000E+00
         0.00000E+00
         0.00000E+00
         0.00000E+00
         0.00000E+00
         0.00000E+00
         0.00000E+00
         0.00000E+00
         0.00000E+00
         0.00000E+00
         0.00000E+00
         0.00000E+00
         0.00000E+00
         0.00000E+00
         0.00000E+00
         0.00000E+00
         0.00000E+00
         0.00000E+00
         0.00000E+00
         0.00000E+00
         0.00000E+00
         0.00000E+00
         0.00000E+00
         0.00000E+00
         0.00000E+00
         0.00000E+00
         0.00000E+00
         0.00000E+00
         0.00000E+00
         0.00000E+00
         0.00000E+00
         0.00000E+00
         0.00000E+00
         0.00000E+00
         0.00000E+00
         0.00000E+00
         0.00000E+00
         0.00000E+00
         0.00000E+00
         0.00000E+00
         0.00000E+00
         0.00000E+00
         0.00000E+00
         0.00000E+00
         0.00000E+00
         0.00000E+00
         0.00000E+00
         0.00000E+00
         0.00000E+00
         0.00000E+00
         0.00000E+00
         0.00000E+00
         0.00000E+00
         0.00000E+00
         0.00000E+00
         0.00000E+00
         0.00000E+00
         0.00000E+00
         0.00000E+00
         0.00000E+00
         0.00000E+00
         0.00000E+00
         0.00000E+00
         0.00000E+00
         0.00000E+00
         0.00000E+00
         0.00000E+00
         0.00000E+00
         0.00000E+00
         0.00000E+00
         0.00000E+00
         0.00000E+00
         0.00000E+00
         0.00000E+00
         0.00000E+00
         0.00000E+00
         0.00000E+00
         0.00000E+00
         0.00000E+00
         0.00000E+00
         0.00000E+00
         0.00000E+00
         0.00000E+00
         0.00000E+00
         0.00000E+00
         0.00000E+00
         0.00000E+00
         0.00000E+00
         0.00000E+00
         0.00000E+00
         0.00000E+00
         0.00000E+00
         0.00000E+00
         0.00000E+00
         0.00000E+00
         0.00000E+00
         0.00000E+00
         0.00000E+00
         0.00000E+00
         0.00000E+00
         0.00000E+00
         0.00000E+00
         0.00000E+00
         0.00000E+00
         0.00000E+00
         0.00000E+00
         0.00000E+00
         0.00000E+00
         0.00000E+00
         0.00000E+00
         0.00000E+00
         0.00000E+00
         0.00000E+00
         0.00000E+00
         0.00000E+00
         0.00000E+00
         0.00000E+00
         0.00000E+00
         0.00000E+00
         0.00000E+00
         0.00000E+00
         0.00000E+00
         0.00000E+00
         0.00000E+00
         0.00000E+00
         0.00000E+00
         0.00000E+00
         0.00000E+00
         0.00000E+00
         0.00000E+00
         0.00000E+00
         0.00000E+00
         0.00000E+00
         0.00000E+00
         0.00000E+00
         0.00000E+00
         0.00000E+00
         0.00000E+00
         0.00000E+00
         0.00000E+00
         0.00000E+00
         0.00000E+00
         0.00000E+00
         0.00000E+00
         0.00000E+00
         0.00000E+00
         0.00000E+00
         0.00000E+00
         0.00000E+00
         0.00000E+00
         0.00000E+00
         0.00000E+00
         0.00000E+00
         0.00000E+00
         0.00000E+00
         0.00000E+00
         0.00000E+00
         0.00000E+00
         0.00000E+00
         0.00000E+00
         0.00000E+00
         0.00000E+00
         0.00000E+00
         0.00000E+00
         0.00000E+00
         0.00000E+00
         0.00000E+00
         0.00000E+00
         0.00000E+00
         0.00000E+00
         0.00000E+00
         0.00000E+00
         0.00000E+00
         0.00000E+00
         0.00000E+00
         0.00000E+00
         0.00000E+00
         0.00000E+00
         0.00000E+00
         0.00000E+00
         0.00000E+00
         0.00000E+00
         0.00000E+00
         0.00000E+00
         0.00000E+00
         0.00000E+00
         0.00000E+00
         0.00000E+00
         0.00000E+00
         0.00000E+00
         0.00000E+00
         0.00000E+00
         0.00000E+00
         0.00000E+00
         0.00000E+00
         0.00000E+00
         0.00000E+00
         0.00000E+00
         0.00000E+00
         0.00000E+00
         0.00000E+00
         0.00000E+00
         0.00000E+00
         0.00000E+00
         0.00000E+00
         0.00000E+00
         0.00000E+00
         0.00000E+00
         0.00000E+00
         0.00000E+00
         0.00000E+00
         0.00000E+00
         0.00000E+00
         0.00000E+00
         0.00000E+00
         0.00000E+00
         0.00000E+00
         0.00000E+00
         0.00000E+00
         0.00000E+00
         0.00000E+00
         0.00000E+00
         0.00000E+00
         0.00000E+00
         0.00000E+00
         0.00000E+00
         0.00000E+00
         0.00000E+00
         0.00000E+00
         0.00000E+00
         0.00000E+00
         0.00000E+00
         0.00000E+00
         0.00000E+00
         0.00000E+00
         0.00000E+00
         0.00000E+00
         0.00000E+00
         0.00000E+00
         0.00000E+00
         0.00000E+00
         0.00000E+00
         0.00000E+00
         0.00000E+00
         0.00000E+00
         0.00000E+00
         0.00000E+00
         0.00000E+00
         0.00000E+00
         0.00000E+00
         0.00000E+00
         0.00000E+00
         0.00000E+00
         0.00000E+00
         0.00000E+00
         0.00000E+00
         0.00000E+00
         0.00000E+00
         0.00000E+00
         0.00000E+00
         0.00000E+00
         0.00000E+00
         0.00000E+00
         0.00000E+00
         0.00000E+00
         0.00000E+00
         0.00000E+00
         0.00000E+00
         0.00000E+00
         0.00000E+00
         0.00000E+00
         0.00000E+00
         0.00000E+00
         0.00000E+00
         0.00000E+00
         0.00000E+00
         0.00000E+00
         0.00000E+00
         0.00000E+00
         0.00000E+00
         0.00000E+00
         0.00000E+00
         0.00000E+00
         0.00000E+00
         0.00000E+00
         0.00000E+00
         0.00000E+00
         0.00000E+00
         0.00000E+00
         0.00000E+00
         0.00000E+00
         0.00000E+00
         0.00000E+00
         0.00000E+00
         0.00000E+00
         0.00000E+00
         0.00000E+00
         0.00000E+00
         0.00000E+00
         0.00000E+00
         0.00000E+00
         0.00000E+00
         0.00000E+00
         0.00000E+00
         0.00000E+00
         0.00000E+00
         0.00000E+00
         0.00000E+00
         0.00000E+00
         0.00000E+00
         0.00000E+00
         0.00000E+00
         0.00000E+00
         0.00000E+00
         0.00000E+00
         0.00000E+00
         0.00000E+00
         0.00000E+00
         0.00000E+00
         0.00000E+00
         0.00000E+00
         0.00000E+00
         0.00000E+00
         0.00000E+00
         0.00000E+00
         0.00000E+00
         0.00000E+00
         0.00000E+00
         0.00000E+00
         0.00000E+00
         0.00000E+00
         0.00000E+00
         0.00000E+00
         0.00000E+00
         0.00000E+00
         0.00000E+00
         0.00000E+00
         0.00000E+00
         0.00000E+00
         0.00000E+00
         0.00000E+00
         0.00000E+00
         0.00000E+00
         0.00000E+00
         0.00000E+00
         0.00000E+00
         0.00000E+00
         0.00000E+00
         0.00000E+00
         0.00000E+00
         0.00000E+00
         0.00000E+00
         0.00000E+00
         0.00000E+00
         0.00000E+00
         0.00000E+00
         0.00000E+00
         0.00000E+00
         0.00000E+00
         0.00000E+00
         0.00000E+00
         0.00000E+00
         0.00000E+00
         0.00000E+00
         0.00000E+00
         0.00000E+00
         0.00000E+00
         0.00000E+00
         0.00000E+00
         0.00000E+00
         0.00000E+00
         0.00000E+00
         0.00000E+00
         0.00000E+00
         0.00000E+00
         0.00000E+00
         0.00000E+00
         0.00000E+00
         0.00000E+00
         0.00000E+00
         0.00000E+00
         0.00000E+00
         0.00000E+00
         0.00000E+00
         0.00000E+00
         0.00000E+00
         0.00000E+00
         0.00000E+00
         0.00000E+00
         0.00000E+00
         0.00000E+00
         0.00000E+00
         0.00000E+00
         0.00000E+00
         0.00000E+00
         0.00000E+00
         0.00000E+00
         0.00000E+00
  
SCALARS                   max_wave_vel  double 1
LOOKUP_TABLE default
         0.00000E+00
         0.00000E+00
         0.00000E+00
         0.00000E+00
         0.00000E+00
         0.00000E+00
         0.00000E+00
         0.00000E+00
         0.00000E+00
         0.00000E+00
         0.00000E+00
         0.00000E+00
         0.00000E+00
         0.00000E+00
         0.00000E+00
         0.00000E+00
         0.00000E+00
         0.00000E+00
         0.00000E+00
         0.00000E+00
         0.00000E+00
         0.00000E+00
         0.00000E+00
         0.00000E+00
         0.00000E+00
         0.00000E+00
         0.00000E+00
         0.00000E+00
         0.00000E+00
         0.00000E+00
         0.00000E+00
         0.00000E+00
         0.00000E+00
         0.00000E+00
         0.00000E+00
         0.00000E+00
         0.00000E+00
         0.00000E+00
         0.00000E+00
         0.00000E+00
         0.00000E+00
         0.00000E+00
         0.00000E+00
         0.00000E+00
         0.00000E+00
         0.00000E+00
         0.00000E+00
         0.00000E+00
         0.00000E+00
         0.00000E+00
         0.00000E+00
         0.00000E+00
         0.00000E+00
         0.00000E+00
         0.00000E+00
         0.00000E+00
         0.00000E+00
         0.00000E+00
         0.00000E+00
         0.00000E+00
         0.00000E+00
         0.00000E+00
         0.00000E+00
         0.00000E+00
         0.00000E+00
         0.00000E+00
         0.00000E+00
         0.00000E+00
         0.00000E+00
         0.00000E+00
         0.00000E+00
         0.00000E+00
         0.00000E+00
         0.00000E+00
         0.00000E+00
         0.00000E+00
         0.00000E+00
         0.00000E+00
         0.00000E+00
         0.00000E+00
         0.00000E+00
         0.00000E+00
         0.00000E+00
         0.00000E+00
         0.00000E+00
         0.00000E+00
         0.00000E+00
         0.00000E+00
         0.00000E+00
         0.00000E+00
         0.00000E+00
         0.00000E+00
         0.00000E+00
         0.00000E+00
         0.00000E+00
         0.00000E+00
         0.00000E+00
         0.00000E+00
         0.00000E+00
         0.00000E+00
         0.00000E+00
         0.00000E+00
         0.00000E+00
         0.00000E+00
         0.00000E+00
         0.00000E+00
         0.00000E+00
         0.00000E+00
         0.00000E+00
         0.00000E+00
         0.00000E+00
         0.00000E+00
         0.00000E+00
         0.00000E+00
         0.00000E+00
         0.00000E+00
         0.00000E+00
         0.00000E+00
         0.00000E+00
         0.00000E+00
         0.00000E+00
         0.00000E+00
         0.00000E+00
         0.00000E+00
         0.00000E+00
         0.00000E+00
         0.00000E+00
         0.00000E+00
         0.00000E+00
         0.00000E+00
         0.00000E+00
         0.00000E+00
         0.00000E+00
         0.00000E+00
         0.00000E+00
         0.00000E+00
         0.00000E+00
         0.00000E+00
         0.00000E+00
         0.00000E+00
         0.00000E+00
         0.00000E+00
         0.00000E+00
         0.00000E+00
         0.00000E+00
         0.00000E+00
         0.00000E+00
         0.00000E+00
         0.00000E+00
         0.00000E+00
         0.00000E+00
         0.00000E+00
         0.00000E+00
         0.00000E+00
         0.00000E+00
         0.00000E+00
         0.00000E+00
         0.00000E+00
         0.00000E+00
         0.00000E+00
         0.00000E+00
         0.00000E+00
         0.00000E+00
         0.00000E+00
         0.00000E+00
         0.00000E+00
         0.00000E+00
         0.00000E+00
         0.00000E+00
         0.00000E+00
         0.00000E+00
         0.00000E+00
         0.00000E+00
         0.00000E+00
         0.00000E+00
         0.00000E+00
         0.00000E+00
         0.00000E+00
         0.00000E+00
         0.00000E+00
         0.00000E+00
         0.00000E+00
         0.00000E+00
         0.00000E+00
         0.00000E+00
         0.00000E+00
         0.00000E+00
         0.00000E+00
         0.00000E+00
         0.00000E+00
         0.00000E+00
         0.00000E+00
         0.00000E+00
         0.00000E+00
         0.00000E+00
         0.00000E+00
         0.00000E+00
         0.00000E+00
         0.00000E+00
         0.00000E+00
         0.00000E+00
         0.00000E+00
         0.00000E+00
         0.00000E+00
         0.00000E+00
         0.00000E+00
         0.00000E+00
         0.00000E+00
         0.00000E+00
         0.00000E+00
         0.00000E+00
         0.00000E+00
         0.00000E+00
         0.00000E+00
         0.00000E+00
         0.00000E+00
         0.00000E+00
         0.00000E+00
         0.00000E+00
         0.00000E+00
         0.00000E+00
         0.00000E+00
         0.00000E+00
         0.00000E+00
         0.00000E+00
         0.00000E+00
         0.00000E+00
         0.00000E+00
         0.00000E+00
         0.00000E+00
         0.00000E+00
         0.00000E+00
         0.00000E+00
         0.00000E+00
         0.00000E+00
         0.00000E+00
         0.00000E+00
         0.00000E+00
         0.00000E+00
         0.00000E+00
         0.00000E+00
         0.00000E+00
         0.00000E+00
         0.00000E+00
         0.00000E+00
         0.00000E+00
         0.00000E+00
         0.00000E+00
         0.00000E+00
         0.00000E+00
         0.00000E+00
         0.00000E+00
         0.00000E+00
         0.00000E+00
         0.00000E+00
         0.00000E+00
         0.00000E+00
         0.00000E+00
         0.00000E+00
         0.00000E+00
         0.00000E+00
         0.00000E+00
         0.00000E+00
         0.00000E+00
         0.00000E+00
         0.00000E+00
         0.00000E+00
         0.00000E+00
         0.00000E+00
         0.00000E+00
         0.00000E+00
         0.00000E+00
         0.00000E+00
         0.00000E+00
         0.00000E+00
         0.00000E+00
         0.00000E+00
         0.00000E+00
         0.00000E+00
         0.00000E+00
         0.00000E+00
         0.00000E+00
         0.00000E+00
         0.00000E+00
         0.00000E+00
         0.00000E+00
         0.00000E+00
         0.00000E+00
         0.00000E+00
         0.00000E+00
         0.00000E+00
         0.00000E+00
         0.00000E+00
         0.00000E+00
         0.00000E+00
         0.00000E+00
         0.00000E+00
         0.00000E+00
         0.00000E+00
         0.00000E+00
         0.00000E+00
         0.00000E+00
         0.00000E+00
         0.00000E+00
         0.00000E+00
         0.00000E+00
         0.00000E+00
         0.00000E+00
         0.00000E+00
         0.00000E+00
         0.00000E+00
         0.00000E+00
         0.00000E+00
         0.00000E+00
         0.00000E+00
         0.00000E+00
         0.00000E+00
         0.00000E+00
         0.00000E+00
         0.00000E+00
         0.00000E+00
         0.00000E+00
         0.00000E+00
         0.00000E+00
         0.00000E+00
         0.00000E+00
         0.00000E+00
         0.00000E+00
         0.00000E+00
         0.00000E+00
         0.00000E+00
         0.00000E+00
         0.00000E+00
         0.00000E+00
         0.00000E+00
         0.00000E+00
         0.00000E+00
         0.00000E+00
         0.00000E+00
         0.00000E+00
         0.00000E+00
         0.00000E+00
         0.00000E+00
         0.00000E+00
         0.00000E+00
         0.00000E+00
         0.00000E+00
         0.00000E+00
         0.00000E+00
         0.00000E+00
         0.00000E+00
         0.00000E+00
         0.00000E+00
         0.00000E+00
         0.00000E+00
         0.00000E+00
         0.00000E+00
         0.00000E+00
         0.00000E+00
         0.00000E+00
         0.00000E+00
         0.00000E+00
         0.00000E+00
         0.00000E+00
         0.00000E+00
         0.00000E+00
         0.00000E+00
         0.00000E+00
         0.00000E+00
         0.00000E+00
         0.00000E+00
         0.00000E+00
         0.00000E+00
         0.00000E+00
         0.00000E+00
         0.00000E+00
         0.00000E+00
         0.00000E+00
         0.00000E+00
         0.00000E+00
         0.00000E+00
         0.00000E+00
         0.00000E+00
         0.00000E+00
         0.00000E+00
         0.00000E+00
         0.00000E+00
         0.00000E+00
         0.00000E+00
         0.00000E+00
         0.00000E+00
         0.00000E+00
         0.00000E+00
         0.00000E+00
         0.00000E+00
         0.00000E+00
         0.00000E+00
         0.00000E+00
         0.00000E+00
         0.00000E+00
         0.00000E+00
         0.00000E+00
         0.00000E+00
         0.00000E+00
         0.00000E+00
         0.00000E+00
         0.00000E+00
         0.00000E+00
         0.00000E+00
         0.00000E+00
         0.00000E+00
         0.00000E+00
         0.00000E+00
         0.00000E+00
         0.00000E+00
         0.00000E+00
         0.00000E+00
         0.00000E+00
         0.00000E+00
         0.00000E+00
         0.00000E+00
         0.00000E+00
         0.00000E+00
         0.00000E+00
         0.00000E+00
         0.00000E+00
         0.00000E+00
         0.00000E+00
         0.00000E+00
         0.00000E+00
         0.00000E+00
         0.00000E+00
         0.00000E+00
         0.00000E+00
         0.00000E+00
         0.00000E+00
         0.00000E+00
         0.00000E+00
         0.00000E+00
         0.00000E+00
         0.00000E+00
         0.00000E+00
         0.00000E+00
         0.00000E+00
         0.00000E+00
         0.00000E+00
         0.00000E+00
         0.00000E+00
         0.00000E+00
         0.00000E+00
         0.00000E+00
         0.00000E+00
         0.00000E+00
         0.00000E+00
         0.00000E+00
         0.00000E+00
         0.00000E+00
         0.00000E+00
         0.00000E+00
         0.00000E+00
         0.00000E+00
         0.00000E+00
         0.00000E+00
         0.00000E+00
         0.00000E+00
         0.00000E+00
         0.00000E+00
         0.00000E+00
         0.00000E+00
         0.00000E+00
         0.00000E+00
         0.00000E+00
         0.00000E+00
         0.00000E+00
         0.00000E+00
         0.00000E+00
         0.00000E+00
         0.00000E+00
         0.00000E+00
         0.00000E+00
         0.00000E+00
         0.00000E+00
         0.00000E+00
         0.00000E+00
         0.00000E+00
         0.00000E+00
         0.00000E+00
         0.00000E+00
         0.00000E+00
         0.00000E+00
         0.00000E+00
         0.00000E+00
         0.00000E+00
         0.00000E+00
         0.00000E+00
         0.00000E+00
         0.00000E+00
         0.00000E+00
         0.00000E+00
         0.00000E+00
         0.00000E+00
         0.00000E+00
         0.00000E+00
         0.00000E+00
         0.00000E+00
         0.00000E+00
         0.00000E+00
         0.00000E+00
         0.00000E+00
         0.00000E+00
         0.00000E+00
         0.00000E+00
         0.00000E+00
         0.00000E+00
         0.00000E+00
         0.00000E+00
         0.00000E+00
         0.00000E+00
         0.00000E+00
         0.00000E+00
         0.00000E+00
         0.00000E+00
         0.00000E+00
         0.00000E+00
         0.00000E+00
         0.00000E+00
         0.00000E+00
         0.00000E+00
         0.00000E+00
         0.00000E+00
         0.00000E+00
         0.00000E+00
         0.00000E+00
         0.00000E+00
         0.00000E+00
         0.00000E+00
         0.00000E+00
         0.00000E+00
         0.00000E+00
         0.00000E+00
         0.00000E+00
         0.00000E+00
         0.00000E+00
         0.00000E+00
         0.00000E+00
         0.00000E+00
         0.00000E+00
         0.00000E+00
         0.00000E+00
         0.00000E+00
         0.00000E+00
         0.00000E+00
         0.00000E+00
         0.00000E+00
         0.00000E+00
         0.00000E+00
         0.00000E+00
         0.00000E+00
         0.00000E+00
         0.00000E+00
         0.00000E+00
         0.00000E+00
         0.00000E+00
         0.00000E+00
         0.00000E+00
         0.00000E+00
         0.00000E+00
         0.00000E+00
         0.00000E+00
         0.00000E+00
         0.00000E+00
         0.00000E+00
         0.00000E+00
         0.00000E+00
         0.00000E+00
         0.00000E+00
         0.00000E+00
         0.00000E+00
         0.00000E+00
         0.00000E+00
         0.00000E+00
         0.00000E+00
         0.00000E+00
         0.00000E+00
         0.00000E+00
         0.00000E+00
         0.00000E+00
         0.00000E+00
         0.00000E+00
         0.00000E+00
         0.00000E+00
         0.00000E+00
         0.00000E+00
         0.00000E+00
         0.00000E+00
         0.00000E+00
         0.00000E+00
         0.00000E+00
         0.00000E+00
         0.00000E+00
         0.00000E+00
         0.00000E+00
         0.00000E+00
         0.00000E+00
         0.00000E+00
         0.00000E+00
         0.00000E+00
         0.00000E+00
         0.00000E+00
         0.00000E+00
         0.00000E+00
         0.00000E+00
         0.00000E+00
         0.00000E+00
         0.00000E+00
         0.00000E+00
         0.00000E+00
         0.00000E+00
         0.00000E+00
         0.00000E+00
         0.00000E+00
         0.00000E+00
         0.00000E+00
         0.00000E+00
         0.00000E+00
         0.00000E+00
         0.00000E+00
         0.00000E+00
         0.00000E+00
         0.00000E+00
         0.00000E+00
         0.00000E+00
         0.00000E+00
         0.00000E+00
         0.00000E+00
         0.00000E+00
         0.00000E+00
         0.00000E+00
         0.00000E+00
         0.00000E+00
         0.00000E+00
         0.00000E+00
         0.00000E+00
         0.00000E+00
         0.00000E+00
         0.00000E+00
         0.00000E+00
         0.00000E+00
         0.00000E+00
         0.00000E+00
         0.00000E+00
         0.00000E+00
         0.00000E+00
         0.00000E+00
         0.00000E+00
         0.00000E+00
         0.00000E+00
         0.00000E+00
         0.00000E+00
         0.00000E+00
         0.00000E+00
         0.00000E+00
         0.00000E+00
         0.00000E+00
         0.00000E+00
         0.00000E+00
         0.00000E+00
         0.00000E+00
         0.00000E+00
         0.00000E+00
         0.00000E+00
         0.00000E+00
         0.00000E+00
         0.00000E+00
         0.00000E+00
         0.00000E+00
         0.00000E+00
         0.00000E+00
         0.00000E+00
         0.00000E+00
         0.00000E+00
         0.00000E+00
         0.00000E+00
         0.00000E+00
         0.00000E+00
         0.00000E+00
         0.00000E+00
         0.00000E+00
         0.00000E+00
         0.00000E+00
         0.00000E+00
         0.00000E+00
         0.00000E+00
         0.00000E+00
         0.00000E+00
         0.00000E+00
         0.00000E+00
         0.00000E+00
         0.00000E+00
         0.00000E+00
         0.00000E+00
         0.00000E+00
         0.00000E+00
         0.00000E+00
         0.00000E+00
         0.00000E+00
         0.00000E+00
         0.00000E+00
         0.00000E+00
         0.00000E+00
         0.00000E+00
         0.00000E+00
         0.00000E+00
         0.00000E+00
         0.00000E+00
         0.00000E+00
         0.00000E+00
         0.00000E+00
         0.00000E+00
         0.00000E+00
         0.00000E+00
         0.00000E+00
         0.00000E+00
         0.00000E+00
         0.00000E+00
         0.00000E+00
         0.00000E+00
         0.00000E+00
         0.00000E+00
         0.00000E+00
         0.00000E+00
         0.00000E+00
         0.00000E+00
         0.00000E+00
         0.00000E+00
         0.00000E+00
         0.00000E+00
         0.00000E+00
         0.00000E+00
         0.00000E+00
         0.00000E+00
         0.00000E+00
         0.00000E+00
         0.00000E+00
         0.00000E+00
         0.00000E+00
         0.00000E+00
         0.00000E+00
         0.00000E+00
         0.00000E+00
         0.00000E+00
         0.00000E+00
         0.00000E+00
         0.00000E+00
         0.00000E+00
         0.00000E+00
         0.00000E+00
         0.00000E+00
         0.00000E+00
         0.00000E+00
         0.00000E+00
         0.00000E+00
         0.00000E+00
         0.00000E+00
         0.00000E+00
         0.00000E+00
         0.00000E+00
         0.00000E+00
         0.00000E+00
         0.00000E+00
         0.00000E+00
         0.00000E+00
         0.00000E+00
         0.00000E+00
         0.00000E+00
         0.00000E+00
         0.00000E+00
         0.00000E+00
         0.00000E+00
         0.00000E+00
         0.00000E+00
         0.00000E+00
         0.00000E+00
         0.00000E+00
         0.00000E+00
         0.00000E+00
         0.00000E+00
         0.00000E+00
         0.00000E+00
         0.00000E+00
         0.00000E+00
         0.00000E+00
         0.00000E+00
         0.00000E+00
         0.00000E+00
         0.00000E+00
         0.00000E+00
         0.00000E+00
         0.00000E+00
         0.00000E+00
         0.00000E+00
         0.00000E+00
         0.00000E+00
         0.00000E+00
         0.00000E+00
         0.00000E+00
         0.00000E+00
         0.00000E+00
         0.00000E+00
         0.00000E+00
         0.00000E+00
         0.00000E+00
         0.00000E+00
         0.00000E+00
         0.00000E+00
         0.00000E+00
         0.00000E+00
         0.00000E+00
         0.00000E+00
         0.00000E+00
         0.00000E+00
         0.00000E+00
         0.00000E+00
         0.00000E+00
         0.00000E+00
         0.00000E+00
         0.00000E+00
         0.00000E+00
         0.00000E+00
         0.00000E+00
         0.00000E+00
         0.00000E+00
         0.00000E+00
         0.00000E+00
         0.00000E+00
         0.00000E+00
         0.00000E+00
         0.00000E+00
         0.00000E+00
         0.00000E+00
         0.00000E+00
         0.00000E+00
         0.00000E+00
         0.00000E+00
         0.00000E+00
         0.00000E+00
         0.00000E+00
         0.00000E+00
         0.00000E+00
         0.00000E+00
         0.00000E+00
         0.00000E+00
         0.00000E+00
         0.00000E+00
         0.00000E+00
         0.00000E+00
         0.00000E+00
         0.00000E+00
         0.00000E+00
         0.00000E+00
         0.00000E+00
         0.00000E+00
         0.00000E+00
         0.00000E+00
         0.00000E+00
         0.00000E+00
         0.00000E+00
         0.00000E+00
         0.00000E+00
         0.00000E+00
         0.00000E+00
         0.00000E+00
         0.00000E+00
         0.00000E+00
         0.00000E+00
         0.00000E+00
         0.00000E+00
         0.00000E+00
         0.00000E+00
         0.00000E+00
         0.00000E+00
         0.00000E+00
         0.00000E+00
         0.00000E+00
         0.00000E+00
         0.00000E+00
         0.00000E+00
         0.00000E+00
         0.00000E+00
         0.00000E+00
         0.00000E+00
         0.00000E+00
         0.00000E+00
         0.00000E+00
         0.00000E+00
         0.00000E+00
         0.00000E+00
         0.00000E+00
         0.00000E+00
         0.00000E+00
         0.00000E+00
         0.00000E+00
         0.00000E+00
         0.00000E+00
         0.00000E+00
         0.00000E+00
         0.00000E+00
         0.00000E+00
         0.00000E+00
         0.00000E+00
         0.00000E+00
         0.00000E+00
         0.00000E+00
         0.00000E+00
         0.00000E+00
         0.00000E+00
         0.00000E+00
         0.00000E+00
         0.00000E+00
         0.00000E+00
         0.00000E+00
         0.00000E+00
         0.00000E+00
         0.00000E+00
         0.00000E+00
         0.00000E+00
         0.00000E+00
         0.00000E+00
         0.00000E+00
         0.00000E+00
         0.00000E+00
         0.00000E+00
         0.00000E+00
         0.00000E+00
         0.00000E+00
         0.00000E+00
         0.00000E+00
         0.00000E+00
         0.00000E+00
         0.00000E+00
         0.00000E+00
         0.00000E+00
         0.00000E+00
         0.00000E+00
         0.00000E+00
         0.00000E+00
         0.00000E+00
         0.00000E+00
         0.00000E+00
         0.00000E+00
         0.00000E+00
         0.00000E+00
         0.00000E+00
         0.00000E+00
         0.00000E+00
         0.00000E+00
         0.00000E+00
         0.00000E+00
         0.00000E+00
         0.00000E+00
         0.00000E+00
         0.00000E+00
         0.00000E+00
         0.00000E+00
         0.00000E+00
         0.00000E+00
         0.00000E+00
         0.00000E+00
         0.00000E+00
         0.00000E+00
         0.00000E+00
         0.00000E+00
         0.00000E+00
         0.00000E+00
         0.00000E+00
         0.00000E+00
         0.00000E+00
         0.00000E+00
         0.00000E+00
         0.00000E+00
         0.00000E+00
         0.00000E+00
         0.00000E+00
         0.00000E+00
         0.00000E+00
         0.00000E+00
         0.00000E+00
         0.00000E+00
         0.00000E+00
         0.00000E+00
         0.00000E+00
         0.00000E+00
         0.00000E+00
         0.00000E+00
         0.00000E+00
         0.00000E+00
         0.00000E+00
         0.00000E+00
         0.00000E+00
         0.00000E+00
         0.00000E+00
         0.00000E+00
         0.00000E+00
         0.00000E+00
         0.00000E+00
         0.00000E+00
         0.00000E+00
         0.00000E+00
         0.00000E+00
         0.00000E+00
         0.00000E+00
         0.00000E+00
         0.00000E+00
         0.00000E+00
         0.00000E+00
         0.00000E+00
         0.00000E+00
         0.00000E+00
         0.00000E+00
         0.00000E+00
         0.00000E+00
         0.00000E+00
         0.00000E+00
         0.00000E+00
         0.00000E+00
         0.00000E+00
         0.00000E+00
         0.00000E+00
         0.00000E+00
         0.00000E+00
         0.00000E+00
         0.00000E+00
         0.00000E+00
         0.00000E+00
         0.00000E+00
         0.00000E+00
         0.00000E+00
         0.00000E+00
         0.00000E+00
         0.00000E+00
         0.00000E+00
         0.00000E+00
         0.00000E+00
         0.00000E+00
         0.00000E+00
         0.00000E+00
         0.00000E+00
         0.00000E+00
         0.00000E+00
         0.00000E+00
         0.00000E+00
         0.00000E+00
         0.00000E+00
         0.00000E+00
         0.00000E+00
         0.00000E+00
         0.00000E+00
         0.00000E+00
         0.00000E+00
         0.00000E+00
         0.00000E+00
         0.00000E+00
         0.00000E+00
         0.00000E+00
         0.00000E+00
         0.00000E+00
         0.00000E+00
         0.00000E+00
         0.00000E+00
         0.00000E+00
         0.00000E+00
         0.00000E+00
         0.00000E+00
         0.00000E+00
         0.00000E+00
         0.00000E+00
         0.00000E+00
         0.00000E+00
         0.00000E+00
         0.00000E+00
         0.00000E+00
         0.00000E+00
         0.00000E+00
         0.00000E+00
         0.00000E+00
         0.00000E+00
         0.00000E+00
         0.00000E+00
         0.00000E+00
         0.00000E+00
         0.00000E+00
         0.00000E+00
         0.00000E+00
         0.00000E+00
         0.00000E+00
         0.00000E+00
         0.00000E+00
         0.00000E+00
         0.00000E+00
         0.00000E+00
         0.00000E+00
         0.00000E+00
         0.00000E+00
         0.00000E+00
         0.00000E+00
         0.00000E+00
         0.00000E+00
         0.00000E+00
         0.00000E+00
         0.00000E+00
         0.00000E+00
         0.00000E+00
         0.00000E+00
         0.00000E+00
         0.00000E+00
         0.00000E+00
         0.00000E+00
         0.00000E+00
         0.00000E+00
         0.00000E+00
         0.00000E+00
         0.00000E+00
         0.00000E+00
         0.00000E+00
         0.00000E+00
         0.00000E+00
         0.00000E+00
         0.00000E+00
         0.00000E+00
         0.00000E+00
         0.00000E+00
         0.00000E+00
         0.00000E+00
         0.00000E+00
         0.00000E+00
         0.00000E+00
         0.00000E+00
         0.00000E+00
         0.00000E+00
         0.00000E+00
         0.00000E+00
         0.00000E+00
         0.00000E+00
         0.00000E+00
         0.00000E+00
         0.00000E+00
         0.00000E+00
         0.00000E+00
         0.00000E+00
         0.00000E+00
         0.00000E+00
         0.00000E+00
         0.00000E+00
         0.00000E+00
         0.00000E+00
         0.00000E+00
         0.00000E+00
         0.00000E+00
         0.00000E+00
         0.00000E+00
         0.00000E+00
         0.00000E+00
         0.00000E+00
         0.00000E+00
         0.00000E+00
         0.00000E+00
         0.00000E+00
         0.00000E+00
         0.00000E+00
         0.00000E+00
         0.00000E+00
         0.00000E+00
         0.00000E+00
         0.00000E+00
         0.00000E+00
         0.00000E+00
         0.00000E+00
         0.00000E+00
         0.00000E+00
         0.00000E+00
         0.00000E+00
         0.00000E+00
         0.00000E+00
         0.00000E+00
         0.00000E+00
         0.00000E+00
         0.00000E+00
         0.00000E+00
         0.00000E+00
         0.00000E+00
         0.00000E+00
         0.00000E+00
         0.00000E+00
         0.00000E+00
         0.00000E+00
         0.00000E+00
         0.00000E+00
         0.00000E+00
         0.00000E+00
         0.00000E+00
         0.00000E+00
         0.00000E+00
         0.00000E+00
         0.00000E+00
         0.00000E+00
         0.00000E+00
         0.00000E+00
         0.00000E+00
         0.00000E+00
         0.00000E+00
         0.00000E+00
         0.00000E+00
         0.00000E+00
         0.00000E+00
         0.00000E+00
         0.00000E+00
         0.00000E+00
         0.00000E+00
         0.00000E+00
         0.00000E+00
         0.00000E+00
         0.00000E+00
         0.00000E+00
         0.00000E+00
         0.00000E+00
         0.00000E+00
         0.00000E+00
         0.00000E+00
         0.00000E+00
         0.00000E+00
         0.00000E+00
         0.00000E+00
         0.00000E+00
         0.00000E+00
         0.00000E+00
         0.00000E+00
         0.00000E+00
         0.00000E+00
         0.00000E+00
         0.00000E+00
         0.00000E+00
         0.00000E+00
         0.00000E+00
         0.00000E+00
         0.00000E+00
         0.00000E+00
         0.00000E+00
         0.00000E+00
         0.00000E+00
         0.00000E+00
         0.00000E+00
         0.00000E+00
         0.00000E+00
         0.00000E+00
         0.00000E+00
         0.00000E+00
         0.00000E+00
         0.00000E+00
         0.00000E+00
         0.00000E+00
         0.00000E+00
         0.00000E+00
         0.00000E+00
         0.00000E+00
         0.00000E+00
         0.00000E+00
         0.00000E+00
         0.00000E+00
         0.00000E+00
         0.00000E+00
         0.00000E+00
         0.00000E+00
         0.00000E+00
         0.00000E+00
         0.00000E+00
         0.00000E+00
         0.00000E+00
         0.00000E+00
         0.00000E+00
         0.00000E+00
         0.00000E+00
         0.00000E+00
         0.00000E+00
         0.00000E+00
         0.00000E+00
         0.00000E+00
         0.00000E+00
         0.00000E+00
         0.00000E+00
         0.00000E+00
         0.00000E+00
         0.00000E+00
         0.00000E+00
         0.00000E+00
         0.00000E+00
         0.00000E+00
         0.00000E+00
         0.00000E+00
         0.00000E+00
         0.00000E+00
         0.00000E+00
         0.00000E+00
         0.00000E+00
         0.00000E+00
         0.00000E+00
         0.00000E+00
         0.00000E+00
         0.00000E+00
         0.00000E+00
         0.00000E+00
         0.00000E+00
         0.00000E+00
         0.00000E+00
         0.00000E+00
         0.00000E+00
         0.00000E+00
         0.00000E+00
         0.00000E+00
         0.00000E+00
         0.00000E+00
         0.00000E+00
         0.00000E+00
         0.00000E+00
         0.00000E+00
         0.00000E+00
         0.00000E+00
         0.00000E+00
         0.00000E+00
         0.00000E+00
         0.00000E+00
         0.00000E+00
         0.00000E+00
         0.00000E+00
         0.00000E+00
         0.00000E+00
         0.00000E+00
         0.00000E+00
         0.00000E+00
         0.00000E+00
         0.00000E+00
         0.00000E+00
         0.00000E+00
         0.00000E+00
         0.00000E+00
         0.00000E+00
         0.00000E+00
         0.00000E+00
         0.00000E+00
         0.00000E+00
         0.00000E+00
         0.00000E+00
         0.00000E+00
         0.00000E+00
         0.00000E+00
         0.00000E+00
         0.00000E+00
         0.00000E+00
         0.00000E+00
         0.00000E+00
         0.00000E+00
         0.00000E+00
         0.00000E+00
         0.00000E+00
         0.00000E+00
         0.00000E+00
         0.00000E+00
         0.00000E+00
         0.00000E+00
         0.00000E+00
         0.00000E+00
         0.00000E+00
         0.00000E+00
         0.00000E+00
         0.00000E+00
         0.00000E+00
         0.00000E+00
         0.00000E+00
         0.00000E+00
         0.00000E+00
         0.00000E+00
         0.00000E+00
         0.00000E+00
         0.00000E+00
         0.00000E+00
         0.00000E+00
         0.00000E+00
         0.00000E+00
         0.00000E+00
         0.00000E+00
         0.00000E+00
         0.00000E+00
         0.00000E+00
         0.00000E+00
         0.00000E+00
         0.00000E+00
         0.00000E+00
         0.00000E+00
         0.00000E+00
         0.00000E+00
         0.00000E+00
         0.00000E+00
         0.00000E+00
         0.00000E+00
         0.00000E+00
         0.00000E+00
         0.00000E+00
         0.00000E+00
         0.00000E+00
         0.00000E+00
         0.00000E+00
         0.00000E+00
         0.00000E+00
         0.00000E+00
         0.00000E+00
         0.00000E+00
         0.00000E+00
         0.00000E+00
         0.00000E+00
         0.00000E+00
         0.00000E+00
         0.00000E+00
         0.00000E+00
         0.00000E+00
         0.00000E+00
         0.00000E+00
         0.00000E+00
         0.00000E+00
         0.00000E+00
         0.00000E+00
         0.00000E+00
         0.00000E+00
         0.00000E+00
         0.00000E+00
         0.00000E+00
         0.00000E+00
         0.00000E+00
         0.00000E+00
         0.00000E+00
         0.00000E+00
         0.00000E+00
         0.00000E+00
         0.00000E+00
         0.00000E+00
         0.00000E+00
         0.00000E+00
         0.00000E+00
         0.00000E+00
         0.00000E+00
         0.00000E+00
         0.00000E+00
         0.00000E+00
         0.00000E+00
         0.00000E+00
         0.00000E+00
         0.00000E+00
         0.00000E+00
         0.00000E+00
         0.00000E+00
         0.00000E+00
         0.00000E+00
         0.00000E+00
         0.00000E+00
         0.00000E+00
         0.00000E+00
         0.00000E+00
         0.00000E+00
         0.00000E+00
         0.00000E+00
         0.00000E+00
         0.00000E+00
         0.00000E+00
         0.00000E+00
         0.00000E+00
         0.00000E+00
         0.00000E+00
         0.00000E+00
         0.00000E+00
         0.00000E+00
         0.00000E+00
         0.00000E+00
         0.00000E+00
         0.00000E+00
         0.00000E+00
         0.00000E+00
         0.00000E+00
         0.00000E+00
         0.00000E+00
         0.00000E+00
         0.00000E+00
         0.00000E+00
         0.00000E+00
         0.00000E+00
         0.00000E+00
         0.00000E+00
         0.00000E+00
         0.00000E+00
         0.00000E+00
         0.00000E+00
         0.00000E+00
         0.00000E+00
         0.00000E+00
         0.00000E+00
         0.00000E+00
         0.00000E+00
         0.00000E+00
         0.00000E+00
         0.00000E+00
         0.00000E+00
         0.00000E+00
         0.00000E+00
         0.00000E+00
         0.00000E+00
         0.00000E+00
         0.00000E+00
         0.00000E+00
         0.00000E+00
         0.00000E+00
         0.00000E+00
         0.00000E+00
         0.00000E+00
         0.00000E+00
         0.00000E+00
         0.00000E+00
         0.00000E+00
         0.00000E+00
         0.00000E+00
         0.00000E+00
         0.00000E+00
         0.00000E+00
         0.00000E+00
         0.00000E+00
         0.00000E+00
         0.00000E+00
         0.00000E+00
         0.00000E+00
         0.00000E+00
         0.00000E+00
         0.00000E+00
         0.00000E+00
         0.00000E+00
         0.00000E+00
         0.00000E+00
         0.00000E+00
         0.00000E+00
         0.00000E+00
         0.00000E+00
         0.00000E+00
         0.00000E+00
         0.00000E+00
         0.00000E+00
         0.00000E+00
         0.00000E+00
         0.00000E+00
         0.00000E+00
         0.00000E+00
         0.00000E+00
         0.00000E+00
         0.00000E+00
         0.00000E+00
         0.00000E+00
         0.00000E+00
         0.00000E+00
         0.00000E+00
         0.00000E+00
         0.00000E+00
         0.00000E+00
         0.00000E+00
         0.00000E+00
         0.00000E+00
         0.00000E+00
         0.00000E+00
         0.00000E+00
         0.00000E+00
         0.00000E+00
         0.00000E+00
         0.00000E+00
         0.00000E+00
         0.00000E+00
         0.00000E+00
         0.00000E+00
         0.00000E+00
         0.00000E+00
         0.00000E+00
         0.00000E+00
         0.00000E+00
         0.00000E+00
         0.00000E+00
         0.00000E+00
         0.00000E+00
         0.00000E+00
         0.00000E+00
         0.00000E+00
         0.00000E+00
         0.00000E+00
         0.00000E+00
         0.00000E+00
         0.00000E+00
         0.00000E+00
         0.00000E+00
         0.00000E+00
         0.00000E+00
         0.00000E+00
         0.00000E+00
         0.00000E+00
         0.00000E+00
         0.00000E+00
         0.00000E+00
         0.00000E+00
         0.00000E+00
         0.00000E+00
         0.00000E+00
         0.00000E+00
         0.00000E+00
         0.00000E+00
         0.00000E+00
         0.00000E+00
         0.00000E+00
         0.00000E+00
         0.00000E+00
         0.00000E+00
         0.00000E+00
         0.00000E+00
         0.00000E+00
         0.00000E+00
         0.00000E+00
         0.00000E+00
         0.00000E+00
         0.00000E+00
         0.00000E+00
         0.00000E+00
         0.00000E+00
         0.00000E+00
         0.00000E+00
         0.00000E+00
         0.00000E+00
         0.00000E+00
         0.00000E+00
         0.00000E+00
         0.00000E+00
         0.00000E+00
         0.00000E+00
         0.00000E+00
         0.00000E+00
         0.00000E+00
         0.00000E+00
         0.00000E+00
         0.00000E+00
         0.00000E+00
         0.00000E+00
         0.00000E+00
         0.00000E+00
         0.00000E+00
         0.00000E+00
         0.00000E+00
         0.00000E+00
         0.00000E+00
         0.00000E+00
         0.00000E+00
         0.00000E+00
         0.00000E+00
         0.00000E+00
         0.00000E+00
         0.00000E+00
         0.00000E+00
         0.00000E+00
         0.00000E+00
         0.00000E+00
         0.00000E+00
         0.00000E+00
         0.00000E+00
         0.00000E+00
         0.00000E+00
         0.00000E+00
         0.00000E+00
         0.00000E+00
         0.00000E+00
         0.00000E+00
         0.00000E+00
         0.00000E+00
         0.00000E+00
         0.00000E+00
         0.00000E+00
         0.00000E+00
         0.00000E+00
         0.00000E+00
         0.00000E+00
         0.00000E+00
         0.00000E+00
         0.00000E+00
         0.00000E+00
         0.00000E+00
         0.00000E+00
         0.00000E+00
         0.00000E+00
         0.00000E+00
         0.00000E+00
         0.00000E+00
         0.00000E+00
         0.00000E+00
         0.00000E+00
         0.00000E+00
         0.00000E+00
         0.00000E+00
         0.00000E+00
         0.00000E+00
         0.00000E+00
         0.00000E+00
         0.00000E+00
         0.00000E+00
         0.00000E+00
         0.00000E+00
         0.00000E+00
         0.00000E+00
         0.00000E+00
         0.00000E+00
         0.00000E+00
         0.00000E+00
         0.00000E+00
         0.00000E+00
         0.00000E+00
         0.00000E+00
         0.00000E+00
         0.00000E+00
         0.00000E+00
         0.00000E+00
         0.00000E+00
         0.00000E+00
         0.00000E+00
         0.00000E+00
         0.00000E+00
         0.00000E+00
         0.00000E+00
         0.00000E+00
         0.00000E+00
         0.00000E+00
         0.00000E+00
         0.00000E+00
         0.00000E+00
         0.00000E+00
         0.00000E+00
         0.00000E+00
         0.00000E+00
         0.00000E+00
         0.00000E+00
         0.00000E+00
         0.00000E+00
         0.00000E+00
         0.00000E+00
         0.00000E+00
         0.00000E+00
         0.00000E+00
         0.00000E+00
         0.00000E+00
         0.00000E+00
         0.00000E+00
         0.00000E+00
         0.00000E+00
         0.00000E+00
         0.00000E+00
         0.00000E+00
         0.00000E+00
         0.00000E+00
         0.00000E+00
         0.00000E+00
         0.00000E+00
         0.00000E+00
         0.00000E+00
         0.00000E+00
         0.00000E+00
         0.00000E+00
         0.00000E+00
         0.00000E+00
         0.00000E+00
         0.00000E+00
         0.00000E+00
         0.00000E+00
         0.00000E+00
         0.00000E+00
         0.00000E+00
         0.00000E+00
         0.00000E+00
         0.00000E+00
         0.00000E+00
         0.00000E+00
         0.00000E+00
         0.00000E+00
         0.00000E+00
         0.00000E+00
         0.00000E+00
         0.00000E+00
         0.00000E+00
         0.00000E+00
         0.00000E+00
         0.00000E+00
         0.00000E+00
         0.00000E+00
         0.00000E+00
         0.00000E+00
         0.00000E+00
         0.00000E+00
         0.00000E+00
         0.00000E+00
         0.00000E+00
         0.00000E+00
         0.00000E+00
         0.00000E+00
         0.00000E+00
         0.00000E+00
         0.00000E+00
         0.00000E+00
         0.00000E+00
         0.00000E+00
         0.00000E+00
         0.00000E+00
         0.00000E+00
         0.00000E+00
         0.00000E+00
         0.00000E+00
         0.00000E+00
         0.00000E+00
         0.00000E+00
         0.00000E+00
         0.00000E+00
         0.00000E+00
         0.00000E+00
         0.00000E+00
         0.00000E+00
         0.00000E+00
         0.00000E+00
         0.00000E+00
         0.00000E+00
         0.00000E+00
         0.00000E+00
         0.00000E+00
         0.00000E+00
         0.00000E+00
         0.00000E+00
         0.00000E+00
         0.00000E+00
         0.00000E+00
         0.00000E+00
         0.00000E+00
         0.00000E+00
         0.00000E+00
         0.00000E+00
         0.00000E+00
         0.00000E+00
         0.00000E+00
         0.00000E+00
         0.00000E+00
         0.00000E+00
         0.00000E+00
         0.00000E+00
         0.00000E+00
         0.00000E+00
         0.00000E+00
         0.00000E+00
         0.00000E+00
         0.00000E+00
         0.00000E+00
         0.00000E+00
         0.00000E+00
         0.00000E+00
         0.00000E+00
         0.00000E+00
         0.00000E+00
         0.00000E+00
         0.00000E+00
         0.00000E+00
         0.00000E+00
         0.00000E+00
         0.00000E+00
         0.00000E+00
         0.00000E+00
         0.00000E+00
         0.00000E+00
         0.00000E+00
         0.00000E+00
         0.00000E+00
         0.00000E+00
         0.00000E+00
         0.00000E+00
         0.00000E+00
         0.00000E+00
         0.00000E+00
         0.00000E+00
         0.00000E+00
         0.00000E+00
         0.00000E+00
         0.00000E+00
         0.00000E+00
         0.00000E+00
         0.00000E+00
         0.00000E+00
         0.00000E+00
         0.00000E+00
         0.00000E+00
         0.00000E+00
         0.00000E+00
         0.00000E+00
         0.00000E+00
         0.00000E+00
         0.00000E+00
         0.00000E+00
         0.00000E+00
         0.00000E+00
         0.00000E+00
         0.00000E+00
         0.00000E+00
         0.00000E+00
         0.00000E+00
         0.00000E+00
         0.00000E+00
         0.00000E+00
         0.00000E+00
         0.00000E+00
         0.00000E+00
         0.00000E+00
         0.00000E+00
         0.00000E+00
         0.00000E+00
         0.00000E+00
         0.00000E+00
         0.00000E+00
         0.00000E+00
         0.00000E+00
         0.00000E+00
         0.00000E+00
         0.00000E+00
         0.00000E+00
         0.00000E+00
         0.00000E+00
         0.00000E+00
         0.00000E+00
         0.00000E+00
         0.00000E+00
         0.00000E+00
         0.00000E+00
         0.00000E+00
         0.00000E+00
         0.00000E+00
         0.00000E+00
         0.00000E+00
         0.00000E+00
         0.00000E+00
         0.00000E+00
         0.00000E+00
         0.00000E+00
         0.00000E+00
         0.00000E+00
  
SCALARS                      eps_shear  double 1
LOOKUP_TABLE default
         0.00000E+00
         0.00000E+00
         0.00000E+00
         0.00000E+00
         0.00000E+00
         0.00000E+00
         0.00000E+00
         0.00000E+00
         0.00000E+00
         0.00000E+00
         0.00000E+00
         0.00000E+00
         0.00000E+00
         0.00000E+00
         0.00000E+00
         0.00000E+00
         0.00000E+00
         0.00000E+00
         0.00000E+00
         0.00000E+00
         0.00000E+00
         0.00000E+00
         0.00000E+00
         0.00000E+00
         0.00000E+00
         0.00000E+00
         0.00000E+00
         0.00000E+00
         0.00000E+00
         0.00000E+00
         0.00000E+00
         0.00000E+00
         0.00000E+00
         0.00000E+00
         0.00000E+00
         0.00000E+00
         0.00000E+00
         0.00000E+00
         0.00000E+00
         0.00000E+00
         0.00000E+00
         0.00000E+00
         0.00000E+00
         0.00000E+00
         0.00000E+00
         0.00000E+00
         0.00000E+00
         0.00000E+00
         0.00000E+00
         0.00000E+00
         0.00000E+00
         0.00000E+00
         0.00000E+00
         0.00000E+00
         0.00000E+00
         0.00000E+00
         0.00000E+00
         0.00000E+00
         0.00000E+00
         0.00000E+00
         0.00000E+00
         0.00000E+00
         0.00000E+00
         0.00000E+00
         0.00000E+00
         0.00000E+00
         0.00000E+00
         0.00000E+00
         0.00000E+00
         0.00000E+00
         0.00000E+00
         0.00000E+00
         0.00000E+00
         0.00000E+00
         0.00000E+00
         0.00000E+00
         0.00000E+00
         0.00000E+00
         0.00000E+00
         0.00000E+00
         0.00000E+00
         0.00000E+00
         0.00000E+00
         0.00000E+00
         0.00000E+00
         0.00000E+00
         0.00000E+00
         0.00000E+00
         0.00000E+00
         0.00000E+00
         0.00000E+00
         0.00000E+00
         0.00000E+00
         0.00000E+00
         0.00000E+00
         0.00000E+00
         0.00000E+00
         0.00000E+00
         0.00000E+00
         0.00000E+00
         0.00000E+00
         0.00000E+00
         0.00000E+00
         0.00000E+00
         0.00000E+00
         0.00000E+00
         0.00000E+00
         0.00000E+00
         0.00000E+00
         0.00000E+00
         0.00000E+00
         0.00000E+00
         0.00000E+00
         0.00000E+00
         0.00000E+00
         0.00000E+00
         0.00000E+00
         0.00000E+00
         0.00000E+00
         0.00000E+00
         0.00000E+00
         0.00000E+00
         0.00000E+00
         0.00000E+00
         0.00000E+00
         0.00000E+00
         0.00000E+00
         0.00000E+00
         0.00000E+00
         0.00000E+00
         0.00000E+00
         0.00000E+00
         0.00000E+00
         0.00000E+00
         0.00000E+00
         0.00000E+00
         0.00000E+00
         0.00000E+00
         0.00000E+00
         0.00000E+00
         0.00000E+00
         0.00000E+00
         0.00000E+00
         0.00000E+00
         0.00000E+00
         0.00000E+00
         0.00000E+00
         0.00000E+00
         0.00000E+00
         0.00000E+00
         0.00000E+00
         0.00000E+00
         0.00000E+00
         0.00000E+00
         0.00000E+00
         0.00000E+00
         0.00000E+00
         0.00000E+00
         0.00000E+00
         0.00000E+00
         0.00000E+00
         0.00000E+00
         0.00000E+00
         0.00000E+00
         0.00000E+00
         0.00000E+00
         0.00000E+00
         0.00000E+00
         0.00000E+00
         0.00000E+00
         0.00000E+00
         0.00000E+00
         0.00000E+00
         0.00000E+00
         0.00000E+00
         0.00000E+00
         0.00000E+00
         0.00000E+00
         0.00000E+00
         0.00000E+00
         0.00000E+00
         0.00000E+00
         0.00000E+00
         0.00000E+00
         0.00000E+00
         0.00000E+00
         0.00000E+00
         0.00000E+00
         0.00000E+00
         0.00000E+00
         0.00000E+00
         0.00000E+00
         0.00000E+00
         0.00000E+00
         0.00000E+00
         0.00000E+00
         0.00000E+00
         0.00000E+00
         0.00000E+00
         0.00000E+00
         0.00000E+00
         0.00000E+00
         0.00000E+00
         0.00000E+00
         0.00000E+00
         0.00000E+00
         0.00000E+00
         0.00000E+00
         0.00000E+00
         0.00000E+00
         0.00000E+00
         0.00000E+00
         0.00000E+00
         0.00000E+00
         0.00000E+00
         0.00000E+00
         0.00000E+00
         0.00000E+00
         0.00000E+00
         0.00000E+00
         0.00000E+00
         0.00000E+00
         0.00000E+00
         0.00000E+00
         0.00000E+00
         0.00000E+00
         0.00000E+00
         0.00000E+00
         0.00000E+00
         0.00000E+00
         0.00000E+00
         0.00000E+00
         0.00000E+00
         0.00000E+00
         0.00000E+00
         0.00000E+00
         0.00000E+00
         0.00000E+00
         0.00000E+00
         0.00000E+00
         0.00000E+00
         0.00000E+00
         0.00000E+00
         0.00000E+00
         0.00000E+00
         0.00000E+00
         0.00000E+00
         0.00000E+00
         0.00000E+00
         0.00000E+00
         0.00000E+00
         0.00000E+00
         0.00000E+00
         0.00000E+00
         0.00000E+00
         0.00000E+00
         0.00000E+00
         0.00000E+00
         0.00000E+00
         0.00000E+00
         0.00000E+00
         0.00000E+00
         0.00000E+00
         0.00000E+00
         0.00000E+00
         0.00000E+00
         0.00000E+00
         0.00000E+00
         0.00000E+00
         0.00000E+00
         0.00000E+00
         0.00000E+00
         0.00000E+00
         0.00000E+00
         0.00000E+00
         0.00000E+00
         0.00000E+00
         0.00000E+00
         0.00000E+00
         0.00000E+00
         0.00000E+00
         0.00000E+00
         0.00000E+00
         0.00000E+00
         0.00000E+00
         0.00000E+00
         0.00000E+00
         0.00000E+00
         0.00000E+00
         0.00000E+00
         0.00000E+00
         0.00000E+00
         0.00000E+00
         0.00000E+00
         0.00000E+00
         0.00000E+00
         0.00000E+00
         0.00000E+00
         0.00000E+00
         0.00000E+00
         0.00000E+00
         0.00000E+00
         0.00000E+00
         0.00000E+00
         0.00000E+00
         0.00000E+00
         0.00000E+00
         0.00000E+00
         0.00000E+00
         0.00000E+00
         0.00000E+00
         0.00000E+00
         0.00000E+00
         0.00000E+00
         0.00000E+00
         0.00000E+00
         0.00000E+00
         0.00000E+00
         0.00000E+00
         0.00000E+00
         0.00000E+00
         0.00000E+00
         0.00000E+00
         0.00000E+00
         0.00000E+00
         0.00000E+00
         0.00000E+00
         0.00000E+00
         0.00000E+00
         0.00000E+00
         0.00000E+00
         0.00000E+00
         0.00000E+00
         0.00000E+00
         0.00000E+00
         0.00000E+00
         0.00000E+00
         0.00000E+00
         0.00000E+00
         0.00000E+00
         0.00000E+00
         0.00000E+00
         0.00000E+00
         0.00000E+00
         0.00000E+00
         0.00000E+00
         0.00000E+00
         0.00000E+00
         0.00000E+00
         0.00000E+00
         0.00000E+00
         0.00000E+00
         0.00000E+00
         0.00000E+00
         0.00000E+00
         0.00000E+00
         0.00000E+00
         0.00000E+00
         0.00000E+00
         0.00000E+00
         0.00000E+00
         0.00000E+00
         0.00000E+00
         0.00000E+00
         0.00000E+00
         0.00000E+00
         0.00000E+00
         0.00000E+00
         0.00000E+00
         0.00000E+00
         0.00000E+00
         0.00000E+00
         0.00000E+00
         0.00000E+00
         0.00000E+00
         0.00000E+00
         0.00000E+00
         0.00000E+00
         0.00000E+00
         0.00000E+00
         0.00000E+00
         0.00000E+00
         0.00000E+00
         0.00000E+00
         0.00000E+00
         0.00000E+00
         0.00000E+00
         0.00000E+00
         0.00000E+00
         0.00000E+00
         0.00000E+00
         0.00000E+00
         0.00000E+00
         0.00000E+00
         0.00000E+00
         0.00000E+00
         0.00000E+00
         0.00000E+00
         0.00000E+00
         0.00000E+00
         0.00000E+00
         0.00000E+00
         0.00000E+00
         0.00000E+00
         0.00000E+00
         0.00000E+00
         0.00000E+00
         0.00000E+00
         0.00000E+00
         0.00000E+00
         0.00000E+00
         0.00000E+00
         0.00000E+00
         0.00000E+00
         0.00000E+00
         0.00000E+00
         0.00000E+00
         0.00000E+00
         0.00000E+00
         0.00000E+00
         0.00000E+00
         0.00000E+00
         0.00000E+00
         0.00000E+00
         0.00000E+00
         0.00000E+00
         0.00000E+00
         0.00000E+00
         0.00000E+00
         0.00000E+00
         0.00000E+00
         0.00000E+00
         0.00000E+00
         0.00000E+00
         0.00000E+00
         0.00000E+00
         0.00000E+00
         0.00000E+00
         0.00000E+00
         0.00000E+00
         0.00000E+00
         0.00000E+00
         0.00000E+00
         0.00000E+00
         0.00000E+00
         0.00000E+00
         0.00000E+00
         0.00000E+00
         0.00000E+00
         0.00000E+00
         0.00000E+00
         0.00000E+00
         0.00000E+00
         0.00000E+00
         0.00000E+00
         0.00000E+00
         0.00000E+00
         0.00000E+00
         0.00000E+00
         0.00000E+00
         0.00000E+00
         0.00000E+00
         0.00000E+00
         0.00000E+00
         0.00000E+00
         0.00000E+00
         0.00000E+00
         0.00000E+00
         0.00000E+00
         0.00000E+00
         0.00000E+00
         0.00000E+00
         0.00000E+00
         0.00000E+00
         0.00000E+00
         0.00000E+00
         0.00000E+00
         0.00000E+00
         0.00000E+00
         0.00000E+00
         0.00000E+00
         0.00000E+00
         0.00000E+00
         0.00000E+00
         0.00000E+00
         0.00000E+00
         0.00000E+00
         0.00000E+00
         0.00000E+00
         0.00000E+00
         0.00000E+00
         0.00000E+00
         0.00000E+00
         0.00000E+00
         0.00000E+00
         0.00000E+00
         0.00000E+00
         0.00000E+00
         0.00000E+00
         0.00000E+00
         0.00000E+00
         0.00000E+00
         0.00000E+00
         0.00000E+00
         0.00000E+00
         0.00000E+00
         0.00000E+00
         0.00000E+00
         0.00000E+00
         0.00000E+00
         0.00000E+00
         0.00000E+00
         0.00000E+00
         0.00000E+00
         0.00000E+00
         0.00000E+00
         0.00000E+00
         0.00000E+00
         0.00000E+00
         0.00000E+00
         0.00000E+00
         0.00000E+00
         0.00000E+00
         0.00000E+00
         0.00000E+00
         0.00000E+00
         0.00000E+00
         0.00000E+00
         0.00000E+00
         0.00000E+00
         0.00000E+00
         0.00000E+00
         0.00000E+00
         0.00000E+00
         0.00000E+00
         0.00000E+00
         0.00000E+00
         0.00000E+00
         0.00000E+00
         0.00000E+00
         0.00000E+00
         0.00000E+00
         0.00000E+00
         0.00000E+00
         0.00000E+00
         0.00000E+00
         0.00000E+00
         0.00000E+00
         0.00000E+00
         0.00000E+00
         0.00000E+00
         0.00000E+00
         0.00000E+00
         0.00000E+00
         0.00000E+00
         0.00000E+00
         0.00000E+00
         0.00000E+00
         0.00000E+00
         0.00000E+00
         0.00000E+00
         0.00000E+00
         0.00000E+00
         0.00000E+00
         0.00000E+00
         0.00000E+00
         0.00000E+00
         0.00000E+00
         0.00000E+00
         0.00000E+00
         0.00000E+00
         0.00000E+00
         0.00000E+00
         0.00000E+00
         0.00000E+00
         0.00000E+00
         0.00000E+00
         0.00000E+00
         0.00000E+00
         0.00000E+00
         0.00000E+00
         0.00000E+00
         0.00000E+00
         0.00000E+00
         0.00000E+00
         0.00000E+00
         0.00000E+00
         0.00000E+00
         0.00000E+00
         0.00000E+00
         0.00000E+00
         0.00000E+00
         0.00000E+00
         0.00000E+00
         0.00000E+00
         0.00000E+00
         0.00000E+00
         0.00000E+00
         0.00000E+00
         0.00000E+00
         0.00000E+00
         0.00000E+00
         0.00000E+00
         0.00000E+00
         0.00000E+00
         0.00000E+00
         0.00000E+00
         0.00000E+00
         0.00000E+00
         0.00000E+00
         0.00000E+00
         0.00000E+00
         0.00000E+00
         0.00000E+00
         0.00000E+00
         0.00000E+00
         0.00000E+00
         0.00000E+00
         0.00000E+00
         0.00000E+00
         0.00000E+00
         0.00000E+00
         0.00000E+00
         0.00000E+00
         0.00000E+00
         0.00000E+00
         0.00000E+00
         0.00000E+00
         0.00000E+00
         0.00000E+00
         0.00000E+00
         0.00000E+00
         0.00000E+00
         0.00000E+00
         0.00000E+00
         0.00000E+00
         0.00000E+00
         0.00000E+00
         0.00000E+00
         0.00000E+00
         0.00000E+00
         0.00000E+00
         0.00000E+00
         0.00000E+00
         0.00000E+00
         0.00000E+00
         0.00000E+00
         0.00000E+00
         0.00000E+00
         0.00000E+00
         0.00000E+00
         0.00000E+00
         0.00000E+00
         0.00000E+00
         0.00000E+00
         0.00000E+00
         0.00000E+00
         0.00000E+00
         0.00000E+00
         0.00000E+00
         0.00000E+00
         0.00000E+00
         0.00000E+00
         0.00000E+00
         0.00000E+00
         0.00000E+00
         0.00000E+00
         0.00000E+00
         0.00000E+00
         0.00000E+00
         0.00000E+00
         0.00000E+00
         0.00000E+00
         0.00000E+00
         0.00000E+00
         0.00000E+00
         0.00000E+00
         0.00000E+00
         0.00000E+00
         0.00000E+00
         0.00000E+00
         0.00000E+00
         0.00000E+00
         0.00000E+00
         0.00000E+00
         0.00000E+00
         0.00000E+00
         0.00000E+00
         0.00000E+00
         0.00000E+00
         0.00000E+00
         0.00000E+00
         0.00000E+00
         0.00000E+00
         0.00000E+00
         0.00000E+00
         0.00000E+00
         0.00000E+00
         0.00000E+00
         0.00000E+00
         0.00000E+00
         0.00000E+00
         0.00000E+00
         0.00000E+00
         0.00000E+00
         0.00000E+00
         0.00000E+00
         0.00000E+00
         0.00000E+00
         0.00000E+00
         0.00000E+00
         0.00000E+00
         0.00000E+00
         0.00000E+00
         0.00000E+00
         0.00000E+00
         0.00000E+00
         0.00000E+00
         0.00000E+00
         0.00000E+00
         0.00000E+00
         0.00000E+00
         0.00000E+00
         0.00000E+00
         0.00000E+00
         0.00000E+00
         0.00000E+00
         0.00000E+00
         0.00000E+00
         0.00000E+00
         0.00000E+00
         0.00000E+00
         0.00000E+00
         0.00000E+00
         0.00000E+00
         0.00000E+00
         0.00000E+00
         0.00000E+00
         0.00000E+00
         0.00000E+00
         0.00000E+00
         0.00000E+00
         0.00000E+00
         0.00000E+00
         0.00000E+00
         0.00000E+00
         0.00000E+00
         0.00000E+00
         0.00000E+00
         0.00000E+00
         0.00000E+00
         0.00000E+00
         0.00000E+00
         0.00000E+00
         0.00000E+00
         0.00000E+00
         0.00000E+00
         0.00000E+00
         0.00000E+00
         0.00000E+00
         0.00000E+00
         0.00000E+00
         0.00000E+00
         0.00000E+00
         0.00000E+00
         0.00000E+00
         0.00000E+00
         0.00000E+00
         0.00000E+00
         0.00000E+00
         0.00000E+00
         0.00000E+00
         0.00000E+00
         0.00000E+00
         0.00000E+00
         0.00000E+00
         0.00000E+00
         0.00000E+00
         0.00000E+00
         0.00000E+00
         0.00000E+00
         0.00000E+00
         0.00000E+00
         0.00000E+00
         0.00000E+00
         0.00000E+00
         0.00000E+00
         0.00000E+00
         0.00000E+00
         0.00000E+00
         0.00000E+00
         0.00000E+00
         0.00000E+00
         0.00000E+00
         0.00000E+00
         0.00000E+00
         0.00000E+00
         0.00000E+00
         0.00000E+00
         0.00000E+00
         0.00000E+00
         0.00000E+00
         0.00000E+00
         0.00000E+00
         0.00000E+00
         0.00000E+00
         0.00000E+00
         0.00000E+00
         0.00000E+00
         0.00000E+00
         0.00000E+00
         0.00000E+00
         0.00000E+00
         0.00000E+00
         0.00000E+00
         0.00000E+00
         0.00000E+00
         0.00000E+00
         0.00000E+00
         0.00000E+00
         0.00000E+00
         0.00000E+00
         0.00000E+00
         0.00000E+00
         0.00000E+00
         0.00000E+00
         0.00000E+00
         0.00000E+00
         0.00000E+00
         0.00000E+00
         0.00000E+00
         0.00000E+00
         0.00000E+00
         0.00000E+00
         0.00000E+00
         0.00000E+00
         0.00000E+00
         0.00000E+00
         0.00000E+00
         0.00000E+00
         0.00000E+00
         0.00000E+00
         0.00000E+00
         0.00000E+00
         0.00000E+00
         0.00000E+00
         0.00000E+00
         0.00000E+00
         0.00000E+00
         0.00000E+00
         0.00000E+00
         0.00000E+00
         0.00000E+00
         0.00000E+00
         0.00000E+00
         0.00000E+00
         0.00000E+00
         0.00000E+00
         0.00000E+00
         0.00000E+00
         0.00000E+00
         0.00000E+00
         0.00000E+00
         0.00000E+00
         0.00000E+00
         0.00000E+00
         0.00000E+00
         0.00000E+00
         0.00000E+00
         0.00000E+00
         0.00000E+00
         0.00000E+00
         0.00000E+00
         0.00000E+00
         0.00000E+00
         0.00000E+00
         0.00000E+00
         0.00000E+00
         0.00000E+00
         0.00000E+00
         0.00000E+00
         0.00000E+00
         0.00000E+00
         0.00000E+00
         0.00000E+00
         0.00000E+00
         0.00000E+00
         0.00000E+00
         0.00000E+00
         0.00000E+00
         0.00000E+00
         0.00000E+00
         0.00000E+00
         0.00000E+00
         0.00000E+00
         0.00000E+00
         0.00000E+00
         0.00000E+00
         0.00000E+00
         0.00000E+00
         0.00000E+00
         0.00000E+00
         0.00000E+00
         0.00000E+00
         0.00000E+00
         0.00000E+00
         0.00000E+00
         0.00000E+00
         0.00000E+00
         0.00000E+00
         0.00000E+00
         0.00000E+00
         0.00000E+00
         0.00000E+00
         0.00000E+00
         0.00000E+00
         0.00000E+00
         0.00000E+00
         0.00000E+00
         0.00000E+00
         0.00000E+00
         0.00000E+00
         0.00000E+00
         0.00000E+00
         0.00000E+00
         0.00000E+00
         0.00000E+00
         0.00000E+00
         0.00000E+00
         0.00000E+00
         0.00000E+00
         0.00000E+00
         0.00000E+00
         0.00000E+00
         0.00000E+00
         0.00000E+00
         0.00000E+00
         0.00000E+00
         0.00000E+00
         0.00000E+00
         0.00000E+00
         0.00000E+00
         0.00000E+00
         0.00000E+00
         0.00000E+00
         0.00000E+00
         0.00000E+00
         0.00000E+00
         0.00000E+00
         0.00000E+00
         0.00000E+00
         0.00000E+00
         0.00000E+00
         0.00000E+00
         0.00000E+00
         0.00000E+00
         0.00000E+00
         0.00000E+00
         0.00000E+00
         0.00000E+00
         0.00000E+00
         0.00000E+00
         0.00000E+00
         0.00000E+00
         0.00000E+00
         0.00000E+00
         0.00000E+00
         0.00000E+00
         0.00000E+00
         0.00000E+00
         0.00000E+00
         0.00000E+00
         0.00000E+00
         0.00000E+00
         0.00000E+00
         0.00000E+00
         0.00000E+00
         0.00000E+00
         0.00000E+00
         0.00000E+00
         0.00000E+00
         0.00000E+00
         0.00000E+00
         0.00000E+00
         0.00000E+00
         0.00000E+00
         0.00000E+00
         0.00000E+00
         0.00000E+00
         0.00000E+00
         0.00000E+00
         0.00000E+00
         0.00000E+00
         0.00000E+00
         0.00000E+00
         0.00000E+00
         0.00000E+00
         0.00000E+00
         0.00000E+00
         0.00000E+00
         0.00000E+00
         0.00000E+00
         0.00000E+00
         0.00000E+00
         0.00000E+00
         0.00000E+00
         0.00000E+00
         0.00000E+00
         0.00000E+00
         0.00000E+00
         0.00000E+00
         0.00000E+00
         0.00000E+00
         0.00000E+00
         0.00000E+00
         0.00000E+00
         0.00000E+00
         0.00000E+00
         0.00000E+00
         0.00000E+00
         0.00000E+00
         0.00000E+00
         0.00000E+00
         0.00000E+00
         0.00000E+00
         0.00000E+00
         0.00000E+00
         0.00000E+00
         0.00000E+00
         0.00000E+00
         0.00000E+00
         0.00000E+00
         0.00000E+00
         0.00000E+00
         0.00000E+00
         0.00000E+00
         0.00000E+00
         0.00000E+00
         0.00000E+00
         0.00000E+00
         0.00000E+00
         0.00000E+00
         0.00000E+00
         0.00000E+00
         0.00000E+00
         0.00000E+00
         0.00000E+00
         0.00000E+00
         0.00000E+00
         0.00000E+00
         0.00000E+00
         0.00000E+00
         0.00000E+00
         0.00000E+00
         0.00000E+00
         0.00000E+00
         0.00000E+00
         0.00000E+00
         0.00000E+00
         0.00000E+00
         0.00000E+00
         0.00000E+00
         0.00000E+00
         0.00000E+00
         0.00000E+00
         0.00000E+00
         0.00000E+00
         0.00000E+00
         0.00000E+00
         0.00000E+00
         0.00000E+00
         0.00000E+00
         0.00000E+00
         0.00000E+00
         0.00000E+00
         0.00000E+00
         0.00000E+00
         0.00000E+00
         0.00000E+00
         0.00000E+00
         0.00000E+00
         0.00000E+00
         0.00000E+00
         0.00000E+00
         0.00000E+00
         0.00000E+00
         0.00000E+00
         0.00000E+00
         0.00000E+00
         0.00000E+00
         0.00000E+00
         0.00000E+00
         0.00000E+00
         0.00000E+00
         0.00000E+00
         0.00000E+00
         0.00000E+00
         0.00000E+00
         0.00000E+00
         0.00000E+00
         0.00000E+00
         0.00000E+00
         0.00000E+00
         0.00000E+00
         0.00000E+00
         0.00000E+00
         0.00000E+00
         0.00000E+00
         0.00000E+00
         0.00000E+00
         0.00000E+00
         0.00000E+00
         0.00000E+00
         0.00000E+00
         0.00000E+00
         0.00000E+00
         0.00000E+00
         0.00000E+00
         0.00000E+00
         0.00000E+00
         0.00000E+00
         0.00000E+00
         0.00000E+00
         0.00000E+00
         0.00000E+00
         0.00000E+00
         0.00000E+00
         0.00000E+00
         0.00000E+00
         0.00000E+00
         0.00000E+00
         0.00000E+00
         0.00000E+00
         0.00000E+00
         0.00000E+00
         0.00000E+00
         0.00000E+00
         0.00000E+00
         0.00000E+00
         0.00000E+00
         0.00000E+00
         0.00000E+00
         0.00000E+00
         0.00000E+00
         0.00000E+00
         0.00000E+00
         0.00000E+00
         0.00000E+00
         0.00000E+00
         0.00000E+00
         0.00000E+00
         0.00000E+00
         0.00000E+00
         0.00000E+00
         0.00000E+00
         0.00000E+00
         0.00000E+00
         0.00000E+00
         0.00000E+00
         0.00000E+00
         0.00000E+00
         0.00000E+00
         0.00000E+00
         0.00000E+00
         0.00000E+00
         0.00000E+00
         0.00000E+00
         0.00000E+00
         0.00000E+00
         0.00000E+00
         0.00000E+00
         0.00000E+00
         0.00000E+00
         0.00000E+00
         0.00000E+00
         0.00000E+00
         0.00000E+00
         0.00000E+00
         0.00000E+00
         0.00000E+00
         0.00000E+00
         0.00000E+00
         0.00000E+00
         0.00000E+00
         0.00000E+00
         0.00000E+00
         0.00000E+00
         0.00000E+00
         0.00000E+00
         0.00000E+00
         0.00000E+00
         0.00000E+00
         0.00000E+00
         0.00000E+00
         0.00000E+00
         0.00000E+00
         0.00000E+00
         0.00000E+00
         0.00000E+00
         0.00000E+00
         0.00000E+00
         0.00000E+00
         0.00000E+00
         0.00000E+00
         0.00000E+00
         0.00000E+00
         0.00000E+00
         0.00000E+00
         0.00000E+00
         0.00000E+00
         0.00000E+00
         0.00000E+00
         0.00000E+00
         0.00000E+00
         0.00000E+00
         0.00000E+00
         0.00000E+00
         0.00000E+00
         0.00000E+00
         0.00000E+00
         0.00000E+00
         0.00000E+00
         0.00000E+00
         0.00000E+00
         0.00000E+00
         0.00000E+00
         0.00000E+00
         0.00000E+00
         0.00000E+00
         0.00000E+00
         0.00000E+00
         0.00000E+00
         0.00000E+00
         0.00000E+00
         0.00000E+00
         0.00000E+00
         0.00000E+00
         0.00000E+00
         0.00000E+00
         0.00000E+00
         0.00000E+00
         0.00000E+00
         0.00000E+00
         0.00000E+00
         0.00000E+00
         0.00000E+00
         0.00000E+00
         0.00000E+00
         0.00000E+00
         0.00000E+00
         0.00000E+00
         0.00000E+00
         0.00000E+00
         0.00000E+00
         0.00000E+00
         0.00000E+00
         0.00000E+00
         0.00000E+00
         0.00000E+00
         0.00000E+00
         0.00000E+00
         0.00000E+00
         0.00000E+00
         0.00000E+00
         0.00000E+00
         0.00000E+00
         0.00000E+00
         0.00000E+00
         0.00000E+00
         0.00000E+00
         0.00000E+00
         0.00000E+00
         0.00000E+00
         0.00000E+00
         0.00000E+00
         0.00000E+00
         0.00000E+00
         0.00000E+00
         0.00000E+00
         0.00000E+00
         0.00000E+00
         0.00000E+00
         0.00000E+00
         0.00000E+00
         0.00000E+00
         0.00000E+00
         0.00000E+00
         0.00000E+00
         0.00000E+00
         0.00000E+00
         0.00000E+00
         0.00000E+00
         0.00000E+00
         0.00000E+00
         0.00000E+00
         0.00000E+00
         0.00000E+00
         0.00000E+00
         0.00000E+00
         0.00000E+00
         0.00000E+00
         0.00000E+00
         0.00000E+00
         0.00000E+00
         0.00000E+00
         0.00000E+00
         0.00000E+00
         0.00000E+00
         0.00000E+00
         0.00000E+00
         0.00000E+00
         0.00000E+00
         0.00000E+00
         0.00000E+00
         0.00000E+00
         0.00000E+00
         0.00000E+00
         0.00000E+00
         0.00000E+00
         0.00000E+00
         0.00000E+00
         0.00000E+00
         0.00000E+00
         0.00000E+00
         0.00000E+00
         0.00000E+00
         0.00000E+00
         0.00000E+00
         0.00000E+00
         0.00000E+00
         0.00000E+00
         0.00000E+00
         0.00000E+00
         0.00000E+00
         0.00000E+00
         0.00000E+00
         0.00000E+00
         0.00000E+00
         0.00000E+00
         0.00000E+00
         0.00000E+00
         0.00000E+00
         0.00000E+00
         0.00000E+00
         0.00000E+00
         0.00000E+00
         0.00000E+00
         0.00000E+00
         0.00000E+00
         0.00000E+00
         0.00000E+00
         0.00000E+00
         0.00000E+00
         0.00000E+00
         0.00000E+00
         0.00000E+00
         0.00000E+00
         0.00000E+00
         0.00000E+00
         0.00000E+00
         0.00000E+00
         0.00000E+00
         0.00000E+00
         0.00000E+00
         0.00000E+00
         0.00000E+00
         0.00000E+00
         0.00000E+00
         0.00000E+00
         0.00000E+00
         0.00000E+00
         0.00000E+00
         0.00000E+00
         0.00000E+00
         0.00000E+00
         0.00000E+00
         0.00000E+00
         0.00000E+00
         0.00000E+00
         0.00000E+00
         0.00000E+00
         0.00000E+00
         0.00000E+00
         0.00000E+00
         0.00000E+00
         0.00000E+00
         0.00000E+00
         0.00000E+00
         0.00000E+00
         0.00000E+00
         0.00000E+00
         0.00000E+00
         0.00000E+00
         0.00000E+00
         0.00000E+00
         0.00000E+00
         0.00000E+00
         0.00000E+00
         0.00000E+00
         0.00000E+00
         0.00000E+00
         0.00000E+00
         0.00000E+00
         0.00000E+00
         0.00000E+00
         0.00000E+00
         0.00000E+00
         0.00000E+00
         0.00000E+00
         0.00000E+00
         0.00000E+00
         0.00000E+00
         0.00000E+00
         0.00000E+00
         0.00000E+00
         0.00000E+00
         0.00000E+00
         0.00000E+00
         0.00000E+00
         0.00000E+00
         0.00000E+00
         0.00000E+00
         0.00000E+00
         0.00000E+00
         0.00000E+00
         0.00000E+00
         0.00000E+00
         0.00000E+00
         0.00000E+00
         0.00000E+00
         0.00000E+00
         0.00000E+00
         0.00000E+00
         0.00000E+00
         0.00000E+00
         0.00000E+00
         0.00000E+00
         0.00000E+00
         0.00000E+00
         0.00000E+00
         0.00000E+00
         0.00000E+00
         0.00000E+00
         0.00000E+00
         0.00000E+00
         0.00000E+00
         0.00000E+00
         0.00000E+00
         0.00000E+00
         0.00000E+00
         0.00000E+00
         0.00000E+00
         0.00000E+00
         0.00000E+00
         0.00000E+00
         0.00000E+00
         0.00000E+00
         0.00000E+00
         0.00000E+00
         0.00000E+00
         0.00000E+00
         0.00000E+00
         0.00000E+00
         0.00000E+00
         0.00000E+00
         0.00000E+00
         0.00000E+00
         0.00000E+00
         0.00000E+00
         0.00000E+00
         0.00000E+00
         0.00000E+00
         0.00000E+00
         0.00000E+00
         0.00000E+00
         0.00000E+00
         0.00000E+00
         0.00000E+00
         0.00000E+00
         0.00000E+00
         0.00000E+00
         0.00000E+00
         0.00000E+00
         0.00000E+00
         0.00000E+00
         0.00000E+00
         0.00000E+00
         0.00000E+00
         0.00000E+00
         0.00000E+00
         0.00000E+00
         0.00000E+00
         0.00000E+00
         0.00000E+00
         0.00000E+00
         0.00000E+00
         0.00000E+00
         0.00000E+00
         0.00000E+00
         0.00000E+00
         0.00000E+00
         0.00000E+00
         0.00000E+00
         0.00000E+00
         0.00000E+00
         0.00000E+00
         0.00000E+00
         0.00000E+00
         0.00000E+00
         0.00000E+00
         0.00000E+00
         0.00000E+00
         0.00000E+00
         0.00000E+00
         0.00000E+00
         0.00000E+00
         0.00000E+00
         0.00000E+00
         0.00000E+00
         0.00000E+00
         0.00000E+00
         0.00000E+00
         0.00000E+00
         0.00000E+00
         0.00000E+00
         0.00000E+00
         0.00000E+00
         0.00000E+00
         0.00000E+00
         0.00000E+00
         0.00000E+00
         0.00000E+00
         0.00000E+00
         0.00000E+00
         0.00000E+00
         0.00000E+00
         0.00000E+00
         0.00000E+00
         0.00000E+00
         0.00000E+00
         0.00000E+00
         0.00000E+00
         0.00000E+00
         0.00000E+00
         0.00000E+00
         0.00000E+00
         0.00000E+00
         0.00000E+00
         0.00000E+00
         0.00000E+00
         0.00000E+00
         0.00000E+00
         0.00000E+00
         0.00000E+00
         0.00000E+00
         0.00000E+00
         0.00000E+00
         0.00000E+00
         0.00000E+00
         0.00000E+00
         0.00000E+00
         0.00000E+00
         0.00000E+00
         0.00000E+00
         0.00000E+00
         0.00000E+00
         0.00000E+00
         0.00000E+00
         0.00000E+00
         0.00000E+00
         0.00000E+00
         0.00000E+00
         0.00000E+00
         0.00000E+00
         0.00000E+00
         0.00000E+00
         0.00000E+00
         0.00000E+00
         0.00000E+00
         0.00000E+00
         0.00000E+00
         0.00000E+00
         0.00000E+00
         0.00000E+00
         0.00000E+00
         0.00000E+00
         0.00000E+00
         0.00000E+00
         0.00000E+00
         0.00000E+00
         0.00000E+00
         0.00000E+00
         0.00000E+00
         0.00000E+00
         0.00000E+00
         0.00000E+00
         0.00000E+00
         0.00000E+00
         0.00000E+00
         0.00000E+00
         0.00000E+00
         0.00000E+00
         0.00000E+00
         0.00000E+00
         0.00000E+00
         0.00000E+00
         0.00000E+00
         0.00000E+00
         0.00000E+00
         0.00000E+00
         0.00000E+00
         0.00000E+00
         0.00000E+00
         0.00000E+00
         0.00000E+00
         0.00000E+00
         0.00000E+00
         0.00000E+00
         0.00000E+00
         0.00000E+00
         0.00000E+00
         0.00000E+00
         0.00000E+00
         0.00000E+00
         0.00000E+00
         0.00000E+00
         0.00000E+00
         0.00000E+00
         0.00000E+00
         0.00000E+00
         0.00000E+00
         0.00000E+00
         0.00000E+00
         0.00000E+00
         0.00000E+00
         0.00000E+00
         0.00000E+00
         0.00000E+00
         0.00000E+00
         0.00000E+00
         0.00000E+00
         0.00000E+00
         0.00000E+00
         0.00000E+00
         0.00000E+00
         0.00000E+00
         0.00000E+00
         0.00000E+00
         0.00000E+00
         0.00000E+00
         0.00000E+00
         0.00000E+00
         0.00000E+00
         0.00000E+00
         0.00000E+00
         0.00000E+00
         0.00000E+00
         0.00000E+00
         0.00000E+00
         0.00000E+00
         0.00000E+00
         0.00000E+00
         0.00000E+00
         0.00000E+00
         0.00000E+00
         0.00000E+00
         0.00000E+00
         0.00000E+00
         0.00000E+00
         0.00000E+00
         0.00000E+00
         0.00000E+00
         0.00000E+00
         0.00000E+00
         0.00000E+00
         0.00000E+00
         0.00000E+00
         0.00000E+00
         0.00000E+00
         0.00000E+00
         0.00000E+00
         0.00000E+00
         0.00000E+00
         0.00000E+00
         0.00000E+00
         0.00000E+00
         0.00000E+00
         0.00000E+00
         0.00000E+00
         0.00000E+00
         0.00000E+00
         0.00000E+00
         0.00000E+00
         0.00000E+00
         0.00000E+00
         0.00000E+00
         0.00000E+00
         0.00000E+00
         0.00000E+00
         0.00000E+00
         0.00000E+00
         0.00000E+00
         0.00000E+00
         0.00000E+00
         0.00000E+00
         0.00000E+00
         0.00000E+00
         0.00000E+00
         0.00000E+00
         0.00000E+00
         0.00000E+00
         0.00000E+00
         0.00000E+00
         0.00000E+00
         0.00000E+00
         0.00000E+00
         0.00000E+00
         0.00000E+00
         0.00000E+00
         0.00000E+00
         0.00000E+00
         0.00000E+00
         0.00000E+00
         0.00000E+00
         0.00000E+00
         0.00000E+00
         0.00000E+00
         0.00000E+00
         0.00000E+00
         0.00000E+00
         0.00000E+00
         0.00000E+00
         0.00000E+00
         0.00000E+00
         0.00000E+00
         0.00000E+00
         0.00000E+00
         0.00000E+00
         0.00000E+00
         0.00000E+00
         0.00000E+00
         0.00000E+00
         0.00000E+00
         0.00000E+00
         0.00000E+00
         0.00000E+00
         0.00000E+00
         0.00000E+00
         0.00000E+00
         0.00000E+00
         0.00000E+00
         0.00000E+00
         0.00000E+00
         0.00000E+00
         0.00000E+00
         0.00000E+00
         0.00000E+00
         0.00000E+00
         0.00000E+00
         0.00000E+00
         0.00000E+00
         0.00000E+00
         0.00000E+00
         0.00000E+00
         0.00000E+00
         0.00000E+00
         0.00000E+00
         0.00000E+00
         0.00000E+00
         0.00000E+00
         0.00000E+00
         0.00000E+00
         0.00000E+00
         0.00000E+00
         0.00000E+00
         0.00000E+00
         0.00000E+00
         0.00000E+00
         0.00000E+00
         0.00000E+00
         0.00000E+00
         0.00000E+00
         0.00000E+00
         0.00000E+00
         0.00000E+00
         0.00000E+00
         0.00000E+00
         0.00000E+00
         0.00000E+00
         0.00000E+00
         0.00000E+00
         0.00000E+00
         0.00000E+00
         0.00000E+00
         0.00000E+00
         0.00000E+00
         0.00000E+00
         0.00000E+00
         0.00000E+00
         0.00000E+00
         0.00000E+00
         0.00000E+00
         0.00000E+00
         0.00000E+00
         0.00000E+00
         0.00000E+00
         0.00000E+00
         0.00000E+00
         0.00000E+00
         0.00000E+00
         0.00000E+00
         0.00000E+00
         0.00000E+00
         0.00000E+00
         0.00000E+00
         0.00000E+00
         0.00000E+00
         0.00000E+00
         0.00000E+00
         0.00000E+00
         0.00000E+00
         0.00000E+00
         0.00000E+00
         0.00000E+00
         0.00000E+00
         0.00000E+00
         0.00000E+00
         0.00000E+00
         0.00000E+00
         0.00000E+00
         0.00000E+00
         0.00000E+00
         0.00000E+00
         0.00000E+00
         0.00000E+00
         0.00000E+00
         0.00000E+00
         0.00000E+00
         0.00000E+00
         0.00000E+00
         0.00000E+00
         0.00000E+00
         0.00000E+00
         0.00000E+00
         0.00000E+00
         0.00000E+00
         0.00000E+00
         0.00000E+00
         0.00000E+00
         0.00000E+00
         0.00000E+00
         0.00000E+00
         0.00000E+00
         0.00000E+00
         0.00000E+00
         0.00000E+00
         0.00000E+00
         0.00000E+00
         0.00000E+00
         0.00000E+00
         0.00000E+00
         0.00000E+00
         0.00000E+00
         0.00000E+00
         0.00000E+00
         0.00000E+00
         0.00000E+00
         0.00000E+00
         0.00000E+00
         0.00000E+00
         0.00000E+00
         0.00000E+00
         0.00000E+00
         0.00000E+00
         0.00000E+00
         0.00000E+00
         0.00000E+00
         0.00000E+00
         0.00000E+00
         0.00000E+00
         0.00000E+00
         0.00000E+00
         0.00000E+00
         0.00000E+00
         0.00000E+00
         0.00000E+00
         0.00000E+00
         0.00000E+00
         0.00000E+00
         0.00000E+00
         0.00000E+00
         0.00000E+00
         0.00000E+00
         0.00000E+00
         0.00000E+00
         0.00000E+00
         0.00000E+00
         0.00000E+00
         0.00000E+00
         0.00000E+00
         0.00000E+00
         0.00000E+00
         0.00000E+00
         0.00000E+00
         0.00000E+00
         0.00000E+00
         0.00000E+00
         0.00000E+00
         0.00000E+00
         0.00000E+00
         0.00000E+00
         0.00000E+00
         0.00000E+00
         0.00000E+00
         0.00000E+00
         0.00000E+00
         0.00000E+00
         0.00000E+00
         0.00000E+00
         0.00000E+00
         0.00000E+00
         0.00000E+00
         0.00000E+00
         0.00000E+00
         0.00000E+00
         0.00000E+00
         0.00000E+00
         0.00000E+00
         0.00000E+00
         0.00000E+00
         0.00000E+00
         0.00000E+00
         0.00000E+00
         0.00000E+00
         0.00000E+00
         0.00000E+00
         0.00000E+00
         0.00000E+00
         0.00000E+00
         0.00000E+00
         0.00000E+00
         0.00000E+00
         0.00000E+00
         0.00000E+00
         0.00000E+00
         0.00000E+00
         0.00000E+00
         0.00000E+00
         0.00000E+00
         0.00000E+00
  
SCALARS                        eps_vol  double 1
LOOKUP_TABLE default
         0.00000E+00
         0.00000E+00
         0.00000E+00
         0.00000E+00
         0.00000E+00
         0.00000E+00
         0.00000E+00
         0.00000E+00
         0.00000E+00
         0.00000E+00
         0.00000E+00
         0.00000E+00
         0.00000E+00
         0.00000E+00
         0.00000E+00
         0.00000E+00
         0.00000E+00
         0.00000E+00
         0.00000E+00
         0.00000E+00
         0.00000E+00
         0.00000E+00
         0.00000E+00
         0.00000E+00
         0.00000E+00
         0.00000E+00
         0.00000E+00
         0.00000E+00
         0.00000E+00
         0.00000E+00
         0.00000E+00
         0.00000E+00
         0.00000E+00
         0.00000E+00
         0.00000E+00
         0.00000E+00
         0.00000E+00
         0.00000E+00
         0.00000E+00
         0.00000E+00
         0.00000E+00
         0.00000E+00
         0.00000E+00
         0.00000E+00
         0.00000E+00
         0.00000E+00
         0.00000E+00
         0.00000E+00
         0.00000E+00
         0.00000E+00
         0.00000E+00
         0.00000E+00
         0.00000E+00
         0.00000E+00
         0.00000E+00
         0.00000E+00
         0.00000E+00
         0.00000E+00
         0.00000E+00
         0.00000E+00
         0.00000E+00
         0.00000E+00
         0.00000E+00
         0.00000E+00
         0.00000E+00
         0.00000E+00
         0.00000E+00
         0.00000E+00
         0.00000E+00
         0.00000E+00
         0.00000E+00
         0.00000E+00
         0.00000E+00
         0.00000E+00
         0.00000E+00
         0.00000E+00
         0.00000E+00
         0.00000E+00
         0.00000E+00
         0.00000E+00
         0.00000E+00
         0.00000E+00
         0.00000E+00
         0.00000E+00
         0.00000E+00
         0.00000E+00
         0.00000E+00
         0.00000E+00
         0.00000E+00
         0.00000E+00
         0.00000E+00
         0.00000E+00
         0.00000E+00
         0.00000E+00
         0.00000E+00
         0.00000E+00
         0.00000E+00
         0.00000E+00
         0.00000E+00
         0.00000E+00
         0.00000E+00
         0.00000E+00
         0.00000E+00
         0.00000E+00
         0.00000E+00
         0.00000E+00
         0.00000E+00
         0.00000E+00
         0.00000E+00
         0.00000E+00
         0.00000E+00
         0.00000E+00
         0.00000E+00
         0.00000E+00
         0.00000E+00
         0.00000E+00
         0.00000E+00
         0.00000E+00
         0.00000E+00
         0.00000E+00
         0.00000E+00
         0.00000E+00
         0.00000E+00
         0.00000E+00
         0.00000E+00
         0.00000E+00
         0.00000E+00
         0.00000E+00
         0.00000E+00
         0.00000E+00
         0.00000E+00
         0.00000E+00
         0.00000E+00
         0.00000E+00
         0.00000E+00
         0.00000E+00
         0.00000E+00
         0.00000E+00
         0.00000E+00
         0.00000E+00
         0.00000E+00
         0.00000E+00
         0.00000E+00
         0.00000E+00
         0.00000E+00
         0.00000E+00
         0.00000E+00
         0.00000E+00
         0.00000E+00
         0.00000E+00
         0.00000E+00
         0.00000E+00
         0.00000E+00
         0.00000E+00
         0.00000E+00
         0.00000E+00
         0.00000E+00
         0.00000E+00
         0.00000E+00
         0.00000E+00
         0.00000E+00
         0.00000E+00
         0.00000E+00
         0.00000E+00
         0.00000E+00
         0.00000E+00
         0.00000E+00
         0.00000E+00
         0.00000E+00
         0.00000E+00
         0.00000E+00
         0.00000E+00
         0.00000E+00
         0.00000E+00
         0.00000E+00
         0.00000E+00
         0.00000E+00
         0.00000E+00
         0.00000E+00
         0.00000E+00
         0.00000E+00
         0.00000E+00
         0.00000E+00
         0.00000E+00
         0.00000E+00
         0.00000E+00
         0.00000E+00
         0.00000E+00
         0.00000E+00
         0.00000E+00
         0.00000E+00
         0.00000E+00
         0.00000E+00
         0.00000E+00
         0.00000E+00
         0.00000E+00
         0.00000E+00
         0.00000E+00
         0.00000E+00
         0.00000E+00
         0.00000E+00
         0.00000E+00
         0.00000E+00
         0.00000E+00
         0.00000E+00
         0.00000E+00
         0.00000E+00
         0.00000E+00
         0.00000E+00
         0.00000E+00
         0.00000E+00
         0.00000E+00
         0.00000E+00
         0.00000E+00
         0.00000E+00
         0.00000E+00
         0.00000E+00
         0.00000E+00
         0.00000E+00
         0.00000E+00
         0.00000E+00
         0.00000E+00
         0.00000E+00
         0.00000E+00
         0.00000E+00
         0.00000E+00
         0.00000E+00
         0.00000E+00
         0.00000E+00
         0.00000E+00
         0.00000E+00
         0.00000E+00
         0.00000E+00
         0.00000E+00
         0.00000E+00
         0.00000E+00
         0.00000E+00
         0.00000E+00
         0.00000E+00
         0.00000E+00
         0.00000E+00
         0.00000E+00
         0.00000E+00
         0.00000E+00
         0.00000E+00
         0.00000E+00
         0.00000E+00
         0.00000E+00
         0.00000E+00
         0.00000E+00
         0.00000E+00
         0.00000E+00
         0.00000E+00
         0.00000E+00
         0.00000E+00
         0.00000E+00
         0.00000E+00
         0.00000E+00
         0.00000E+00
         0.00000E+00
         0.00000E+00
         0.00000E+00
         0.00000E+00
         0.00000E+00
         0.00000E+00
         0.00000E+00
         0.00000E+00
         0.00000E+00
         0.00000E+00
         0.00000E+00
         0.00000E+00
         0.00000E+00
         0.00000E+00
         0.00000E+00
         0.00000E+00
         0.00000E+00
         0.00000E+00
         0.00000E+00
         0.00000E+00
         0.00000E+00
         0.00000E+00
         0.00000E+00
         0.00000E+00
         0.00000E+00
         0.00000E+00
         0.00000E+00
         0.00000E+00
         0.00000E+00
         0.00000E+00
         0.00000E+00
         0.00000E+00
         0.00000E+00
         0.00000E+00
         0.00000E+00
         0.00000E+00
         0.00000E+00
         0.00000E+00
         0.00000E+00
         0.00000E+00
         0.00000E+00
         0.00000E+00
         0.00000E+00
         0.00000E+00
         0.00000E+00
         0.00000E+00
         0.00000E+00
         0.00000E+00
         0.00000E+00
         0.00000E+00
         0.00000E+00
         0.00000E+00
         0.00000E+00
         0.00000E+00
         0.00000E+00
         0.00000E+00
         0.00000E+00
         0.00000E+00
         0.00000E+00
         0.00000E+00
         0.00000E+00
         0.00000E+00
         0.00000E+00
         0.00000E+00
         0.00000E+00
         0.00000E+00
         0.00000E+00
         0.00000E+00
         0.00000E+00
         0.00000E+00
         0.00000E+00
         0.00000E+00
         0.00000E+00
         0.00000E+00
         0.00000E+00
         0.00000E+00
         0.00000E+00
         0.00000E+00
         0.00000E+00
         0.00000E+00
         0.00000E+00
         0.00000E+00
         0.00000E+00
         0.00000E+00
         0.00000E+00
         0.00000E+00
         0.00000E+00
         0.00000E+00
         0.00000E+00
         0.00000E+00
         0.00000E+00
         0.00000E+00
         0.00000E+00
         0.00000E+00
         0.00000E+00
         0.00000E+00
         0.00000E+00
         0.00000E+00
         0.00000E+00
         0.00000E+00
         0.00000E+00
         0.00000E+00
         0.00000E+00
         0.00000E+00
         0.00000E+00
         0.00000E+00
         0.00000E+00
         0.00000E+00
         0.00000E+00
         0.00000E+00
         0.00000E+00
         0.00000E+00
         0.00000E+00
         0.00000E+00
         0.00000E+00
         0.00000E+00
         0.00000E+00
         0.00000E+00
         0.00000E+00
         0.00000E+00
         0.00000E+00
         0.00000E+00
         0.00000E+00
         0.00000E+00
         0.00000E+00
         0.00000E+00
         0.00000E+00
         0.00000E+00
         0.00000E+00
         0.00000E+00
         0.00000E+00
         0.00000E+00
         0.00000E+00
         0.00000E+00
         0.00000E+00
         0.00000E+00
         0.00000E+00
         0.00000E+00
         0.00000E+00
         0.00000E+00
         0.00000E+00
         0.00000E+00
         0.00000E+00
         0.00000E+00
         0.00000E+00
         0.00000E+00
         0.00000E+00
         0.00000E+00
         0.00000E+00
         0.00000E+00
         0.00000E+00
         0.00000E+00
         0.00000E+00
         0.00000E+00
         0.00000E+00
         0.00000E+00
         0.00000E+00
         0.00000E+00
         0.00000E+00
         0.00000E+00
         0.00000E+00
         0.00000E+00
         0.00000E+00
         0.00000E+00
         0.00000E+00
         0.00000E+00
         0.00000E+00
         0.00000E+00
         0.00000E+00
         0.00000E+00
         0.00000E+00
         0.00000E+00
         0.00000E+00
         0.00000E+00
         0.00000E+00
         0.00000E+00
         0.00000E+00
         0.00000E+00
         0.00000E+00
         0.00000E+00
         0.00000E+00
         0.00000E+00
         0.00000E+00
         0.00000E+00
         0.00000E+00
         0.00000E+00
         0.00000E+00
         0.00000E+00
         0.00000E+00
         0.00000E+00
         0.00000E+00
         0.00000E+00
         0.00000E+00
         0.00000E+00
         0.00000E+00
         0.00000E+00
         0.00000E+00
         0.00000E+00
         0.00000E+00
         0.00000E+00
         0.00000E+00
         0.00000E+00
         0.00000E+00
         0.00000E+00
         0.00000E+00
         0.00000E+00
         0.00000E+00
         0.00000E+00
         0.00000E+00
         0.00000E+00
         0.00000E+00
         0.00000E+00
         0.00000E+00
         0.00000E+00
         0.00000E+00
         0.00000E+00
         0.00000E+00
         0.00000E+00
         0.00000E+00
         0.00000E+00
         0.00000E+00
         0.00000E+00
         0.00000E+00
         0.00000E+00
         0.00000E+00
         0.00000E+00
         0.00000E+00
         0.00000E+00
         0.00000E+00
         0.00000E+00
         0.00000E+00
         0.00000E+00
         0.00000E+00
         0.00000E+00
         0.00000E+00
         0.00000E+00
         0.00000E+00
         0.00000E+00
         0.00000E+00
         0.00000E+00
         0.00000E+00
         0.00000E+00
         0.00000E+00
         0.00000E+00
         0.00000E+00
         0.00000E+00
         0.00000E+00
         0.00000E+00
         0.00000E+00
         0.00000E+00
         0.00000E+00
         0.00000E+00
         0.00000E+00
         0.00000E+00
         0.00000E+00
         0.00000E+00
         0.00000E+00
         0.00000E+00
         0.00000E+00
         0.00000E+00
         0.00000E+00
         0.00000E+00
         0.00000E+00
         0.00000E+00
         0.00000E+00
         0.00000E+00
         0.00000E+00
         0.00000E+00
         0.00000E+00
         0.00000E+00
         0.00000E+00
         0.00000E+00
         0.00000E+00
         0.00000E+00
         0.00000E+00
         0.00000E+00
         0.00000E+00
         0.00000E+00
         0.00000E+00
         0.00000E+00
         0.00000E+00
         0.00000E+00
         0.00000E+00
         0.00000E+00
         0.00000E+00
         0.00000E+00
         0.00000E+00
         0.00000E+00
         0.00000E+00
         0.00000E+00
         0.00000E+00
         0.00000E+00
         0.00000E+00
         0.00000E+00
         0.00000E+00
         0.00000E+00
         0.00000E+00
         0.00000E+00
         0.00000E+00
         0.00000E+00
         0.00000E+00
         0.00000E+00
         0.00000E+00
         0.00000E+00
         0.00000E+00
         0.00000E+00
         0.00000E+00
         0.00000E+00
         0.00000E+00
         0.00000E+00
         0.00000E+00
         0.00000E+00
         0.00000E+00
         0.00000E+00
         0.00000E+00
         0.00000E+00
         0.00000E+00
         0.00000E+00
         0.00000E+00
         0.00000E+00
         0.00000E+00
         0.00000E+00
         0.00000E+00
         0.00000E+00
         0.00000E+00
         0.00000E+00
         0.00000E+00
         0.00000E+00
         0.00000E+00
         0.00000E+00
         0.00000E+00
         0.00000E+00
         0.00000E+00
         0.00000E+00
         0.00000E+00
         0.00000E+00
         0.00000E+00
         0.00000E+00
         0.00000E+00
         0.00000E+00
         0.00000E+00
         0.00000E+00
         0.00000E+00
         0.00000E+00
         0.00000E+00
         0.00000E+00
         0.00000E+00
         0.00000E+00
         0.00000E+00
         0.00000E+00
         0.00000E+00
         0.00000E+00
         0.00000E+00
         0.00000E+00
         0.00000E+00
         0.00000E+00
         0.00000E+00
         0.00000E+00
         0.00000E+00
         0.00000E+00
         0.00000E+00
         0.00000E+00
         0.00000E+00
         0.00000E+00
         0.00000E+00
         0.00000E+00
         0.00000E+00
         0.00000E+00
         0.00000E+00
         0.00000E+00
         0.00000E+00
         0.00000E+00
         0.00000E+00
         0.00000E+00
         0.00000E+00
         0.00000E+00
         0.00000E+00
         0.00000E+00
         0.00000E+00
         0.00000E+00
         0.00000E+00
         0.00000E+00
         0.00000E+00
         0.00000E+00
         0.00000E+00
         0.00000E+00
         0.00000E+00
         0.00000E+00
         0.00000E+00
         0.00000E+00
         0.00000E+00
         0.00000E+00
         0.00000E+00
         0.00000E+00
         0.00000E+00
         0.00000E+00
         0.00000E+00
         0.00000E+00
         0.00000E+00
         0.00000E+00
         0.00000E+00
         0.00000E+00
         0.00000E+00
         0.00000E+00
         0.00000E+00
         0.00000E+00
         0.00000E+00
         0.00000E+00
         0.00000E+00
         0.00000E+00
         0.00000E+00
         0.00000E+00
         0.00000E+00
         0.00000E+00
         0.00000E+00
         0.00000E+00
         0.00000E+00
         0.00000E+00
         0.00000E+00
         0.00000E+00
         0.00000E+00
         0.00000E+00
         0.00000E+00
         0.00000E+00
         0.00000E+00
         0.00000E+00
         0.00000E+00
         0.00000E+00
         0.00000E+00
         0.00000E+00
         0.00000E+00
         0.00000E+00
         0.00000E+00
         0.00000E+00
         0.00000E+00
         0.00000E+00
         0.00000E+00
         0.00000E+00
         0.00000E+00
         0.00000E+00
         0.00000E+00
         0.00000E+00
         0.00000E+00
         0.00000E+00
         0.00000E+00
         0.00000E+00
         0.00000E+00
         0.00000E+00
         0.00000E+00
         0.00000E+00
         0.00000E+00
         0.00000E+00
         0.00000E+00
         0.00000E+00
         0.00000E+00
         0.00000E+00
         0.00000E+00
         0.00000E+00
         0.00000E+00
         0.00000E+00
         0.00000E+00
         0.00000E+00
         0.00000E+00
         0.00000E+00
         0.00000E+00
         0.00000E+00
         0.00000E+00
         0.00000E+00
         0.00000E+00
         0.00000E+00
         0.00000E+00
         0.00000E+00
         0.00000E+00
         0.00000E+00
         0.00000E+00
         0.00000E+00
         0.00000E+00
         0.00000E+00
         0.00000E+00
         0.00000E+00
         0.00000E+00
         0.00000E+00
         0.00000E+00
         0.00000E+00
         0.00000E+00
         0.00000E+00
         0.00000E+00
         0.00000E+00
         0.00000E+00
         0.00000E+00
         0.00000E+00
         0.00000E+00
         0.00000E+00
         0.00000E+00
         0.00000E+00
         0.00000E+00
         0.00000E+00
         0.00000E+00
         0.00000E+00
         0.00000E+00
         0.00000E+00
         0.00000E+00
         0.00000E+00
         0.00000E+00
         0.00000E+00
         0.00000E+00
         0.00000E+00
         0.00000E+00
         0.00000E+00
         0.00000E+00
         0.00000E+00
         0.00000E+00
         0.00000E+00
         0.00000E+00
         0.00000E+00
         0.00000E+00
         0.00000E+00
         0.00000E+00
         0.00000E+00
         0.00000E+00
         0.00000E+00
         0.00000E+00
         0.00000E+00
         0.00000E+00
         0.00000E+00
         0.00000E+00
         0.00000E+00
         0.00000E+00
         0.00000E+00
         0.00000E+00
         0.00000E+00
         0.00000E+00
         0.00000E+00
         0.00000E+00
         0.00000E+00
         0.00000E+00
         0.00000E+00
         0.00000E+00
         0.00000E+00
         0.00000E+00
         0.00000E+00
         0.00000E+00
         0.00000E+00
         0.00000E+00
         0.00000E+00
         0.00000E+00
         0.00000E+00
         0.00000E+00
         0.00000E+00
         0.00000E+00
         0.00000E+00
         0.00000E+00
         0.00000E+00
         0.00000E+00
         0.00000E+00
         0.00000E+00
         0.00000E+00
         0.00000E+00
         0.00000E+00
         0.00000E+00
         0.00000E+00
         0.00000E+00
         0.00000E+00
         0.00000E+00
         0.00000E+00
         0.00000E+00
         0.00000E+00
         0.00000E+00
         0.00000E+00
         0.00000E+00
         0.00000E+00
         0.00000E+00
         0.00000E+00
         0.00000E+00
         0.00000E+00
         0.00000E+00
         0.00000E+00
         0.00000E+00
         0.00000E+00
         0.00000E+00
         0.00000E+00
         0.00000E+00
         0.00000E+00
         0.00000E+00
         0.00000E+00
         0.00000E+00
         0.00000E+00
         0.00000E+00
         0.00000E+00
         0.00000E+00
         0.00000E+00
         0.00000E+00
         0.00000E+00
         0.00000E+00
         0.00000E+00
         0.00000E+00
         0.00000E+00
         0.00000E+00
         0.00000E+00
         0.00000E+00
         0.00000E+00
         0.00000E+00
         0.00000E+00
         0.00000E+00
         0.00000E+00
         0.00000E+00
         0.00000E+00
         0.00000E+00
         0.00000E+00
         0.00000E+00
         0.00000E+00
         0.00000E+00
         0.00000E+00
         0.00000E+00
         0.00000E+00
         0.00000E+00
         0.00000E+00
         0.00000E+00
         0.00000E+00
         0.00000E+00
         0.00000E+00
         0.00000E+00
         0.00000E+00
         0.00000E+00
         0.00000E+00
         0.00000E+00
         0.00000E+00
         0.00000E+00
         0.00000E+00
         0.00000E+00
         0.00000E+00
         0.00000E+00
         0.00000E+00
         0.00000E+00
         0.00000E+00
         0.00000E+00
         0.00000E+00
         0.00000E+00
         0.00000E+00
         0.00000E+00
         0.00000E+00
         0.00000E+00
         0.00000E+00
         0.00000E+00
         0.00000E+00
         0.00000E+00
         0.00000E+00
         0.00000E+00
         0.00000E+00
         0.00000E+00
         0.00000E+00
         0.00000E+00
         0.00000E+00
         0.00000E+00
         0.00000E+00
         0.00000E+00
         0.00000E+00
         0.00000E+00
         0.00000E+00
         0.00000E+00
         0.00000E+00
         0.00000E+00
         0.00000E+00
         0.00000E+00
         0.00000E+00
         0.00000E+00
         0.00000E+00
         0.00000E+00
         0.00000E+00
         0.00000E+00
         0.00000E+00
         0.00000E+00
         0.00000E+00
         0.00000E+00
         0.00000E+00
         0.00000E+00
         0.00000E+00
         0.00000E+00
         0.00000E+00
         0.00000E+00
         0.00000E+00
         0.00000E+00
         0.00000E+00
         0.00000E+00
         0.00000E+00
         0.00000E+00
         0.00000E+00
         0.00000E+00
         0.00000E+00
         0.00000E+00
         0.00000E+00
         0.00000E+00
         0.00000E+00
         0.00000E+00
         0.00000E+00
         0.00000E+00
         0.00000E+00
         0.00000E+00
         0.00000E+00
         0.00000E+00
         0.00000E+00
         0.00000E+00
         0.00000E+00
         0.00000E+00
         0.00000E+00
         0.00000E+00
         0.00000E+00
         0.00000E+00
         0.00000E+00
         0.00000E+00
         0.00000E+00
         0.00000E+00
         0.00000E+00
         0.00000E+00
         0.00000E+00
         0.00000E+00
         0.00000E+00
         0.00000E+00
         0.00000E+00
         0.00000E+00
         0.00000E+00
         0.00000E+00
         0.00000E+00
         0.00000E+00
         0.00000E+00
         0.00000E+00
         0.00000E+00
         0.00000E+00
         0.00000E+00
         0.00000E+00
         0.00000E+00
         0.00000E+00
         0.00000E+00
         0.00000E+00
         0.00000E+00
         0.00000E+00
         0.00000E+00
         0.00000E+00
         0.00000E+00
         0.00000E+00
         0.00000E+00
         0.00000E+00
         0.00000E+00
         0.00000E+00
         0.00000E+00
         0.00000E+00
         0.00000E+00
         0.00000E+00
         0.00000E+00
         0.00000E+00
         0.00000E+00
         0.00000E+00
         0.00000E+00
         0.00000E+00
         0.00000E+00
         0.00000E+00
         0.00000E+00
         0.00000E+00
         0.00000E+00
         0.00000E+00
         0.00000E+00
         0.00000E+00
         0.00000E+00
         0.00000E+00
         0.00000E+00
         0.00000E+00
         0.00000E+00
         0.00000E+00
         0.00000E+00
         0.00000E+00
         0.00000E+00
         0.00000E+00
         0.00000E+00
         0.00000E+00
         0.00000E+00
         0.00000E+00
         0.00000E+00
         0.00000E+00
         0.00000E+00
         0.00000E+00
         0.00000E+00
         0.00000E+00
         0.00000E+00
         0.00000E+00
         0.00000E+00
         0.00000E+00
         0.00000E+00
         0.00000E+00
         0.00000E+00
         0.00000E+00
         0.00000E+00
         0.00000E+00
         0.00000E+00
         0.00000E+00
         0.00000E+00
         0.00000E+00
         0.00000E+00
         0.00000E+00
         0.00000E+00
         0.00000E+00
         0.00000E+00
         0.00000E+00
         0.00000E+00
         0.00000E+00
         0.00000E+00
         0.00000E+00
         0.00000E+00
         0.00000E+00
         0.00000E+00
         0.00000E+00
         0.00000E+00
         0.00000E+00
         0.00000E+00
         0.00000E+00
         0.00000E+00
         0.00000E+00
         0.00000E+00
         0.00000E+00
         0.00000E+00
         0.00000E+00
         0.00000E+00
         0.00000E+00
         0.00000E+00
         0.00000E+00
         0.00000E+00
         0.00000E+00
         0.00000E+00
         0.00000E+00
         0.00000E+00
         0.00000E+00
         0.00000E+00
         0.00000E+00
         0.00000E+00
         0.00000E+00
         0.00000E+00
         0.00000E+00
         0.00000E+00
         0.00000E+00
         0.00000E+00
         0.00000E+00
         0.00000E+00
         0.00000E+00
         0.00000E+00
         0.00000E+00
         0.00000E+00
         0.00000E+00
         0.00000E+00
         0.00000E+00
         0.00000E+00
         0.00000E+00
         0.00000E+00
         0.00000E+00
         0.00000E+00
         0.00000E+00
         0.00000E+00
         0.00000E+00
         0.00000E+00
         0.00000E+00
         0.00000E+00
         0.00000E+00
         0.00000E+00
         0.00000E+00
         0.00000E+00
         0.00000E+00
         0.00000E+00
         0.00000E+00
         0.00000E+00
         0.00000E+00
         0.00000E+00
         0.00000E+00
         0.00000E+00
         0.00000E+00
         0.00000E+00
         0.00000E+00
         0.00000E+00
         0.00000E+00
         0.00000E+00
         0.00000E+00
         0.00000E+00
         0.00000E+00
         0.00000E+00
         0.00000E+00
         0.00000E+00
         0.00000E+00
         0.00000E+00
         0.00000E+00
         0.00000E+00
         0.00000E+00
         0.00000E+00
         0.00000E+00
         0.00000E+00
         0.00000E+00
         0.00000E+00
         0.00000E+00
         0.00000E+00
         0.00000E+00
         0.00000E+00
         0.00000E+00
         0.00000E+00
         0.00000E+00
         0.00000E+00
         0.00000E+00
         0.00000E+00
         0.00000E+00
         0.00000E+00
         0.00000E+00
         0.00000E+00
         0.00000E+00
         0.00000E+00
         0.00000E+00
         0.00000E+00
         0.00000E+00
         0.00000E+00
         0.00000E+00
         0.00000E+00
         0.00000E+00
         0.00000E+00
         0.00000E+00
         0.00000E+00
         0.00000E+00
         0.00000E+00
         0.00000E+00
         0.00000E+00
         0.00000E+00
         0.00000E+00
         0.00000E+00
         0.00000E+00
         0.00000E+00
         0.00000E+00
         0.00000E+00
         0.00000E+00
         0.00000E+00
         0.00000E+00
         0.00000E+00
         0.00000E+00
         0.00000E+00
         0.00000E+00
         0.00000E+00
         0.00000E+00
         0.00000E+00
         0.00000E+00
         0.00000E+00
         0.00000E+00
         0.00000E+00
         0.00000E+00
         0.00000E+00
         0.00000E+00
         0.00000E+00
         0.00000E+00
         0.00000E+00
         0.00000E+00
         0.00000E+00
         0.00000E+00
         0.00000E+00
         0.00000E+00
         0.00000E+00
         0.00000E+00
         0.00000E+00
         0.00000E+00
         0.00000E+00
         0.00000E+00
         0.00000E+00
         0.00000E+00
         0.00000E+00
         0.00000E+00
         0.00000E+00
         0.00000E+00
         0.00000E+00
         0.00000E+00
         0.00000E+00
         0.00000E+00
         0.00000E+00
         0.00000E+00
         0.00000E+00
         0.00000E+00
         0.00000E+00
         0.00000E+00
         0.00000E+00
         0.00000E+00
         0.00000E+00
         0.00000E+00
         0.00000E+00
         0.00000E+00
         0.00000E+00
         0.00000E+00
         0.00000E+00
         0.00000E+00
         0.00000E+00
         0.00000E+00
         0.00000E+00
         0.00000E+00
         0.00000E+00
         0.00000E+00
         0.00000E+00
         0.00000E+00
         0.00000E+00
         0.00000E+00
         0.00000E+00
         0.00000E+00
         0.00000E+00
         0.00000E+00
         0.00000E+00
         0.00000E+00
         0.00000E+00
         0.00000E+00
         0.00000E+00
         0.00000E+00
         0.00000E+00
         0.00000E+00
         0.00000E+00
         0.00000E+00
         0.00000E+00
         0.00000E+00
         0.00000E+00
         0.00000E+00
         0.00000E+00
         0.00000E+00
         0.00000E+00
         0.00000E+00
         0.00000E+00
         0.00000E+00
         0.00000E+00
         0.00000E+00
         0.00000E+00
         0.00000E+00
         0.00000E+00
         0.00000E+00
         0.00000E+00
         0.00000E+00
         0.00000E+00
         0.00000E+00
         0.00000E+00
         0.00000E+00
         0.00000E+00
         0.00000E+00
         0.00000E+00
         0.00000E+00
         0.00000E+00
         0.00000E+00
         0.00000E+00
         0.00000E+00
         0.00000E+00
         0.00000E+00
         0.00000E+00
         0.00000E+00
         0.00000E+00
         0.00000E+00
         0.00000E+00
         0.00000E+00
         0.00000E+00
         0.00000E+00
         0.00000E+00
         0.00000E+00
         0.00000E+00
         0.00000E+00
         0.00000E+00
         0.00000E+00
         0.00000E+00
         0.00000E+00
         0.00000E+00
         0.00000E+00
         0.00000E+00
         0.00000E+00
         0.00000E+00
         0.00000E+00
         0.00000E+00
         0.00000E+00
         0.00000E+00
         0.00000E+00
         0.00000E+00
         0.00000E+00
         0.00000E+00
         0.00000E+00
         0.00000E+00
         0.00000E+00
         0.00000E+00
         0.00000E+00
         0.00000E+00
         0.00000E+00
         0.00000E+00
         0.00000E+00
         0.00000E+00
         0.00000E+00
         0.00000E+00
         0.00000E+00
         0.00000E+00
         0.00000E+00
         0.00000E+00
         0.00000E+00
         0.00000E+00
         0.00000E+00
         0.00000E+00
         0.00000E+00
         0.00000E+00
         0.00000E+00
         0.00000E+00
         0.00000E+00
         0.00000E+00
         0.00000E+00
         0.00000E+00
         0.00000E+00
         0.00000E+00
         0.00000E+00
         0.00000E+00
         0.00000E+00
         0.00000E+00
         0.00000E+00
         0.00000E+00
         0.00000E+00
         0.00000E+00
         0.00000E+00
         0.00000E+00
         0.00000E+00
         0.00000E+00
         0.00000E+00
         0.00000E+00
         0.00000E+00
         0.00000E+00
         0.00000E+00
         0.00000E+00
         0.00000E+00
         0.00000E+00
         0.00000E+00
         0.00000E+00
         0.00000E+00
         0.00000E+00
         0.00000E+00
         0.00000E+00
         0.00000E+00
         0.00000E+00
         0.00000E+00
         0.00000E+00
         0.00000E+00
         0.00000E+00
         0.00000E+00
         0.00000E+00
         0.00000E+00
         0.00000E+00
         0.00000E+00
         0.00000E+00
         0.00000E+00
         0.00000E+00
         0.00000E+00
         0.00000E+00
         0.00000E+00
         0.00000E+00
         0.00000E+00
         0.00000E+00
         0.00000E+00
         0.00000E+00
         0.00000E+00
         0.00000E+00
         0.00000E+00
         0.00000E+00
         0.00000E+00
         0.00000E+00
         0.00000E+00
         0.00000E+00
         0.00000E+00
         0.00000E+00
         0.00000E+00
         0.00000E+00
         0.00000E+00
         0.00000E+00
         0.00000E+00
         0.00000E+00
         0.00000E+00
         0.00000E+00
         0.00000E+00
         0.00000E+00
         0.00000E+00
         0.00000E+00
         0.00000E+00
         0.00000E+00
         0.00000E+00
         0.00000E+00
         0.00000E+00
         0.00000E+00
         0.00000E+00
         0.00000E+00
         0.00000E+00
         0.00000E+00
         0.00000E+00
         0.00000E+00
         0.00000E+00
         0.00000E+00
         0.00000E+00
         0.00000E+00
         0.00000E+00
         0.00000E+00
         0.00000E+00
         0.00000E+00
         0.00000E+00
         0.00000E+00
         0.00000E+00
         0.00000E+00
         0.00000E+00
         0.00000E+00
         0.00000E+00
         0.00000E+00
         0.00000E+00
         0.00000E+00
         0.00000E+00
         0.00000E+00
         0.00000E+00
         0.00000E+00
         0.00000E+00
         0.00000E+00
         0.00000E+00
         0.00000E+00
         0.00000E+00
         0.00000E+00
         0.00000E+00
         0.00000E+00
         0.00000E+00
         0.00000E+00
         0.00000E+00
         0.00000E+00
         0.00000E+00
         0.00000E+00
         0.00000E+00
         0.00000E+00
         0.00000E+00
         0.00000E+00
         0.00000E+00
         0.00000E+00
         0.00000E+00
         0.00000E+00
         0.00000E+00
         0.00000E+00
         0.00000E+00
         0.00000E+00
         0.00000E+00
         0.00000E+00
         0.00000E+00
         0.00000E+00
         0.00000E+00
         0.00000E+00
         0.00000E+00
         0.00000E+00
         0.00000E+00
         0.00000E+00
         0.00000E+00
         0.00000E+00
         0.00000E+00
         0.00000E+00
         0.00000E+00
         0.00000E+00
         0.00000E+00
         0.00000E+00
         0.00000E+00
         0.00000E+00
         0.00000E+00
         0.00000E+00
         0.00000E+00
         0.00000E+00
         0.00000E+00
         0.00000E+00
         0.00000E+00
         0.00000E+00
         0.00000E+00
         0.00000E+00
         0.00000E+00
         0.00000E+00
         0.00000E+00
         0.00000E+00
         0.00000E+00
         0.00000E+00
         0.00000E+00
         0.00000E+00
         0.00000E+00
         0.00000E+00
         0.00000E+00
         0.00000E+00
         0.00000E+00
         0.00000E+00
         0.00000E+00
         0.00000E+00
         0.00000E+00
         0.00000E+00
         0.00000E+00
         0.00000E+00
         0.00000E+00
         0.00000E+00
         0.00000E+00
         0.00000E+00
         0.00000E+00
         0.00000E+00
         0.00000E+00
         0.00000E+00
         0.00000E+00
         0.00000E+00
         0.00000E+00
         0.00000E+00
         0.00000E+00
         0.00000E+00
         0.00000E+00
         0.00000E+00
         0.00000E+00
         0.00000E+00
         0.00000E+00
         0.00000E+00
         0.00000E+00
         0.00000E+00
         0.00000E+00
         0.00000E+00
         0.00000E+00
         0.00000E+00
         0.00000E+00
         0.00000E+00
         0.00000E+00
         0.00000E+00
         0.00000E+00
         0.00000E+00
         0.00000E+00
         0.00000E+00
         0.00000E+00
         0.00000E+00
         0.00000E+00
         0.00000E+00
         0.00000E+00
         0.00000E+00
         0.00000E+00
         0.00000E+00
         0.00000E+00
         0.00000E+00
         0.00000E+00
         0.00000E+00
         0.00000E+00
         0.00000E+00
         0.00000E+00
         0.00000E+00
         0.00000E+00
         0.00000E+00
         0.00000E+00
         0.00000E+00
         0.00000E+00
         0.00000E+00
         0.00000E+00
         0.00000E+00
         0.00000E+00
         0.00000E+00
         0.00000E+00
         0.00000E+00
         0.00000E+00
         0.00000E+00
         0.00000E+00
         0.00000E+00
         0.00000E+00
         0.00000E+00
         0.00000E+00
         0.00000E+00
         0.00000E+00
         0.00000E+00
         0.00000E+00
         0.00000E+00
         0.00000E+00
         0.00000E+00
         0.00000E+00
         0.00000E+00
         0.00000E+00
         0.00000E+00
         0.00000E+00
         0.00000E+00
         0.00000E+00
         0.00000E+00
         0.00000E+00
         0.00000E+00
         0.00000E+00
         0.00000E+00
         0.00000E+00
         0.00000E+00
         0.00000E+00
         0.00000E+00
         0.00000E+00
         0.00000E+00
         0.00000E+00
         0.00000E+00
         0.00000E+00
         0.00000E+00
         0.00000E+00
         0.00000E+00
         0.00000E+00
         0.00000E+00
         0.00000E+00
         0.00000E+00
         0.00000E+00
         0.00000E+00
         0.00000E+00
         0.00000E+00
         0.00000E+00
         0.00000E+00
         0.00000E+00
         0.00000E+00
         0.00000E+00
         0.00000E+00
         0.00000E+00
         0.00000E+00
         0.00000E+00
         0.00000E+00
         0.00000E+00
         0.00000E+00
         0.00000E+00
         0.00000E+00
         0.00000E+00
         0.00000E+00
         0.00000E+00
         0.00000E+00
         0.00000E+00
         0.00000E+00
         0.00000E+00
         0.00000E+00
         0.00000E+00
         0.00000E+00
         0.00000E+00
         0.00000E+00
         0.00000E+00
         0.00000E+00
         0.00000E+00
         0.00000E+00
         0.00000E+00
         0.00000E+00
         0.00000E+00
         0.00000E+00
         0.00000E+00
         0.00000E+00
         0.00000E+00
         0.00000E+00
         0.00000E+00
         0.00000E+00
         0.00000E+00
         0.00000E+00
         0.00000E+00
         0.00000E+00
         0.00000E+00
         0.00000E+00
         0.00000E+00
         0.00000E+00
         0.00000E+00
         0.00000E+00
         0.00000E+00
         0.00000E+00
         0.00000E+00
         0.00000E+00
         0.00000E+00
         0.00000E+00
         0.00000E+00
         0.00000E+00
         0.00000E+00
         0.00000E+00
         0.00000E+00
         0.00000E+00
         0.00000E+00
         0.00000E+00
         0.00000E+00
         0.00000E+00
         0.00000E+00
         0.00000E+00
         0.00000E+00
         0.00000E+00
         0.00000E+00
         0.00000E+00
         0.00000E+00
         0.00000E+00
         0.00000E+00
         0.00000E+00
         0.00000E+00
         0.00000E+00
         0.00000E+00
         0.00000E+00
         0.00000E+00
         0.00000E+00
         0.00000E+00
         0.00000E+00
         0.00000E+00
         0.00000E+00
         0.00000E+00
         0.00000E+00
         0.00000E+00
         0.00000E+00
         0.00000E+00
         0.00000E+00
         0.00000E+00
         0.00000E+00
         0.00000E+00
         0.00000E+00
         0.00000E+00
         0.00000E+00
         0.00000E+00
         0.00000E+00
         0.00000E+00
         0.00000E+00
         0.00000E+00
         0.00000E+00
         0.00000E+00
         0.00000E+00
         0.00000E+00
         0.00000E+00
         0.00000E+00
         0.00000E+00
         0.00000E+00
         0.00000E+00
         0.00000E+00
         0.00000E+00
         0.00000E+00
         0.00000E+00
         0.00000E+00
         0.00000E+00
         0.00000E+00
         0.00000E+00
         0.00000E+00
         0.00000E+00
         0.00000E+00
         0.00000E+00
         0.00000E+00
         0.00000E+00
         0.00000E+00
         0.00000E+00
         0.00000E+00
         0.00000E+00
         0.00000E+00
         0.00000E+00
         0.00000E+00
         0.00000E+00
         0.00000E+00
         0.00000E+00
         0.00000E+00
         0.00000E+00
         0.00000E+00
         0.00000E+00
         0.00000E+00
         0.00000E+00
         0.00000E+00
         0.00000E+00
         0.00000E+00
         0.00000E+00
         0.00000E+00
         0.00000E+00
         0.00000E+00
         0.00000E+00
         0.00000E+00
         0.00000E+00
         0.00000E+00
         0.00000E+00
         0.00000E+00
         0.00000E+00
         0.00000E+00
         0.00000E+00
         0.00000E+00
         0.00000E+00
         0.00000E+00
         0.00000E+00
         0.00000E+00
         0.00000E+00
         0.00000E+00
         0.00000E+00
         0.00000E+00
         0.00000E+00
         0.00000E+00
         0.00000E+00
         0.00000E+00
         0.00000E+00
         0.00000E+00
         0.00000E+00
         0.00000E+00
         0.00000E+00
         0.00000E+00
         0.00000E+00
         0.00000E+00
         0.00000E+00
         0.00000E+00
         0.00000E+00
         0.00000E+00
         0.00000E+00
         0.00000E+00
         0.00000E+00
         0.00000E+00
         0.00000E+00
         0.00000E+00
         0.00000E+00
         0.00000E+00
         0.00000E+00
         0.00000E+00
         0.00000E+00
         0.00000E+00
         0.00000E+00
         0.00000E+00
         0.00000E+00
         0.00000E+00
         0.00000E+00
         0.00000E+00
         0.00000E+00
         0.00000E+00
         0.00000E+00
         0.00000E+00
         0.00000E+00
         0.00000E+00
         0.00000E+00
         0.00000E+00
         0.00000E+00
         0.00000E+00
         0.00000E+00
         0.00000E+00
         0.00000E+00
         0.00000E+00
         0.00000E+00
         0.00000E+00
         0.00000E+00
         0.00000E+00
         0.00000E+00
         0.00000E+00
         0.00000E+00
         0.00000E+00
         0.00000E+00
         0.00000E+00
         0.00000E+00
         0.00000E+00
         0.00000E+00
         0.00000E+00
         0.00000E+00
         0.00000E+00
         0.00000E+00
         0.00000E+00
         0.00000E+00
         0.00000E+00
         0.00000E+00
         0.00000E+00
         0.00000E+00
         0.00000E+00
         0.00000E+00
         0.00000E+00
         0.00000E+00
         0.00000E+00
         0.00000E+00
         0.00000E+00
         0.00000E+00
         0.00000E+00
         0.00000E+00
         0.00000E+00
         0.00000E+00
         0.00000E+00
         0.00000E+00
         0.00000E+00
         0.00000E+00
         0.00000E+00
         0.00000E+00
         0.00000E+00
         0.00000E+00
         0.00000E+00
         0.00000E+00
         0.00000E+00
         0.00000E+00
         0.00000E+00
         0.00000E+00
         0.00000E+00
         0.00000E+00
         0.00000E+00
         0.00000E+00
         0.00000E+00
         0.00000E+00
         0.00000E+00
         0.00000E+00
         0.00000E+00
         0.00000E+00
         0.00000E+00
         0.00000E+00
         0.00000E+00
         0.00000E+00
         0.00000E+00
         0.00000E+00
         0.00000E+00
         0.00000E+00
         0.00000E+00
         0.00000E+00
         0.00000E+00
         0.00000E+00
         0.00000E+00
         0.00000E+00
         0.00000E+00
         0.00000E+00
         0.00000E+00
         0.00000E+00
         0.00000E+00
         0.00000E+00
         0.00000E+00
         0.00000E+00
         0.00000E+00
         0.00000E+00
         0.00000E+00
         0.00000E+00
         0.00000E+00
  
SCALARS                            eps  double 1
LOOKUP_TABLE default
         0.85383E+01
         0.84328E+01
         0.84998E+01
         0.86197E+01
         0.00000E+00
         0.00000E+00
         0.00000E+00
         0.00000E+00
         0.84298E+01
         0.84652E+01
         0.00000E+00
         0.00000E+00
         0.82800E+01
         0.82743E+01
         0.00000E+00
         0.00000E+00
         0.86021E+01
         0.82826E+01
         0.00000E+00
         0.00000E+00
         0.81650E+01
         0.80739E+01
         0.82193E+01
         0.00000E+00
         0.00000E+00
         0.00000E+00
         0.80772E+01
         0.79439E+01
         0.00000E+00
         0.00000E+00
         0.85963E+01
         0.84574E+01
         0.87309E+01
         0.00000E+00
         0.00000E+00
         0.00000E+00
         0.85160E+01
         0.83389E+01
         0.00000E+00
         0.00000E+00
         0.84460E+01
         0.83094E+01
         0.00000E+00
         0.00000E+00
         0.85617E+01
         0.86128E+01
         0.00000E+00
         0.00000E+00
         0.81994E+01
         0.00000E+00
         0.86028E+01
         0.00000E+00
         0.80387E+01
         0.00000E+00
         0.79967E+01
         0.00000E+00
         0.79976E+01
         0.81465E+01
         0.00000E+00
         0.00000E+00
         0.85935E+01
         0.85402E+01
         0.00000E+00
         0.00000E+00
         0.86268E+01
         0.00000E+00
         0.85635E+01
         0.00000E+00
         0.83975E+01
         0.83801E+01
         0.00000E+00
         0.00000E+00
         0.83421E+01
         0.00000E+00
         0.78966E+01
         0.00000E+00
         0.78733E+01
         0.00000E+00
         0.78852E+01
         0.00000E+00
         0.79505E+01
         0.80170E+01
         0.00000E+00
         0.00000E+00
         0.81516E+01
         0.00000E+00
         0.85591E+01
         0.00000E+00
         0.84959E+01
         0.00000E+00
         0.84446E+01
         0.84151E+01
         0.00000E+00
         0.00000E+00
         0.84500E+01
         0.00000E+00
         0.84751E+01
         0.00000E+00
         0.84527E+01
         0.00000E+00
         0.84453E+01
         0.84677E+01
         0.00000E+00
         0.00000E+00
         0.83223E+01
         0.83833E+01
         0.00000E+00
         0.00000E+00
         0.83118E+01
         0.00000E+00
         0.83823E+01
         0.00000E+00
         0.83133E+01
         0.00000E+00
         0.81616E+01
         0.00000E+00
         0.80150E+01
         0.00000E+00
         0.79267E+01
         0.00000E+00
         0.79177E+01
         0.00000E+00
         0.79204E+01
         0.00000E+00
         0.80159E+01
         0.00000E+00
         0.81959E+01
         0.00000E+00
         0.83927E+01
         0.00000E+00
         0.85069E+01
         0.00000E+00
         0.86199E+01
         0.00000E+00
         0.86946E+01
         0.00000E+00
         0.86923E+01
         0.00000E+00
         0.85091E+01
         0.00000E+00
         0.83810E+01
         0.00000E+00
         0.83387E+01
         0.00000E+00
         0.84076E+01
         0.00000E+00
         0.84427E+01
         0.00000E+00
         0.83819E+01
         0.00000E+00
         0.83819E+01
         0.00000E+00
         0.84277E+01
         0.00000E+00
         0.84872E+01
         0.00000E+00
         0.32746E+00
         0.32742E+00
         0.32742E+00
         0.32745E+00
         0.32744E+00
         0.32745E+00
         0.32738E+00
         0.32741E+00
         0.32745E+00
         0.32744E+00
         0.32897E+00
         0.32976E+00
         0.32798E+00
         0.32778E+00
         0.32900E+00
         0.32745E+00
         0.32744E+00
         0.32745E+00
         0.32741E+00
         0.32742E+00
         0.32748E+00
         0.32749E+00
         0.32747E+00
         0.32741E+00
         0.32742E+00
         0.32741E+00
         0.32739E+00
         0.32739E+00
         0.32747E+00
         0.32741E+00
         0.32744E+00
         0.32741E+00
         0.32744E+00
         0.32742E+00
         0.33022E+00
         0.32774E+00
         0.32744E+00
         0.32800E+00
         0.32814E+00
         0.33037E+00
         0.33221E+00
         0.32806E+00
         0.32750E+00
         0.32746E+00
         0.32745E+00
         0.33014E+00
         0.32742E+00
         0.32744E+00
         0.32743E+00
         0.32742E+00
         0.32917E+00
         0.32744E+00
         0.33774E+00
         0.33426E+00
         0.33491E+00
         0.33419E+00
         0.33453E+00
         0.33661E+00
         0.33859E+00
         0.33905E+00
         0.33869E+00
         0.33899E+00
         0.33983E+00
         0.33459E+00
         0.33253E+00
         0.33177E+00
         0.33078E+00
         0.33009E+00
         0.33021E+00
         0.33165E+00
         0.33662E+00
         0.33544E+00
         0.33357E+00
         0.33348E+00
         0.33380E+00
         0.33545E+00
         0.33303E+00
         0.33221E+00
         0.65394E-02
         0.26713E-02
         0.23423E-02
         0.62907E-03
         0.69137E-02
         0.38037E-02
         0.00000E+00
         0.63791E-02
         0.28184E-02
         0.58275E-02
         0.12360E-02
         0.15792E-01
         0.11205E-01
         0.40114E-02
         0.16696E-01
         0.38869E-02
         0.43223E-03
         0.00000E+00
         0.15958E-02
         0.00000E+00
         0.11720E-01
         0.10795E-01
         0.10428E-01
         0.39337E-03
         0.26444E-02
         0.00000E+00
         0.36070E-02
         0.00000E+00
         0.00000E+00
         0.31334E-02
         0.28631E-02
         0.68828E-04
         0.75774E-03
         0.23779E-03
         0.98758E-02
         0.46299E-02
         0.69269E-02
         0.13010E-01
         0.92594E-02
         0.83956E-02
         0.13284E-01
         0.11738E-01
         0.11837E-01
         0.84345E-02
         0.71898E-02
         0.11019E-01
         0.61190E-02
         0.47290E-02
         0.33476E-02
         0.45223E-02
         0.94162E-02
         0.54642E-02
         0.52673E-01
         0.54019E-01
         0.56630E-01
         0.56193E-01
         0.60142E-01
         0.64845E-01
         0.62075E-01
         0.54793E-01
         0.53304E-01
         0.57302E-01
         0.56087E-01
         0.55274E-01
         0.45071E-01
         0.42670E-01
         0.47226E-01
         0.50840E-01
         0.52895E-01
         0.58098E-01
         0.55746E-01
         0.57354E-01
         0.51283E-01
         0.48512E-01
         0.51974E-01
         0.50728E-01
         0.52306E-01
         0.51835E-01
         0.65467E-02
         0.26726E-02
         0.23454E-02
         0.63441E-03
         0.69092E-02
         0.37996E-02
         0.00000E+00
         0.63883E-02
         0.28286E-02
         0.58540E-02
         0.12359E-02
         0.15791E-01
         0.11211E-01
         0.39947E-02
         0.16717E-01
         0.38925E-02
         0.44211E-03
         0.00000E+00
         0.15985E-02
         0.00000E+00
         0.11721E-01
         0.10794E-01
         0.10427E-01
         0.39327E-03
         0.26692E-02
         0.00000E+00
         0.36092E-02
         0.00000E+00
         0.00000E+00
         0.31444E-02
         0.28689E-02
         0.67803E-04
         0.75122E-03
         0.24083E-03
         0.98816E-02
         0.46277E-02
         0.69246E-02
         0.13035E-01
         0.92874E-02
         0.84117E-02
         0.13295E-01
         0.11745E-01
         0.11839E-01
         0.84342E-02
         0.71877E-02
         0.11018E-01
         0.61192E-02
         0.47285E-02
         0.33384E-02
         0.45118E-02
         0.94091E-02
         0.54509E-02
         0.52652E-01
         0.54005E-01
         0.56630E-01
         0.56193E-01
         0.60132E-01
         0.64821E-01
         0.62048E-01
         0.54778E-01
         0.53290E-01
         0.57284E-01
         0.56076E-01
         0.55276E-01
         0.45066E-01
         0.42668E-01
         0.47232E-01
         0.50853E-01
         0.52909E-01
         0.58111E-01
         0.55742E-01
         0.57350E-01
         0.51277E-01
         0.48508E-01
         0.51955E-01
         0.50693E-01
         0.52275E-01
         0.51806E-01
         0.65541E-02
         0.26740E-02
         0.23485E-02
         0.63978E-03
         0.69045E-02
         0.37958E-02
         0.00000E+00
         0.63975E-02
         0.28390E-02
         0.58803E-02
         0.12359E-02
         0.15791E-01
         0.11217E-01
         0.39779E-02
         0.16737E-01
         0.38983E-02
         0.45216E-03
         0.00000E+00
         0.16013E-02
         0.00000E+00
         0.11722E-01
         0.10793E-01
         0.10426E-01
         0.39312E-03
         0.26939E-02
         0.00000E+00
         0.36114E-02
         0.00000E+00
         0.00000E+00
         0.31551E-02
         0.28747E-02
         0.66779E-04
         0.74470E-03
         0.24383E-03
         0.98875E-02
         0.46257E-02
         0.69222E-02
         0.13061E-01
         0.93155E-02
         0.84279E-02
         0.13306E-01
         0.11753E-01
         0.11841E-01
         0.84345E-02
         0.71861E-02
         0.11017E-01
         0.61193E-02
         0.47279E-02
         0.33292E-02
         0.45012E-02
         0.94023E-02
         0.54377E-02
         0.52632E-01
         0.53992E-01
         0.56630E-01
         0.56194E-01
         0.60121E-01
         0.64798E-01
         0.62020E-01
         0.54762E-01
         0.53275E-01
         0.57265E-01
         0.56066E-01
         0.55278E-01
         0.45062E-01
         0.42667E-01
         0.47238E-01
         0.50866E-01
         0.52924E-01
         0.58124E-01
         0.55739E-01
         0.57347E-01
         0.51272E-01
         0.48505E-01
         0.51936E-01
         0.50657E-01
         0.52243E-01
         0.51776E-01
         0.65615E-02
         0.26753E-02
         0.23517E-02
         0.64516E-03
         0.68999E-02
         0.37918E-02
         0.00000E+00
         0.64067E-02
         0.28492E-02
         0.59061E-02
         0.12359E-02
         0.15790E-01
         0.11223E-01
         0.39612E-02
         0.16758E-01
         0.39046E-02
         0.46260E-03
         0.00000E+00
         0.16043E-02
         0.00000E+00
         0.11724E-01
         0.10792E-01
         0.10426E-01
         0.39277E-03
         0.27180E-02
         0.00000E+00
         0.36132E-02
         0.00000E+00
         0.00000E+00
         0.31648E-02
         0.28808E-02
         0.65990E-04
         0.73813E-03
         0.24686E-03
         0.98931E-02
         0.46235E-02
         0.69198E-02
         0.13086E-01
         0.93441E-02
         0.84450E-02
         0.13318E-01
         0.11762E-01
         0.11844E-01
         0.84358E-02
         0.71849E-02
         0.11017E-01
         0.61200E-02
         0.47275E-02
         0.33201E-02
         0.44906E-02
         0.93951E-02
         0.54244E-02
         0.52612E-01
         0.53978E-01
         0.56629E-01
         0.56194E-01
         0.60111E-01
         0.64775E-01
         0.61993E-01
         0.54747E-01
         0.53261E-01
         0.57247E-01
         0.56056E-01
         0.55281E-01
         0.45059E-01
         0.42665E-01
         0.47245E-01
         0.50882E-01
         0.52941E-01
         0.58138E-01
         0.55736E-01
         0.57343E-01
         0.51266E-01
         0.48502E-01
         0.51917E-01
         0.50622E-01
         0.52212E-01
         0.51747E-01
         0.65688E-02
         0.26766E-02
         0.23548E-02
         0.65052E-03
         0.68954E-02
         0.37878E-02
         0.00000E+00
         0.64157E-02
         0.28594E-02
         0.59312E-02
         0.12360E-02
         0.15790E-01
         0.11228E-01
         0.39444E-02
         0.16779E-01
         0.39113E-02
         0.47342E-03
         0.00000E+00
         0.16074E-02
         0.00000E+00
         0.11727E-01
         0.10792E-01
         0.10427E-01
         0.39224E-03
         0.27416E-02
         0.00000E+00
         0.36148E-02
         0.00000E+00
         0.00000E+00
         0.31735E-02
         0.28872E-02
         0.65297E-04
         0.73156E-03
         0.24988E-03
         0.98990E-02
         0.46213E-02
         0.69176E-02
         0.13112E-01
         0.93732E-02
         0.84628E-02
         0.13331E-01
         0.11770E-01
         0.11847E-01
         0.84383E-02
         0.71844E-02
         0.11018E-01
         0.61211E-02
         0.47274E-02
         0.33110E-02
         0.44799E-02
         0.93883E-02
         0.54111E-02
         0.52591E-01
         0.53964E-01
         0.56629E-01
         0.56195E-01
         0.60100E-01
         0.64752E-01
         0.61966E-01
         0.54731E-01
         0.53247E-01
         0.57228E-01
         0.56047E-01
         0.55285E-01
         0.45056E-01
         0.42664E-01
         0.47253E-01
         0.50899E-01
         0.52959E-01
         0.58153E-01
         0.55733E-01
         0.57340E-01
         0.51260E-01
         0.48498E-01
         0.51898E-01
         0.50586E-01
         0.52181E-01
         0.51718E-01
         0.65757E-02
         0.26776E-02
         0.23578E-02
         0.65589E-03
         0.68908E-02
         0.37839E-02
         0.00000E+00
         0.64241E-02
         0.28697E-02
         0.59557E-02
         0.12365E-02
         0.15789E-01
         0.11234E-01
         0.39277E-02
         0.16799E-01
         0.39183E-02
         0.48432E-03
         0.00000E+00
         0.16105E-02
         0.00000E+00
         0.11729E-01
         0.10792E-01
         0.10428E-01
         0.39169E-03
         0.27646E-02
         0.00000E+00
         0.36164E-02
         0.00000E+00
         0.00000E+00
         0.31819E-02
         0.28933E-02
         0.64381E-04
         0.72500E-03
         0.25291E-03
         0.99051E-02
         0.46196E-02
         0.69156E-02
         0.13137E-01
         0.94027E-02
         0.84812E-02
         0.13344E-01
         0.11779E-01
         0.11851E-01
         0.84411E-02
         0.71847E-02
         0.11019E-01
         0.61224E-02
         0.47275E-02
         0.33024E-02
         0.44696E-02
         0.93814E-02
         0.53981E-02
         0.52571E-01
         0.53950E-01
         0.56628E-01
         0.56195E-01
         0.60090E-01
         0.64729E-01
         0.61938E-01
         0.54716E-01
         0.53232E-01
         0.57210E-01
         0.56037E-01
         0.55289E-01
         0.45055E-01
         0.42663E-01
         0.47260E-01
         0.50917E-01
         0.52979E-01
         0.58168E-01
         0.55730E-01
         0.57336E-01
         0.51254E-01
         0.48495E-01
         0.51879E-01
         0.50551E-01
         0.52149E-01
         0.51688E-01
         0.65821E-02
         0.26777E-02
         0.23607E-02
         0.66132E-03
         0.68864E-02
         0.37801E-02
         0.00000E+00
         0.64313E-02
         0.28801E-02
         0.59791E-02
         0.12376E-02
         0.15789E-01
         0.11241E-01
         0.39112E-02
         0.16820E-01
         0.39253E-02
         0.49501E-03
         0.00000E+00
         0.16137E-02
         0.00000E+00
         0.11732E-01
         0.10792E-01
         0.10430E-01
         0.39127E-03
         0.27869E-02
         0.00000E+00
         0.36182E-02
         0.00000E+00
         0.00000E+00
         0.31903E-02
         0.28991E-02
         0.62840E-04
         0.71837E-03
         0.25582E-03
         0.99112E-02
         0.46181E-02
         0.69138E-02
         0.13163E-01
         0.94324E-02
         0.84996E-02
         0.13357E-01
         0.11788E-01
         0.11855E-01
         0.84441E-02
         0.71854E-02
         0.11021E-01
         0.61244E-02
         0.47285E-02
         0.32950E-02
         0.44597E-02
         0.93752E-02
         0.53851E-02
         0.52551E-01
         0.53937E-01
         0.56628E-01
         0.56195E-01
         0.60079E-01
         0.64706E-01
         0.61910E-01
         0.54700E-01
         0.53218E-01
         0.57191E-01
         0.56027E-01
         0.55292E-01
         0.45053E-01
         0.42662E-01
         0.47268E-01
         0.50935E-01
         0.52999E-01
         0.58183E-01
         0.55726E-01
         0.57332E-01
         0.51249E-01
         0.48493E-01
         0.51860E-01
         0.50515E-01
         0.52118E-01
         0.51659E-01
         0.65882E-02
         0.26778E-02
         0.23635E-02
         0.66673E-03
         0.68823E-02
         0.37761E-02
         0.52946E-05
         0.64378E-02
         0.28907E-02
         0.60021E-02
         0.12391E-02
         0.15789E-01
         0.11247E-01
         0.38947E-02
         0.16841E-01
         0.39324E-02
         0.50560E-03
         0.00000E+00
         0.16168E-02
         0.00000E+00
         0.11734E-01
         0.10792E-01
         0.10431E-01
         0.39081E-03
         0.28089E-02
         0.00000E+00
         0.36200E-02
         0.00000E+00
         0.00000E+00
         0.31987E-02
         0.29046E-02
         0.60949E-04
         0.71173E-03
         0.25872E-03
         0.99176E-02
         0.46170E-02
         0.69125E-02
         0.13189E-01
         0.94621E-02
         0.85182E-02
         0.13370E-01
         0.11797E-01
         0.11859E-01
         0.84474E-02
         0.71864E-02
         0.11023E-01
         0.61267E-02
         0.47297E-02
         0.32881E-02
         0.44501E-02
         0.93692E-02
         0.53725E-02
         0.52530E-01
         0.53923E-01
         0.56627E-01
         0.56196E-01
         0.60069E-01
         0.64683E-01
         0.61883E-01
         0.54684E-01
         0.53204E-01
         0.57173E-01
         0.56018E-01
         0.55296E-01
         0.45051E-01
         0.42661E-01
         0.47276E-01
         0.50953E-01
         0.53018E-01
         0.58197E-01
         0.55722E-01
         0.57328E-01
         0.51244E-01
         0.48490E-01
         0.51840E-01
         0.50480E-01
         0.52087E-01
         0.51629E-01
         0.65943E-02
         0.26778E-02
         0.23663E-02
         0.67217E-03
         0.68780E-02
         0.37721E-02
         0.13709E-04
         0.64444E-02
         0.29014E-02
         0.60250E-02
         0.12405E-02
         0.15790E-01
         0.11254E-01
         0.38783E-02
         0.16862E-01
         0.39394E-02
         0.51622E-03
         0.00000E+00
         0.16200E-02
         0.00000E+00
         0.11737E-01
         0.10792E-01
         0.10433E-01
         0.39049E-03
         0.28309E-02
         0.00000E+00
         0.36219E-02
         0.00000E+00
         0.00000E+00
         0.32071E-02
         0.29101E-02
         0.59104E-04
         0.70515E-03
         0.26161E-03
         0.99241E-02
         0.46156E-02
         0.69111E-02
         0.13215E-01
         0.94921E-02
         0.85365E-02
         0.13384E-01
         0.11807E-01
         0.11863E-01
         0.84508E-02
         0.71876E-02
         0.11026E-01
         0.61289E-02
         0.47309E-02
         0.32813E-02
         0.44405E-02
         0.93634E-02
         0.53596E-02
         0.52510E-01
         0.53910E-01
         0.56626E-01
         0.56196E-01
         0.60058E-01
         0.64659E-01
         0.61855E-01
         0.54669E-01
         0.53189E-01
         0.57154E-01
         0.56008E-01
         0.55300E-01
         0.45049E-01
         0.42661E-01
         0.47283E-01
         0.50972E-01
         0.53037E-01
         0.58211E-01
         0.55718E-01
         0.57325E-01
         0.51239E-01
         0.48488E-01
         0.51821E-01
         0.50445E-01
         0.52056E-01
         0.51600E-01
         0.66003E-02
         0.26777E-02
         0.23690E-02
         0.67765E-03
         0.68736E-02
         0.37682E-02
         0.22169E-04
         0.64510E-02
         0.29120E-02
         0.60479E-02
         0.12421E-02
         0.15790E-01
         0.11260E-01
         0.38620E-02
         0.16883E-01
         0.39464E-02
         0.52687E-03
         0.00000E+00
         0.16230E-02
         0.00000E+00
         0.11740E-01
         0.10792E-01
         0.10434E-01
         0.39015E-03
         0.28528E-02
         0.00000E+00
         0.36239E-02
         0.00000E+00
         0.00000E+00
         0.32155E-02
         0.29156E-02
         0.57201E-04
         0.69858E-03
         0.26452E-03
         0.99304E-02
         0.46145E-02
         0.69098E-02
         0.13242E-01
         0.95220E-02
         0.85550E-02
         0.13397E-01
         0.11816E-01
         0.11867E-01
         0.84541E-02
         0.71886E-02
         0.11028E-01
         0.61312E-02
         0.47323E-02
         0.32744E-02
         0.44308E-02
         0.93572E-02
         0.53468E-02
         0.52489E-01
         0.53896E-01
         0.56626E-01
         0.56196E-01
         0.60048E-01
         0.64636E-01
         0.61827E-01
         0.54653E-01
         0.53175E-01
         0.57135E-01
         0.55998E-01
         0.55304E-01
         0.45048E-01
         0.42660E-01
         0.47291E-01
         0.50990E-01
         0.53057E-01
         0.58226E-01
         0.55714E-01
         0.57321E-01
         0.51234E-01
         0.48486E-01
         0.51802E-01
         0.50409E-01
         0.52025E-01
         0.51571E-01
         0.66063E-02
         0.26776E-02
         0.23718E-02
         0.68307E-03
         0.68695E-02
         0.37643E-02
         0.30729E-04
         0.64575E-02
         0.29226E-02
         0.60708E-02
         0.12438E-02
         0.15790E-01
         0.11267E-01
         0.38457E-02
         0.16905E-01
         0.39534E-02
         0.53753E-03
         0.00000E+00
         0.16262E-02
         0.00000E+00
         0.11742E-01
         0.10792E-01
         0.10436E-01
         0.38984E-03
         0.28747E-02
         0.00000E+00
         0.36259E-02
         0.00000E+00
         0.00000E+00
         0.32239E-02
         0.29212E-02
         0.55336E-04
         0.69209E-03
         0.26742E-03
         0.99369E-02
         0.46132E-02
         0.69084E-02
         0.13268E-01
         0.95520E-02
         0.85733E-02
         0.13410E-01
         0.11825E-01
         0.11871E-01
         0.84572E-02
         0.71896E-02
         0.11030E-01
         0.61335E-02
         0.47335E-02
         0.32677E-02
         0.44211E-02
         0.93515E-02
         0.53341E-02
         0.52469E-01
         0.53883E-01
         0.56625E-01
         0.56196E-01
         0.60037E-01
         0.64612E-01
         0.61799E-01
         0.54637E-01
         0.53161E-01
         0.57116E-01
         0.55989E-01
         0.55308E-01
         0.45046E-01
         0.42659E-01
         0.47299E-01
         0.51008E-01
         0.53076E-01
         0.58240E-01
         0.55710E-01
         0.57317E-01
         0.51229E-01
         0.48483E-01
         0.51783E-01
         0.50374E-01
         0.51994E-01
         0.51541E-01
         0.66123E-02
         0.26775E-02
         0.23746E-02
         0.68856E-03
         0.68652E-02
         0.37604E-02
         0.39205E-04
         0.64641E-02
         0.29333E-02
         0.60937E-02
         0.12455E-02
         0.15790E-01
         0.11273E-01
         0.38294E-02
         0.16926E-01
         0.39604E-02
         0.54820E-03
         0.00000E+00
         0.16293E-02
         0.00000E+00
         0.11745E-01
         0.10792E-01
         0.10437E-01
         0.38956E-03
         0.28965E-02
         0.00000E+00
         0.36278E-02
         0.00000E+00
         0.00000E+00
         0.32323E-02
         0.29267E-02
         0.53480E-04
         0.68556E-03
         0.27036E-03
         0.99435E-02
         0.46119E-02
         0.69070E-02
         0.13294E-01
         0.95819E-02
         0.85918E-02
         0.13423E-01
         0.11834E-01
         0.11875E-01
         0.84605E-02
         0.71906E-02
         0.11033E-01
         0.61357E-02
         0.47349E-02
         0.32609E-02
         0.44116E-02
         0.93455E-02
         0.53213E-02
         0.52448E-01
         0.53869E-01
         0.56624E-01
         0.56197E-01
         0.60027E-01
         0.64589E-01
         0.61771E-01
         0.54621E-01
         0.53147E-01
         0.57097E-01
         0.55979E-01
         0.55312E-01
         0.45044E-01
         0.42658E-01
         0.47307E-01
         0.51026E-01
         0.53096E-01
         0.58254E-01
         0.55706E-01
         0.57313E-01
         0.51224E-01
         0.48481E-01
         0.51763E-01
         0.50339E-01
         0.51963E-01
         0.51512E-01
         0.66183E-02
         0.26775E-02
         0.23773E-02
         0.69406E-03
         0.68609E-02
         0.37565E-02
         0.47698E-04
         0.64707E-02
         0.29439E-02
         0.61165E-02
         0.12473E-02
         0.15790E-01
         0.11280E-01
         0.38131E-02
         0.16947E-01
         0.39674E-02
         0.55888E-03
         0.00000E+00
         0.16324E-02
         0.00000E+00
         0.11747E-01
         0.10792E-01
         0.10439E-01
         0.38929E-03
         0.29183E-02
         0.00000E+00
         0.36298E-02
         0.00000E+00
         0.00000E+00
         0.32406E-02
         0.29322E-02
         0.51587E-04
         0.67905E-03
         0.27326E-03
         0.99498E-02
         0.46109E-02
         0.69057E-02
         0.13320E-01
         0.96120E-02
         0.86102E-02
         0.13437E-01
         0.11843E-01
         0.11879E-01
         0.84639E-02
         0.71919E-02
         0.11035E-01
         0.61381E-02
         0.47362E-02
         0.32542E-02
         0.44020E-02
         0.93393E-02
         0.53085E-02
         0.52428E-01
         0.53856E-01
         0.56623E-01
         0.56197E-01
         0.60016E-01
         0.64566E-01
         0.61743E-01
         0.54606E-01
         0.53133E-01
         0.57078E-01
         0.55969E-01
         0.55316E-01
         0.45042E-01
         0.42657E-01
         0.47314E-01
         0.51044E-01
         0.53115E-01
         0.58269E-01
         0.55702E-01
         0.57310E-01
         0.51219E-01
         0.48478E-01
         0.51744E-01
         0.50304E-01
         0.51932E-01
         0.51483E-01
         0.66243E-02
         0.26775E-02
         0.23801E-02
         0.69955E-03
         0.68568E-02
         0.37525E-02
         0.56298E-04
         0.64772E-02
         0.29546E-02
         0.61393E-02
         0.12492E-02
         0.15790E-01
         0.11287E-01
         0.37968E-02
         0.16968E-01
         0.39743E-02
         0.56959E-03
         0.00000E+00
         0.16355E-02
         0.00000E+00
         0.11750E-01
         0.10792E-01
         0.10440E-01
         0.38901E-03
         0.29401E-02
         0.00000E+00
         0.36316E-02
         0.00000E+00
         0.00000E+00
         0.32489E-02
         0.29377E-02
         0.49740E-04
         0.67261E-03
         0.27618E-03
         0.99564E-02
         0.46097E-02
         0.69043E-02
         0.13347E-01
         0.96421E-02
         0.86284E-02
         0.13450E-01
         0.11852E-01
         0.11882E-01
         0.84671E-02
         0.71929E-02
         0.11037E-01
         0.61404E-02
         0.47374E-02
         0.32473E-02
         0.43924E-02
         0.93335E-02
         0.52958E-02
         0.52407E-01
         0.53842E-01
         0.56622E-01
         0.56197E-01
         0.60006E-01
         0.64543E-01
         0.61714E-01
         0.54590E-01
         0.53118E-01
         0.57059E-01
         0.55959E-01
         0.55319E-01
         0.45040E-01
         0.42656E-01
         0.47322E-01
         0.51062E-01
         0.53135E-01
         0.58283E-01
         0.55698E-01
         0.57306E-01
         0.51214E-01
         0.48476E-01
         0.51725E-01
         0.50268E-01
         0.51901E-01
         0.51453E-01
         0.66303E-02
         0.26775E-02
         0.23829E-02
         0.70509E-03
         0.68525E-02
         0.37485E-02
         0.64837E-04
         0.64837E-02
         0.29653E-02
         0.61621E-02
         0.12511E-02
         0.15790E-01
         0.11293E-01
         0.37805E-02
         0.16989E-01
         0.39813E-02
         0.58033E-03
         0.00000E+00
         0.16387E-02
         0.00000E+00
         0.11752E-01
         0.10792E-01
         0.10442E-01
         0.38874E-03
         0.29619E-02
         0.00000E+00
         0.36335E-02
         0.00000E+00
         0.00000E+00
         0.32572E-02
         0.29432E-02
         0.47840E-04
         0.66618E-03
         0.27909E-03
         0.99627E-02
         0.46086E-02
         0.69030E-02
         0.13373E-01
         0.96722E-02
         0.86468E-02
         0.13463E-01
         0.11861E-01
         0.11886E-01
         0.84704E-02
         0.71939E-02
         0.11039E-01
         0.61426E-02
         0.47388E-02
         0.32405E-02
         0.43827E-02
         0.93275E-02
         0.52830E-02
         0.52387E-01
         0.53829E-01
         0.56621E-01
         0.56198E-01
         0.59995E-01
         0.64519E-01
         0.61686E-01
         0.54574E-01
         0.53104E-01
         0.57039E-01
         0.55950E-01
         0.55323E-01
         0.45038E-01
         0.42656E-01
         0.47330E-01
         0.51081E-01
         0.53155E-01
         0.58297E-01
         0.55694E-01
         0.57302E-01
         0.51210E-01
         0.48474E-01
         0.51705E-01
         0.50233E-01
         0.51870E-01
         0.51424E-01
         0.66362E-02
         0.26773E-02
         0.23856E-02
         0.71060E-03
         0.68483E-02
         0.37448E-02
         0.73382E-04
         0.64902E-02
         0.29760E-02
         0.61848E-02
         0.12531E-02
         0.15790E-01
         0.11300E-01
         0.37643E-02
         0.17010E-01
         0.39883E-02
         0.59110E-03
         0.00000E+00
         0.16418E-02
         0.00000E+00
         0.11755E-01
         0.10792E-01
         0.10443E-01
         0.38849E-03
         0.29836E-02
         0.00000E+00
         0.36354E-02
         0.00000E+00
         0.00000E+00
         0.32655E-02
         0.29487E-02
         0.46021E-04
         0.65981E-03
         0.28206E-03
         0.99694E-02
         0.46074E-02
         0.69016E-02
         0.13399E-01
         0.97022E-02
         0.86648E-02
         0.13476E-01
         0.11870E-01
         0.11890E-01
         0.84735E-02
         0.71952E-02
         0.11042E-01
         0.61449E-02
         0.47400E-02
         0.32338E-02
         0.43731E-02
         0.93215E-02
         0.52702E-02
         0.52366E-01
         0.53815E-01
         0.56620E-01
         0.56198E-01
         0.59985E-01
         0.64496E-01
         0.61658E-01
         0.54558E-01
         0.53090E-01
         0.57020E-01
         0.55940E-01
         0.55327E-01
         0.45036E-01
         0.42655E-01
         0.47337E-01
         0.51099E-01
         0.53174E-01
         0.58312E-01
         0.55690E-01
         0.57298E-01
         0.51205E-01
         0.48471E-01
         0.51686E-01
         0.50198E-01
         0.51839E-01
         0.51395E-01
         0.66421E-02
         0.26772E-02
         0.23884E-02
         0.71614E-03
         0.68442E-02
         0.37408E-02
         0.82034E-04
         0.64967E-02
         0.29868E-02
         0.62076E-02
         0.12551E-02
         0.15790E-01
         0.11306E-01
         0.37480E-02
         0.17031E-01
         0.39953E-02
         0.60191E-03
         0.00000E+00
         0.16449E-02
         0.00000E+00
         0.11757E-01
         0.10792E-01
         0.10445E-01
         0.38831E-03
         0.30053E-02
         0.00000E+00
         0.36372E-02
         0.00000E+00
         0.00000E+00
         0.32736E-02
         0.29542E-02
         0.44218E-04
         0.65350E-03
         0.28505E-03
         0.99760E-02
         0.46062E-02
         0.69002E-02
         0.13426E-01
         0.97323E-02
         0.86830E-02
         0.13489E-01
         0.11879E-01
         0.11894E-01
         0.84769E-02
         0.71963E-02
         0.11044E-01
         0.61473E-02
         0.47415E-02
         0.32271E-02
         0.43634E-02
         0.93155E-02
         0.52576E-02
         0.52346E-01
         0.53802E-01
         0.56619E-01
         0.56198E-01
         0.59974E-01
         0.64472E-01
         0.61629E-01
         0.54542E-01
         0.53076E-01
         0.57000E-01
         0.55930E-01
         0.55332E-01
         0.45035E-01
         0.42654E-01
         0.47345E-01
         0.51117E-01
         0.53194E-01
         0.58326E-01
         0.55686E-01
         0.57294E-01
         0.51200E-01
         0.48469E-01
         0.51667E-01
         0.50162E-01
         0.51808E-01
         0.51365E-01
         0.66480E-02
         0.26772E-02
         0.23912E-02
         0.72171E-03
         0.68400E-02
         0.37369E-02
         0.90603E-04
         0.65031E-02
         0.29976E-02
         0.62301E-02
         0.12572E-02
         0.15791E-01
         0.11313E-01
         0.37317E-02
         0.17052E-01
         0.40023E-02
         0.61271E-03
         0.00000E+00
         0.16481E-02
         0.00000E+00
         0.11760E-01
         0.10791E-01
         0.10446E-01
         0.38800E-03
         0.30270E-02
         0.00000E+00
         0.36384E-02
         0.00000E+00
         0.00000E+00
         0.32814E-02
         0.29597E-02
         0.42316E-04
         0.64716E-03
         0.28802E-03
         0.99824E-02
         0.46052E-02
         0.68989E-02
         0.13452E-01
         0.97624E-02
         0.87003E-02
         0.13501E-01
         0.11887E-01
         0.11897E-01
         0.84802E-02
         0.71974E-02
         0.11046E-01
         0.61495E-02
         0.47428E-02
         0.32203E-02
         0.43538E-02
         0.93098E-02
         0.52448E-02
         0.52325E-01
         0.53788E-01
         0.56618E-01
         0.56198E-01
         0.59964E-01
         0.64449E-01
         0.61601E-01
         0.54526E-01
         0.53062E-01
         0.56980E-01
         0.55921E-01
         0.55338E-01
         0.45034E-01
         0.42653E-01
         0.47353E-01
         0.51135E-01
         0.53213E-01
         0.58340E-01
         0.55682E-01
         0.57291E-01
         0.51195E-01
         0.48466E-01
         0.51647E-01
         0.50127E-01
         0.51778E-01
         0.51336E-01
         0.66539E-02
         0.26772E-02
         0.23939E-02
         0.72727E-03
         0.68357E-02
         0.37329E-02
         0.99206E-04
         0.65096E-02
         0.30084E-02
         0.62524E-02
         0.12593E-02
         0.15791E-01
         0.11319E-01
         0.37153E-02
         0.17073E-01
         0.40092E-02
         0.62352E-03
         0.00000E+00
         0.16512E-02
         0.00000E+00
         0.11763E-01
         0.10791E-01
         0.10448E-01
         0.38780E-03
         0.30485E-02
         0.00000E+00
         0.36391E-02
         0.00000E+00
         0.00000E+00
         0.32888E-02
         0.29652E-02
         0.40484E-04
         0.64085E-03
         0.29098E-03
         0.99891E-02
         0.46040E-02
         0.68976E-02
         0.13479E-01
         0.97922E-02
         0.87173E-02
         0.13513E-01
         0.11894E-01
         0.11900E-01
         0.84835E-02
         0.71986E-02
         0.11049E-01
         0.61519E-02
         0.47441E-02
         0.32136E-02
         0.43441E-02
         0.93036E-02
         0.52319E-02
         0.52304E-01
         0.53775E-01
         0.56617E-01
         0.56198E-01
         0.59953E-01
         0.64425E-01
         0.61572E-01
         0.54510E-01
         0.53047E-01
         0.56958E-01
         0.55911E-01
         0.55345E-01
         0.45034E-01
         0.42652E-01
         0.47360E-01
         0.51153E-01
         0.53233E-01
         0.58354E-01
         0.55678E-01
         0.57287E-01
         0.51190E-01
         0.48464E-01
         0.51628E-01
         0.50092E-01
         0.51747E-01
         0.51307E-01
         0.66599E-02
         0.26771E-02
         0.23968E-02
         0.73287E-03
         0.68317E-02
         0.37292E-02
         0.10789E-03
         0.65160E-02
         0.30193E-02
         0.62747E-02
         0.12616E-02
         0.15791E-01
         0.11326E-01
         0.36988E-02
         0.17094E-01
         0.40162E-02
         0.63438E-03
         0.00000E+00
         0.16544E-02
         0.00000E+00
         0.11765E-01
         0.10791E-01
         0.10449E-01
         0.38763E-03
         0.30700E-02
         0.00000E+00
         0.36397E-02
         0.00000E+00
         0.00000E+00
         0.32960E-02
         0.29708E-02
         0.38689E-04
         0.63469E-03
         0.29402E-03
         0.99958E-02
         0.46030E-02
         0.68961E-02
         0.13505E-01
         0.98221E-02
         0.87337E-02
         0.13524E-01
         0.11901E-01
         0.11903E-01
         0.84867E-02
         0.71996E-02
         0.11051E-01
         0.61542E-02
         0.47455E-02
         0.32069E-02
         0.43345E-02
         0.92979E-02
         0.52194E-02
         0.52284E-01
         0.53761E-01
         0.56616E-01
         0.56199E-01
         0.59943E-01
         0.64402E-01
         0.61544E-01
         0.54494E-01
         0.53033E-01
         0.56937E-01
         0.55902E-01
         0.55353E-01
         0.45035E-01
         0.42652E-01
         0.47368E-01
         0.51171E-01
         0.53252E-01
         0.58368E-01
         0.55675E-01
         0.57283E-01
         0.51185E-01
         0.48461E-01
         0.51608E-01
         0.50057E-01
         0.51716E-01
         0.51278E-01
         0.71171E-02
         0.34070E-02
         0.31494E-02
         0.15845E-02
         0.74403E-02
         0.44533E-02
         0.14163E-02
         0.70942E-02
         0.36578E-02
         0.68802E-02
         0.25189E-02
         0.16339E-01
         0.11872E-01
         0.46237E-02
         0.17667E-01
         0.45532E-02
         0.16522E-02
         0.22613E-03
         0.25560E-02
         0.88985E-03
         0.12224E-01
         0.11277E-01
         0.10900E-01
         0.14359E-02
         0.39056E-02
         0.19703E-03
         0.45632E-02
         0.48131E-03
         0.12917E-02
         0.41493E-02
         0.35894E-02
         0.11528E-02
         0.15027E-02
         0.13122E-02
         0.10601E-01
         0.53404E-02
         0.74990E-02
         0.14098E-01
         0.10482E-01
         0.94064E-02
         0.14082E-01
         0.12439E-01
         0.12390E-01
         0.89644E-02
         0.77602E-02
         0.11623E-01
         0.68123E-02
         0.54044E-02
         0.39520E-02
         0.50347E-02
         0.98683E-02
         0.58683E-02
         0.53022E-01
         0.54482E-01
         0.57367E-01
         0.56920E-01
         0.60687E-01
         0.65186E-01
         0.62330E-01
         0.55281E-01
         0.53831E-01
         0.57755E-01
         0.56699E-01
         0.56102E-01
         0.45673E-01
         0.43244E-01
         0.47971E-01
         0.51796E-01
         0.53889E-01
         0.59077E-01
         0.56435E-01
         0.58048E-01
         0.51866E-01
         0.49113E-01
         0.52274E-01
         0.50702E-01
         0.52357E-01
         0.51920E-01
         0.31202E-01
         0.30451E-01
         0.29887E-01
         0.26654E-01
         0.35522E-01
         0.32019E-01
         0.32206E-01
         0.35036E-01
         0.28557E-01
         0.34880E-01
         0.35790E-01
         0.47726E-01
         0.41198E-01
         0.37617E-01
         0.50109E-01
         0.28480E-01
         0.29238E-01
         0.24952E-01
         0.30526E-01
         0.31626E-01
         0.38687E-01
         0.38769E-01
         0.36517E-01
         0.28961E-01
         0.33758E-01
         0.27559E-01
         0.37487E-01
         0.35555E-01
         0.35919E-01
         0.35035E-01
         0.28270E-01
         0.28746E-01
         0.26844E-01
         0.28051E-01
         0.40326E-01
         0.34598E-01
         0.35867E-01
         0.46476E-01
         0.43121E-01
         0.42015E-01
         0.45775E-01
         0.42826E-01
         0.40947E-01
         0.34503E-01
         0.34908E-01
         0.40920E-01
         0.35559E-01
         0.32909E-01
         0.31604E-01
         0.33230E-01
         0.38509E-01
         0.33717E-01
         0.91144E-01
         0.91449E-01
         0.95156E-01
         0.93672E-01
         0.98561E-01
         0.10529E+00
         0.10375E+00
         0.97021E-01
         0.95781E-01
         0.10031E+00
         0.98064E-01
         0.94842E-01
         0.80842E-01
         0.76587E-01
         0.80811E-01
         0.84513E-01
         0.86800E-01
         0.94514E-01
         0.94379E-01
         0.96213E-01
         0.87689E-01
         0.84039E-01
         0.88182E-01
         0.86530E-01
         0.87607E-01
         0.86863E-01
  
SCALARS                            dam  double 1
LOOKUP_TABLE default
         0.00000E+00
         0.00000E+00
         0.00000E+00
         0.00000E+00
         0.00000E+00
         0.00000E+00
         0.00000E+00
         0.00000E+00
         0.00000E+00
         0.00000E+00
         0.00000E+00
         0.00000E+00
         0.00000E+00
         0.00000E+00
         0.00000E+00
         0.00000E+00
         0.00000E+00
         0.00000E+00
         0.00000E+00
         0.00000E+00
         0.00000E+00
         0.00000E+00
         0.00000E+00
         0.00000E+00
         0.00000E+00
         0.00000E+00
         0.00000E+00
         0.00000E+00
         0.00000E+00
         0.00000E+00
         0.00000E+00
         0.00000E+00
         0.00000E+00
         0.00000E+00
         0.00000E+00
         0.00000E+00
         0.00000E+00
         0.00000E+00
         0.00000E+00
         0.00000E+00
         0.00000E+00
         0.00000E+00
         0.00000E+00
         0.00000E+00
         0.00000E+00
         0.00000E+00
         0.00000E+00
         0.00000E+00
         0.00000E+00
         0.00000E+00
         0.00000E+00
         0.00000E+00
         0.00000E+00
         0.00000E+00
         0.00000E+00
         0.00000E+00
         0.00000E+00
         0.00000E+00
         0.00000E+00
         0.00000E+00
         0.00000E+00
         0.00000E+00
         0.00000E+00
         0.00000E+00
         0.00000E+00
         0.00000E+00
         0.00000E+00
         0.00000E+00
         0.00000E+00
         0.00000E+00
         0.00000E+00
         0.00000E+00
         0.00000E+00
         0.00000E+00
         0.00000E+00
         0.00000E+00
         0.00000E+00
         0.00000E+00
         0.00000E+00
         0.00000E+00
         0.00000E+00
         0.00000E+00
         0.00000E+00
         0.00000E+00
         0.00000E+00
         0.00000E+00
         0.00000E+00
         0.00000E+00
         0.00000E+00
         0.00000E+00
         0.00000E+00
         0.00000E+00
         0.00000E+00
         0.00000E+00
         0.00000E+00
         0.00000E+00
         0.00000E+00
         0.00000E+00
         0.00000E+00
         0.00000E+00
         0.00000E+00
         0.00000E+00
         0.00000E+00
         0.00000E+00
         0.00000E+00
         0.00000E+00
         0.00000E+00
         0.00000E+00
         0.00000E+00
         0.00000E+00
         0.00000E+00
         0.00000E+00
         0.00000E+00
         0.00000E+00
         0.00000E+00
         0.00000E+00
         0.00000E+00
         0.00000E+00
         0.00000E+00
         0.00000E+00
         0.00000E+00
         0.00000E+00
         0.00000E+00
         0.00000E+00
         0.00000E+00
         0.00000E+00
         0.00000E+00
         0.00000E+00
         0.00000E+00
         0.00000E+00
         0.00000E+00
         0.00000E+00
         0.00000E+00
         0.00000E+00
         0.00000E+00
         0.00000E+00
         0.00000E+00
         0.00000E+00
         0.00000E+00
         0.00000E+00
         0.00000E+00
         0.00000E+00
         0.00000E+00
         0.00000E+00
         0.00000E+00
         0.00000E+00
         0.00000E+00
         0.00000E+00
         0.00000E+00
         0.00000E+00
         0.00000E+00
         0.00000E+00
         0.00000E+00
         0.00000E+00
         0.00000E+00
         0.00000E+00
         0.00000E+00
         0.00000E+00
         0.00000E+00
         0.00000E+00
         0.00000E+00
         0.00000E+00
         0.00000E+00
         0.00000E+00
         0.00000E+00
         0.00000E+00
         0.00000E+00
         0.00000E+00
         0.00000E+00
         0.00000E+00
         0.00000E+00
         0.00000E+00
         0.00000E+00
         0.00000E+00
         0.00000E+00
         0.00000E+00
         0.00000E+00
         0.00000E+00
         0.00000E+00
         0.00000E+00
         0.00000E+00
         0.00000E+00
         0.00000E+00
         0.00000E+00
         0.00000E+00
         0.00000E+00
         0.00000E+00
         0.00000E+00
         0.00000E+00
         0.00000E+00
         0.00000E+00
         0.00000E+00
         0.00000E+00
         0.00000E+00
         0.00000E+00
         0.00000E+00
         0.00000E+00
         0.00000E+00
         0.00000E+00
         0.00000E+00
         0.00000E+00
         0.00000E+00
         0.00000E+00
         0.00000E+00
         0.00000E+00
         0.00000E+00
         0.00000E+00
         0.00000E+00
         0.00000E+00
         0.00000E+00
         0.00000E+00
         0.00000E+00
         0.00000E+00
         0.00000E+00
         0.00000E+00
         0.00000E+00
         0.00000E+00
         0.00000E+00
         0.00000E+00
         0.00000E+00
         0.00000E+00
         0.00000E+00
         0.00000E+00
         0.00000E+00
         0.00000E+00
         0.00000E+00
         0.00000E+00
         0.00000E+00
         0.00000E+00
         0.00000E+00
         0.00000E+00
         0.00000E+00
         0.00000E+00
         0.00000E+00
         0.00000E+00
         0.00000E+00
         0.00000E+00
         0.00000E+00
         0.00000E+00
         0.00000E+00
         0.00000E+00
         0.00000E+00
         0.00000E+00
         0.00000E+00
         0.00000E+00
         0.00000E+00
         0.00000E+00
         0.00000E+00
         0.00000E+00
         0.00000E+00
         0.00000E+00
         0.00000E+00
         0.00000E+00
         0.00000E+00
         0.00000E+00
         0.00000E+00
         0.00000E+00
         0.00000E+00
         0.00000E+00
         0.00000E+00
         0.00000E+00
         0.00000E+00
         0.00000E+00
         0.00000E+00
         0.00000E+00
         0.00000E+00
         0.00000E+00
         0.00000E+00
         0.00000E+00
         0.00000E+00
         0.00000E+00
         0.00000E+00
         0.00000E+00
         0.00000E+00
         0.00000E+00
         0.00000E+00
         0.00000E+00
         0.00000E+00
         0.00000E+00
         0.00000E+00
         0.00000E+00
         0.00000E+00
         0.00000E+00
         0.00000E+00
         0.00000E+00
         0.00000E+00
         0.00000E+00
         0.00000E+00
         0.00000E+00
         0.00000E+00
         0.00000E+00
         0.00000E+00
         0.00000E+00
         0.00000E+00
         0.00000E+00
         0.00000E+00
         0.00000E+00
         0.00000E+00
         0.00000E+00
         0.00000E+00
         0.00000E+00
         0.00000E+00
         0.00000E+00
         0.00000E+00
         0.00000E+00
         0.00000E+00
         0.00000E+00
         0.00000E+00
         0.00000E+00
         0.00000E+00
         0.00000E+00
         0.00000E+00
         0.00000E+00
         0.00000E+00
         0.00000E+00
         0.00000E+00
         0.00000E+00
         0.00000E+00
         0.00000E+00
         0.00000E+00
         0.00000E+00
         0.00000E+00
         0.00000E+00
         0.00000E+00
         0.00000E+00
         0.00000E+00
         0.00000E+00
         0.00000E+00
         0.00000E+00
         0.00000E+00
         0.00000E+00
         0.00000E+00
         0.00000E+00
         0.00000E+00
         0.00000E+00
         0.00000E+00
         0.00000E+00
         0.00000E+00
         0.00000E+00
         0.00000E+00
         0.00000E+00
         0.00000E+00
         0.00000E+00
         0.00000E+00
         0.00000E+00
         0.00000E+00
         0.00000E+00
         0.00000E+00
         0.00000E+00
         0.00000E+00
         0.00000E+00
         0.00000E+00
         0.00000E+00
         0.00000E+00
         0.00000E+00
         0.00000E+00
         0.00000E+00
         0.00000E+00
         0.00000E+00
         0.00000E+00
         0.00000E+00
         0.00000E+00
         0.00000E+00
         0.00000E+00
         0.00000E+00
         0.00000E+00
         0.00000E+00
         0.00000E+00
         0.00000E+00
         0.00000E+00
         0.00000E+00
         0.00000E+00
         0.00000E+00
         0.00000E+00
         0.00000E+00
         0.00000E+00
         0.00000E+00
         0.00000E+00
         0.00000E+00
         0.00000E+00
         0.00000E+00
         0.00000E+00
         0.00000E+00
         0.00000E+00
         0.00000E+00
         0.00000E+00
         0.00000E+00
         0.00000E+00
         0.00000E+00
         0.00000E+00
         0.00000E+00
         0.00000E+00
         0.00000E+00
         0.00000E+00
         0.00000E+00
         0.00000E+00
         0.00000E+00
         0.00000E+00
         0.00000E+00
         0.00000E+00
         0.00000E+00
         0.00000E+00
         0.00000E+00
         0.00000E+00
         0.00000E+00
         0.00000E+00
         0.00000E+00
         0.00000E+00
         0.00000E+00
         0.00000E+00
         0.00000E+00
         0.00000E+00
         0.00000E+00
         0.00000E+00
         0.00000E+00
         0.00000E+00
         0.00000E+00
         0.00000E+00
         0.00000E+00
         0.00000E+00
         0.00000E+00
         0.00000E+00
         0.00000E+00
         0.00000E+00
         0.00000E+00
         0.00000E+00
         0.00000E+00
         0.00000E+00
         0.00000E+00
         0.00000E+00
         0.00000E+00
         0.00000E+00
         0.00000E+00
         0.00000E+00
         0.00000E+00
         0.00000E+00
         0.00000E+00
         0.00000E+00
         0.00000E+00
         0.00000E+00
         0.00000E+00
         0.00000E+00
         0.00000E+00
         0.00000E+00
         0.00000E+00
         0.00000E+00
         0.00000E+00
         0.00000E+00
         0.00000E+00
         0.00000E+00
         0.00000E+00
         0.00000E+00
         0.00000E+00
         0.00000E+00
         0.00000E+00
         0.00000E+00
         0.00000E+00
         0.00000E+00
         0.00000E+00
         0.00000E+00
         0.00000E+00
         0.00000E+00
         0.00000E+00
         0.00000E+00
         0.00000E+00
         0.00000E+00
         0.00000E+00
         0.00000E+00
         0.00000E+00
         0.00000E+00
         0.00000E+00
         0.00000E+00
         0.00000E+00
         0.00000E+00
         0.00000E+00
         0.00000E+00
         0.00000E+00
         0.00000E+00
         0.00000E+00
         0.00000E+00
         0.00000E+00
         0.00000E+00
         0.00000E+00
         0.00000E+00
         0.00000E+00
         0.00000E+00
         0.00000E+00
         0.00000E+00
         0.00000E+00
         0.00000E+00
         0.00000E+00
         0.00000E+00
         0.00000E+00
         0.00000E+00
         0.00000E+00
         0.00000E+00
         0.00000E+00
         0.00000E+00
         0.00000E+00
         0.00000E+00
         0.00000E+00
         0.00000E+00
         0.00000E+00
         0.00000E+00
         0.00000E+00
         0.00000E+00
         0.00000E+00
         0.00000E+00
         0.00000E+00
         0.00000E+00
         0.00000E+00
         0.00000E+00
         0.00000E+00
         0.00000E+00
         0.00000E+00
         0.00000E+00
         0.00000E+00
         0.00000E+00
         0.00000E+00
         0.00000E+00
         0.00000E+00
         0.00000E+00
         0.00000E+00
         0.00000E+00
         0.00000E+00
         0.00000E+00
         0.00000E+00
         0.00000E+00
         0.00000E+00
         0.00000E+00
         0.00000E+00
         0.00000E+00
         0.00000E+00
         0.00000E+00
         0.00000E+00
         0.00000E+00
         0.00000E+00
         0.00000E+00
         0.00000E+00
         0.00000E+00
         0.00000E+00
         0.00000E+00
         0.00000E+00
         0.00000E+00
         0.00000E+00
         0.00000E+00
         0.00000E+00
         0.00000E+00
         0.00000E+00
         0.00000E+00
         0.00000E+00
         0.00000E+00
         0.00000E+00
         0.00000E+00
         0.00000E+00
         0.00000E+00
         0.00000E+00
         0.00000E+00
         0.00000E+00
         0.00000E+00
         0.00000E+00
         0.00000E+00
         0.00000E+00
         0.00000E+00
         0.00000E+00
         0.00000E+00
         0.00000E+00
         0.00000E+00
         0.00000E+00
         0.00000E+00
         0.00000E+00
         0.00000E+00
         0.00000E+00
         0.00000E+00
         0.00000E+00
         0.00000E+00
         0.00000E+00
         0.00000E+00
         0.00000E+00
         0.00000E+00
         0.00000E+00
         0.00000E+00
         0.00000E+00
         0.00000E+00
         0.00000E+00
         0.00000E+00
         0.00000E+00
         0.00000E+00
         0.00000E+00
         0.00000E+00
         0.00000E+00
         0.00000E+00
         0.00000E+00
         0.00000E+00
         0.00000E+00
         0.00000E+00
         0.00000E+00
         0.00000E+00
         0.00000E+00
         0.00000E+00
         0.00000E+00
         0.00000E+00
         0.00000E+00
         0.00000E+00
         0.00000E+00
         0.00000E+00
         0.00000E+00
         0.00000E+00
         0.00000E+00
         0.00000E+00
         0.00000E+00
         0.00000E+00
         0.00000E+00
         0.00000E+00
         0.00000E+00
         0.00000E+00
         0.00000E+00
         0.00000E+00
         0.00000E+00
         0.00000E+00
         0.00000E+00
         0.00000E+00
         0.00000E+00
         0.00000E+00
         0.00000E+00
         0.00000E+00
         0.00000E+00
         0.00000E+00
         0.00000E+00
         0.00000E+00
         0.00000E+00
         0.00000E+00
         0.00000E+00
         0.00000E+00
         0.00000E+00
         0.00000E+00
         0.00000E+00
         0.00000E+00
         0.00000E+00
         0.00000E+00
         0.00000E+00
         0.00000E+00
         0.00000E+00
         0.00000E+00
         0.00000E+00
         0.00000E+00
         0.00000E+00
         0.00000E+00
         0.00000E+00
         0.00000E+00
         0.00000E+00
         0.00000E+00
         0.00000E+00
         0.00000E+00
         0.00000E+00
         0.00000E+00
         0.00000E+00
         0.00000E+00
         0.00000E+00
         0.00000E+00
         0.00000E+00
         0.00000E+00
         0.00000E+00
         0.00000E+00
         0.00000E+00
         0.00000E+00
         0.00000E+00
         0.00000E+00
         0.00000E+00
         0.00000E+00
         0.00000E+00
         0.00000E+00
         0.00000E+00
         0.00000E+00
         0.00000E+00
         0.00000E+00
         0.00000E+00
         0.00000E+00
         0.00000E+00
         0.00000E+00
         0.00000E+00
         0.00000E+00
         0.00000E+00
         0.00000E+00
         0.00000E+00
         0.00000E+00
         0.00000E+00
         0.00000E+00
         0.00000E+00
         0.00000E+00
         0.00000E+00
         0.00000E+00
         0.00000E+00
         0.00000E+00
         0.00000E+00
         0.00000E+00
         0.00000E+00
         0.00000E+00
         0.00000E+00
         0.00000E+00
         0.00000E+00
         0.00000E+00
         0.00000E+00
         0.00000E+00
         0.00000E+00
         0.00000E+00
         0.00000E+00
         0.00000E+00
         0.00000E+00
         0.00000E+00
         0.00000E+00
         0.00000E+00
         0.00000E+00
         0.00000E+00
         0.00000E+00
         0.00000E+00
         0.00000E+00
         0.00000E+00
         0.00000E+00
         0.00000E+00
         0.00000E+00
         0.00000E+00
         0.00000E+00
         0.00000E+00
         0.00000E+00
         0.00000E+00
         0.00000E+00
         0.00000E+00
         0.00000E+00
         0.00000E+00
         0.00000E+00
         0.00000E+00
         0.00000E+00
         0.00000E+00
         0.00000E+00
         0.00000E+00
         0.00000E+00
         0.00000E+00
         0.00000E+00
         0.00000E+00
         0.00000E+00
         0.00000E+00
         0.00000E+00
         0.00000E+00
         0.00000E+00
         0.00000E+00
         0.00000E+00
         0.00000E+00
         0.00000E+00
         0.00000E+00
         0.00000E+00
         0.00000E+00
         0.00000E+00
         0.00000E+00
         0.00000E+00
         0.00000E+00
         0.00000E+00
         0.00000E+00
         0.00000E+00
         0.00000E+00
         0.00000E+00
         0.00000E+00
         0.00000E+00
         0.00000E+00
         0.00000E+00
         0.00000E+00
         0.00000E+00
         0.00000E+00
         0.00000E+00
         0.00000E+00
         0.00000E+00
         0.00000E+00
         0.00000E+00
         0.00000E+00
         0.00000E+00
         0.00000E+00
         0.00000E+00
         0.00000E+00
         0.00000E+00
         0.00000E+00
         0.00000E+00
         0.00000E+00
         0.00000E+00
         0.00000E+00
         0.00000E+00
         0.00000E+00
         0.00000E+00
         0.00000E+00
         0.00000E+00
         0.00000E+00
         0.00000E+00
         0.00000E+00
         0.00000E+00
         0.00000E+00
         0.00000E+00
         0.00000E+00
         0.00000E+00
         0.00000E+00
         0.00000E+00
         0.00000E+00
         0.00000E+00
         0.00000E+00
         0.00000E+00
         0.00000E+00
         0.00000E+00
         0.00000E+00
         0.00000E+00
         0.00000E+00
         0.00000E+00
         0.00000E+00
         0.00000E+00
         0.00000E+00
         0.00000E+00
         0.00000E+00
         0.00000E+00
         0.00000E+00
         0.00000E+00
         0.00000E+00
         0.00000E+00
         0.00000E+00
         0.00000E+00
         0.00000E+00
         0.00000E+00
         0.00000E+00
         0.00000E+00
         0.00000E+00
         0.00000E+00
         0.00000E+00
         0.00000E+00
         0.00000E+00
         0.00000E+00
         0.00000E+00
         0.00000E+00
         0.00000E+00
         0.00000E+00
         0.00000E+00
         0.00000E+00
         0.00000E+00
         0.00000E+00
         0.00000E+00
         0.00000E+00
         0.00000E+00
         0.00000E+00
         0.00000E+00
         0.00000E+00
         0.00000E+00
         0.00000E+00
         0.00000E+00
         0.00000E+00
         0.00000E+00
         0.00000E+00
         0.00000E+00
         0.00000E+00
         0.00000E+00
         0.00000E+00
         0.00000E+00
         0.00000E+00
         0.00000E+00
         0.00000E+00
         0.00000E+00
         0.00000E+00
         0.00000E+00
         0.00000E+00
         0.00000E+00
         0.00000E+00
         0.00000E+00
         0.00000E+00
         0.00000E+00
         0.00000E+00
         0.00000E+00
         0.00000E+00
         0.00000E+00
         0.00000E+00
         0.00000E+00
         0.00000E+00
         0.00000E+00
         0.00000E+00
         0.00000E+00
         0.00000E+00
         0.00000E+00
         0.00000E+00
         0.00000E+00
         0.00000E+00
         0.00000E+00
         0.00000E+00
         0.00000E+00
         0.00000E+00
         0.00000E+00
         0.00000E+00
         0.00000E+00
         0.00000E+00
         0.00000E+00
         0.00000E+00
         0.00000E+00
         0.00000E+00
         0.00000E+00
         0.00000E+00
         0.00000E+00
         0.00000E+00
         0.00000E+00
         0.00000E+00
         0.00000E+00
         0.00000E+00
         0.00000E+00
         0.00000E+00
         0.00000E+00
         0.00000E+00
         0.00000E+00
         0.00000E+00
         0.00000E+00
         0.00000E+00
         0.00000E+00
         0.00000E+00
         0.00000E+00
         0.00000E+00
         0.00000E+00
         0.00000E+00
         0.00000E+00
         0.00000E+00
         0.00000E+00
         0.00000E+00
         0.00000E+00
         0.00000E+00
         0.00000E+00
         0.00000E+00
         0.00000E+00
         0.00000E+00
         0.00000E+00
         0.00000E+00
         0.00000E+00
         0.00000E+00
         0.00000E+00
         0.00000E+00
         0.00000E+00
         0.00000E+00
         0.00000E+00
         0.00000E+00
         0.00000E+00
         0.00000E+00
         0.00000E+00
         0.00000E+00
         0.00000E+00
         0.00000E+00
         0.00000E+00
         0.00000E+00
         0.00000E+00
         0.00000E+00
         0.00000E+00
         0.00000E+00
         0.00000E+00
         0.00000E+00
         0.00000E+00
         0.00000E+00
         0.00000E+00
         0.00000E+00
         0.00000E+00
         0.00000E+00
         0.00000E+00
         0.00000E+00
         0.00000E+00
         0.00000E+00
         0.00000E+00
         0.00000E+00
         0.00000E+00
         0.00000E+00
         0.00000E+00
         0.00000E+00
         0.00000E+00
         0.00000E+00
         0.00000E+00
         0.00000E+00
         0.00000E+00
         0.00000E+00
         0.00000E+00
         0.00000E+00
         0.00000E+00
         0.00000E+00
         0.00000E+00
         0.00000E+00
         0.00000E+00
         0.00000E+00
         0.00000E+00
         0.00000E+00
         0.00000E+00
         0.00000E+00
         0.00000E+00
         0.00000E+00
         0.00000E+00
         0.00000E+00
         0.00000E+00
         0.00000E+00
         0.00000E+00
         0.00000E+00
         0.00000E+00
         0.00000E+00
         0.00000E+00
         0.00000E+00
         0.00000E+00
         0.00000E+00
         0.00000E+00
         0.00000E+00
         0.00000E+00
         0.00000E+00
         0.00000E+00
         0.00000E+00
         0.00000E+00
         0.00000E+00
         0.00000E+00
         0.00000E+00
         0.00000E+00
         0.00000E+00
         0.00000E+00
         0.00000E+00
         0.00000E+00
         0.00000E+00
         0.00000E+00
         0.00000E+00
         0.00000E+00
         0.00000E+00
         0.00000E+00
         0.00000E+00
         0.00000E+00
         0.00000E+00
         0.00000E+00
         0.00000E+00
         0.00000E+00
         0.00000E+00
         0.00000E+00
         0.00000E+00
         0.00000E+00
         0.00000E+00
         0.00000E+00
         0.00000E+00
         0.00000E+00
         0.00000E+00
         0.00000E+00
         0.00000E+00
         0.00000E+00
         0.00000E+00
         0.00000E+00
         0.00000E+00
         0.00000E+00
         0.00000E+00
         0.00000E+00
         0.00000E+00
         0.00000E+00
         0.00000E+00
         0.00000E+00
         0.00000E+00
         0.00000E+00
         0.00000E+00
         0.00000E+00
         0.00000E+00
         0.00000E+00
         0.00000E+00
         0.00000E+00
         0.00000E+00
         0.00000E+00
         0.00000E+00
         0.00000E+00
         0.00000E+00
         0.00000E+00
         0.00000E+00
         0.00000E+00
         0.00000E+00
         0.00000E+00
         0.00000E+00
         0.00000E+00
         0.00000E+00
         0.00000E+00
         0.00000E+00
         0.00000E+00
         0.00000E+00
         0.00000E+00
         0.00000E+00
         0.00000E+00
         0.00000E+00
         0.00000E+00
         0.00000E+00
         0.00000E+00
         0.00000E+00
         0.00000E+00
         0.00000E+00
         0.00000E+00
         0.00000E+00
         0.00000E+00
         0.00000E+00
         0.00000E+00
         0.00000E+00
         0.00000E+00
         0.00000E+00
         0.00000E+00
         0.00000E+00
         0.00000E+00
         0.00000E+00
         0.00000E+00
         0.00000E+00
         0.00000E+00
         0.00000E+00
         0.00000E+00
         0.00000E+00
         0.00000E+00
         0.00000E+00
         0.00000E+00
         0.00000E+00
         0.00000E+00
         0.00000E+00
         0.00000E+00
         0.00000E+00
         0.00000E+00
         0.00000E+00
         0.00000E+00
         0.00000E+00
         0.00000E+00
         0.00000E+00
         0.00000E+00
         0.00000E+00
         0.00000E+00
         0.00000E+00
         0.00000E+00
         0.00000E+00
         0.00000E+00
         0.00000E+00
         0.00000E+00
         0.00000E+00
         0.00000E+00
         0.00000E+00
         0.00000E+00
         0.00000E+00
         0.00000E+00
         0.00000E+00
         0.00000E+00
         0.00000E+00
         0.00000E+00
         0.00000E+00
         0.00000E+00
         0.00000E+00
         0.00000E+00
         0.00000E+00
         0.00000E+00
         0.00000E+00
         0.00000E+00
         0.00000E+00
         0.00000E+00
         0.00000E+00
         0.00000E+00
         0.00000E+00
         0.00000E+00
         0.00000E+00
         0.00000E+00
         0.00000E+00
         0.00000E+00
         0.00000E+00
         0.00000E+00
         0.00000E+00
         0.00000E+00
         0.00000E+00
         0.00000E+00
         0.00000E+00
         0.00000E+00
         0.00000E+00
         0.00000E+00
         0.00000E+00
         0.00000E+00
         0.00000E+00
         0.00000E+00
         0.00000E+00
         0.00000E+00
         0.00000E+00
         0.00000E+00
         0.00000E+00
         0.00000E+00
         0.00000E+00
         0.00000E+00
         0.00000E+00
         0.00000E+00
         0.00000E+00
         0.00000E+00
         0.00000E+00
         0.00000E+00
         0.00000E+00
         0.00000E+00
         0.00000E+00
         0.00000E+00
         0.00000E+00
         0.00000E+00
         0.00000E+00
         0.00000E+00
         0.00000E+00
         0.00000E+00
         0.00000E+00
         0.00000E+00
         0.00000E+00
         0.00000E+00
         0.00000E+00
         0.00000E+00
         0.00000E+00
         0.00000E+00
         0.00000E+00
         0.00000E+00
         0.00000E+00
         0.00000E+00
         0.00000E+00
         0.00000E+00
         0.00000E+00
         0.00000E+00
         0.00000E+00
         0.00000E+00
         0.00000E+00
         0.00000E+00
         0.00000E+00
         0.00000E+00
         0.00000E+00
         0.00000E+00
         0.00000E+00
         0.00000E+00
         0.00000E+00
         0.00000E+00
         0.00000E+00
         0.00000E+00
         0.00000E+00
         0.00000E+00
         0.00000E+00
         0.00000E+00
         0.00000E+00
         0.00000E+00
         0.00000E+00
         0.00000E+00
         0.00000E+00
         0.00000E+00
         0.00000E+00
         0.00000E+00
         0.00000E+00
         0.00000E+00
         0.00000E+00
         0.00000E+00
         0.00000E+00
         0.00000E+00
         0.00000E+00
         0.00000E+00
         0.00000E+00
         0.00000E+00
         0.00000E+00
         0.00000E+00
         0.00000E+00
         0.00000E+00
         0.00000E+00
         0.00000E+00
         0.00000E+00
         0.00000E+00
         0.00000E+00
         0.00000E+00
         0.00000E+00
         0.00000E+00
         0.00000E+00
         0.00000E+00
         0.00000E+00
         0.00000E+00
         0.00000E+00
         0.00000E+00
         0.00000E+00
         0.00000E+00
         0.00000E+00
         0.00000E+00
         0.00000E+00
         0.00000E+00
         0.00000E+00
         0.00000E+00
         0.00000E+00
         0.00000E+00
         0.00000E+00
         0.00000E+00
         0.00000E+00
         0.00000E+00
         0.00000E+00
         0.00000E+00
         0.00000E+00
         0.00000E+00
         0.00000E+00
         0.00000E+00
         0.00000E+00
         0.00000E+00
         0.00000E+00
         0.00000E+00
         0.00000E+00
         0.00000E+00
         0.00000E+00
         0.00000E+00
         0.00000E+00
         0.00000E+00
         0.00000E+00
         0.00000E+00
         0.00000E+00
         0.00000E+00
         0.00000E+00
         0.00000E+00
         0.00000E+00
         0.00000E+00
         0.00000E+00
         0.00000E+00
         0.00000E+00
         0.00000E+00
         0.00000E+00
         0.00000E+00
         0.00000E+00
         0.00000E+00
         0.00000E+00
         0.00000E+00
         0.00000E+00
         0.00000E+00
         0.00000E+00
         0.00000E+00
         0.00000E+00
         0.00000E+00
         0.00000E+00
         0.00000E+00
         0.00000E+00
         0.00000E+00
         0.00000E+00
         0.00000E+00
         0.00000E+00
         0.00000E+00
         0.00000E+00
         0.00000E+00
         0.00000E+00
         0.00000E+00
         0.00000E+00
         0.00000E+00
         0.00000E+00
         0.00000E+00
         0.00000E+00
         0.00000E+00
         0.00000E+00
         0.00000E+00
         0.00000E+00
         0.00000E+00
         0.00000E+00
         0.00000E+00
         0.00000E+00
         0.00000E+00
         0.00000E+00
         0.00000E+00
         0.00000E+00
         0.00000E+00
         0.00000E+00
         0.00000E+00
         0.00000E+00
         0.00000E+00
         0.00000E+00
         0.00000E+00
         0.00000E+00
         0.00000E+00
         0.00000E+00
         0.00000E+00
         0.00000E+00
         0.00000E+00
         0.00000E+00
         0.00000E+00
         0.00000E+00
         0.00000E+00
         0.00000E+00
         0.00000E+00
         0.00000E+00
         0.00000E+00
         0.00000E+00
         0.00000E+00
         0.00000E+00
         0.00000E+00
         0.00000E+00
         0.00000E+00
         0.00000E+00
         0.00000E+00
         0.00000E+00
         0.00000E+00
         0.00000E+00
         0.00000E+00
         0.00000E+00
         0.00000E+00
         0.00000E+00
         0.00000E+00
         0.00000E+00
         0.00000E+00
         0.00000E+00
         0.00000E+00
         0.00000E+00
         0.00000E+00
         0.00000E+00
         0.00000E+00
         0.00000E+00
         0.00000E+00
         0.00000E+00
         0.00000E+00
         0.00000E+00
         0.00000E+00
         0.00000E+00
         0.00000E+00
         0.00000E+00
         0.00000E+00
         0.00000E+00
         0.00000E+00
         0.00000E+00
         0.00000E+00
         0.00000E+00
         0.00000E+00
         0.00000E+00
         0.00000E+00
         0.00000E+00
         0.00000E+00
         0.00000E+00
         0.00000E+00
         0.00000E+00
         0.00000E+00
         0.00000E+00
         0.00000E+00
         0.00000E+00
         0.00000E+00
         0.00000E+00
         0.00000E+00
         0.00000E+00
         0.00000E+00
         0.00000E+00
         0.00000E+00
         0.00000E+00
         0.00000E+00
         0.00000E+00
         0.00000E+00
         0.00000E+00
         0.00000E+00
         0.00000E+00
         0.00000E+00
         0.00000E+00
         0.00000E+00
         0.00000E+00
         0.00000E+00
         0.00000E+00
         0.00000E+00
         0.00000E+00
         0.00000E+00
         0.00000E+00
         0.00000E+00
         0.00000E+00
         0.00000E+00
         0.00000E+00
         0.00000E+00
         0.00000E+00
         0.00000E+00
         0.00000E+00
         0.00000E+00
         0.00000E+00
         0.00000E+00
         0.00000E+00
         0.00000E+00
         0.00000E+00
         0.00000E+00
         0.00000E+00
         0.00000E+00
         0.00000E+00
         0.00000E+00
         0.00000E+00
         0.00000E+00
         0.00000E+00
         0.00000E+00
         0.00000E+00
         0.00000E+00
         0.00000E+00
         0.00000E+00
         0.00000E+00
         0.00000E+00
         0.00000E+00
         0.00000E+00
         0.00000E+00
         0.00000E+00
         0.00000E+00
         0.00000E+00
         0.00000E+00
         0.00000E+00
         0.00000E+00
         0.00000E+00
         0.00000E+00
         0.00000E+00
         0.00000E+00
         0.00000E+00
         0.00000E+00
         0.00000E+00
         0.00000E+00
         0.00000E+00
         0.00000E+00
         0.00000E+00
         0.00000E+00
         0.00000E+00
         0.00000E+00
         0.00000E+00
         0.00000E+00
         0.00000E+00
         0.00000E+00
         0.00000E+00
         0.00000E+00
         0.00000E+00
         0.00000E+00
         0.00000E+00
         0.00000E+00
         0.00000E+00
         0.00000E+00
         0.00000E+00
         0.00000E+00
         0.00000E+00
         0.00000E+00
         0.00000E+00
         0.00000E+00
         0.00000E+00
         0.00000E+00
         0.00000E+00
         0.00000E+00
         0.00000E+00
         0.00000E+00
         0.00000E+00
         0.00000E+00
         0.00000E+00
         0.00000E+00
         0.00000E+00
         0.00000E+00
         0.00000E+00
         0.00000E+00
         0.00000E+00
         0.00000E+00
         0.00000E+00
         0.00000E+00
         0.00000E+00
         0.00000E+00
         0.00000E+00
         0.00000E+00
         0.00000E+00
         0.00000E+00
         0.00000E+00
         0.00000E+00
         0.00000E+00
         0.00000E+00
         0.00000E+00
         0.00000E+00
         0.00000E+00
         0.00000E+00
         0.00000E+00
         0.00000E+00
         0.00000E+00
         0.00000E+00
         0.00000E+00
         0.00000E+00
         0.00000E+00
         0.00000E+00
         0.00000E+00
         0.00000E+00
         0.00000E+00
         0.00000E+00
         0.00000E+00
         0.00000E+00
         0.00000E+00
         0.00000E+00
         0.00000E+00
         0.00000E+00
         0.00000E+00
         0.00000E+00
         0.00000E+00
         0.00000E+00
         0.00000E+00
         0.00000E+00
         0.00000E+00
         0.00000E+00
         0.00000E+00
         0.00000E+00
         0.00000E+00
         0.00000E+00
         0.00000E+00
         0.00000E+00
         0.00000E+00
         0.00000E+00
         0.00000E+00
         0.00000E+00
         0.00000E+00
         0.00000E+00
         0.00000E+00
         0.00000E+00
         0.00000E+00
         0.00000E+00
         0.00000E+00
         0.00000E+00
         0.00000E+00
         0.00000E+00
         0.00000E+00
         0.00000E+00
         0.00000E+00
         0.00000E+00
         0.00000E+00
         0.00000E+00
         0.00000E+00
         0.00000E+00
         0.00000E+00
         0.00000E+00
         0.00000E+00
         0.00000E+00
         0.00000E+00
         0.00000E+00
         0.00000E+00
         0.00000E+00
         0.00000E+00
         0.00000E+00
         0.00000E+00
         0.00000E+00
         0.00000E+00
         0.00000E+00
         0.00000E+00
         0.00000E+00
         0.00000E+00
         0.00000E+00
         0.00000E+00
         0.00000E+00
         0.00000E+00
         0.00000E+00
         0.00000E+00
         0.00000E+00
         0.00000E+00
         0.00000E+00
         0.00000E+00
         0.00000E+00
         0.00000E+00
         0.00000E+00
         0.00000E+00
         0.00000E+00
         0.00000E+00
         0.00000E+00
         0.00000E+00
         0.00000E+00
         0.00000E+00
         0.00000E+00
         0.00000E+00
         0.00000E+00
         0.00000E+00
         0.00000E+00
         0.00000E+00
         0.00000E+00
         0.00000E+00
         0.00000E+00
         0.00000E+00
         0.00000E+00
         0.00000E+00
         0.00000E+00
         0.00000E+00
         0.00000E+00
         0.00000E+00
         0.00000E+00
         0.00000E+00
         0.00000E+00
         0.00000E+00
         0.00000E+00
         0.00000E+00
         0.00000E+00
         0.00000E+00
         0.00000E+00
         0.00000E+00
         0.00000E+00
         0.00000E+00
         0.00000E+00
         0.00000E+00
         0.00000E+00
         0.00000E+00
         0.00000E+00
         0.00000E+00
         0.00000E+00
         0.00000E+00
         0.00000E+00
         0.00000E+00
         0.00000E+00
         0.00000E+00
         0.00000E+00
         0.00000E+00
         0.00000E+00
         0.00000E+00
         0.00000E+00
         0.00000E+00
         0.00000E+00
         0.00000E+00
         0.00000E+00
         0.00000E+00
         0.00000E+00
         0.00000E+00
         0.00000E+00
         0.00000E+00
         0.00000E+00
         0.00000E+00
         0.00000E+00
         0.00000E+00
         0.00000E+00
         0.00000E+00
         0.00000E+00
         0.00000E+00
         0.00000E+00
         0.00000E+00
         0.00000E+00
         0.00000E+00
         0.00000E+00
         0.00000E+00
         0.00000E+00
         0.00000E+00
         0.00000E+00
         0.00000E+00
         0.00000E+00
         0.00000E+00
         0.00000E+00
         0.00000E+00
         0.00000E+00
         0.00000E+00
         0.00000E+00
         0.00000E+00
         0.00000E+00
         0.00000E+00
         0.00000E+00
         0.00000E+00
         0.00000E+00
         0.00000E+00
         0.00000E+00
         0.00000E+00
         0.00000E+00
         0.00000E+00
         0.00000E+00
         0.00000E+00
         0.00000E+00
         0.00000E+00
         0.00000E+00
         0.00000E+00
         0.00000E+00
         0.00000E+00
         0.00000E+00
         0.00000E+00
         0.00000E+00
         0.00000E+00
         0.00000E+00
         0.00000E+00
         0.00000E+00
         0.00000E+00
         0.00000E+00
         0.00000E+00
         0.00000E+00
         0.00000E+00
         0.00000E+00
         0.00000E+00
         0.00000E+00
         0.00000E+00
         0.00000E+00
         0.00000E+00
         0.00000E+00
         0.00000E+00
         0.00000E+00
         0.00000E+00
         0.00000E+00
         0.00000E+00
         0.00000E+00
         0.00000E+00
         0.00000E+00
         0.00000E+00
         0.00000E+00
         0.00000E+00
         0.00000E+00
         0.00000E+00
         0.00000E+00
         0.00000E+00
         0.00000E+00
         0.00000E+00
         0.00000E+00
         0.00000E+00
         0.00000E+00
         0.00000E+00
         0.00000E+00
         0.00000E+00
         0.00000E+00
         0.00000E+00
         0.00000E+00
         0.00000E+00
         0.00000E+00
         0.00000E+00
         0.00000E+00
         0.00000E+00
         0.00000E+00
         0.00000E+00
         0.00000E+00
         0.00000E+00
         0.00000E+00
         0.00000E+00
         0.00000E+00
         0.00000E+00
         0.00000E+00
         0.00000E+00
         0.00000E+00
         0.00000E+00
         0.00000E+00
         0.00000E+00
         0.00000E+00
         0.00000E+00
         0.00000E+00
         0.00000E+00
         0.00000E+00
         0.00000E+00
         0.00000E+00
         0.00000E+00
         0.00000E+00
         0.00000E+00
         0.00000E+00
         0.00000E+00
         0.00000E+00
         0.00000E+00
         0.00000E+00
         0.00000E+00
         0.00000E+00
         0.00000E+00
         0.00000E+00
         0.00000E+00
         0.00000E+00
         0.00000E+00
         0.00000E+00
         0.00000E+00
         0.00000E+00
         0.00000E+00
         0.00000E+00
         0.00000E+00
         0.00000E+00
         0.00000E+00
         0.00000E+00
         0.00000E+00
         0.00000E+00
         0.00000E+00
         0.00000E+00
         0.00000E+00
         0.00000E+00
         0.00000E+00
         0.00000E+00
         0.00000E+00
         0.00000E+00
         0.00000E+00
         0.00000E+00
         0.00000E+00
         0.00000E+00
         0.00000E+00
         0.00000E+00
         0.00000E+00
         0.00000E+00
         0.00000E+00
         0.00000E+00
         0.00000E+00
         0.00000E+00
         0.00000E+00
         0.00000E+00
         0.00000E+00
         0.00000E+00
         0.00000E+00
         0.00000E+00
         0.00000E+00
         0.00000E+00
         0.00000E+00
         0.00000E+00
         0.00000E+00
         0.00000E+00
         0.00000E+00
         0.00000E+00
         0.00000E+00
         0.00000E+00
         0.00000E+00
         0.00000E+00
         0.00000E+00
         0.00000E+00
         0.00000E+00
         0.00000E+00
         0.00000E+00
         0.00000E+00
         0.00000E+00
         0.00000E+00
         0.00000E+00
         0.00000E+00
         0.00000E+00
         0.00000E+00
         0.00000E+00
         0.00000E+00
         0.00000E+00
         0.00000E+00
         0.00000E+00
         0.00000E+00
         0.00000E+00
         0.00000E+00
         0.00000E+00
         0.00000E+00
         0.00000E+00
         0.00000E+00
         0.00000E+00
         0.00000E+00
         0.00000E+00
         0.00000E+00
         0.00000E+00
         0.00000E+00
         0.00000E+00
         0.00000E+00
         0.00000E+00
         0.00000E+00
         0.00000E+00
         0.00000E+00
         0.00000E+00
         0.00000E+00
         0.00000E+00
         0.00000E+00
         0.00000E+00
         0.00000E+00
         0.00000E+00
         0.00000E+00
         0.00000E+00
         0.00000E+00
         0.00000E+00
         0.00000E+00
         0.00000E+00
         0.00000E+00
         0.00000E+00
         0.00000E+00
         0.00000E+00
         0.00000E+00
         0.00000E+00
         0.00000E+00
         0.00000E+00
         0.00000E+00
         0.00000E+00
         0.00000E+00
         0.00000E+00
         0.00000E+00
         0.00000E+00
         0.00000E+00
         0.00000E+00
         0.00000E+00
         0.00000E+00
         0.00000E+00
         0.00000E+00
         0.00000E+00
         0.00000E+00
         0.00000E+00
         0.00000E+00
         0.00000E+00
         0.00000E+00
         0.00000E+00
         0.00000E+00
         0.00000E+00
         0.00000E+00
         0.00000E+00
         0.00000E+00
         0.00000E+00
         0.00000E+00
         0.00000E+00
         0.00000E+00
  
SCALARS           initial_coordinate_x  double 1
LOOKUP_TABLE default
         0.10378E-02
         0.17452E-02
         0.23177E-02
         0.16698E-02
         0.10379E-02
         0.17453E-02
         0.23178E-02
         0.16700E-02
         0.30377E-02
         0.27791E-02
         0.30377E-02
         0.27788E-02
         0.12850E-02
         0.65139E-03
         0.12851E-02
         0.65164E-03
         0.12757E-03
        -0.12822E-03
         0.12783E-03
        -0.12804E-03
         0.94500E-03
         0.11327E-02
         0.17490E-02
         0.94533E-03
         0.11330E-02
         0.17494E-02
         0.40588E-03
         0.39779E-03
         0.40594E-03
         0.39781E-03
        -0.76303E-03
        -0.86604E-03
         0.46119E-03
        -0.76268E-03
        -0.86593E-03
         0.46164E-03
        -0.18300E-02
        -0.18440E-02
        -0.18297E-02
        -0.18441E-02
        -0.27238E-02
        -0.28028E-02
        -0.27238E-02
        -0.28031E-02
        -0.25365E-02
        -0.19287E-02
        -0.25363E-02
        -0.19283E-02
        -0.99363E-03
        -0.99377E-03
        -0.14380E-02
        -0.14377E-02
        -0.31574E-03
        -0.31594E-03
        -0.11068E-02
        -0.11071E-02
        -0.18845E-02
        -0.18713E-02
        -0.18846E-02
        -0.18714E-02
        -0.15871E-03
        -0.94089E-03
        -0.15844E-03
        -0.94029E-03
         0.78856E-03
         0.78922E-03
         0.17211E-02
         0.17211E-02
         0.32050E-02
         0.28046E-02
         0.32047E-02
         0.28047E-02
         0.23059E-02
         0.23060E-02
        -0.40614E-03
        -0.40627E-03
        -0.12092E-02
        -0.12092E-02
        -0.19448E-02
        -0.19448E-02
        -0.25029E-02
        -0.26371E-02
        -0.25029E-02
        -0.26372E-02
        -0.27671E-02
        -0.27674E-02
        -0.21123E-02
        -0.21122E-02
        -0.16087E-02
        -0.16087E-02
        -0.11939E-02
        -0.58641E-03
        -0.11937E-02
        -0.58606E-03
         0.20912E-03
         0.20952E-03
         0.10586E-02
         0.10589E-02
         0.18413E-02
         0.18413E-02
         0.24544E-02
         0.26022E-02
         0.24543E-02
         0.26021E-02
         0.37964E-02
         0.39100E-02
         0.37964E-02
         0.39100E-02
         0.34621E-02
         0.34621E-02
         0.29267E-02
         0.29267E-02
         0.22211E-02
         0.22211E-02
         0.13865E-02
         0.13865E-02
         0.47130E-03
         0.47130E-03
        -0.47130E-03
        -0.47130E-03
        -0.13865E-02
        -0.13865E-02
        -0.22211E-02
        -0.22211E-02
        -0.29267E-02
        -0.29267E-02
        -0.34621E-02
        -0.34621E-02
        -0.37964E-02
        -0.37964E-02
        -0.39100E-02
        -0.39100E-02
        -0.37964E-02
        -0.37964E-02
        -0.34621E-02
        -0.34621E-02
        -0.29267E-02
        -0.29267E-02
        -0.22211E-02
        -0.22211E-02
        -0.13865E-02
        -0.13865E-02
        -0.47130E-03
        -0.47130E-03
         0.47130E-03
         0.47130E-03
         0.13865E-02
         0.13865E-02
         0.22211E-02
         0.22211E-02
         0.29267E-02
         0.29267E-02
         0.34621E-02
         0.34621E-02
         0.37964E-02
         0.37964E-02
         0.10376E-02
         0.17450E-02
         0.23175E-02
         0.16696E-02
         0.30377E-02
         0.27795E-02
         0.12849E-02
         0.65115E-03
         0.12731E-03
        -0.12841E-03
         0.94467E-03
         0.11323E-02
         0.17487E-02
         0.40583E-03
         0.39777E-03
        -0.76338E-03
        -0.86615E-03
         0.46074E-03
        -0.18303E-02
        -0.18439E-02
        -0.27238E-02
        -0.28025E-02
        -0.25366E-02
        -0.19292E-02
        -0.99349E-03
        -0.14384E-02
        -0.31554E-03
        -0.11064E-02
        -0.18845E-02
        -0.18712E-02
        -0.15899E-03
        -0.94149E-03
         0.78790E-03
         0.17210E-02
         0.32053E-02
         0.28046E-02
         0.23058E-02
        -0.40600E-03
        -0.12092E-02
        -0.19447E-02
        -0.25028E-02
        -0.26370E-02
        -0.27668E-02
        -0.21125E-02
        -0.16088E-02
        -0.11940E-02
        -0.58676E-03
         0.20871E-03
         0.10583E-02
         0.18413E-02
         0.24545E-02
         0.26022E-02
         0.37964E-02
         0.39100E-02
         0.34621E-02
         0.29267E-02
         0.22211E-02
         0.13865E-02
         0.47130E-03
        -0.47130E-03
        -0.13865E-02
        -0.22211E-02
        -0.29267E-02
        -0.34621E-02
        -0.37964E-02
        -0.39100E-02
        -0.37964E-02
        -0.34621E-02
        -0.29267E-02
        -0.22211E-02
        -0.13865E-02
        -0.47130E-03
         0.47130E-03
         0.13865E-02
         0.22211E-02
         0.29267E-02
         0.34621E-02
         0.37964E-02
         0.10375E-02
         0.17448E-02
         0.23174E-02
         0.16694E-02
         0.30377E-02
         0.27798E-02
         0.12848E-02
         0.65090E-03
         0.12705E-03
        -0.12859E-03
         0.94434E-03
         0.11320E-02
         0.17483E-02
         0.40577E-03
         0.39776E-03
        -0.76374E-03
        -0.86626E-03
         0.46029E-03
        -0.18306E-02
        -0.18438E-02
        -0.27238E-02
        -0.28022E-02
        -0.25368E-02
        -0.19296E-02
        -0.99334E-03
        -0.14387E-02
        -0.31534E-03
        -0.11061E-02
        -0.18844E-02
        -0.18710E-02
        -0.15926E-03
        -0.94209E-03
         0.78724E-03
         0.17210E-02
         0.32056E-02
         0.28046E-02
         0.23057E-02
        -0.40586E-03
        -0.12092E-02
        -0.19447E-02
        -0.25028E-02
        -0.26369E-02
        -0.27665E-02
        -0.21126E-02
        -0.16088E-02
        -0.11941E-02
        -0.58711E-03
         0.20830E-03
         0.10580E-02
         0.18414E-02
         0.24546E-02
         0.26023E-02
         0.37964E-02
         0.39100E-02
         0.34621E-02
         0.29267E-02
         0.22211E-02
         0.13865E-02
         0.47130E-03
        -0.47130E-03
        -0.13865E-02
        -0.22211E-02
        -0.29267E-02
        -0.34621E-02
        -0.37964E-02
        -0.39100E-02
        -0.37964E-02
        -0.34621E-02
        -0.29267E-02
        -0.22211E-02
        -0.13865E-02
        -0.47130E-03
         0.47130E-03
         0.13865E-02
         0.22211E-02
         0.29267E-02
         0.34621E-02
         0.37964E-02
         0.10374E-02
         0.17446E-02
         0.23173E-02
         0.16692E-02
         0.30376E-02
         0.27801E-02
         0.12847E-02
         0.65065E-03
         0.12678E-03
        -0.12878E-03
         0.94401E-03
         0.11316E-02
         0.17479E-02
         0.40572E-03
         0.39774E-03
        -0.76409E-03
        -0.86637E-03
         0.45985E-03
        -0.18309E-02
        -0.18437E-02
        -0.27237E-02
        -0.28020E-02
        -0.25369E-02
        -0.19300E-02
        -0.99320E-03
        -0.14391E-02
        -0.31514E-03
        -0.11057E-02
        -0.18844E-02
        -0.18709E-02
        -0.15954E-03
        -0.94269E-03
         0.78658E-03
         0.17209E-02
         0.32060E-02
         0.28046E-02
         0.23056E-02
        -0.40572E-03
        -0.12092E-02
        -0.19446E-02
        -0.25028E-02
        -0.26368E-02
        -0.27662E-02
        -0.21128E-02
        -0.16088E-02
        -0.11942E-02
        -0.58746E-03
         0.20790E-03
         0.10577E-02
         0.18414E-02
         0.24548E-02
         0.26024E-02
         0.37964E-02
         0.39100E-02
         0.34621E-02
         0.29267E-02
         0.22211E-02
         0.13865E-02
         0.47130E-03
        -0.47130E-03
        -0.13865E-02
        -0.22211E-02
        -0.29267E-02
        -0.34621E-02
        -0.37964E-02
        -0.39100E-02
        -0.37964E-02
        -0.34621E-02
        -0.29267E-02
        -0.22211E-02
        -0.13865E-02
        -0.47130E-03
         0.47130E-03
         0.13865E-02
         0.22211E-02
         0.29267E-02
         0.34621E-02
         0.37964E-02
         0.10373E-02
         0.17445E-02
         0.23172E-02
         0.16689E-02
         0.30376E-02
         0.27805E-02
         0.12846E-02
         0.65041E-03
         0.12652E-03
        -0.12896E-03
         0.94367E-03
         0.11313E-02
         0.17475E-02
         0.40566E-03
         0.39772E-03
        -0.76444E-03
        -0.86648E-03
         0.45940E-03
        -0.18312E-02
        -0.18436E-02
        -0.27237E-02
        -0.28017E-02
        -0.25371E-02
        -0.19305E-02
        -0.99305E-03
        -0.14394E-02
        -0.31494E-03
        -0.11054E-02
        -0.18843E-02
        -0.18708E-02
        -0.15981E-03
        -0.94328E-03
         0.78592E-03
         0.17209E-02
         0.32063E-02
         0.28045E-02
         0.23055E-02
        -0.40558E-03
        -0.12092E-02
        -0.19446E-02
        -0.25027E-02
        -0.26367E-02
        -0.27658E-02
        -0.21129E-02
        -0.16089E-02
        -0.11943E-02
        -0.58781E-03
         0.20749E-03
         0.10574E-02
         0.18415E-02
         0.24549E-02
         0.26025E-02
         0.37964E-02
         0.39100E-02
         0.34621E-02
         0.29267E-02
         0.22211E-02
         0.13865E-02
         0.47130E-03
        -0.47130E-03
        -0.13865E-02
        -0.22211E-02
        -0.29267E-02
        -0.34621E-02
        -0.37964E-02
        -0.39100E-02
        -0.37964E-02
        -0.34621E-02
        -0.29267E-02
        -0.22211E-02
        -0.13865E-02
        -0.47130E-03
         0.47130E-03
         0.13865E-02
         0.22211E-02
         0.29267E-02
         0.34621E-02
         0.37964E-02
         0.10372E-02
         0.17443E-02
         0.23171E-02
         0.16687E-02
         0.30376E-02
         0.27808E-02
         0.12845E-02
         0.65016E-03
         0.12626E-03
        -0.12915E-03
         0.94334E-03
         0.11310E-02
         0.17471E-02
         0.40561E-03
         0.39770E-03
        -0.76480E-03
        -0.86659E-03
         0.45895E-03
        -0.18315E-02
        -0.18435E-02
        -0.27237E-02
        -0.28014E-02
        -0.25372E-02
        -0.19309E-02
        -0.99291E-03
        -0.14398E-02
        -0.31474E-03
        -0.11051E-02
        -0.18843E-02
        -0.18706E-02
        -0.16009E-03
        -0.94388E-03
         0.78526E-03
         0.17208E-02
         0.32066E-02
         0.28045E-02
         0.23053E-02
        -0.40545E-03
        -0.12092E-02
        -0.19446E-02
        -0.25027E-02
        -0.26366E-02
        -0.27655E-02
        -0.21130E-02
        -0.16089E-02
        -0.11944E-02
        -0.58816E-03
         0.20709E-03
         0.10571E-02
         0.18415E-02
         0.24550E-02
         0.26025E-02
         0.37964E-02
         0.39100E-02
         0.34621E-02
         0.29267E-02
         0.22211E-02
         0.13865E-02
         0.47130E-03
        -0.47130E-03
        -0.13865E-02
        -0.22211E-02
        -0.29267E-02
        -0.34621E-02
        -0.37964E-02
        -0.39100E-02
        -0.37964E-02
        -0.34621E-02
        -0.29267E-02
        -0.22211E-02
        -0.13865E-02
        -0.47130E-03
         0.47130E-03
         0.13865E-02
         0.22211E-02
         0.29267E-02
         0.34621E-02
         0.37964E-02
         0.10371E-02
         0.17441E-02
         0.23169E-02
         0.16685E-02
         0.30376E-02
         0.27812E-02
         0.12844E-02
         0.64992E-03
         0.12600E-03
        -0.12933E-03
         0.94301E-03
         0.11306E-02
         0.17467E-02
         0.40556E-03
         0.39769E-03
        -0.76515E-03
        -0.86670E-03
         0.45850E-03
        -0.18318E-02
        -0.18434E-02
        -0.27236E-02
        -0.28011E-02
        -0.25374E-02
        -0.19313E-02
        -0.99277E-03
        -0.14401E-02
        -0.31454E-03
        -0.11047E-02
        -0.18842E-02
        -0.18705E-02
        -0.16036E-03
        -0.94448E-03
         0.78460E-03
         0.17208E-02
         0.32070E-02
         0.28045E-02
         0.23052E-02
        -0.40531E-03
        -0.12092E-02
        -0.19445E-02
        -0.25027E-02
        -0.26366E-02
        -0.27652E-02
        -0.21132E-02
        -0.16090E-02
        -0.11946E-02
        -0.58851E-03
         0.20668E-03
         0.10567E-02
         0.18416E-02
         0.24551E-02
         0.26026E-02
         0.37964E-02
         0.39100E-02
         0.34621E-02
         0.29267E-02
         0.22211E-02
         0.13865E-02
         0.47130E-03
        -0.47130E-03
        -0.13865E-02
        -0.22211E-02
        -0.29267E-02
        -0.34621E-02
        -0.37964E-02
        -0.39100E-02
        -0.37964E-02
        -0.34621E-02
        -0.29267E-02
        -0.22211E-02
        -0.13865E-02
        -0.47130E-03
         0.47130E-03
         0.13865E-02
         0.22211E-02
         0.29267E-02
         0.34621E-02
         0.37964E-02
         0.10370E-02
         0.17439E-02
         0.23168E-02
         0.16683E-02
         0.30375E-02
         0.27815E-02
         0.12843E-02
         0.64967E-03
         0.12573E-03
        -0.12952E-03
         0.94268E-03
         0.11303E-02
         0.17463E-02
         0.40550E-03
         0.39767E-03
        -0.76551E-03
        -0.86680E-03
         0.45806E-03
        -0.18321E-02
        -0.18433E-02
        -0.27236E-02
        -0.28009E-02
        -0.25375E-02
        -0.19317E-02
        -0.99262E-03
        -0.14405E-02
        -0.31434E-03
        -0.11044E-02
        -0.18842E-02
        -0.18704E-02
        -0.16064E-03
        -0.94508E-03
         0.78394E-03
         0.17208E-02
         0.32073E-02
         0.28045E-02
         0.23051E-02
        -0.40517E-03
        -0.12092E-02
        -0.19445E-02
        -0.25026E-02
        -0.26365E-02
        -0.27649E-02
        -0.21133E-02
        -0.16090E-02
        -0.11947E-02
        -0.58886E-03
         0.20627E-03
         0.10564E-02
         0.18416E-02
         0.24553E-02
         0.26027E-02
         0.37964E-02
         0.39100E-02
         0.34621E-02
         0.29267E-02
         0.22211E-02
         0.13865E-02
         0.47130E-03
        -0.47130E-03
        -0.13865E-02
        -0.22211E-02
        -0.29267E-02
        -0.34621E-02
        -0.37964E-02
        -0.39100E-02
        -0.37964E-02
        -0.34621E-02
        -0.29267E-02
        -0.22211E-02
        -0.13865E-02
        -0.47130E-03
         0.47130E-03
         0.13865E-02
         0.22211E-02
         0.29267E-02
         0.34621E-02
         0.37964E-02
         0.10368E-02
         0.17438E-02
         0.23167E-02
         0.16681E-02
         0.30375E-02
         0.27819E-02
         0.12842E-02
         0.64943E-03
         0.12547E-03
        -0.12970E-03
         0.94235E-03
         0.11300E-02
         0.17459E-02
         0.40545E-03
         0.39766E-03
        -0.76586E-03
        -0.86691E-03
         0.45761E-03
        -0.18324E-02
        -0.18432E-02
        -0.27236E-02
        -0.28006E-02
        -0.25377E-02
        -0.19322E-02
        -0.99248E-03
        -0.14408E-02
        -0.31414E-03
        -0.11040E-02
        -0.18841E-02
        -0.18703E-02
        -0.16091E-03
        -0.94568E-03
         0.78328E-03
         0.17207E-02
         0.32076E-02
         0.28044E-02
         0.23050E-02
        -0.40503E-03
        -0.12092E-02
        -0.19445E-02
        -0.25026E-02
        -0.26364E-02
        -0.27646E-02
        -0.21134E-02
        -0.16091E-02
        -0.11948E-02
        -0.58921E-03
         0.20587E-03
         0.10561E-02
         0.18416E-02
         0.24554E-02
         0.26027E-02
         0.37964E-02
         0.39100E-02
         0.34621E-02
         0.29267E-02
         0.22211E-02
         0.13865E-02
         0.47130E-03
        -0.47130E-03
        -0.13865E-02
        -0.22211E-02
        -0.29267E-02
        -0.34621E-02
        -0.37964E-02
        -0.39100E-02
        -0.37964E-02
        -0.34621E-02
        -0.29267E-02
        -0.22211E-02
        -0.13865E-02
        -0.47130E-03
         0.47130E-03
         0.13865E-02
         0.22211E-02
         0.29267E-02
         0.34621E-02
         0.37964E-02
         0.10367E-02
         0.17436E-02
         0.23166E-02
         0.16679E-02
         0.30375E-02
         0.27822E-02
         0.12841E-02
         0.64918E-03
         0.12521E-03
        -0.12989E-03
         0.94202E-03
         0.11296E-02
         0.17455E-02
         0.40539E-03
         0.39764E-03
        -0.76621E-03
        -0.86702E-03
         0.45716E-03
        -0.18326E-02
        -0.18431E-02
        -0.27235E-02
        -0.28003E-02
        -0.25379E-02
        -0.19326E-02
        -0.99233E-03
        -0.14412E-02
        -0.31394E-03
        -0.11037E-02
        -0.18841E-02
        -0.18701E-02
        -0.16119E-03
        -0.94628E-03
         0.78262E-03
         0.17207E-02
         0.32079E-02
         0.28044E-02
         0.23049E-02
        -0.40490E-03
        -0.12093E-02
        -0.19444E-02
        -0.25026E-02
        -0.26363E-02
        -0.27643E-02
        -0.21136E-02
        -0.16091E-02
        -0.11949E-02
        -0.58956E-03
         0.20546E-03
         0.10558E-02
         0.18417E-02
         0.24555E-02
         0.26028E-02
         0.37964E-02
         0.39100E-02
         0.34621E-02
         0.29267E-02
         0.22211E-02
         0.13865E-02
         0.47130E-03
        -0.47130E-03
        -0.13865E-02
        -0.22211E-02
        -0.29267E-02
        -0.34621E-02
        -0.37964E-02
        -0.39100E-02
        -0.37964E-02
        -0.34621E-02
        -0.29267E-02
        -0.22211E-02
        -0.13865E-02
        -0.47130E-03
         0.47130E-03
         0.13865E-02
         0.22211E-02
         0.29267E-02
         0.34621E-02
         0.37964E-02
         0.10366E-02
         0.17434E-02
         0.23164E-02
         0.16677E-02
         0.30375E-02
         0.27825E-02
         0.12840E-02
         0.64894E-03
         0.12495E-03
        -0.13007E-03
         0.94169E-03
         0.11293E-02
         0.17451E-02
         0.40534E-03
         0.39762E-03
        -0.76657E-03
        -0.86713E-03
         0.45671E-03
        -0.18329E-02
        -0.18430E-02
        -0.27235E-02
        -0.28001E-02
        -0.25380E-02
        -0.19330E-02
        -0.99219E-03
        -0.14415E-02
        -0.31374E-03
        -0.11033E-02
        -0.18840E-02
        -0.18700E-02
        -0.16146E-03
        -0.94687E-03
         0.78195E-03
         0.17207E-02
         0.32083E-02
         0.28044E-02
         0.23048E-02
        -0.40476E-03
        -0.12093E-02
        -0.19444E-02
        -0.25026E-02
        -0.26362E-02
        -0.27640E-02
        -0.21137E-02
        -0.16091E-02
        -0.11950E-02
        -0.58991E-03
         0.20505E-03
         0.10555E-02
         0.18417E-02
         0.24556E-02
         0.26029E-02
         0.37964E-02
         0.39100E-02
         0.34621E-02
         0.29267E-02
         0.22211E-02
         0.13865E-02
         0.47130E-03
        -0.47130E-03
        -0.13865E-02
        -0.22211E-02
        -0.29267E-02
        -0.34621E-02
        -0.37964E-02
        -0.39100E-02
        -0.37964E-02
        -0.34621E-02
        -0.29267E-02
        -0.22211E-02
        -0.13865E-02
        -0.47130E-03
         0.47130E-03
         0.13865E-02
         0.22211E-02
         0.29267E-02
         0.34621E-02
         0.37964E-02
         0.10365E-02
         0.17432E-02
         0.23163E-02
         0.16675E-02
         0.30374E-02
         0.27829E-02
         0.12839E-02
         0.64869E-03
         0.12468E-03
        -0.13026E-03
         0.94135E-03
         0.11289E-02
         0.17447E-02
         0.40528E-03
         0.39760E-03
        -0.76692E-03
        -0.86724E-03
         0.45626E-03
        -0.18332E-02
        -0.18430E-02
        -0.27235E-02
        -0.27998E-02
        -0.25382E-02
        -0.19334E-02
        -0.99205E-03
        -0.14419E-02
        -0.31354E-03
        -0.11030E-02
        -0.18840E-02
        -0.18699E-02
        -0.16174E-03
        -0.94747E-03
         0.78129E-03
         0.17206E-02
         0.32086E-02
         0.28044E-02
         0.23047E-02
        -0.40462E-03
        -0.12093E-02
        -0.19444E-02
        -0.25025E-02
        -0.26361E-02
        -0.27637E-02
        -0.21139E-02
        -0.16092E-02
        -0.11951E-02
        -0.59025E-03
         0.20465E-03
         0.10552E-02
         0.18418E-02
         0.24558E-02
         0.26030E-02
         0.37964E-02
         0.39100E-02
         0.34621E-02
         0.29267E-02
         0.22211E-02
         0.13865E-02
         0.47130E-03
        -0.47130E-03
        -0.13865E-02
        -0.22211E-02
        -0.29267E-02
        -0.34621E-02
        -0.37964E-02
        -0.39100E-02
        -0.37964E-02
        -0.34621E-02
        -0.29267E-02
        -0.22211E-02
        -0.13865E-02
        -0.47130E-03
         0.47130E-03
         0.13865E-02
         0.22211E-02
         0.29267E-02
         0.34621E-02
         0.37964E-02
         0.10364E-02
         0.17430E-02
         0.23162E-02
         0.16672E-02
         0.30374E-02
         0.27832E-02
         0.12838E-02
         0.64845E-03
         0.12442E-03
        -0.13044E-03
         0.94102E-03
         0.11286E-02
         0.17443E-02
         0.40523E-03
         0.39759E-03
        -0.76727E-03
        -0.86735E-03
         0.45582E-03
        -0.18335E-02
        -0.18429E-02
        -0.27235E-02
        -0.27995E-02
        -0.25383E-02
        -0.19339E-02
        -0.99190E-03
        -0.14422E-02
        -0.31334E-03
        -0.11026E-02
        -0.18839E-02
        -0.18697E-02
        -0.16201E-03
        -0.94807E-03
         0.78063E-03
         0.17206E-02
         0.32089E-02
         0.28043E-02
         0.23046E-02
        -0.40448E-03
        -0.12093E-02
        -0.19443E-02
        -0.25025E-02
        -0.26360E-02
        -0.27633E-02
        -0.21140E-02
        -0.16092E-02
        -0.11953E-02
        -0.59060E-03
         0.20424E-03
         0.10549E-02
         0.18418E-02
         0.24559E-02
         0.26030E-02
         0.37964E-02
         0.39100E-02
         0.34621E-02
         0.29267E-02
         0.22211E-02
         0.13865E-02
         0.47130E-03
        -0.47130E-03
        -0.13865E-02
        -0.22211E-02
        -0.29267E-02
        -0.34621E-02
        -0.37964E-02
        -0.39100E-02
        -0.37964E-02
        -0.34621E-02
        -0.29267E-02
        -0.22211E-02
        -0.13865E-02
        -0.47130E-03
         0.47130E-03
         0.13865E-02
         0.22211E-02
         0.29267E-02
         0.34621E-02
         0.37964E-02
         0.10363E-02
         0.17429E-02
         0.23161E-02
         0.16670E-02
         0.30374E-02
         0.27836E-02
         0.12837E-02
         0.64820E-03
         0.12416E-03
        -0.13063E-03
         0.94069E-03
         0.11282E-02
         0.17439E-02
         0.40518E-03
         0.39757E-03
        -0.76763E-03
        -0.86746E-03
         0.45537E-03
        -0.18338E-02
        -0.18428E-02
        -0.27234E-02
        -0.27992E-02
        -0.25385E-02
        -0.19343E-02
        -0.99176E-03
        -0.14425E-02
        -0.31314E-03
        -0.11023E-02
        -0.18839E-02
        -0.18696E-02
        -0.16229E-03
        -0.94867E-03
         0.77997E-03
         0.17205E-02
         0.32092E-02
         0.28043E-02
         0.23044E-02
        -0.40434E-03
        -0.12093E-02
        -0.19443E-02
        -0.25025E-02
        -0.26359E-02
        -0.27630E-02
        -0.21141E-02
        -0.16093E-02
        -0.11954E-02
        -0.59095E-03
         0.20384E-03
         0.10546E-02
         0.18419E-02
         0.24560E-02
         0.26031E-02
         0.37964E-02
         0.39100E-02
         0.34621E-02
         0.29267E-02
         0.22211E-02
         0.13865E-02
         0.47130E-03
        -0.47130E-03
        -0.13865E-02
        -0.22211E-02
        -0.29267E-02
        -0.34621E-02
        -0.37964E-02
        -0.39100E-02
        -0.37964E-02
        -0.34621E-02
        -0.29267E-02
        -0.22211E-02
        -0.13865E-02
        -0.47130E-03
         0.47130E-03
         0.13865E-02
         0.22211E-02
         0.29267E-02
         0.34621E-02
         0.37964E-02
         0.10362E-02
         0.17427E-02
         0.23160E-02
         0.16668E-02
         0.30373E-02
         0.27839E-02
         0.12836E-02
         0.64796E-03
         0.12390E-03
        -0.13082E-03
         0.94036E-03
         0.11279E-02
         0.17435E-02
         0.40512E-03
         0.39755E-03
        -0.76798E-03
        -0.86756E-03
         0.45492E-03
        -0.18341E-02
        -0.18427E-02
        -0.27234E-02
        -0.27990E-02
        -0.25386E-02
        -0.19347E-02
        -0.99161E-03
        -0.14429E-02
        -0.31294E-03
        -0.11019E-02
        -0.18838E-02
        -0.18695E-02
        -0.16256E-03
        -0.94927E-03
         0.77931E-03
         0.17205E-02
         0.32096E-02
         0.28043E-02
         0.23043E-02
        -0.40420E-03
        -0.12093E-02
        -0.19443E-02
        -0.25024E-02
        -0.26358E-02
        -0.27627E-02
        -0.21143E-02
        -0.16093E-02
        -0.11955E-02
        -0.59130E-03
         0.20343E-03
         0.10543E-02
         0.18419E-02
         0.24561E-02
         0.26032E-02
         0.37964E-02
         0.39100E-02
         0.34621E-02
         0.29267E-02
         0.22211E-02
         0.13865E-02
         0.47130E-03
        -0.47130E-03
        -0.13865E-02
        -0.22211E-02
        -0.29267E-02
        -0.34621E-02
        -0.37964E-02
        -0.39100E-02
        -0.37964E-02
        -0.34621E-02
        -0.29267E-02
        -0.22211E-02
        -0.13865E-02
        -0.47130E-03
         0.47130E-03
         0.13865E-02
         0.22211E-02
         0.29267E-02
         0.34621E-02
         0.37964E-02
         0.10360E-02
         0.17425E-02
         0.23158E-02
         0.16666E-02
         0.30373E-02
         0.27842E-02
         0.12835E-02
         0.64771E-03
         0.12363E-03
        -0.13100E-03
         0.94003E-03
         0.11276E-02
         0.17432E-02
         0.40507E-03
         0.39754E-03
        -0.76834E-03
        -0.86767E-03
         0.45447E-03
        -0.18344E-02
        -0.18426E-02
        -0.27234E-02
        -0.27987E-02
        -0.25388E-02
        -0.19352E-02
        -0.99147E-03
        -0.14433E-02
        -0.31274E-03
        -0.11016E-02
        -0.18838E-02
        -0.18694E-02
        -0.16284E-03
        -0.94986E-03
         0.77865E-03
         0.17205E-02
         0.32099E-02
         0.28042E-02
         0.23042E-02
        -0.40407E-03
        -0.12093E-02
        -0.19442E-02
        -0.25024E-02
        -0.26358E-02
        -0.27624E-02
        -0.21144E-02
        -0.16094E-02
        -0.11956E-02
        -0.59165E-03
         0.20302E-03
         0.10540E-02
         0.18419E-02
         0.24563E-02
         0.26033E-02
         0.37964E-02
         0.39100E-02
         0.34621E-02
         0.29267E-02
         0.22211E-02
         0.13865E-02
         0.47130E-03
        -0.47130E-03
        -0.13865E-02
        -0.22211E-02
        -0.29267E-02
        -0.34621E-02
        -0.37964E-02
        -0.39100E-02
        -0.37964E-02
        -0.34621E-02
        -0.29267E-02
        -0.22211E-02
        -0.13865E-02
        -0.47130E-03
         0.47130E-03
         0.13865E-02
         0.22211E-02
         0.29267E-02
         0.34621E-02
         0.37964E-02
         0.10359E-02
         0.17423E-02
         0.23157E-02
         0.16664E-02
         0.30373E-02
         0.27846E-02
         0.12834E-02
         0.64747E-03
         0.12337E-03
        -0.13118E-03
         0.93970E-03
         0.11272E-02
         0.17428E-02
         0.40501E-03
         0.39752E-03
        -0.76869E-03
        -0.86778E-03
         0.45402E-03
        -0.18347E-02
        -0.18425E-02
        -0.27234E-02
        -0.27984E-02
        -0.25389E-02
        -0.19356E-02
        -0.99133E-03
        -0.14436E-02
        -0.31254E-03
        -0.11013E-02
        -0.18837E-02
        -0.18692E-02
        -0.16311E-03
        -0.95046E-03
         0.77799E-03
         0.17204E-02
         0.32102E-02
         0.28042E-02
         0.23041E-02
        -0.40393E-03
        -0.12093E-02
        -0.19442E-02
        -0.25024E-02
        -0.26357E-02
        -0.27621E-02
        -0.21146E-02
        -0.16094E-02
        -0.11957E-02
        -0.59200E-03
         0.20262E-03
         0.10536E-02
         0.18420E-02
         0.24564E-02
         0.26033E-02
         0.37964E-02
         0.39100E-02
         0.34621E-02
         0.29267E-02
         0.22211E-02
         0.13865E-02
         0.47130E-03
        -0.47130E-03
        -0.13865E-02
        -0.22211E-02
        -0.29267E-02
        -0.34621E-02
        -0.37964E-02
        -0.39100E-02
        -0.37964E-02
        -0.34621E-02
        -0.29267E-02
        -0.22211E-02
        -0.13865E-02
        -0.47130E-03
         0.47130E-03
         0.13865E-02
         0.22211E-02
         0.29267E-02
         0.34621E-02
         0.37964E-02
         0.10358E-02
         0.17422E-02
         0.23156E-02
         0.16662E-02
         0.30373E-02
         0.27849E-02
         0.12833E-02
         0.64722E-03
         0.12311E-03
        -0.13137E-03
         0.93937E-03
         0.11269E-02
         0.17424E-02
         0.40496E-03
         0.39750E-03
        -0.76904E-03
        -0.86789E-03
         0.45358E-03
        -0.18350E-02
        -0.18424E-02
        -0.27233E-02
        -0.27981E-02
        -0.25391E-02
        -0.19360E-02
        -0.99118E-03
        -0.14440E-02
        -0.31234E-03
        -0.11009E-02
        -0.18836E-02
        -0.18691E-02
        -0.16339E-03
        -0.95106E-03
         0.77733E-03
         0.17204E-02
         0.32105E-02
         0.28042E-02
         0.23040E-02
        -0.40379E-03
        -0.12093E-02
        -0.19441E-02
        -0.25023E-02
        -0.26356E-02
        -0.27618E-02
        -0.21147E-02
        -0.16094E-02
        -0.11958E-02
        -0.59235E-03
         0.20221E-03
         0.10533E-02
         0.18420E-02
         0.24565E-02
         0.26034E-02
         0.37964E-02
         0.39100E-02
         0.34621E-02
         0.29267E-02
         0.22211E-02
         0.13865E-02
         0.47130E-03
        -0.47130E-03
        -0.13865E-02
        -0.22211E-02
        -0.29267E-02
        -0.34621E-02
        -0.37964E-02
        -0.39100E-02
        -0.37964E-02
        -0.34621E-02
        -0.29267E-02
        -0.22211E-02
        -0.13865E-02
        -0.47130E-03
         0.47130E-03
         0.13865E-02
         0.22211E-02
         0.29267E-02
         0.34621E-02
         0.37964E-02
         0.10357E-02
         0.17420E-02
         0.23155E-02
         0.16660E-02
         0.30372E-02
         0.27853E-02
         0.12832E-02
         0.64698E-03
         0.12285E-03
        -0.13155E-03
         0.93903E-03
         0.11266E-02
         0.17420E-02
         0.40490E-03
         0.39749E-03
        -0.76940E-03
        -0.86800E-03
         0.45313E-03
        -0.18353E-02
        -0.18423E-02
        -0.27233E-02
        -0.27979E-02
        -0.25393E-02
        -0.19365E-02
        -0.99104E-03
        -0.14443E-02
        -0.31214E-03
        -0.11006E-02
        -0.18836E-02
        -0.18690E-02
        -0.16366E-03
        -0.95166E-03
         0.77667E-03
         0.17203E-02
         0.32109E-02
         0.28042E-02
         0.23039E-02
        -0.40365E-03
        -0.12093E-02
        -0.19441E-02
        -0.25023E-02
        -0.26355E-02
        -0.27615E-02
        -0.21148E-02
        -0.16095E-02
        -0.11960E-02
        -0.59270E-03
         0.20180E-03
         0.10530E-02
         0.18421E-02
         0.24566E-02
         0.26035E-02
         0.37964E-02
         0.39100E-02
         0.34621E-02
         0.29267E-02
         0.22211E-02
         0.13865E-02
         0.47130E-03
        -0.47130E-03
        -0.13865E-02
        -0.22211E-02
        -0.29267E-02
        -0.34621E-02
        -0.37964E-02
        -0.39100E-02
        -0.37964E-02
        -0.34621E-02
        -0.29267E-02
        -0.22211E-02
        -0.13865E-02
        -0.47130E-03
         0.47130E-03
         0.13865E-02
         0.22211E-02
         0.29267E-02
         0.34621E-02
         0.37964E-02
         0.10356E-02
         0.17418E-02
         0.23153E-02
         0.16657E-02
         0.30372E-02
         0.27856E-02
         0.12830E-02
         0.64673E-03
         0.12259E-03
        -0.13174E-03
         0.93870E-03
         0.11262E-02
         0.17416E-02
         0.40485E-03
         0.39747E-03
        -0.76975E-03
        -0.86811E-03
         0.45268E-03
        -0.18356E-02
        -0.18422E-02
        -0.27233E-02
        -0.27976E-02
        -0.25394E-02
        -0.19369E-02
        -0.99090E-03
        -0.14446E-02
        -0.31194E-03
        -0.11002E-02
        -0.18835E-02
        -0.18689E-02
        -0.16394E-03
        -0.95226E-03
         0.77601E-03
         0.17203E-02
         0.32112E-02
         0.28042E-02
         0.23038E-02
        -0.40352E-03
        -0.12093E-02
        -0.19441E-02
        -0.25023E-02
        -0.26354E-02
        -0.27612E-02
        -0.21150E-02
        -0.16095E-02
        -0.11961E-02
        -0.59305E-03
         0.20140E-03
         0.10527E-02
         0.18421E-02
         0.24568E-02
         0.26036E-02
         0.37964E-02
         0.39100E-02
         0.34621E-02
         0.29267E-02
         0.22211E-02
         0.13865E-02
         0.47130E-03
        -0.47130E-03
        -0.13865E-02
        -0.22211E-02
        -0.29267E-02
        -0.34621E-02
        -0.37964E-02
        -0.39100E-02
        -0.37964E-02
        -0.34621E-02
        -0.29267E-02
        -0.22211E-02
        -0.13865E-02
        -0.47130E-03
         0.47130E-03
         0.13865E-02
         0.22211E-02
         0.29267E-02
         0.34621E-02
         0.37964E-02
         0.10355E-02
         0.17416E-02
         0.23152E-02
         0.16655E-02
         0.30372E-02
         0.27860E-02
         0.12829E-02
         0.64649E-03
         0.12232E-03
        -0.13193E-03
         0.93837E-03
         0.11259E-02
         0.17412E-02
         0.40480E-03
         0.39745E-03
        -0.77011E-03
        -0.86822E-03
         0.45223E-03
        -0.18359E-02
        -0.18421E-02
        -0.27232E-02
        -0.27973E-02
        -0.25396E-02
        -0.19373E-02
        -0.99075E-03
        -0.14450E-02
        -0.31173E-03
        -0.10999E-02
        -0.18835E-02
        -0.18687E-02
        -0.16421E-03
        -0.95285E-03
         0.77535E-03
         0.17202E-02
         0.32115E-02
         0.28041E-02
         0.23037E-02
        -0.40338E-03
        -0.12093E-02
        -0.19440E-02
        -0.25023E-02
        -0.26353E-02
        -0.27609E-02
        -0.21151E-02
        -0.16096E-02
        -0.11962E-02
        -0.59340E-03
         0.20099E-03
         0.10524E-02
         0.18422E-02
         0.24569E-02
         0.26036E-02
         0.37964E-02
         0.39100E-02
         0.34621E-02
         0.29267E-02
         0.22211E-02
         0.13865E-02
         0.47130E-03
        -0.47130E-03
        -0.13865E-02
        -0.22211E-02
        -0.29267E-02
        -0.34621E-02
        -0.37964E-02
        -0.39100E-02
        -0.37964E-02
        -0.34621E-02
        -0.29267E-02
        -0.22211E-02
        -0.13865E-02
        -0.47130E-03
         0.47130E-03
         0.13865E-02
         0.22211E-02
         0.29267E-02
         0.34621E-02
         0.37964E-02
         0.10354E-02
         0.17414E-02
         0.23151E-02
         0.16653E-02
         0.30372E-02
         0.27863E-02
         0.12829E-02
         0.64624E-03
         0.12206E-03
        -0.13211E-03
         0.93804E-03
         0.11255E-02
         0.17408E-02
         0.40474E-03
         0.39744E-03
        -0.77046E-03
        -0.86832E-03
         0.45179E-03
        -0.18362E-02
        -0.18420E-02
        -0.27232E-02
        -0.27970E-02
        -0.25397E-02
        -0.19377E-02
        -0.99061E-03
        -0.14453E-02
        -0.31153E-03
        -0.10995E-02
        -0.18834E-02
        -0.18686E-02
        -0.16449E-03
        -0.95345E-03
         0.77469E-03
         0.17202E-02
         0.32119E-02
         0.28041E-02
         0.23036E-02
        -0.40324E-03
        -0.12093E-02
        -0.19440E-02
        -0.25022E-02
        -0.26352E-02
        -0.27606E-02
        -0.21152E-02
        -0.16096E-02
        -0.11963E-02
        -0.59375E-03
         0.20059E-03
         0.10521E-02
         0.18422E-02
         0.24570E-02
         0.26037E-02
         0.37964E-02
         0.39100E-02
         0.34621E-02
         0.29267E-02
         0.22211E-02
         0.13865E-02
         0.47130E-03
        -0.47130E-03
        -0.13865E-02
        -0.22211E-02
        -0.29267E-02
        -0.34621E-02
        -0.37964E-02
        -0.39100E-02
        -0.37964E-02
        -0.34621E-02
        -0.29267E-02
        -0.22211E-02
        -0.13865E-02
        -0.47130E-03
         0.47130E-03
         0.13865E-02
         0.22211E-02
         0.29267E-02
         0.34621E-02
         0.37964E-02
         0.10352E-02
         0.17413E-02
         0.23150E-02
         0.16651E-02
         0.30371E-02
         0.27866E-02
         0.12827E-02
         0.64600E-03
         0.12180E-03
        -0.13230E-03
         0.93771E-03
         0.11252E-02
         0.17404E-02
         0.40469E-03
         0.39742E-03
        -0.77081E-03
        -0.86843E-03
         0.45134E-03
        -0.18365E-02
        -0.18419E-02
        -0.27232E-02
        -0.27968E-02
        -0.25399E-02
        -0.19382E-02
        -0.99046E-03
        -0.14457E-02
        -0.31133E-03
        -0.10992E-02
        -0.18834E-02
        -0.18685E-02
        -0.16476E-03
        -0.95405E-03
         0.77402E-03
         0.17202E-02
         0.32122E-02
         0.28041E-02
         0.23034E-02
        -0.40310E-03
        -0.12093E-02
        -0.19440E-02
        -0.25022E-02
        -0.26351E-02
        -0.27602E-02
        -0.21154E-02
        -0.16097E-02
        -0.11964E-02
        -0.59409E-03
         0.20018E-03
         0.10518E-02
         0.18422E-02
         0.24571E-02
         0.26038E-02
         0.37964E-02
         0.39100E-02
         0.34621E-02
         0.29267E-02
         0.22211E-02
         0.13865E-02
         0.47130E-03
        -0.47130E-03
        -0.13865E-02
        -0.22211E-02
        -0.29267E-02
        -0.34621E-02
        -0.37964E-02
        -0.39100E-02
        -0.37964E-02
        -0.34621E-02
        -0.29267E-02
        -0.22211E-02
        -0.13865E-02
        -0.47130E-03
         0.47130E-03
         0.13865E-02
         0.22211E-02
         0.29267E-02
         0.34621E-02
         0.37964E-02
         0.10351E-02
         0.17411E-02
         0.23149E-02
         0.16649E-02
         0.30371E-02
         0.27870E-02
         0.12826E-02
         0.64575E-03
         0.12154E-03
        -0.13248E-03
         0.93738E-03
         0.11249E-02
         0.17400E-02
         0.40463E-03
         0.39740E-03
        -0.77117E-03
        -0.86854E-03
         0.45089E-03
        -0.18368E-02
        -0.18418E-02
        -0.27232E-02
        -0.27965E-02
        -0.25400E-02
        -0.19386E-02
        -0.99032E-03
        -0.14460E-02
        -0.31113E-03
        -0.10988E-02
        -0.18833E-02
        -0.18683E-02
        -0.16504E-03
        -0.95465E-03
         0.77336E-03
         0.17201E-02
         0.32125E-02
         0.28041E-02
         0.23033E-02
        -0.40296E-03
        -0.12093E-02
        -0.19439E-02
        -0.25022E-02
        -0.26350E-02
        -0.27599E-02
        -0.21155E-02
        -0.16097E-02
        -0.11965E-02
        -0.59444E-03
         0.19977E-03
         0.10515E-02
         0.18423E-02
         0.24573E-02
         0.26039E-02
         0.37964E-02
         0.39100E-02
         0.34621E-02
         0.29267E-02
         0.22211E-02
         0.13865E-02
         0.47130E-03
        -0.47130E-03
        -0.13865E-02
        -0.22211E-02
        -0.29267E-02
        -0.34621E-02
        -0.37964E-02
        -0.39100E-02
        -0.37964E-02
        -0.34621E-02
        -0.29267E-02
        -0.22211E-02
        -0.13865E-02
        -0.47130E-03
         0.47130E-03
         0.13865E-02
         0.22211E-02
         0.29267E-02
         0.34621E-02
         0.37964E-02
  
SCALARS           initial_coordinate_y  double 1
LOOKUP_TABLE default
         0.67292E-03
         0.12308E-02
         0.59151E-03
        -0.33775E-03
         0.67237E-03
         0.12301E-02
         0.59098E-03
        -0.33851E-03
         0.14882E-03
        -0.67643E-03
         0.14846E-03
        -0.67692E-03
         0.18412E-02
         0.14576E-02
         0.18410E-02
         0.14566E-02
         0.29933E-03
         0.11672E-02
         0.29819E-03
         0.11655E-02
         0.22748E-02
         0.28286E-02
         0.24238E-02
         0.22746E-02
         0.28291E-02
         0.24236E-02
         0.21685E-02
         0.29366E-02
         0.21684E-02
         0.29369E-02
        -0.10033E-02
         0.78969E-04
        -0.70318E-03
        -0.10032E-02
         0.78160E-04
        -0.70391E-03
        -0.71196E-03
         0.82749E-04
        -0.71210E-03
         0.82626E-04
        -0.77865E-03
         0.40713E-04
        -0.77882E-03
         0.40439E-04
        -0.15195E-02
        -0.13230E-02
        -0.15195E-02
        -0.13231E-02
         0.98847E-03
         0.98712E-03
        -0.17325E-02
        -0.17325E-02
         0.20220E-02
         0.20217E-02
         0.18615E-02
         0.18616E-02
         0.17175E-02
         0.90940E-03
         0.17175E-02
         0.90916E-03
        -0.19800E-02
        -0.23489E-02
        -0.19800E-02
        -0.23489E-02
        -0.17074E-02
        -0.17074E-02
        -0.14894E-02
        -0.14892E-02
         0.76036E-03
         0.12477E-02
         0.75936E-03
         0.12473E-02
         0.18665E-02
         0.18664E-02
         0.29038E-02
         0.29049E-02
         0.27207E-02
         0.27212E-02
         0.24642E-02
         0.24645E-02
         0.22359E-02
         0.16503E-02
         0.22359E-02
         0.16503E-02
         0.87493E-03
         0.87466E-03
        -0.21373E-02
        -0.21373E-02
        -0.26931E-02
        -0.26931E-02
        -0.31291E-02
        -0.30382E-02
        -0.31291E-02
        -0.30382E-02
        -0.28748E-02
        -0.28748E-02
        -0.26423E-02
        -0.26420E-02
        -0.23707E-02
        -0.23705E-02
        -0.21445E-02
        -0.15105E-02
        -0.21439E-02
        -0.15106E-02
         0.93572E-03
         0.00000E+00
         0.93572E-03
         0.00000E+00
         0.18171E-02
         0.18171E-02
         0.25928E-02
         0.25928E-02
         0.32179E-02
         0.32179E-02
         0.36559E-02
         0.36559E-02
         0.38815E-02
         0.38815E-02
         0.38815E-02
         0.38815E-02
         0.36559E-02
         0.36559E-02
         0.32179E-02
         0.32179E-02
         0.25928E-02
         0.25928E-02
         0.18171E-02
         0.18171E-02
         0.93572E-03
         0.93572E-03
         0.22152E-17
        -0.47884E-18
        -0.93572E-03
        -0.93572E-03
        -0.18171E-02
        -0.18171E-02
        -0.25928E-02
        -0.25928E-02
        -0.32179E-02
        -0.32179E-02
        -0.36559E-02
        -0.36559E-02
        -0.38815E-02
        -0.38815E-02
        -0.38815E-02
        -0.38815E-02
        -0.36559E-02
        -0.36559E-02
        -0.32179E-02
        -0.32179E-02
        -0.25928E-02
        -0.25928E-02
        -0.18171E-02
        -0.18171E-02
        -0.93572E-03
        -0.93572E-03
         0.67348E-03
         0.12314E-02
         0.59203E-03
        -0.33700E-03
         0.14918E-03
        -0.67594E-03
         0.18414E-02
         0.14586E-02
         0.30048E-03
         0.11690E-02
         0.22749E-02
         0.28282E-02
         0.24239E-02
         0.21685E-02
         0.29364E-02
        -0.10035E-02
         0.79778E-04
        -0.70245E-03
        -0.71182E-03
         0.82873E-04
        -0.77848E-03
         0.40986E-04
        -0.15194E-02
        -0.13228E-02
         0.98983E-03
        -0.17324E-02
         0.20223E-02
         0.18614E-02
         0.17175E-02
         0.90964E-03
        -0.19800E-02
        -0.23489E-02
        -0.17074E-02
        -0.14896E-02
         0.76137E-03
         0.12481E-02
         0.18665E-02
         0.29027E-02
         0.27202E-02
         0.24640E-02
         0.22359E-02
         0.16503E-02
         0.87519E-03
        -0.21373E-02
        -0.26932E-02
        -0.31291E-02
        -0.30382E-02
        -0.28748E-02
        -0.26426E-02
        -0.23709E-02
        -0.21450E-02
        -0.15104E-02
         0.93572E-03
         0.00000E+00
         0.18171E-02
         0.25928E-02
         0.32179E-02
         0.36559E-02
         0.38815E-02
         0.38815E-02
         0.36559E-02
         0.32179E-02
         0.25928E-02
         0.18171E-02
         0.93572E-03
        -0.47884E-18
        -0.93572E-03
        -0.18171E-02
        -0.25928E-02
        -0.32179E-02
        -0.36559E-02
        -0.38815E-02
        -0.38815E-02
        -0.36559E-02
        -0.32179E-02
        -0.25928E-02
        -0.18171E-02
        -0.93572E-03
         0.67403E-03
         0.12321E-02
         0.59255E-03
        -0.33624E-03
         0.14955E-03
        -0.67544E-03
         0.18415E-02
         0.14596E-02
         0.30163E-03
         0.11707E-02
         0.22750E-02
         0.28277E-02
         0.24241E-02
         0.21685E-02
         0.29361E-02
        -0.10036E-02
         0.80588E-04
        -0.70173E-03
        -0.71168E-03
         0.82996E-04
        -0.77831E-03
         0.41259E-04
        -0.15194E-02
        -0.13227E-02
         0.99119E-03
        -0.17324E-02
         0.20226E-02
         0.18613E-02
         0.17175E-02
         0.90988E-03
        -0.19801E-02
        -0.23490E-02
        -0.17074E-02
        -0.14899E-02
         0.76237E-03
         0.12485E-02
         0.18666E-02
         0.29017E-02
         0.27198E-02
         0.24638E-02
         0.22359E-02
         0.16503E-02
         0.87545E-03
        -0.21374E-02
        -0.26932E-02
        -0.31291E-02
        -0.30382E-02
        -0.28748E-02
        -0.26428E-02
        -0.23711E-02
        -0.21456E-02
        -0.15103E-02
         0.93572E-03
         0.00000E+00
         0.18171E-02
         0.25928E-02
         0.32179E-02
         0.36559E-02
         0.38815E-02
         0.38815E-02
         0.36559E-02
         0.32179E-02
         0.25928E-02
         0.18171E-02
         0.93572E-03
         0.39516E-17
        -0.93572E-03
        -0.18171E-02
        -0.25928E-02
        -0.32179E-02
        -0.36559E-02
        -0.38815E-02
        -0.38815E-02
        -0.36559E-02
        -0.32179E-02
        -0.25928E-02
        -0.18171E-02
        -0.93572E-03
         0.67459E-03
         0.12328E-02
         0.59308E-03
        -0.33549E-03
         0.14991E-03
        -0.67495E-03
         0.18417E-02
         0.14606E-02
         0.30278E-03
         0.11725E-02
         0.22752E-02
         0.28273E-02
         0.24242E-02
         0.21686E-02
         0.29359E-02
        -0.10038E-02
         0.81397E-04
        -0.70100E-03
        -0.71154E-03
         0.83120E-04
        -0.77814E-03
         0.41533E-04
        -0.15193E-02
        -0.13227E-02
         0.99254E-03
        -0.17324E-02
         0.20228E-02
         0.18611E-02
         0.17175E-02
         0.91012E-03
        -0.19801E-02
        -0.23490E-02
        -0.17074E-02
        -0.14901E-02
         0.76338E-03
         0.12490E-02
         0.18666E-02
         0.29006E-02
         0.27193E-02
         0.24636E-02
         0.22359E-02
         0.16503E-02
         0.87571E-03
        -0.21374E-02
        -0.26932E-02
        -0.31291E-02
        -0.30382E-02
        -0.28748E-02
        -0.26431E-02
        -0.23713E-02
        -0.21461E-02
        -0.15102E-02
         0.93572E-03
         0.00000E+00
         0.18171E-02
         0.25928E-02
         0.32179E-02
         0.36559E-02
         0.38815E-02
         0.38815E-02
         0.36559E-02
         0.32179E-02
         0.25928E-02
         0.18171E-02
         0.93572E-03
        -0.47884E-18
        -0.93572E-03
        -0.18171E-02
        -0.25928E-02
        -0.32179E-02
        -0.36559E-02
        -0.38815E-02
        -0.38815E-02
        -0.36559E-02
        -0.32179E-02
        -0.25928E-02
        -0.18171E-02
        -0.93572E-03
         0.67514E-03
         0.12334E-02
         0.59360E-03
        -0.33474E-03
         0.15027E-03
        -0.67446E-03
         0.18419E-02
         0.14616E-02
         0.30393E-03
         0.11742E-02
         0.22753E-02
         0.28269E-02
         0.24244E-02
         0.21686E-02
         0.29356E-02
        -0.10039E-02
         0.82206E-04
        -0.70028E-03
        -0.71140E-03
         0.83243E-04
        -0.77797E-03
         0.41806E-04
        -0.15193E-02
        -0.13226E-02
         0.99390E-03
        -0.17323E-02
         0.20231E-02
         0.18610E-02
         0.17175E-02
         0.91036E-03
        -0.19801E-02
        -0.23490E-02
        -0.17074E-02
        -0.14904E-02
         0.76439E-03
         0.12494E-02
         0.18666E-02
         0.28995E-02
         0.27188E-02
         0.24633E-02
         0.22359E-02
         0.16503E-02
         0.87597E-03
        -0.21374E-02
        -0.26932E-02
        -0.31291E-02
        -0.30382E-02
        -0.28748E-02
        -0.26434E-02
        -0.23715E-02
        -0.21467E-02
        -0.15101E-02
         0.93572E-03
         0.00000E+00
         0.18171E-02
         0.25928E-02
         0.32179E-02
         0.36559E-02
         0.38815E-02
         0.38815E-02
         0.36559E-02
         0.32179E-02
         0.25928E-02
         0.18171E-02
         0.93572E-03
        -0.47884E-18
        -0.93572E-03
        -0.18171E-02
        -0.25928E-02
        -0.32179E-02
        -0.36559E-02
        -0.38815E-02
        -0.38815E-02
        -0.36559E-02
        -0.32179E-02
        -0.25928E-02
        -0.18171E-02
        -0.93572E-03
         0.67570E-03
         0.12341E-02
         0.59412E-03
        -0.33398E-03
         0.15064E-03
        -0.67396E-03
         0.18421E-02
         0.14626E-02
         0.30507E-03
         0.11760E-02
         0.22754E-02
         0.28264E-02
         0.24245E-02
         0.21686E-02
         0.29353E-02
        -0.10040E-02
         0.83015E-04
        -0.69955E-03
        -0.71126E-03
         0.83367E-04
        -0.77780E-03
         0.42080E-04
        -0.15192E-02
        -0.13224E-02
         0.99526E-03
        -0.17323E-02
         0.20234E-02
         0.18609E-02
         0.17175E-02
         0.91060E-03
        -0.19801E-02
        -0.23490E-02
        -0.17074E-02
        -0.14906E-02
         0.76539E-03
         0.12498E-02
         0.18667E-02
         0.28984E-02
         0.27184E-02
         0.24631E-02
         0.22359E-02
         0.16503E-02
         0.87623E-03
        -0.21374E-02
        -0.26932E-02
        -0.31291E-02
        -0.30382E-02
        -0.28748E-02
        -0.26436E-02
        -0.23717E-02
        -0.21472E-02
        -0.15100E-02
         0.93572E-03
         0.00000E+00
         0.18171E-02
         0.25928E-02
         0.32179E-02
         0.36559E-02
         0.38815E-02
         0.38815E-02
         0.36559E-02
         0.32179E-02
         0.25928E-02
         0.18171E-02
         0.93572E-03
        -0.47884E-18
        -0.93572E-03
        -0.18171E-02
        -0.25928E-02
        -0.32179E-02
        -0.36559E-02
        -0.38815E-02
        -0.38815E-02
        -0.36559E-02
        -0.32179E-02
        -0.25928E-02
        -0.18171E-02
        -0.93572E-03
         0.67625E-03
         0.12348E-02
         0.59465E-03
        -0.33323E-03
         0.15100E-03
        -0.67347E-03
         0.18423E-02
         0.14636E-02
         0.30622E-03
         0.11777E-02
         0.22755E-02
         0.28260E-02
         0.24247E-02
         0.21687E-02
         0.29351E-02
        -0.10042E-02
         0.83825E-04
        -0.69882E-03
        -0.71112E-03
         0.83490E-04
        -0.77763E-03
         0.42353E-04
        -0.15192E-02
        -0.13223E-02
         0.99661E-03
        -0.17322E-02
         0.20237E-02
         0.18607E-02
         0.17175E-02
         0.91084E-03
        -0.19801E-02
        -0.23491E-02
        -0.17074E-02
        -0.14909E-02
         0.76640E-03
         0.12503E-02
         0.18667E-02
         0.28974E-02
         0.27179E-02
         0.24629E-02
         0.22359E-02
         0.16503E-02
         0.87650E-03
        -0.21374E-02
        -0.26933E-02
        -0.31291E-02
        -0.30382E-02
        -0.28749E-02
        -0.26439E-02
        -0.23719E-02
        -0.21478E-02
        -0.15099E-02
         0.93572E-03
         0.00000E+00
         0.18171E-02
         0.25928E-02
         0.32179E-02
         0.36559E-02
         0.38815E-02
         0.38815E-02
         0.36559E-02
         0.32179E-02
         0.25928E-02
         0.18171E-02
         0.93572E-03
        -0.47884E-18
        -0.93572E-03
        -0.18171E-02
        -0.25928E-02
        -0.32179E-02
        -0.36559E-02
        -0.38815E-02
        -0.38815E-02
        -0.36559E-02
        -0.32179E-02
        -0.25928E-02
        -0.18171E-02
        -0.93572E-03
         0.67680E-03
         0.12354E-02
         0.59517E-03
        -0.33247E-03
         0.15136E-03
        -0.67298E-03
         0.18425E-02
         0.14646E-02
         0.30737E-03
         0.11795E-02
         0.22757E-02
         0.28255E-02
         0.24248E-02
         0.21687E-02
         0.29348E-02
        -0.10043E-02
         0.84634E-04
        -0.69810E-03
        -0.71098E-03
         0.83614E-04
        -0.77746E-03
         0.42626E-04
        -0.15191E-02
        -0.13223E-02
         0.99797E-03
        -0.17322E-02
         0.20240E-02
         0.18606E-02
         0.17175E-02
         0.91108E-03
        -0.19802E-02
        -0.23491E-02
        -0.17074E-02
        -0.14911E-02
         0.76740E-03
         0.12507E-02
         0.18668E-02
         0.28963E-02
         0.27174E-02
         0.24627E-02
         0.22358E-02
         0.16503E-02
         0.87676E-03
        -0.21374E-02
        -0.26933E-02
        -0.31291E-02
        -0.30382E-02
        -0.28749E-02
        -0.26442E-02
        -0.23721E-02
        -0.21483E-02
        -0.15097E-02
         0.93572E-03
         0.00000E+00
         0.18171E-02
         0.25928E-02
         0.32179E-02
         0.36559E-02
         0.38815E-02
         0.38815E-02
         0.36559E-02
         0.32179E-02
         0.25928E-02
         0.18171E-02
         0.93572E-03
        -0.47884E-18
        -0.93572E-03
        -0.18171E-02
        -0.25928E-02
        -0.32179E-02
        -0.36559E-02
        -0.38815E-02
        -0.38815E-02
        -0.36559E-02
        -0.32179E-02
        -0.25928E-02
        -0.18171E-02
        -0.93572E-03
         0.67736E-03
         0.12361E-02
         0.59570E-03
        -0.33172E-03
         0.15173E-03
        -0.67248E-03
         0.18427E-02
         0.14656E-02
         0.30852E-03
         0.11812E-02
         0.22758E-02
         0.28251E-02
         0.24249E-02
         0.21688E-02
         0.29345E-02
        -0.10044E-02
         0.85443E-04
        -0.69737E-03
        -0.71084E-03
         0.83737E-04
        -0.77729E-03
         0.42899E-04
        -0.15191E-02
        -0.13222E-02
         0.99932E-03
        -0.17322E-02
         0.20243E-02
         0.18605E-02
         0.17175E-02
         0.91132E-03
        -0.19802E-02
        -0.23491E-02
        -0.17074E-02
        -0.14914E-02
         0.76841E-03
         0.12511E-02
         0.18668E-02
         0.28952E-02
         0.27170E-02
         0.24624E-02
         0.22358E-02
         0.16503E-02
         0.87702E-03
        -0.21374E-02
        -0.26933E-02
        -0.31291E-02
        -0.30382E-02
        -0.28749E-02
        -0.26444E-02
        -0.23723E-02
        -0.21489E-02
        -0.15096E-02
         0.93572E-03
         0.00000E+00
         0.18171E-02
         0.25928E-02
         0.32179E-02
         0.36559E-02
         0.38815E-02
         0.38815E-02
         0.36559E-02
         0.32179E-02
         0.25928E-02
         0.18171E-02
         0.93572E-03
        -0.47884E-18
        -0.93572E-03
        -0.18171E-02
        -0.25928E-02
        -0.32179E-02
        -0.36559E-02
        -0.38815E-02
        -0.38815E-02
        -0.36559E-02
        -0.32179E-02
        -0.25928E-02
        -0.18171E-02
        -0.93572E-03
         0.67791E-03
         0.12368E-02
         0.59622E-03
        -0.33096E-03
         0.15209E-03
        -0.67199E-03
         0.18429E-02
         0.14666E-02
         0.30967E-03
         0.11830E-02
         0.22759E-02
         0.28247E-02
         0.24251E-02
         0.21688E-02
         0.29343E-02
        -0.10046E-02
         0.86253E-04
        -0.69665E-03
        -0.71070E-03
         0.83861E-04
        -0.77712E-03
         0.43173E-04
        -0.15190E-02
        -0.13220E-02
         0.10007E-02
        -0.17321E-02
         0.20245E-02
         0.18603E-02
         0.17175E-02
         0.91156E-03
        -0.19802E-02
        -0.23491E-02
        -0.17074E-02
        -0.14916E-02
         0.76941E-03
         0.12515E-02
         0.18668E-02
         0.28942E-02
         0.27165E-02
         0.24622E-02
         0.22358E-02
         0.16503E-02
         0.87728E-03
        -0.21374E-02
        -0.26933E-02
        -0.31291E-02
        -0.30382E-02
        -0.28749E-02
        -0.26447E-02
        -0.23725E-02
        -0.21494E-02
        -0.15095E-02
         0.93572E-03
         0.00000E+00
         0.18171E-02
         0.25928E-02
         0.32179E-02
         0.36559E-02
         0.38815E-02
         0.38815E-02
         0.36559E-02
         0.32179E-02
         0.25928E-02
         0.18171E-02
         0.93572E-03
        -0.47884E-18
        -0.93572E-03
        -0.18171E-02
        -0.25928E-02
        -0.32179E-02
        -0.36559E-02
        -0.38815E-02
        -0.38815E-02
        -0.36559E-02
        -0.32179E-02
        -0.25928E-02
        -0.18171E-02
        -0.93572E-03
         0.67847E-03
         0.12374E-02
         0.59674E-03
        -0.33021E-03
         0.15245E-03
        -0.67150E-03
         0.18430E-02
         0.14676E-02
         0.31081E-03
         0.11847E-02
         0.22761E-02
         0.28242E-02
         0.24252E-02
         0.21688E-02
         0.29340E-02
        -0.10047E-02
         0.87062E-04
        -0.69592E-03
        -0.71056E-03
         0.83985E-04
        -0.77695E-03
         0.43446E-04
        -0.15190E-02
        -0.13219E-02
         0.10020E-02
        -0.17321E-02
         0.20248E-02
         0.18602E-02
         0.17175E-02
         0.91180E-03
        -0.19803E-02
        -0.23491E-02
        -0.17073E-02
        -0.14919E-02
         0.77042E-03
         0.12520E-02
         0.18669E-02
         0.28931E-02
         0.27160E-02
         0.24620E-02
         0.22358E-02
         0.16503E-02
         0.87754E-03
        -0.21374E-02
        -0.26933E-02
        -0.31291E-02
        -0.30382E-02
        -0.28749E-02
        -0.26450E-02
        -0.23727E-02
        -0.21500E-02
        -0.15094E-02
         0.93572E-03
         0.00000E+00
         0.18171E-02
         0.25928E-02
         0.32179E-02
         0.36559E-02
         0.38815E-02
         0.38815E-02
         0.36559E-02
         0.32179E-02
         0.25928E-02
         0.18171E-02
         0.93572E-03
         0.39516E-17
        -0.93572E-03
        -0.18171E-02
        -0.25928E-02
        -0.32179E-02
        -0.36559E-02
        -0.38815E-02
        -0.38815E-02
        -0.36559E-02
        -0.32179E-02
        -0.25928E-02
        -0.18171E-02
        -0.93572E-03
         0.67902E-03
         0.12381E-02
         0.59727E-03
        -0.32945E-03
         0.15282E-03
        -0.67100E-03
         0.18432E-02
         0.14686E-02
         0.31196E-03
         0.11865E-02
         0.22762E-02
         0.28238E-02
         0.24254E-02
         0.21688E-02
         0.29337E-02
        -0.10049E-02
         0.87871E-04
        -0.69519E-03
        -0.71042E-03
         0.84108E-04
        -0.77678E-03
         0.43720E-04
        -0.15189E-02
        -0.13219E-02
         0.10034E-02
        -0.17320E-02
         0.20251E-02
         0.18601E-02
         0.17175E-02
         0.91204E-03
        -0.19803E-02
        -0.23492E-02
        -0.17073E-02
        -0.14921E-02
         0.77142E-03
         0.12524E-02
         0.18669E-02
         0.28920E-02
         0.27155E-02
         0.24618E-02
         0.22358E-02
         0.16503E-02
         0.87781E-03
        -0.21374E-02
        -0.26934E-02
        -0.31291E-02
        -0.30382E-02
        -0.28749E-02
        -0.26452E-02
        -0.23729E-02
        -0.21505E-02
        -0.15093E-02
         0.93572E-03
         0.00000E+00
         0.18171E-02
         0.25928E-02
         0.32179E-02
         0.36559E-02
         0.38815E-02
         0.38815E-02
         0.36559E-02
         0.32179E-02
         0.25928E-02
         0.18171E-02
         0.93572E-03
        -0.47884E-18
        -0.93572E-03
        -0.18171E-02
        -0.25928E-02
        -0.32179E-02
        -0.36559E-02
        -0.38815E-02
        -0.38815E-02
        -0.36559E-02
        -0.32179E-02
        -0.25928E-02
        -0.18171E-02
        -0.93572E-03
         0.67958E-03
         0.12387E-02
         0.59779E-03
        -0.32870E-03
         0.15318E-03
        -0.67051E-03
         0.18434E-02
         0.14696E-02
         0.31311E-03
         0.11882E-02
         0.22763E-02
         0.28233E-02
         0.24255E-02
         0.21689E-02
         0.29335E-02
        -0.10050E-02
         0.88681E-04
        -0.69447E-03
        -0.71028E-03
         0.84232E-04
        -0.77661E-03
         0.43993E-04
        -0.15189E-02
        -0.13218E-02
         0.10048E-02
        -0.17320E-02
         0.20254E-02
         0.18599E-02
         0.17175E-02
         0.91228E-03
        -0.19803E-02
        -0.23492E-02
        -0.17073E-02
        -0.14923E-02
         0.77243E-03
         0.12528E-02
         0.18670E-02
         0.28910E-02
         0.27151E-02
         0.24615E-02
         0.22358E-02
         0.16503E-02
         0.87807E-03
        -0.21374E-02
        -0.26934E-02
        -0.31291E-02
        -0.30382E-02
        -0.28749E-02
        -0.26455E-02
        -0.23732E-02
        -0.21511E-02
        -0.15092E-02
         0.93572E-03
         0.00000E+00
         0.18171E-02
         0.25928E-02
         0.32179E-02
         0.36559E-02
         0.38815E-02
         0.38815E-02
         0.36559E-02
         0.32179E-02
         0.25928E-02
         0.18171E-02
         0.93572E-03
         0.22152E-17
        -0.93572E-03
        -0.18171E-02
        -0.25928E-02
        -0.32179E-02
        -0.36559E-02
        -0.38815E-02
        -0.38815E-02
        -0.36559E-02
        -0.32179E-02
        -0.25928E-02
        -0.18171E-02
        -0.93572E-03
         0.68013E-03
         0.12394E-02
         0.59831E-03
        -0.32794E-03
         0.15354E-03
        -0.67002E-03
         0.18436E-02
         0.14706E-02
         0.31426E-03
         0.11900E-02
         0.22765E-02
         0.28229E-02
         0.24257E-02
         0.21689E-02
         0.29332E-02
        -0.10051E-02
         0.89490E-04
        -0.69374E-03
        -0.71013E-03
         0.84355E-04
        -0.77644E-03
         0.44266E-04
        -0.15188E-02
        -0.13216E-02
         0.10061E-02
        -0.17320E-02
         0.20257E-02
         0.18598E-02
         0.17175E-02
         0.91252E-03
        -0.19803E-02
        -0.23492E-02
        -0.17073E-02
        -0.14926E-02
         0.77343E-03
         0.12533E-02
         0.18670E-02
         0.28899E-02
         0.27146E-02
         0.24613E-02
         0.22358E-02
         0.16503E-02
         0.87833E-03
        -0.21374E-02
        -0.26934E-02
        -0.31291E-02
        -0.30382E-02
        -0.28750E-02
        -0.26458E-02
        -0.23734E-02
        -0.21516E-02
        -0.15091E-02
         0.93572E-03
         0.00000E+00
         0.18171E-02
         0.25928E-02
         0.32179E-02
         0.36559E-02
         0.38815E-02
         0.38815E-02
         0.36559E-02
         0.32179E-02
         0.25928E-02
         0.18171E-02
         0.93572E-03
        -0.47884E-18
        -0.93572E-03
        -0.18171E-02
        -0.25928E-02
        -0.32179E-02
        -0.36559E-02
        -0.38815E-02
        -0.38815E-02
        -0.36559E-02
        -0.32179E-02
        -0.25928E-02
        -0.18171E-02
        -0.93572E-03
         0.68068E-03
         0.12401E-02
         0.59884E-03
        -0.32719E-03
         0.15391E-03
        -0.66953E-03
         0.18438E-02
         0.14716E-02
         0.31541E-03
         0.11917E-02
         0.22766E-02
         0.28225E-02
         0.24258E-02
         0.21690E-02
         0.29330E-02
        -0.10053E-02
         0.90299E-04
        -0.69302E-03
        -0.70999E-03
         0.84479E-04
        -0.77627E-03
         0.44540E-04
        -0.15188E-02
        -0.13215E-02
         0.10075E-02
        -0.17319E-02
         0.20260E-02
         0.18597E-02
         0.17175E-02
         0.91276E-03
        -0.19804E-02
        -0.23493E-02
        -0.17073E-02
        -0.14928E-02
         0.77444E-03
         0.12537E-02
         0.18670E-02
         0.28888E-02
         0.27141E-02
         0.24611E-02
         0.22358E-02
         0.16503E-02
         0.87859E-03
        -0.21374E-02
        -0.26934E-02
        -0.31291E-02
        -0.30382E-02
        -0.28750E-02
        -0.26460E-02
        -0.23736E-02
        -0.21521E-02
        -0.15090E-02
         0.93572E-03
         0.00000E+00
         0.18171E-02
         0.25928E-02
         0.32179E-02
         0.36559E-02
         0.38815E-02
         0.38815E-02
         0.36559E-02
         0.32179E-02
         0.25928E-02
         0.18171E-02
         0.93572E-03
         0.22152E-17
        -0.93572E-03
        -0.18171E-02
        -0.25928E-02
        -0.32179E-02
        -0.36559E-02
        -0.38815E-02
        -0.38815E-02
        -0.36559E-02
        -0.32179E-02
        -0.25928E-02
        -0.18171E-02
        -0.93572E-03
         0.68124E-03
         0.12407E-02
         0.59936E-03
        -0.32643E-03
         0.15427E-03
        -0.66903E-03
         0.18440E-02
         0.14727E-02
         0.31656E-03
         0.11935E-02
         0.22767E-02
         0.28220E-02
         0.24260E-02
         0.21690E-02
         0.29327E-02
        -0.10054E-02
         0.91108E-04
        -0.69229E-03
        -0.70985E-03
         0.84602E-04
        -0.77610E-03
         0.44813E-04
        -0.15187E-02
        -0.13215E-02
         0.10088E-02
        -0.17319E-02
         0.20262E-02
         0.18595E-02
         0.17175E-02
         0.91300E-03
        -0.19804E-02
        -0.23493E-02
        -0.17073E-02
        -0.14931E-02
         0.77544E-03
         0.12541E-02
         0.18671E-02
         0.28877E-02
         0.27137E-02
         0.24609E-02
         0.22358E-02
         0.16503E-02
         0.87885E-03
        -0.21374E-02
        -0.26934E-02
        -0.31291E-02
        -0.30382E-02
        -0.28750E-02
        -0.26463E-02
        -0.23738E-02
        -0.21527E-02
        -0.15088E-02
         0.93572E-03
         0.00000E+00
         0.18171E-02
         0.25928E-02
         0.32179E-02
         0.36559E-02
         0.38815E-02
         0.38815E-02
         0.36559E-02
         0.32179E-02
         0.25928E-02
         0.18171E-02
         0.93572E-03
        -0.47884E-18
        -0.93572E-03
        -0.18171E-02
        -0.25928E-02
        -0.32179E-02
        -0.36559E-02
        -0.38815E-02
        -0.38815E-02
        -0.36559E-02
        -0.32179E-02
        -0.25928E-02
        -0.18171E-02
        -0.93572E-03
         0.68179E-03
         0.12414E-02
         0.59988E-03
        -0.32568E-03
         0.15463E-03
        -0.66854E-03
         0.18442E-02
         0.14736E-02
         0.31770E-03
         0.11952E-02
         0.22768E-02
         0.28216E-02
         0.24261E-02
         0.21690E-02
         0.29324E-02
        -0.10056E-02
         0.91918E-04
        -0.69156E-03
        -0.70971E-03
         0.84726E-04
        -0.77593E-03
         0.45086E-04
        -0.15187E-02
        -0.13213E-02
         0.10102E-02
        -0.17318E-02
         0.20265E-02
         0.18594E-02
         0.17175E-02
         0.91324E-03
        -0.19804E-02
        -0.23493E-02
        -0.17073E-02
        -0.14933E-02
         0.77645E-03
         0.12545E-02
         0.18671E-02
         0.28867E-02
         0.27132E-02
         0.24606E-02
         0.22358E-02
         0.16503E-02
         0.87912E-03
        -0.21374E-02
        -0.26935E-02
        -0.31291E-02
        -0.30381E-02
        -0.28750E-02
        -0.26466E-02
        -0.23740E-02
        -0.21533E-02
        -0.15087E-02
         0.93572E-03
         0.00000E+00
         0.18171E-02
         0.25928E-02
         0.32179E-02
         0.36559E-02
         0.38815E-02
         0.38815E-02
         0.36559E-02
         0.32179E-02
         0.25928E-02
         0.18171E-02
         0.93572E-03
        -0.47884E-18
        -0.93572E-03
        -0.18171E-02
        -0.25928E-02
        -0.32179E-02
        -0.36559E-02
        -0.38815E-02
        -0.38815E-02
        -0.36559E-02
        -0.32179E-02
        -0.25928E-02
        -0.18171E-02
        -0.93572E-03
         0.68235E-03
         0.12421E-02
         0.60041E-03
        -0.32493E-03
         0.15500E-03
        -0.66805E-03
         0.18444E-02
         0.14747E-02
         0.31885E-03
         0.11970E-02
         0.22770E-02
         0.28211E-02
         0.24262E-02
         0.21691E-02
         0.29322E-02
        -0.10057E-02
         0.92727E-04
        -0.69084E-03
        -0.70957E-03
         0.84849E-04
        -0.77576E-03
         0.45359E-04
        -0.15186E-02
        -0.13212E-02
         0.10115E-02
        -0.17318E-02
         0.20268E-02
         0.18593E-02
         0.17175E-02
         0.91347E-03
        -0.19804E-02
        -0.23493E-02
        -0.17073E-02
        -0.14936E-02
         0.77745E-03
         0.12550E-02
         0.18671E-02
         0.28856E-02
         0.27127E-02
         0.24604E-02
         0.22358E-02
         0.16503E-02
         0.87938E-03
        -0.21374E-02
        -0.26935E-02
        -0.31291E-02
        -0.30381E-02
        -0.28750E-02
        -0.26468E-02
        -0.23742E-02
        -0.21538E-02
        -0.15086E-02
         0.93572E-03
         0.00000E+00
         0.18171E-02
         0.25928E-02
         0.32179E-02
         0.36559E-02
         0.38815E-02
         0.38815E-02
         0.36559E-02
         0.32179E-02
         0.25928E-02
         0.18171E-02
         0.93572E-03
        -0.47884E-18
        -0.93572E-03
        -0.18171E-02
        -0.25928E-02
        -0.32179E-02
        -0.36559E-02
        -0.38815E-02
        -0.38815E-02
        -0.36559E-02
        -0.32179E-02
        -0.25928E-02
        -0.18171E-02
        -0.93572E-03
         0.68290E-03
         0.12427E-02
         0.60093E-03
        -0.32417E-03
         0.15536E-03
        -0.66755E-03
         0.18445E-02
         0.14757E-02
         0.32000E-03
         0.11987E-02
         0.22771E-02
         0.28207E-02
         0.24264E-02
         0.21691E-02
         0.29319E-02
        -0.10058E-02
         0.93536E-04
        -0.69011E-03
        -0.70943E-03
         0.84973E-04
        -0.77559E-03
         0.45633E-04
        -0.15186E-02
        -0.13212E-02
         0.10129E-02
        -0.17318E-02
         0.20271E-02
         0.18592E-02
         0.17175E-02
         0.91371E-03
        -0.19805E-02
        -0.23493E-02
        -0.17073E-02
        -0.14938E-02
         0.77846E-03
         0.12554E-02
         0.18672E-02
         0.28845E-02
         0.27122E-02
         0.24602E-02
         0.22358E-02
         0.16502E-02
         0.87964E-03
        -0.21374E-02
        -0.26935E-02
        -0.31291E-02
        -0.30381E-02
        -0.28750E-02
        -0.26471E-02
        -0.23744E-02
        -0.21543E-02
        -0.15085E-02
         0.93572E-03
         0.00000E+00
         0.18171E-02
         0.25928E-02
         0.32179E-02
         0.36559E-02
         0.38815E-02
         0.38815E-02
         0.36559E-02
         0.32179E-02
         0.25928E-02
         0.18171E-02
         0.93572E-03
        -0.47884E-18
        -0.93572E-03
        -0.18171E-02
        -0.25928E-02
        -0.32179E-02
        -0.36559E-02
        -0.38815E-02
        -0.38815E-02
        -0.36559E-02
        -0.32179E-02
        -0.25928E-02
        -0.18171E-02
        -0.93572E-03
         0.68346E-03
         0.12434E-02
         0.60145E-03
        -0.32342E-03
         0.15572E-03
        -0.66706E-03
         0.18447E-02
         0.14767E-02
         0.32115E-03
         0.12005E-02
         0.22772E-02
         0.28203E-02
         0.24265E-02
         0.21691E-02
         0.29316E-02
        -0.10060E-02
         0.94345E-04
        -0.68939E-03
        -0.70929E-03
         0.85096E-04
        -0.77542E-03
         0.45906E-04
        -0.15185E-02
        -0.13211E-02
         0.10142E-02
        -0.17317E-02
         0.20274E-02
         0.18590E-02
         0.17175E-02
         0.91395E-03
        -0.19805E-02
        -0.23494E-02
        -0.17073E-02
        -0.14941E-02
         0.77946E-03
         0.12558E-02
         0.18672E-02
         0.28835E-02
         0.27118E-02
         0.24600E-02
         0.22358E-02
         0.16502E-02
         0.87990E-03
        -0.21374E-02
        -0.26935E-02
        -0.31291E-02
        -0.30381E-02
        -0.28750E-02
        -0.26474E-02
        -0.23746E-02
        -0.21549E-02
        -0.15084E-02
         0.93572E-03
         0.00000E+00
         0.18171E-02
         0.25928E-02
         0.32179E-02
         0.36559E-02
         0.38815E-02
         0.38815E-02
         0.36559E-02
         0.32179E-02
         0.25928E-02
         0.18171E-02
         0.93572E-03
         0.22152E-17
        -0.93572E-03
        -0.18171E-02
        -0.25928E-02
        -0.32179E-02
        -0.36559E-02
        -0.38815E-02
        -0.38815E-02
        -0.36559E-02
        -0.32179E-02
        -0.25928E-02
        -0.18171E-02
        -0.93572E-03
         0.68401E-03
         0.12440E-02
         0.60198E-03
        -0.32266E-03
         0.15609E-03
        -0.66657E-03
         0.18449E-02
         0.14777E-02
         0.32230E-03
         0.12022E-02
         0.22774E-02
         0.28198E-02
         0.24267E-02
         0.21692E-02
         0.29314E-02
        -0.10061E-02
         0.95155E-04
        -0.68866E-03
        -0.70915E-03
         0.85220E-04
        -0.77525E-03
         0.46180E-04
        -0.15185E-02
        -0.13210E-02
         0.10156E-02
        -0.17317E-02
         0.20277E-02
         0.18589E-02
         0.17175E-02
         0.91419E-03
        -0.19805E-02
        -0.23494E-02
        -0.17073E-02
        -0.14943E-02
         0.78047E-03
         0.12563E-02
         0.18672E-02
         0.28824E-02
         0.27113E-02
         0.24597E-02
         0.22358E-02
         0.16502E-02
         0.88016E-03
        -0.21374E-02
        -0.26935E-02
        -0.31291E-02
        -0.30381E-02
        -0.28751E-02
        -0.26476E-02
        -0.23748E-02
        -0.21554E-02
        -0.15083E-02
         0.93572E-03
         0.00000E+00
         0.18171E-02
         0.25928E-02
         0.32179E-02
         0.36559E-02
         0.38815E-02
         0.38815E-02
         0.36559E-02
         0.32179E-02
         0.25928E-02
         0.18171E-02
         0.93572E-03
        -0.47884E-18
        -0.93572E-03
        -0.18171E-02
        -0.25928E-02
        -0.32179E-02
        -0.36559E-02
        -0.38815E-02
        -0.38815E-02
        -0.36559E-02
        -0.32179E-02
        -0.25928E-02
        -0.18171E-02
        -0.93572E-03
         0.68457E-03
         0.12447E-02
         0.60250E-03
        -0.32191E-03
         0.15645E-03
        -0.66607E-03
         0.18451E-02
         0.14787E-02
         0.32345E-03
         0.12040E-02
         0.22775E-02
         0.28194E-02
         0.24268E-02
         0.21692E-02
         0.29311E-02
        -0.10062E-02
         0.95964E-04
        -0.68793E-03
        -0.70901E-03
         0.85343E-04
        -0.77507E-03
         0.46453E-04
        -0.15184E-02
        -0.13209E-02
         0.10169E-02
        -0.17316E-02
         0.20280E-02
         0.18588E-02
         0.17175E-02
         0.91443E-03
        -0.19806E-02
        -0.23494E-02
        -0.17073E-02
        -0.14945E-02
         0.78148E-03
         0.12567E-02
         0.18673E-02
         0.28813E-02
         0.27108E-02
         0.24595E-02
         0.22358E-02
         0.16502E-02
         0.88043E-03
        -0.21374E-02
        -0.26936E-02
        -0.31291E-02
        -0.30381E-02
        -0.28751E-02
        -0.26479E-02
        -0.23750E-02
        -0.21560E-02
        -0.15082E-02
         0.93572E-03
         0.00000E+00
         0.18171E-02
         0.25928E-02
         0.32179E-02
         0.36559E-02
         0.38815E-02
         0.38815E-02
         0.36559E-02
         0.32179E-02
         0.25928E-02
         0.18171E-02
         0.93572E-03
        -0.47884E-18
        -0.93572E-03
        -0.18171E-02
        -0.25928E-02
        -0.32179E-02
        -0.36559E-02
        -0.38815E-02
        -0.38815E-02
        -0.36559E-02
        -0.32179E-02
        -0.25928E-02
        -0.18171E-02
        -0.93572E-03
         0.68512E-03
         0.12454E-02
         0.60302E-03
        -0.32115E-03
         0.15681E-03
        -0.66558E-03
         0.18453E-02
         0.14797E-02
         0.32459E-03
         0.12058E-02
         0.22776E-02
         0.28189E-02
         0.24270E-02
         0.21693E-02
         0.29308E-02
        -0.10064E-02
         0.96773E-04
        -0.68721E-03
        -0.70887E-03
         0.85467E-04
        -0.77490E-03
         0.46726E-04
        -0.15184E-02
        -0.13208E-02
         0.10183E-02
        -0.17316E-02
         0.20283E-02
         0.18586E-02
         0.17175E-02
         0.91467E-03
        -0.19806E-02
        -0.23494E-02
        -0.17073E-02
        -0.14948E-02
         0.78248E-03
         0.12571E-02
         0.18673E-02
         0.28802E-02
         0.27103E-02
         0.24593E-02
         0.22358E-02
         0.16502E-02
         0.88069E-03
        -0.21374E-02
        -0.26936E-02
        -0.31291E-02
        -0.30381E-02
        -0.28751E-02
        -0.26482E-02
        -0.23752E-02
        -0.21565E-02
        -0.15081E-02
         0.93572E-03
         0.00000E+00
         0.18171E-02
         0.25928E-02
         0.32179E-02
         0.36559E-02
         0.38815E-02
         0.38815E-02
         0.36559E-02
         0.32179E-02
         0.25928E-02
         0.18171E-02
         0.93572E-03
        -0.47884E-18
        -0.93572E-03
        -0.18171E-02
        -0.25928E-02
        -0.32179E-02
        -0.36559E-02
        -0.38815E-02
        -0.38815E-02
        -0.36559E-02
        -0.32179E-02
        -0.25928E-02
        -0.18171E-02
        -0.93572E-03
         0.68567E-03
         0.12460E-02
         0.60355E-03
        -0.32040E-03
         0.15718E-03
        -0.66509E-03
         0.18455E-02
         0.14807E-02
         0.32574E-03
         0.12075E-02
         0.22777E-02
         0.28185E-02
         0.24271E-02
         0.21693E-02
         0.29306E-02
        -0.10065E-02
         0.97583E-04
        -0.68648E-03
        -0.70873E-03
         0.85591E-04
        -0.77474E-03
         0.47000E-04
        -0.15183E-02
        -0.13207E-02
         0.10197E-02
        -0.17316E-02
         0.20285E-02
         0.18585E-02
         0.17175E-02
         0.91491E-03
        -0.19806E-02
        -0.23495E-02
        -0.17073E-02
        -0.14950E-02
         0.78348E-03
         0.12576E-02
         0.18674E-02
         0.28792E-02
         0.27099E-02
         0.24591E-02
         0.22358E-02
         0.16502E-02
         0.88095E-03
        -0.21374E-02
        -0.26936E-02
        -0.31290E-02
        -0.30381E-02
        -0.28751E-02
        -0.26484E-02
        -0.23754E-02
        -0.21571E-02
        -0.15080E-02
         0.93572E-03
         0.00000E+00
         0.18171E-02
         0.25928E-02
         0.32179E-02
         0.36559E-02
         0.38815E-02
         0.38815E-02
         0.36559E-02
         0.32179E-02
         0.25928E-02
         0.18171E-02
         0.93572E-03
         0.47884E-18
        -0.93572E-03
        -0.18171E-02
        -0.25928E-02
        -0.32179E-02
        -0.36559E-02
        -0.38815E-02
        -0.38815E-02
        -0.36559E-02
        -0.32179E-02
        -0.25928E-02
        -0.18171E-02
        -0.93572E-03
  
SCALARS           initial_coordinate_z  double 1
LOOKUP_TABLE default
        -0.10771E-01
        -0.10771E-01
        -0.10771E-01
        -0.10771E-01
        -0.11750E-01
        -0.11750E-01
        -0.11750E-01
        -0.11750E-01
        -0.10771E-01
        -0.10771E-01
        -0.11750E-01
        -0.11750E-01
        -0.10771E-01
        -0.10771E-01
        -0.11750E-01
        -0.11750E-01
        -0.10771E-01
        -0.10771E-01
        -0.11750E-01
        -0.11750E-01
        -0.10771E-01
        -0.10771E-01
        -0.10771E-01
        -0.11750E-01
        -0.11750E-01
        -0.11750E-01
        -0.10771E-01
        -0.10771E-01
        -0.11750E-01
        -0.11750E-01
        -0.10771E-01
        -0.10771E-01
        -0.10771E-01
        -0.11750E-01
        -0.11750E-01
        -0.11750E-01
        -0.10771E-01
        -0.10771E-01
        -0.11750E-01
        -0.11750E-01
        -0.10771E-01
        -0.10771E-01
        -0.11750E-01
        -0.11750E-01
        -0.10771E-01
        -0.10771E-01
        -0.11750E-01
        -0.11750E-01
        -0.10771E-01
        -0.11750E-01
        -0.10771E-01
        -0.11750E-01
        -0.10771E-01
        -0.11750E-01
        -0.10771E-01
        -0.11750E-01
        -0.10771E-01
        -0.10771E-01
        -0.11750E-01
        -0.11750E-01
        -0.10771E-01
        -0.10771E-01
        -0.11750E-01
        -0.11750E-01
        -0.10771E-01
        -0.11750E-01
        -0.10771E-01
        -0.11750E-01
        -0.10771E-01
        -0.10771E-01
        -0.11750E-01
        -0.11750E-01
        -0.10771E-01
        -0.11750E-01
        -0.10771E-01
        -0.11750E-01
        -0.10771E-01
        -0.11750E-01
        -0.10771E-01
        -0.11750E-01
        -0.10771E-01
        -0.10771E-01
        -0.11750E-01
        -0.11750E-01
        -0.10771E-01
        -0.11750E-01
        -0.10771E-01
        -0.11750E-01
        -0.10771E-01
        -0.11750E-01
        -0.10771E-01
        -0.10771E-01
        -0.11750E-01
        -0.11750E-01
        -0.10771E-01
        -0.11750E-01
        -0.10771E-01
        -0.11750E-01
        -0.10771E-01
        -0.11750E-01
        -0.10771E-01
        -0.10771E-01
        -0.11750E-01
        -0.11750E-01
        -0.10771E-01
        -0.10771E-01
        -0.11750E-01
        -0.11750E-01
        -0.10771E-01
        -0.11750E-01
        -0.10771E-01
        -0.11750E-01
        -0.10771E-01
        -0.11750E-01
        -0.10771E-01
        -0.11750E-01
        -0.10771E-01
        -0.11750E-01
        -0.10771E-01
        -0.11750E-01
        -0.10771E-01
        -0.11750E-01
        -0.10771E-01
        -0.11750E-01
        -0.10771E-01
        -0.11750E-01
        -0.10771E-01
        -0.11750E-01
        -0.10771E-01
        -0.11750E-01
        -0.10771E-01
        -0.11750E-01
        -0.10771E-01
        -0.11750E-01
        -0.10771E-01
        -0.11750E-01
        -0.10771E-01
        -0.11750E-01
        -0.10771E-01
        -0.11750E-01
        -0.10771E-01
        -0.11750E-01
        -0.10771E-01
        -0.11750E-01
        -0.10771E-01
        -0.11750E-01
        -0.10771E-01
        -0.11750E-01
        -0.10771E-01
        -0.11750E-01
        -0.10771E-01
        -0.11750E-01
        -0.10771E-01
        -0.11750E-01
        -0.10771E-01
        -0.11750E-01
        -0.97917E-02
        -0.97917E-02
        -0.97917E-02
        -0.97917E-02
        -0.97917E-02
        -0.97917E-02
        -0.97917E-02
        -0.97917E-02
        -0.97917E-02
        -0.97917E-02
        -0.97917E-02
        -0.97917E-02
        -0.97917E-02
        -0.97917E-02
        -0.97917E-02
        -0.97917E-02
        -0.97917E-02
        -0.97917E-02
        -0.97917E-02
        -0.97917E-02
        -0.97917E-02
        -0.97917E-02
        -0.97917E-02
        -0.97917E-02
        -0.97917E-02
        -0.97917E-02
        -0.97917E-02
        -0.97917E-02
        -0.97917E-02
        -0.97917E-02
        -0.97917E-02
        -0.97917E-02
        -0.97917E-02
        -0.97917E-02
        -0.97917E-02
        -0.97917E-02
        -0.97917E-02
        -0.97917E-02
        -0.97917E-02
        -0.97917E-02
        -0.97917E-02
        -0.97917E-02
        -0.97917E-02
        -0.97917E-02
        -0.97917E-02
        -0.97917E-02
        -0.97917E-02
        -0.97917E-02
        -0.97917E-02
        -0.97917E-02
        -0.97917E-02
        -0.97917E-02
        -0.97917E-02
        -0.97917E-02
        -0.97917E-02
        -0.97917E-02
        -0.97917E-02
        -0.97917E-02
        -0.97917E-02
        -0.97917E-02
        -0.97917E-02
        -0.97917E-02
        -0.97917E-02
        -0.97917E-02
        -0.97917E-02
        -0.97917E-02
        -0.97917E-02
        -0.97917E-02
        -0.97917E-02
        -0.97917E-02
        -0.97917E-02
        -0.97917E-02
        -0.97917E-02
        -0.97917E-02
        -0.97917E-02
        -0.97917E-02
        -0.97917E-02
        -0.97917E-02
        -0.88125E-02
        -0.88125E-02
        -0.88125E-02
        -0.88125E-02
        -0.88125E-02
        -0.88125E-02
        -0.88125E-02
        -0.88125E-02
        -0.88125E-02
        -0.88125E-02
        -0.88125E-02
        -0.88125E-02
        -0.88125E-02
        -0.88125E-02
        -0.88125E-02
        -0.88125E-02
        -0.88125E-02
        -0.88125E-02
        -0.88125E-02
        -0.88125E-02
        -0.88125E-02
        -0.88125E-02
        -0.88125E-02
        -0.88125E-02
        -0.88125E-02
        -0.88125E-02
        -0.88125E-02
        -0.88125E-02
        -0.88125E-02
        -0.88125E-02
        -0.88125E-02
        -0.88125E-02
        -0.88125E-02
        -0.88125E-02
        -0.88125E-02
        -0.88125E-02
        -0.88125E-02
        -0.88125E-02
        -0.88125E-02
        -0.88125E-02
        -0.88125E-02
        -0.88125E-02
        -0.88125E-02
        -0.88125E-02
        -0.88125E-02
        -0.88125E-02
        -0.88125E-02
        -0.88125E-02
        -0.88125E-02
        -0.88125E-02
        -0.88125E-02
        -0.88125E-02
        -0.88125E-02
        -0.88125E-02
        -0.88125E-02
        -0.88125E-02
        -0.88125E-02
        -0.88125E-02
        -0.88125E-02
        -0.88125E-02
        -0.88125E-02
        -0.88125E-02
        -0.88125E-02
        -0.88125E-02
        -0.88125E-02
        -0.88125E-02
        -0.88125E-02
        -0.88125E-02
        -0.88125E-02
        -0.88125E-02
        -0.88125E-02
        -0.88125E-02
        -0.88125E-02
        -0.88125E-02
        -0.88125E-02
        -0.88125E-02
        -0.88125E-02
        -0.88125E-02
        -0.78333E-02
        -0.78333E-02
        -0.78333E-02
        -0.78333E-02
        -0.78333E-02
        -0.78333E-02
        -0.78333E-02
        -0.78333E-02
        -0.78333E-02
        -0.78333E-02
        -0.78333E-02
        -0.78333E-02
        -0.78333E-02
        -0.78333E-02
        -0.78333E-02
        -0.78333E-02
        -0.78333E-02
        -0.78333E-02
        -0.78333E-02
        -0.78333E-02
        -0.78333E-02
        -0.78333E-02
        -0.78333E-02
        -0.78333E-02
        -0.78333E-02
        -0.78333E-02
        -0.78333E-02
        -0.78333E-02
        -0.78333E-02
        -0.78333E-02
        -0.78333E-02
        -0.78333E-02
        -0.78333E-02
        -0.78333E-02
        -0.78333E-02
        -0.78333E-02
        -0.78333E-02
        -0.78333E-02
        -0.78333E-02
        -0.78333E-02
        -0.78333E-02
        -0.78333E-02
        -0.78333E-02
        -0.78333E-02
        -0.78333E-02
        -0.78333E-02
        -0.78333E-02
        -0.78333E-02
        -0.78333E-02
        -0.78333E-02
        -0.78333E-02
        -0.78333E-02
        -0.78333E-02
        -0.78333E-02
        -0.78333E-02
        -0.78333E-02
        -0.78333E-02
        -0.78333E-02
        -0.78333E-02
        -0.78333E-02
        -0.78333E-02
        -0.78333E-02
        -0.78333E-02
        -0.78333E-02
        -0.78333E-02
        -0.78333E-02
        -0.78333E-02
        -0.78333E-02
        -0.78333E-02
        -0.78333E-02
        -0.78333E-02
        -0.78333E-02
        -0.78333E-02
        -0.78333E-02
        -0.78333E-02
        -0.78333E-02
        -0.78333E-02
        -0.78333E-02
        -0.68542E-02
        -0.68542E-02
        -0.68542E-02
        -0.68542E-02
        -0.68542E-02
        -0.68542E-02
        -0.68542E-02
        -0.68542E-02
        -0.68542E-02
        -0.68542E-02
        -0.68542E-02
        -0.68542E-02
        -0.68542E-02
        -0.68542E-02
        -0.68542E-02
        -0.68542E-02
        -0.68542E-02
        -0.68542E-02
        -0.68542E-02
        -0.68542E-02
        -0.68542E-02
        -0.68542E-02
        -0.68542E-02
        -0.68542E-02
        -0.68542E-02
        -0.68542E-02
        -0.68542E-02
        -0.68542E-02
        -0.68542E-02
        -0.68542E-02
        -0.68542E-02
        -0.68542E-02
        -0.68542E-02
        -0.68542E-02
        -0.68542E-02
        -0.68542E-02
        -0.68542E-02
        -0.68542E-02
        -0.68542E-02
        -0.68542E-02
        -0.68542E-02
        -0.68542E-02
        -0.68542E-02
        -0.68542E-02
        -0.68542E-02
        -0.68542E-02
        -0.68542E-02
        -0.68542E-02
        -0.68542E-02
        -0.68542E-02
        -0.68542E-02
        -0.68542E-02
        -0.68542E-02
        -0.68542E-02
        -0.68542E-02
        -0.68542E-02
        -0.68542E-02
        -0.68542E-02
        -0.68542E-02
        -0.68542E-02
        -0.68542E-02
        -0.68542E-02
        -0.68542E-02
        -0.68542E-02
        -0.68542E-02
        -0.68542E-02
        -0.68542E-02
        -0.68542E-02
        -0.68542E-02
        -0.68542E-02
        -0.68542E-02
        -0.68542E-02
        -0.68542E-02
        -0.68542E-02
        -0.68542E-02
        -0.68542E-02
        -0.68542E-02
        -0.68542E-02
        -0.58750E-02
        -0.58750E-02
        -0.58750E-02
        -0.58750E-02
        -0.58750E-02
        -0.58750E-02
        -0.58750E-02
        -0.58750E-02
        -0.58750E-02
        -0.58750E-02
        -0.58750E-02
        -0.58750E-02
        -0.58750E-02
        -0.58750E-02
        -0.58750E-02
        -0.58750E-02
        -0.58750E-02
        -0.58750E-02
        -0.58750E-02
        -0.58750E-02
        -0.58750E-02
        -0.58750E-02
        -0.58750E-02
        -0.58750E-02
        -0.58750E-02
        -0.58750E-02
        -0.58750E-02
        -0.58750E-02
        -0.58750E-02
        -0.58750E-02
        -0.58750E-02
        -0.58750E-02
        -0.58750E-02
        -0.58750E-02
        -0.58750E-02
        -0.58750E-02
        -0.58750E-02
        -0.58750E-02
        -0.58750E-02
        -0.58750E-02
        -0.58750E-02
        -0.58750E-02
        -0.58750E-02
        -0.58750E-02
        -0.58750E-02
        -0.58750E-02
        -0.58750E-02
        -0.58750E-02
        -0.58750E-02
        -0.58750E-02
        -0.58750E-02
        -0.58750E-02
        -0.58750E-02
        -0.58750E-02
        -0.58750E-02
        -0.58750E-02
        -0.58750E-02
        -0.58750E-02
        -0.58750E-02
        -0.58750E-02
        -0.58750E-02
        -0.58750E-02
        -0.58750E-02
        -0.58750E-02
        -0.58750E-02
        -0.58750E-02
        -0.58750E-02
        -0.58750E-02
        -0.58750E-02
        -0.58750E-02
        -0.58750E-02
        -0.58750E-02
        -0.58750E-02
        -0.58750E-02
        -0.58750E-02
        -0.58750E-02
        -0.58750E-02
        -0.58750E-02
        -0.48958E-02
        -0.48958E-02
        -0.48958E-02
        -0.48958E-02
        -0.48958E-02
        -0.48958E-02
        -0.48958E-02
        -0.48958E-02
        -0.48958E-02
        -0.48958E-02
        -0.48958E-02
        -0.48958E-02
        -0.48958E-02
        -0.48958E-02
        -0.48958E-02
        -0.48958E-02
        -0.48958E-02
        -0.48958E-02
        -0.48958E-02
        -0.48958E-02
        -0.48958E-02
        -0.48958E-02
        -0.48958E-02
        -0.48958E-02
        -0.48958E-02
        -0.48958E-02
        -0.48958E-02
        -0.48958E-02
        -0.48958E-02
        -0.48958E-02
        -0.48958E-02
        -0.48958E-02
        -0.48958E-02
        -0.48958E-02
        -0.48958E-02
        -0.48958E-02
        -0.48958E-02
        -0.48958E-02
        -0.48958E-02
        -0.48958E-02
        -0.48958E-02
        -0.48958E-02
        -0.48958E-02
        -0.48958E-02
        -0.48958E-02
        -0.48958E-02
        -0.48958E-02
        -0.48958E-02
        -0.48958E-02
        -0.48958E-02
        -0.48958E-02
        -0.48958E-02
        -0.48958E-02
        -0.48958E-02
        -0.48958E-02
        -0.48958E-02
        -0.48958E-02
        -0.48958E-02
        -0.48958E-02
        -0.48958E-02
        -0.48958E-02
        -0.48958E-02
        -0.48958E-02
        -0.48958E-02
        -0.48958E-02
        -0.48958E-02
        -0.48958E-02
        -0.48958E-02
        -0.48958E-02
        -0.48958E-02
        -0.48958E-02
        -0.48958E-02
        -0.48958E-02
        -0.48958E-02
        -0.48958E-02
        -0.48958E-02
        -0.48958E-02
        -0.48958E-02
        -0.39167E-02
        -0.39167E-02
        -0.39167E-02
        -0.39167E-02
        -0.39167E-02
        -0.39167E-02
        -0.39167E-02
        -0.39167E-02
        -0.39167E-02
        -0.39167E-02
        -0.39167E-02
        -0.39167E-02
        -0.39167E-02
        -0.39167E-02
        -0.39167E-02
        -0.39167E-02
        -0.39167E-02
        -0.39167E-02
        -0.39167E-02
        -0.39167E-02
        -0.39167E-02
        -0.39167E-02
        -0.39167E-02
        -0.39167E-02
        -0.39167E-02
        -0.39167E-02
        -0.39167E-02
        -0.39167E-02
        -0.39167E-02
        -0.39167E-02
        -0.39167E-02
        -0.39167E-02
        -0.39167E-02
        -0.39167E-02
        -0.39167E-02
        -0.39167E-02
        -0.39167E-02
        -0.39167E-02
        -0.39167E-02
        -0.39167E-02
        -0.39167E-02
        -0.39167E-02
        -0.39167E-02
        -0.39167E-02
        -0.39167E-02
        -0.39167E-02
        -0.39167E-02
        -0.39167E-02
        -0.39167E-02
        -0.39167E-02
        -0.39167E-02
        -0.39167E-02
        -0.39167E-02
        -0.39167E-02
        -0.39167E-02
        -0.39167E-02
        -0.39167E-02
        -0.39167E-02
        -0.39167E-02
        -0.39167E-02
        -0.39167E-02
        -0.39167E-02
        -0.39167E-02
        -0.39167E-02
        -0.39167E-02
        -0.39167E-02
        -0.39167E-02
        -0.39167E-02
        -0.39167E-02
        -0.39167E-02
        -0.39167E-02
        -0.39167E-02
        -0.39167E-02
        -0.39167E-02
        -0.39167E-02
        -0.39167E-02
        -0.39167E-02
        -0.39167E-02
        -0.29375E-02
        -0.29375E-02
        -0.29375E-02
        -0.29375E-02
        -0.29375E-02
        -0.29375E-02
        -0.29375E-02
        -0.29375E-02
        -0.29375E-02
        -0.29375E-02
        -0.29375E-02
        -0.29375E-02
        -0.29375E-02
        -0.29375E-02
        -0.29375E-02
        -0.29375E-02
        -0.29375E-02
        -0.29375E-02
        -0.29375E-02
        -0.29375E-02
        -0.29375E-02
        -0.29375E-02
        -0.29375E-02
        -0.29375E-02
        -0.29375E-02
        -0.29375E-02
        -0.29375E-02
        -0.29375E-02
        -0.29375E-02
        -0.29375E-02
        -0.29375E-02
        -0.29375E-02
        -0.29375E-02
        -0.29375E-02
        -0.29375E-02
        -0.29375E-02
        -0.29375E-02
        -0.29375E-02
        -0.29375E-02
        -0.29375E-02
        -0.29375E-02
        -0.29375E-02
        -0.29375E-02
        -0.29375E-02
        -0.29375E-02
        -0.29375E-02
        -0.29375E-02
        -0.29375E-02
        -0.29375E-02
        -0.29375E-02
        -0.29375E-02
        -0.29375E-02
        -0.29375E-02
        -0.29375E-02
        -0.29375E-02
        -0.29375E-02
        -0.29375E-02
        -0.29375E-02
        -0.29375E-02
        -0.29375E-02
        -0.29375E-02
        -0.29375E-02
        -0.29375E-02
        -0.29375E-02
        -0.29375E-02
        -0.29375E-02
        -0.29375E-02
        -0.29375E-02
        -0.29375E-02
        -0.29375E-02
        -0.29375E-02
        -0.29375E-02
        -0.29375E-02
        -0.29375E-02
        -0.29375E-02
        -0.29375E-02
        -0.29375E-02
        -0.29375E-02
        -0.19583E-02
        -0.19583E-02
        -0.19583E-02
        -0.19583E-02
        -0.19583E-02
        -0.19583E-02
        -0.19583E-02
        -0.19583E-02
        -0.19583E-02
        -0.19583E-02
        -0.19583E-02
        -0.19583E-02
        -0.19583E-02
        -0.19583E-02
        -0.19583E-02
        -0.19583E-02
        -0.19583E-02
        -0.19583E-02
        -0.19583E-02
        -0.19583E-02
        -0.19583E-02
        -0.19583E-02
        -0.19583E-02
        -0.19583E-02
        -0.19583E-02
        -0.19583E-02
        -0.19583E-02
        -0.19583E-02
        -0.19583E-02
        -0.19583E-02
        -0.19583E-02
        -0.19583E-02
        -0.19583E-02
        -0.19583E-02
        -0.19583E-02
        -0.19583E-02
        -0.19583E-02
        -0.19583E-02
        -0.19583E-02
        -0.19583E-02
        -0.19583E-02
        -0.19583E-02
        -0.19583E-02
        -0.19583E-02
        -0.19583E-02
        -0.19583E-02
        -0.19583E-02
        -0.19583E-02
        -0.19583E-02
        -0.19583E-02
        -0.19583E-02
        -0.19583E-02
        -0.19583E-02
        -0.19583E-02
        -0.19583E-02
        -0.19583E-02
        -0.19583E-02
        -0.19583E-02
        -0.19583E-02
        -0.19583E-02
        -0.19583E-02
        -0.19583E-02
        -0.19583E-02
        -0.19583E-02
        -0.19583E-02
        -0.19583E-02
        -0.19583E-02
        -0.19583E-02
        -0.19583E-02
        -0.19583E-02
        -0.19583E-02
        -0.19583E-02
        -0.19583E-02
        -0.19583E-02
        -0.19583E-02
        -0.19583E-02
        -0.19583E-02
        -0.19583E-02
        -0.97917E-03
        -0.97917E-03
        -0.97917E-03
        -0.97917E-03
        -0.97917E-03
        -0.97917E-03
        -0.97917E-03
        -0.97917E-03
        -0.97917E-03
        -0.97917E-03
        -0.97917E-03
        -0.97917E-03
        -0.97917E-03
        -0.97917E-03
        -0.97917E-03
        -0.97917E-03
        -0.97917E-03
        -0.97917E-03
        -0.97917E-03
        -0.97917E-03
        -0.97917E-03
        -0.97917E-03
        -0.97917E-03
        -0.97917E-03
        -0.97917E-03
        -0.97917E-03
        -0.97917E-03
        -0.97917E-03
        -0.97917E-03
        -0.97917E-03
        -0.97917E-03
        -0.97917E-03
        -0.97917E-03
        -0.97917E-03
        -0.97917E-03
        -0.97917E-03
        -0.97917E-03
        -0.97917E-03
        -0.97917E-03
        -0.97917E-03
        -0.97917E-03
        -0.97917E-03
        -0.97917E-03
        -0.97917E-03
        -0.97917E-03
        -0.97917E-03
        -0.97917E-03
        -0.97917E-03
        -0.97917E-03
        -0.97917E-03
        -0.97917E-03
        -0.97917E-03
        -0.97917E-03
        -0.97917E-03
        -0.97917E-03
        -0.97917E-03
        -0.97917E-03
        -0.97917E-03
        -0.97917E-03
        -0.97917E-03
        -0.97917E-03
        -0.97917E-03
        -0.97917E-03
        -0.97917E-03
        -0.97917E-03
        -0.97917E-03
        -0.97917E-03
        -0.97917E-03
        -0.97917E-03
        -0.97917E-03
        -0.97917E-03
        -0.97917E-03
        -0.97917E-03
        -0.97917E-03
        -0.97917E-03
        -0.97917E-03
        -0.97917E-03
        -0.97917E-03
         0.38917E-18
         0.44621E-18
         0.34485E-18
         0.23671E-18
         0.26613E-18
         0.16162E-18
         0.53980E-18
         0.50579E-18
         0.36337E-18
         0.48798E-18
         0.60712E-18
         0.67611E-18
         0.60634E-18
         0.60658E-18
         0.70997E-18
         0.20892E-18
         0.35894E-18
         0.21887E-18
         0.27638E-18
         0.38382E-18
         0.29058E-18
         0.40326E-18
         0.18564E-18
         0.19650E-18
         0.48570E-18
         0.12837E-18
         0.60589E-18
         0.60416E-18
         0.60524E-18
         0.49621E-18
         0.61582E-19
         0.32255E-19
         0.73874E-19
         0.78478E-19
         0.34514E-18
         0.42054E-18
         0.51644E-18
         0.72521E-18
         0.72233E-18
         0.70722E-18
         0.69126E-18
         0.61573E-18
         0.51484E-18
         0.91170E-19
         0.30347E-20
        -0.66516E-19
        -0.69988E-19
        -0.68643E-19
        -0.59779E-19
        -0.43507E-19
        -0.29471E-19
         0.53205E-19
         0.86819E-18
         0.00000E+00
         0.86819E-18
         0.86819E-18
         0.00000E+00
         0.00000E+00
         0.00000E+00
         0.17364E-17
         0.17364E-17
         0.17364E-17
         0.43410E-18
         0.43410E-18
         0.43410E-18
         0.00000E+00
         0.00000E+00
         0.00000E+00
         0.00000E+00
         0.00000E+00
         0.21705E-18
        -0.21705E-18
         0.00000E+00
         0.00000E+00
         0.00000E+00
        -0.32557E-18
         0.54262E-19
        -0.40697E-18
         0.97917E-03
         0.97917E-03
         0.97917E-03
         0.97917E-03
         0.97917E-03
         0.97917E-03
         0.97917E-03
         0.97917E-03
         0.97917E-03
         0.97917E-03
         0.97917E-03
         0.97917E-03
         0.97917E-03
         0.97917E-03
         0.97917E-03
         0.97917E-03
         0.97917E-03
         0.97917E-03
         0.97917E-03
         0.97917E-03
         0.97917E-03
         0.97917E-03
         0.97917E-03
         0.97917E-03
         0.97917E-03
         0.97917E-03
         0.97917E-03
         0.97917E-03
         0.97917E-03
         0.97917E-03
         0.97917E-03
         0.97917E-03
         0.97917E-03
         0.97917E-03
         0.97917E-03
         0.97917E-03
         0.97917E-03
         0.97917E-03
         0.97917E-03
         0.97917E-03
         0.97917E-03
         0.97917E-03
         0.97917E-03
         0.97917E-03
         0.97917E-03
         0.97917E-03
         0.97917E-03
         0.97917E-03
         0.97917E-03
         0.97917E-03
         0.97917E-03
         0.97917E-03
         0.97917E-03
         0.97917E-03
         0.97917E-03
         0.97917E-03
         0.97917E-03
         0.97917E-03
         0.97917E-03
         0.97917E-03
         0.97917E-03
         0.97917E-03
         0.97917E-03
         0.97917E-03
         0.97917E-03
         0.97917E-03
         0.97917E-03
         0.97917E-03
         0.97917E-03
         0.97917E-03
         0.97917E-03
         0.97917E-03
         0.97917E-03
         0.97917E-03
         0.97917E-03
         0.97917E-03
         0.97917E-03
         0.97917E-03
         0.19583E-02
         0.19583E-02
         0.19583E-02
         0.19583E-02
         0.19583E-02
         0.19583E-02
         0.19583E-02
         0.19583E-02
         0.19583E-02
         0.19583E-02
         0.19583E-02
         0.19583E-02
         0.19583E-02
         0.19583E-02
         0.19583E-02
         0.19583E-02
         0.19583E-02
         0.19583E-02
         0.19583E-02
         0.19583E-02
         0.19583E-02
         0.19583E-02
         0.19583E-02
         0.19583E-02
         0.19583E-02
         0.19583E-02
         0.19583E-02
         0.19583E-02
         0.19583E-02
         0.19583E-02
         0.19583E-02
         0.19583E-02
         0.19583E-02
         0.19583E-02
         0.19583E-02
         0.19583E-02
         0.19583E-02
         0.19583E-02
         0.19583E-02
         0.19583E-02
         0.19583E-02
         0.19583E-02
         0.19583E-02
         0.19583E-02
         0.19583E-02
         0.19583E-02
         0.19583E-02
         0.19583E-02
         0.19583E-02
         0.19583E-02
         0.19583E-02
         0.19583E-02
         0.19583E-02
         0.19583E-02
         0.19583E-02
         0.19583E-02
         0.19583E-02
         0.19583E-02
         0.19583E-02
         0.19583E-02
         0.19583E-02
         0.19583E-02
         0.19583E-02
         0.19583E-02
         0.19583E-02
         0.19583E-02
         0.19583E-02
         0.19583E-02
         0.19583E-02
         0.19583E-02
         0.19583E-02
         0.19583E-02
         0.19583E-02
         0.19583E-02
         0.19583E-02
         0.19583E-02
         0.19583E-02
         0.19583E-02
         0.29375E-02
         0.29375E-02
         0.29375E-02
         0.29375E-02
         0.29375E-02
         0.29375E-02
         0.29375E-02
         0.29375E-02
         0.29375E-02
         0.29375E-02
         0.29375E-02
         0.29375E-02
         0.29375E-02
         0.29375E-02
         0.29375E-02
         0.29375E-02
         0.29375E-02
         0.29375E-02
         0.29375E-02
         0.29375E-02
         0.29375E-02
         0.29375E-02
         0.29375E-02
         0.29375E-02
         0.29375E-02
         0.29375E-02
         0.29375E-02
         0.29375E-02
         0.29375E-02
         0.29375E-02
         0.29375E-02
         0.29375E-02
         0.29375E-02
         0.29375E-02
         0.29375E-02
         0.29375E-02
         0.29375E-02
         0.29375E-02
         0.29375E-02
         0.29375E-02
         0.29375E-02
         0.29375E-02
         0.29375E-02
         0.29375E-02
         0.29375E-02
         0.29375E-02
         0.29375E-02
         0.29375E-02
         0.29375E-02
         0.29375E-02
         0.29375E-02
         0.29375E-02
         0.29375E-02
         0.29375E-02
         0.29375E-02
         0.29375E-02
         0.29375E-02
         0.29375E-02
         0.29375E-02
         0.29375E-02
         0.29375E-02
         0.29375E-02
         0.29375E-02
         0.29375E-02
         0.29375E-02
         0.29375E-02
         0.29375E-02
         0.29375E-02
         0.29375E-02
         0.29375E-02
         0.29375E-02
         0.29375E-02
         0.29375E-02
         0.29375E-02
         0.29375E-02
         0.29375E-02
         0.29375E-02
         0.29375E-02
         0.39167E-02
         0.39167E-02
         0.39167E-02
         0.39167E-02
         0.39167E-02
         0.39167E-02
         0.39167E-02
         0.39167E-02
         0.39167E-02
         0.39167E-02
         0.39167E-02
         0.39167E-02
         0.39167E-02
         0.39167E-02
         0.39167E-02
         0.39167E-02
         0.39167E-02
         0.39167E-02
         0.39167E-02
         0.39167E-02
         0.39167E-02
         0.39167E-02
         0.39167E-02
         0.39167E-02
         0.39167E-02
         0.39167E-02
         0.39167E-02
         0.39167E-02
         0.39167E-02
         0.39167E-02
         0.39167E-02
         0.39167E-02
         0.39167E-02
         0.39167E-02
         0.39167E-02
         0.39167E-02
         0.39167E-02
         0.39167E-02
         0.39167E-02
         0.39167E-02
         0.39167E-02
         0.39167E-02
         0.39167E-02
         0.39167E-02
         0.39167E-02
         0.39167E-02
         0.39167E-02
         0.39167E-02
         0.39167E-02
         0.39167E-02
         0.39167E-02
         0.39167E-02
         0.39167E-02
         0.39167E-02
         0.39167E-02
         0.39167E-02
         0.39167E-02
         0.39167E-02
         0.39167E-02
         0.39167E-02
         0.39167E-02
         0.39167E-02
         0.39167E-02
         0.39167E-02
         0.39167E-02
         0.39167E-02
         0.39167E-02
         0.39167E-02
         0.39167E-02
         0.39167E-02
         0.39167E-02
         0.39167E-02
         0.39167E-02
         0.39167E-02
         0.39167E-02
         0.39167E-02
         0.39167E-02
         0.39167E-02
         0.48958E-02
         0.48958E-02
         0.48958E-02
         0.48958E-02
         0.48958E-02
         0.48958E-02
         0.48958E-02
         0.48958E-02
         0.48958E-02
         0.48958E-02
         0.48958E-02
         0.48958E-02
         0.48958E-02
         0.48958E-02
         0.48958E-02
         0.48958E-02
         0.48958E-02
         0.48958E-02
         0.48958E-02
         0.48958E-02
         0.48958E-02
         0.48958E-02
         0.48958E-02
         0.48958E-02
         0.48958E-02
         0.48958E-02
         0.48958E-02
         0.48958E-02
         0.48958E-02
         0.48958E-02
         0.48958E-02
         0.48958E-02
         0.48958E-02
         0.48958E-02
         0.48958E-02
         0.48958E-02
         0.48958E-02
         0.48958E-02
         0.48958E-02
         0.48958E-02
         0.48958E-02
         0.48958E-02
         0.48958E-02
         0.48958E-02
         0.48958E-02
         0.48958E-02
         0.48958E-02
         0.48958E-02
         0.48958E-02
         0.48958E-02
         0.48958E-02
         0.48958E-02
         0.48958E-02
         0.48958E-02
         0.48958E-02
         0.48958E-02
         0.48958E-02
         0.48958E-02
         0.48958E-02
         0.48958E-02
         0.48958E-02
         0.48958E-02
         0.48958E-02
         0.48958E-02
         0.48958E-02
         0.48958E-02
         0.48958E-02
         0.48958E-02
         0.48958E-02
         0.48958E-02
         0.48958E-02
         0.48958E-02
         0.48958E-02
         0.48958E-02
         0.48958E-02
         0.48958E-02
         0.48958E-02
         0.48958E-02
         0.58750E-02
         0.58750E-02
         0.58750E-02
         0.58750E-02
         0.58750E-02
         0.58750E-02
         0.58750E-02
         0.58750E-02
         0.58750E-02
         0.58750E-02
         0.58750E-02
         0.58750E-02
         0.58750E-02
         0.58750E-02
         0.58750E-02
         0.58750E-02
         0.58750E-02
         0.58750E-02
         0.58750E-02
         0.58750E-02
         0.58750E-02
         0.58750E-02
         0.58750E-02
         0.58750E-02
         0.58750E-02
         0.58750E-02
         0.58750E-02
         0.58750E-02
         0.58750E-02
         0.58750E-02
         0.58750E-02
         0.58750E-02
         0.58750E-02
         0.58750E-02
         0.58750E-02
         0.58750E-02
         0.58750E-02
         0.58750E-02
         0.58750E-02
         0.58750E-02
         0.58750E-02
         0.58750E-02
         0.58750E-02
         0.58750E-02
         0.58750E-02
         0.58750E-02
         0.58750E-02
         0.58750E-02
         0.58750E-02
         0.58750E-02
         0.58750E-02
         0.58750E-02
         0.58750E-02
         0.58750E-02
         0.58750E-02
         0.58750E-02
         0.58750E-02
         0.58750E-02
         0.58750E-02
         0.58750E-02
         0.58750E-02
         0.58750E-02
         0.58750E-02
         0.58750E-02
         0.58750E-02
         0.58750E-02
         0.58750E-02
         0.58750E-02
         0.58750E-02
         0.58750E-02
         0.58750E-02
         0.58750E-02
         0.58750E-02
         0.58750E-02
         0.58750E-02
         0.58750E-02
         0.58750E-02
         0.58750E-02
         0.68542E-02
         0.68542E-02
         0.68542E-02
         0.68542E-02
         0.68542E-02
         0.68542E-02
         0.68542E-02
         0.68542E-02
         0.68542E-02
         0.68542E-02
         0.68542E-02
         0.68542E-02
         0.68542E-02
         0.68542E-02
         0.68542E-02
         0.68542E-02
         0.68542E-02
         0.68542E-02
         0.68542E-02
         0.68542E-02
         0.68542E-02
         0.68542E-02
         0.68542E-02
         0.68542E-02
         0.68542E-02
         0.68542E-02
         0.68542E-02
         0.68542E-02
         0.68542E-02
         0.68542E-02
         0.68542E-02
         0.68542E-02
         0.68542E-02
         0.68542E-02
         0.68542E-02
         0.68542E-02
         0.68542E-02
         0.68542E-02
         0.68542E-02
         0.68542E-02
         0.68542E-02
         0.68542E-02
         0.68542E-02
         0.68542E-02
         0.68542E-02
         0.68542E-02
         0.68542E-02
         0.68542E-02
         0.68542E-02
         0.68542E-02
         0.68542E-02
         0.68542E-02
         0.68542E-02
         0.68542E-02
         0.68542E-02
         0.68542E-02
         0.68542E-02
         0.68542E-02
         0.68542E-02
         0.68542E-02
         0.68542E-02
         0.68542E-02
         0.68542E-02
         0.68542E-02
         0.68542E-02
         0.68542E-02
         0.68542E-02
         0.68542E-02
         0.68542E-02
         0.68542E-02
         0.68542E-02
         0.68542E-02
         0.68542E-02
         0.68542E-02
         0.68542E-02
         0.68542E-02
         0.68542E-02
         0.68542E-02
         0.78333E-02
         0.78333E-02
         0.78333E-02
         0.78333E-02
         0.78333E-02
         0.78333E-02
         0.78333E-02
         0.78333E-02
         0.78333E-02
         0.78333E-02
         0.78333E-02
         0.78333E-02
         0.78333E-02
         0.78333E-02
         0.78333E-02
         0.78333E-02
         0.78333E-02
         0.78333E-02
         0.78333E-02
         0.78333E-02
         0.78333E-02
         0.78333E-02
         0.78333E-02
         0.78333E-02
         0.78333E-02
         0.78333E-02
         0.78333E-02
         0.78333E-02
         0.78333E-02
         0.78333E-02
         0.78333E-02
         0.78333E-02
         0.78333E-02
         0.78333E-02
         0.78333E-02
         0.78333E-02
         0.78333E-02
         0.78333E-02
         0.78333E-02
         0.78333E-02
         0.78333E-02
         0.78333E-02
         0.78333E-02
         0.78333E-02
         0.78333E-02
         0.78333E-02
         0.78333E-02
         0.78333E-02
         0.78333E-02
         0.78333E-02
         0.78333E-02
         0.78333E-02
         0.78333E-02
         0.78333E-02
         0.78333E-02
         0.78333E-02
         0.78333E-02
         0.78333E-02
         0.78333E-02
         0.78333E-02
         0.78333E-02
         0.78333E-02
         0.78333E-02
         0.78333E-02
         0.78333E-02
         0.78333E-02
         0.78333E-02
         0.78333E-02
         0.78333E-02
         0.78333E-02
         0.78333E-02
         0.78333E-02
         0.78333E-02
         0.78333E-02
         0.78333E-02
         0.78333E-02
         0.78333E-02
         0.78333E-02
         0.88125E-02
         0.88125E-02
         0.88125E-02
         0.88125E-02
         0.88125E-02
         0.88125E-02
         0.88125E-02
         0.88125E-02
         0.88125E-02
         0.88125E-02
         0.88125E-02
         0.88125E-02
         0.88125E-02
         0.88125E-02
         0.88125E-02
         0.88125E-02
         0.88125E-02
         0.88125E-02
         0.88125E-02
         0.88125E-02
         0.88125E-02
         0.88125E-02
         0.88125E-02
         0.88125E-02
         0.88125E-02
         0.88125E-02
         0.88125E-02
         0.88125E-02
         0.88125E-02
         0.88125E-02
         0.88125E-02
         0.88125E-02
         0.88125E-02
         0.88125E-02
         0.88125E-02
         0.88125E-02
         0.88125E-02
         0.88125E-02
         0.88125E-02
         0.88125E-02
         0.88125E-02
         0.88125E-02
         0.88125E-02
         0.88125E-02
         0.88125E-02
         0.88125E-02
         0.88125E-02
         0.88125E-02
         0.88125E-02
         0.88125E-02
         0.88125E-02
         0.88125E-02
         0.88125E-02
         0.88125E-02
         0.88125E-02
         0.88125E-02
         0.88125E-02
         0.88125E-02
         0.88125E-02
         0.88125E-02
         0.88125E-02
         0.88125E-02
         0.88125E-02
         0.88125E-02
         0.88125E-02
         0.88125E-02
         0.88125E-02
         0.88125E-02
         0.88125E-02
         0.88125E-02
         0.88125E-02
         0.88125E-02
         0.88125E-02
         0.88125E-02
         0.88125E-02
         0.88125E-02
         0.88125E-02
         0.88125E-02
         0.97917E-02
         0.97917E-02
         0.97917E-02
         0.97917E-02
         0.97917E-02
         0.97917E-02
         0.97917E-02
         0.97917E-02
         0.97917E-02
         0.97917E-02
         0.97917E-02
         0.97917E-02
         0.97917E-02
         0.97917E-02
         0.97917E-02
         0.97917E-02
         0.97917E-02
         0.97917E-02
         0.97917E-02
         0.97917E-02
         0.97917E-02
         0.97917E-02
         0.97917E-02
         0.97917E-02
         0.97917E-02
         0.97917E-02
         0.97917E-02
         0.97917E-02
         0.97917E-02
         0.97917E-02
         0.97917E-02
         0.97917E-02
         0.97917E-02
         0.97917E-02
         0.97917E-02
         0.97917E-02
         0.97917E-02
         0.97917E-02
         0.97917E-02
         0.97917E-02
         0.97917E-02
         0.97917E-02
         0.97917E-02
         0.97917E-02
         0.97917E-02
         0.97917E-02
         0.97917E-02
         0.97917E-02
         0.97917E-02
         0.97917E-02
         0.97917E-02
         0.97917E-02
         0.97917E-02
         0.97917E-02
         0.97917E-02
         0.97917E-02
         0.97917E-02
         0.97917E-02
         0.97917E-02
         0.97917E-02
         0.97917E-02
         0.97917E-02
         0.97917E-02
         0.97917E-02
         0.97917E-02
         0.97917E-02
         0.97917E-02
         0.97917E-02
         0.97917E-02
         0.97917E-02
         0.97917E-02
         0.97917E-02
         0.97917E-02
         0.97917E-02
         0.97917E-02
         0.97917E-02
         0.97917E-02
         0.97917E-02
         0.10771E-01
         0.10771E-01
         0.10771E-01
         0.10771E-01
         0.10771E-01
         0.10771E-01
         0.10771E-01
         0.10771E-01
         0.10771E-01
         0.10771E-01
         0.10771E-01
         0.10771E-01
         0.10771E-01
         0.10771E-01
         0.10771E-01
         0.10771E-01
         0.10771E-01
         0.10771E-01
         0.10771E-01
         0.10771E-01
         0.10771E-01
         0.10771E-01
         0.10771E-01
         0.10771E-01
         0.10771E-01
         0.10771E-01
         0.10771E-01
         0.10771E-01
         0.10771E-01
         0.10771E-01
         0.10771E-01
         0.10771E-01
         0.10771E-01
         0.10771E-01
         0.10771E-01
         0.10771E-01
         0.10771E-01
         0.10771E-01
         0.10771E-01
         0.10771E-01
         0.10771E-01
         0.10771E-01
         0.10771E-01
         0.10771E-01
         0.10771E-01
         0.10771E-01
         0.10771E-01
         0.10771E-01
         0.10771E-01
         0.10771E-01
         0.10771E-01
         0.10771E-01
         0.10771E-01
         0.10771E-01
         0.10771E-01
         0.10771E-01
         0.10771E-01
         0.10771E-01
         0.10771E-01
         0.10771E-01
         0.10771E-01
         0.10771E-01
         0.10771E-01
         0.10771E-01
         0.10771E-01
         0.10771E-01
         0.10771E-01
         0.10771E-01
         0.10771E-01
         0.10771E-01
         0.10771E-01
         0.10771E-01
         0.10771E-01
         0.10771E-01
         0.10771E-01
         0.10771E-01
         0.10771E-01
         0.10771E-01
         0.11750E-01
         0.11750E-01
         0.11750E-01
         0.11750E-01
         0.11750E-01
         0.11750E-01
         0.11750E-01
         0.11750E-01
         0.11750E-01
         0.11750E-01
         0.11750E-01
         0.11750E-01
         0.11750E-01
         0.11750E-01
         0.11750E-01
         0.11750E-01
         0.11750E-01
         0.11750E-01
         0.11750E-01
         0.11750E-01
         0.11750E-01
         0.11750E-01
         0.11750E-01
         0.11750E-01
         0.11750E-01
         0.11750E-01
         0.11750E-01
         0.11750E-01
         0.11750E-01
         0.11750E-01
         0.11750E-01
         0.11750E-01
         0.11750E-01
         0.11750E-01
         0.11750E-01
         0.11750E-01
         0.11750E-01
         0.11750E-01
         0.11750E-01
         0.11750E-01
         0.11750E-01
         0.11750E-01
         0.11750E-01
         0.11750E-01
         0.11750E-01
         0.11750E-01
         0.11750E-01
         0.11750E-01
         0.11750E-01
         0.11750E-01
         0.11750E-01
         0.11750E-01
         0.11750E-01
         0.11750E-01
         0.11750E-01
         0.11750E-01
         0.11750E-01
         0.11750E-01
         0.11750E-01
         0.11750E-01
         0.11750E-01
         0.11750E-01
         0.11750E-01
         0.11750E-01
         0.11750E-01
         0.11750E-01
         0.11750E-01
         0.11750E-01
         0.11750E-01
         0.11750E-01
         0.11750E-01
         0.11750E-01
         0.11750E-01
         0.11750E-01
         0.11750E-01
         0.11750E-01
         0.11750E-01
         0.11750E-01
  
SCALARS                init_velocity_x  double 1
LOOKUP_TABLE default
         0.00000E+00
         0.00000E+00
         0.00000E+00
         0.00000E+00
         0.00000E+00
         0.00000E+00
         0.00000E+00
         0.00000E+00
         0.00000E+00
         0.00000E+00
         0.00000E+00
         0.00000E+00
         0.00000E+00
         0.00000E+00
         0.00000E+00
         0.00000E+00
         0.00000E+00
         0.00000E+00
         0.00000E+00
         0.00000E+00
         0.00000E+00
         0.00000E+00
         0.00000E+00
         0.00000E+00
         0.00000E+00
         0.00000E+00
         0.00000E+00
         0.00000E+00
         0.00000E+00
         0.00000E+00
         0.00000E+00
         0.00000E+00
         0.00000E+00
         0.00000E+00
         0.00000E+00
         0.00000E+00
         0.00000E+00
         0.00000E+00
         0.00000E+00
         0.00000E+00
         0.00000E+00
         0.00000E+00
         0.00000E+00
         0.00000E+00
         0.00000E+00
         0.00000E+00
         0.00000E+00
         0.00000E+00
         0.00000E+00
         0.00000E+00
         0.00000E+00
         0.00000E+00
         0.00000E+00
         0.00000E+00
         0.00000E+00
         0.00000E+00
         0.00000E+00
         0.00000E+00
         0.00000E+00
         0.00000E+00
         0.00000E+00
         0.00000E+00
         0.00000E+00
         0.00000E+00
         0.00000E+00
         0.00000E+00
         0.00000E+00
         0.00000E+00
         0.00000E+00
         0.00000E+00
         0.00000E+00
         0.00000E+00
         0.00000E+00
         0.00000E+00
         0.00000E+00
         0.00000E+00
         0.00000E+00
         0.00000E+00
         0.00000E+00
         0.00000E+00
         0.00000E+00
         0.00000E+00
         0.00000E+00
         0.00000E+00
         0.00000E+00
         0.00000E+00
         0.00000E+00
         0.00000E+00
         0.00000E+00
         0.00000E+00
         0.00000E+00
         0.00000E+00
         0.00000E+00
         0.00000E+00
         0.00000E+00
         0.00000E+00
         0.00000E+00
         0.00000E+00
         0.00000E+00
         0.00000E+00
         0.00000E+00
         0.00000E+00
         0.00000E+00
         0.00000E+00
         0.00000E+00
         0.00000E+00
         0.00000E+00
         0.00000E+00
         0.00000E+00
         0.00000E+00
         0.00000E+00
         0.00000E+00
         0.00000E+00
         0.00000E+00
         0.00000E+00
         0.00000E+00
         0.00000E+00
         0.00000E+00
         0.00000E+00
         0.00000E+00
         0.00000E+00
         0.00000E+00
         0.00000E+00
         0.00000E+00
         0.00000E+00
         0.00000E+00
         0.00000E+00
         0.00000E+00
         0.00000E+00
         0.00000E+00
         0.00000E+00
         0.00000E+00
         0.00000E+00
         0.00000E+00
         0.00000E+00
         0.00000E+00
         0.00000E+00
         0.00000E+00
         0.00000E+00
         0.00000E+00
         0.00000E+00
         0.00000E+00
         0.00000E+00
         0.00000E+00
         0.00000E+00
         0.00000E+00
         0.00000E+00
         0.00000E+00
         0.00000E+00
         0.00000E+00
         0.00000E+00
         0.00000E+00
         0.00000E+00
         0.00000E+00
         0.00000E+00
         0.00000E+00
         0.00000E+00
         0.00000E+00
         0.00000E+00
         0.00000E+00
         0.00000E+00
         0.00000E+00
         0.00000E+00
         0.00000E+00
         0.00000E+00
         0.00000E+00
         0.00000E+00
         0.00000E+00
         0.00000E+00
         0.00000E+00
         0.00000E+00
         0.00000E+00
         0.00000E+00
         0.00000E+00
         0.00000E+00
         0.00000E+00
         0.00000E+00
         0.00000E+00
         0.00000E+00
         0.00000E+00
         0.00000E+00
         0.00000E+00
         0.00000E+00
         0.00000E+00
         0.00000E+00
         0.00000E+00
         0.00000E+00
         0.00000E+00
         0.00000E+00
         0.00000E+00
         0.00000E+00
         0.00000E+00
         0.00000E+00
         0.00000E+00
         0.00000E+00
         0.00000E+00
         0.00000E+00
         0.00000E+00
         0.00000E+00
         0.00000E+00
         0.00000E+00
         0.00000E+00
         0.00000E+00
         0.00000E+00
         0.00000E+00
         0.00000E+00
         0.00000E+00
         0.00000E+00
         0.00000E+00
         0.00000E+00
         0.00000E+00
         0.00000E+00
         0.00000E+00
         0.00000E+00
         0.00000E+00
         0.00000E+00
         0.00000E+00
         0.00000E+00
         0.00000E+00
         0.00000E+00
         0.00000E+00
         0.00000E+00
         0.00000E+00
         0.00000E+00
         0.00000E+00
         0.00000E+00
         0.00000E+00
         0.00000E+00
         0.00000E+00
         0.00000E+00
         0.00000E+00
         0.00000E+00
         0.00000E+00
         0.00000E+00
         0.00000E+00
         0.00000E+00
         0.00000E+00
         0.00000E+00
         0.00000E+00
         0.00000E+00
         0.00000E+00
         0.00000E+00
         0.00000E+00
         0.00000E+00
         0.00000E+00
         0.00000E+00
         0.00000E+00
         0.00000E+00
         0.00000E+00
         0.00000E+00
         0.00000E+00
         0.00000E+00
         0.00000E+00
         0.00000E+00
         0.00000E+00
         0.00000E+00
         0.00000E+00
         0.00000E+00
         0.00000E+00
         0.00000E+00
         0.00000E+00
         0.00000E+00
         0.00000E+00
         0.00000E+00
         0.00000E+00
         0.00000E+00
         0.00000E+00
         0.00000E+00
         0.00000E+00
         0.00000E+00
         0.00000E+00
         0.00000E+00
         0.00000E+00
         0.00000E+00
         0.00000E+00
         0.00000E+00
         0.00000E+00
         0.00000E+00
         0.00000E+00
         0.00000E+00
         0.00000E+00
         0.00000E+00
         0.00000E+00
         0.00000E+00
         0.00000E+00
         0.00000E+00
         0.00000E+00
         0.00000E+00
         0.00000E+00
         0.00000E+00
         0.00000E+00
         0.00000E+00
         0.00000E+00
         0.00000E+00
         0.00000E+00
         0.00000E+00
         0.00000E+00
         0.00000E+00
         0.00000E+00
         0.00000E+00
         0.00000E+00
         0.00000E+00
         0.00000E+00
         0.00000E+00
         0.00000E+00
         0.00000E+00
         0.00000E+00
         0.00000E+00
         0.00000E+00
         0.00000E+00
         0.00000E+00
         0.00000E+00
         0.00000E+00
         0.00000E+00
         0.00000E+00
         0.00000E+00
         0.00000E+00
         0.00000E+00
         0.00000E+00
         0.00000E+00
         0.00000E+00
         0.00000E+00
         0.00000E+00
         0.00000E+00
         0.00000E+00
         0.00000E+00
         0.00000E+00
         0.00000E+00
         0.00000E+00
         0.00000E+00
         0.00000E+00
         0.00000E+00
         0.00000E+00
         0.00000E+00
         0.00000E+00
         0.00000E+00
         0.00000E+00
         0.00000E+00
         0.00000E+00
         0.00000E+00
         0.00000E+00
         0.00000E+00
         0.00000E+00
         0.00000E+00
         0.00000E+00
         0.00000E+00
         0.00000E+00
         0.00000E+00
         0.00000E+00
         0.00000E+00
         0.00000E+00
         0.00000E+00
         0.00000E+00
         0.00000E+00
         0.00000E+00
         0.00000E+00
         0.00000E+00
         0.00000E+00
         0.00000E+00
         0.00000E+00
         0.00000E+00
         0.00000E+00
         0.00000E+00
         0.00000E+00
         0.00000E+00
         0.00000E+00
         0.00000E+00
         0.00000E+00
         0.00000E+00
         0.00000E+00
         0.00000E+00
         0.00000E+00
         0.00000E+00
         0.00000E+00
         0.00000E+00
         0.00000E+00
         0.00000E+00
         0.00000E+00
         0.00000E+00
         0.00000E+00
         0.00000E+00
         0.00000E+00
         0.00000E+00
         0.00000E+00
         0.00000E+00
         0.00000E+00
         0.00000E+00
         0.00000E+00
         0.00000E+00
         0.00000E+00
         0.00000E+00
         0.00000E+00
         0.00000E+00
         0.00000E+00
         0.00000E+00
         0.00000E+00
         0.00000E+00
         0.00000E+00
         0.00000E+00
         0.00000E+00
         0.00000E+00
         0.00000E+00
         0.00000E+00
         0.00000E+00
         0.00000E+00
         0.00000E+00
         0.00000E+00
         0.00000E+00
         0.00000E+00
         0.00000E+00
         0.00000E+00
         0.00000E+00
         0.00000E+00
         0.00000E+00
         0.00000E+00
         0.00000E+00
         0.00000E+00
         0.00000E+00
         0.00000E+00
         0.00000E+00
         0.00000E+00
         0.00000E+00
         0.00000E+00
         0.00000E+00
         0.00000E+00
         0.00000E+00
         0.00000E+00
         0.00000E+00
         0.00000E+00
         0.00000E+00
         0.00000E+00
         0.00000E+00
         0.00000E+00
         0.00000E+00
         0.00000E+00
         0.00000E+00
         0.00000E+00
         0.00000E+00
         0.00000E+00
         0.00000E+00
         0.00000E+00
         0.00000E+00
         0.00000E+00
         0.00000E+00
         0.00000E+00
         0.00000E+00
         0.00000E+00
         0.00000E+00
         0.00000E+00
         0.00000E+00
         0.00000E+00
         0.00000E+00
         0.00000E+00
         0.00000E+00
         0.00000E+00
         0.00000E+00
         0.00000E+00
         0.00000E+00
         0.00000E+00
         0.00000E+00
         0.00000E+00
         0.00000E+00
         0.00000E+00
         0.00000E+00
         0.00000E+00
         0.00000E+00
         0.00000E+00
         0.00000E+00
         0.00000E+00
         0.00000E+00
         0.00000E+00
         0.00000E+00
         0.00000E+00
         0.00000E+00
         0.00000E+00
         0.00000E+00
         0.00000E+00
         0.00000E+00
         0.00000E+00
         0.00000E+00
         0.00000E+00
         0.00000E+00
         0.00000E+00
         0.00000E+00
         0.00000E+00
         0.00000E+00
         0.00000E+00
         0.00000E+00
         0.00000E+00
         0.00000E+00
         0.00000E+00
         0.00000E+00
         0.00000E+00
         0.00000E+00
         0.00000E+00
         0.00000E+00
         0.00000E+00
         0.00000E+00
         0.00000E+00
         0.00000E+00
         0.00000E+00
         0.00000E+00
         0.00000E+00
         0.00000E+00
         0.00000E+00
         0.00000E+00
         0.00000E+00
         0.00000E+00
         0.00000E+00
         0.00000E+00
         0.00000E+00
         0.00000E+00
         0.00000E+00
         0.00000E+00
         0.00000E+00
         0.00000E+00
         0.00000E+00
         0.00000E+00
         0.00000E+00
         0.00000E+00
         0.00000E+00
         0.00000E+00
         0.00000E+00
         0.00000E+00
         0.00000E+00
         0.00000E+00
         0.00000E+00
         0.00000E+00
         0.00000E+00
         0.00000E+00
         0.00000E+00
         0.00000E+00
         0.00000E+00
         0.00000E+00
         0.00000E+00
         0.00000E+00
         0.00000E+00
         0.00000E+00
         0.00000E+00
         0.00000E+00
         0.00000E+00
         0.00000E+00
         0.00000E+00
         0.00000E+00
         0.00000E+00
         0.00000E+00
         0.00000E+00
         0.00000E+00
         0.00000E+00
         0.00000E+00
         0.00000E+00
         0.00000E+00
         0.00000E+00
         0.00000E+00
         0.00000E+00
         0.00000E+00
         0.00000E+00
         0.00000E+00
         0.00000E+00
         0.00000E+00
         0.00000E+00
         0.00000E+00
         0.00000E+00
         0.00000E+00
         0.00000E+00
         0.00000E+00
         0.00000E+00
         0.00000E+00
         0.00000E+00
         0.00000E+00
         0.00000E+00
         0.00000E+00
         0.00000E+00
         0.00000E+00
         0.00000E+00
         0.00000E+00
         0.00000E+00
         0.00000E+00
         0.00000E+00
         0.00000E+00
         0.00000E+00
         0.00000E+00
         0.00000E+00
         0.00000E+00
         0.00000E+00
         0.00000E+00
         0.00000E+00
         0.00000E+00
         0.00000E+00
         0.00000E+00
         0.00000E+00
         0.00000E+00
         0.00000E+00
         0.00000E+00
         0.00000E+00
         0.00000E+00
         0.00000E+00
         0.00000E+00
         0.00000E+00
         0.00000E+00
         0.00000E+00
         0.00000E+00
         0.00000E+00
         0.00000E+00
         0.00000E+00
         0.00000E+00
         0.00000E+00
         0.00000E+00
         0.00000E+00
         0.00000E+00
         0.00000E+00
         0.00000E+00
         0.00000E+00
         0.00000E+00
         0.00000E+00
         0.00000E+00
         0.00000E+00
         0.00000E+00
         0.00000E+00
         0.00000E+00
         0.00000E+00
         0.00000E+00
         0.00000E+00
         0.00000E+00
         0.00000E+00
         0.00000E+00
         0.00000E+00
         0.00000E+00
         0.00000E+00
         0.00000E+00
         0.00000E+00
         0.00000E+00
         0.00000E+00
         0.00000E+00
         0.00000E+00
         0.00000E+00
         0.00000E+00
         0.00000E+00
         0.00000E+00
         0.00000E+00
         0.00000E+00
         0.00000E+00
         0.00000E+00
         0.00000E+00
         0.00000E+00
         0.00000E+00
         0.00000E+00
         0.00000E+00
         0.00000E+00
         0.00000E+00
         0.00000E+00
         0.00000E+00
         0.00000E+00
         0.00000E+00
         0.00000E+00
         0.00000E+00
         0.00000E+00
         0.00000E+00
         0.00000E+00
         0.00000E+00
         0.00000E+00
         0.00000E+00
         0.00000E+00
         0.00000E+00
         0.00000E+00
         0.00000E+00
         0.00000E+00
         0.00000E+00
         0.00000E+00
         0.00000E+00
         0.00000E+00
         0.00000E+00
         0.00000E+00
         0.00000E+00
         0.00000E+00
         0.00000E+00
         0.00000E+00
         0.00000E+00
         0.00000E+00
         0.00000E+00
         0.00000E+00
         0.00000E+00
         0.00000E+00
         0.00000E+00
         0.00000E+00
         0.00000E+00
         0.00000E+00
         0.00000E+00
         0.00000E+00
         0.00000E+00
         0.00000E+00
         0.00000E+00
         0.00000E+00
         0.00000E+00
         0.00000E+00
         0.00000E+00
         0.00000E+00
         0.00000E+00
         0.00000E+00
         0.00000E+00
         0.00000E+00
         0.00000E+00
         0.00000E+00
         0.00000E+00
         0.00000E+00
         0.00000E+00
         0.00000E+00
         0.00000E+00
         0.00000E+00
         0.00000E+00
         0.00000E+00
         0.00000E+00
         0.00000E+00
         0.00000E+00
         0.00000E+00
         0.00000E+00
         0.00000E+00
         0.00000E+00
         0.00000E+00
         0.00000E+00
         0.00000E+00
         0.00000E+00
         0.00000E+00
         0.00000E+00
         0.00000E+00
         0.00000E+00
         0.00000E+00
         0.00000E+00
         0.00000E+00
         0.00000E+00
         0.00000E+00
         0.00000E+00
         0.00000E+00
         0.00000E+00
         0.00000E+00
         0.00000E+00
         0.00000E+00
         0.00000E+00
         0.00000E+00
         0.00000E+00
         0.00000E+00
         0.00000E+00
         0.00000E+00
         0.00000E+00
         0.00000E+00
         0.00000E+00
         0.00000E+00
         0.00000E+00
         0.00000E+00
         0.00000E+00
         0.00000E+00
         0.00000E+00
         0.00000E+00
         0.00000E+00
         0.00000E+00
         0.00000E+00
         0.00000E+00
         0.00000E+00
         0.00000E+00
         0.00000E+00
         0.00000E+00
         0.00000E+00
         0.00000E+00
         0.00000E+00
         0.00000E+00
         0.00000E+00
         0.00000E+00
         0.00000E+00
         0.00000E+00
         0.00000E+00
         0.00000E+00
         0.00000E+00
         0.00000E+00
         0.00000E+00
         0.00000E+00
         0.00000E+00
         0.00000E+00
         0.00000E+00
         0.00000E+00
         0.00000E+00
         0.00000E+00
         0.00000E+00
         0.00000E+00
         0.00000E+00
         0.00000E+00
         0.00000E+00
         0.00000E+00
         0.00000E+00
         0.00000E+00
         0.00000E+00
         0.00000E+00
         0.00000E+00
         0.00000E+00
         0.00000E+00
         0.00000E+00
         0.00000E+00
         0.00000E+00
         0.00000E+00
         0.00000E+00
         0.00000E+00
         0.00000E+00
         0.00000E+00
         0.00000E+00
         0.00000E+00
         0.00000E+00
         0.00000E+00
         0.00000E+00
         0.00000E+00
         0.00000E+00
         0.00000E+00
         0.00000E+00
         0.00000E+00
         0.00000E+00
         0.00000E+00
         0.00000E+00
         0.00000E+00
         0.00000E+00
         0.00000E+00
         0.00000E+00
         0.00000E+00
         0.00000E+00
         0.00000E+00
         0.00000E+00
         0.00000E+00
         0.00000E+00
         0.00000E+00
         0.00000E+00
         0.00000E+00
         0.00000E+00
         0.00000E+00
         0.00000E+00
         0.00000E+00
         0.00000E+00
         0.00000E+00
         0.00000E+00
         0.00000E+00
         0.00000E+00
         0.00000E+00
         0.00000E+00
         0.00000E+00
         0.00000E+00
         0.00000E+00
         0.00000E+00
         0.00000E+00
         0.00000E+00
         0.00000E+00
         0.00000E+00
         0.00000E+00
         0.00000E+00
         0.00000E+00
         0.00000E+00
         0.00000E+00
         0.00000E+00
         0.00000E+00
         0.00000E+00
         0.00000E+00
         0.00000E+00
         0.00000E+00
         0.00000E+00
         0.00000E+00
         0.00000E+00
         0.00000E+00
         0.00000E+00
         0.00000E+00
         0.00000E+00
         0.00000E+00
         0.00000E+00
         0.00000E+00
         0.00000E+00
         0.00000E+00
         0.00000E+00
         0.00000E+00
         0.00000E+00
         0.00000E+00
         0.00000E+00
         0.00000E+00
         0.00000E+00
         0.00000E+00
         0.00000E+00
         0.00000E+00
         0.00000E+00
         0.00000E+00
         0.00000E+00
         0.00000E+00
         0.00000E+00
         0.00000E+00
         0.00000E+00
         0.00000E+00
         0.00000E+00
         0.00000E+00
         0.00000E+00
         0.00000E+00
         0.00000E+00
         0.00000E+00
         0.00000E+00
         0.00000E+00
         0.00000E+00
         0.00000E+00
         0.00000E+00
         0.00000E+00
         0.00000E+00
         0.00000E+00
         0.00000E+00
         0.00000E+00
         0.00000E+00
         0.00000E+00
         0.00000E+00
         0.00000E+00
         0.00000E+00
         0.00000E+00
         0.00000E+00
         0.00000E+00
         0.00000E+00
         0.00000E+00
         0.00000E+00
         0.00000E+00
         0.00000E+00
         0.00000E+00
         0.00000E+00
         0.00000E+00
         0.00000E+00
         0.00000E+00
         0.00000E+00
         0.00000E+00
         0.00000E+00
         0.00000E+00
         0.00000E+00
         0.00000E+00
         0.00000E+00
         0.00000E+00
         0.00000E+00
         0.00000E+00
         0.00000E+00
         0.00000E+00
         0.00000E+00
         0.00000E+00
         0.00000E+00
         0.00000E+00
         0.00000E+00
         0.00000E+00
         0.00000E+00
         0.00000E+00
         0.00000E+00
         0.00000E+00
         0.00000E+00
         0.00000E+00
         0.00000E+00
         0.00000E+00
         0.00000E+00
         0.00000E+00
         0.00000E+00
         0.00000E+00
         0.00000E+00
         0.00000E+00
         0.00000E+00
         0.00000E+00
         0.00000E+00
         0.00000E+00
         0.00000E+00
         0.00000E+00
         0.00000E+00
         0.00000E+00
         0.00000E+00
         0.00000E+00
         0.00000E+00
         0.00000E+00
         0.00000E+00
         0.00000E+00
         0.00000E+00
         0.00000E+00
         0.00000E+00
         0.00000E+00
         0.00000E+00
         0.00000E+00
         0.00000E+00
         0.00000E+00
         0.00000E+00
         0.00000E+00
         0.00000E+00
         0.00000E+00
         0.00000E+00
         0.00000E+00
         0.00000E+00
         0.00000E+00
         0.00000E+00
         0.00000E+00
         0.00000E+00
         0.00000E+00
         0.00000E+00
         0.00000E+00
         0.00000E+00
         0.00000E+00
         0.00000E+00
         0.00000E+00
         0.00000E+00
         0.00000E+00
         0.00000E+00
         0.00000E+00
         0.00000E+00
         0.00000E+00
         0.00000E+00
         0.00000E+00
         0.00000E+00
         0.00000E+00
         0.00000E+00
         0.00000E+00
         0.00000E+00
         0.00000E+00
         0.00000E+00
         0.00000E+00
         0.00000E+00
         0.00000E+00
         0.00000E+00
         0.00000E+00
         0.00000E+00
         0.00000E+00
         0.00000E+00
         0.00000E+00
         0.00000E+00
         0.00000E+00
         0.00000E+00
         0.00000E+00
         0.00000E+00
         0.00000E+00
         0.00000E+00
         0.00000E+00
         0.00000E+00
         0.00000E+00
         0.00000E+00
         0.00000E+00
         0.00000E+00
         0.00000E+00
         0.00000E+00
         0.00000E+00
         0.00000E+00
         0.00000E+00
         0.00000E+00
         0.00000E+00
         0.00000E+00
         0.00000E+00
         0.00000E+00
         0.00000E+00
         0.00000E+00
         0.00000E+00
         0.00000E+00
         0.00000E+00
         0.00000E+00
         0.00000E+00
         0.00000E+00
         0.00000E+00
         0.00000E+00
         0.00000E+00
         0.00000E+00
         0.00000E+00
         0.00000E+00
         0.00000E+00
         0.00000E+00
         0.00000E+00
         0.00000E+00
         0.00000E+00
         0.00000E+00
         0.00000E+00
         0.00000E+00
         0.00000E+00
         0.00000E+00
         0.00000E+00
         0.00000E+00
         0.00000E+00
         0.00000E+00
         0.00000E+00
         0.00000E+00
         0.00000E+00
         0.00000E+00
         0.00000E+00
         0.00000E+00
         0.00000E+00
         0.00000E+00
         0.00000E+00
         0.00000E+00
         0.00000E+00
         0.00000E+00
         0.00000E+00
         0.00000E+00
         0.00000E+00
         0.00000E+00
         0.00000E+00
         0.00000E+00
         0.00000E+00
         0.00000E+00
         0.00000E+00
         0.00000E+00
         0.00000E+00
         0.00000E+00
         0.00000E+00
         0.00000E+00
         0.00000E+00
         0.00000E+00
         0.00000E+00
         0.00000E+00
         0.00000E+00
         0.00000E+00
         0.00000E+00
         0.00000E+00
         0.00000E+00
         0.00000E+00
         0.00000E+00
         0.00000E+00
         0.00000E+00
         0.00000E+00
         0.00000E+00
         0.00000E+00
         0.00000E+00
         0.00000E+00
         0.00000E+00
         0.00000E+00
         0.00000E+00
         0.00000E+00
         0.00000E+00
         0.00000E+00
         0.00000E+00
         0.00000E+00
         0.00000E+00
         0.00000E+00
         0.00000E+00
         0.00000E+00
         0.00000E+00
         0.00000E+00
         0.00000E+00
         0.00000E+00
         0.00000E+00
         0.00000E+00
         0.00000E+00
         0.00000E+00
         0.00000E+00
         0.00000E+00
         0.00000E+00
         0.00000E+00
         0.00000E+00
         0.00000E+00
         0.00000E+00
         0.00000E+00
         0.00000E+00
         0.00000E+00
         0.00000E+00
         0.00000E+00
         0.00000E+00
         0.00000E+00
         0.00000E+00
         0.00000E+00
         0.00000E+00
         0.00000E+00
         0.00000E+00
         0.00000E+00
         0.00000E+00
         0.00000E+00
         0.00000E+00
         0.00000E+00
         0.00000E+00
         0.00000E+00
         0.00000E+00
         0.00000E+00
         0.00000E+00
         0.00000E+00
         0.00000E+00
         0.00000E+00
         0.00000E+00
         0.00000E+00
         0.00000E+00
         0.00000E+00
         0.00000E+00
         0.00000E+00
         0.00000E+00
         0.00000E+00
         0.00000E+00
         0.00000E+00
         0.00000E+00
         0.00000E+00
         0.00000E+00
         0.00000E+00
         0.00000E+00
         0.00000E+00
         0.00000E+00
         0.00000E+00
         0.00000E+00
         0.00000E+00
         0.00000E+00
         0.00000E+00
         0.00000E+00
         0.00000E+00
         0.00000E+00
         0.00000E+00
         0.00000E+00
         0.00000E+00
         0.00000E+00
         0.00000E+00
         0.00000E+00
         0.00000E+00
         0.00000E+00
         0.00000E+00
         0.00000E+00
         0.00000E+00
         0.00000E+00
         0.00000E+00
         0.00000E+00
         0.00000E+00
         0.00000E+00
         0.00000E+00
         0.00000E+00
         0.00000E+00
         0.00000E+00
         0.00000E+00
         0.00000E+00
         0.00000E+00
         0.00000E+00
         0.00000E+00
         0.00000E+00
         0.00000E+00
         0.00000E+00
         0.00000E+00
         0.00000E+00
         0.00000E+00
         0.00000E+00
         0.00000E+00
         0.00000E+00
         0.00000E+00
         0.00000E+00
         0.00000E+00
         0.00000E+00
         0.00000E+00
         0.00000E+00
         0.00000E+00
         0.00000E+00
         0.00000E+00
         0.00000E+00
         0.00000E+00
         0.00000E+00
         0.00000E+00
         0.00000E+00
         0.00000E+00
         0.00000E+00
         0.00000E+00
         0.00000E+00
         0.00000E+00
         0.00000E+00
         0.00000E+00
         0.00000E+00
         0.00000E+00
         0.00000E+00
         0.00000E+00
         0.00000E+00
         0.00000E+00
         0.00000E+00
         0.00000E+00
         0.00000E+00
         0.00000E+00
         0.00000E+00
         0.00000E+00
         0.00000E+00
         0.00000E+00
         0.00000E+00
         0.00000E+00
         0.00000E+00
         0.00000E+00
         0.00000E+00
         0.00000E+00
         0.00000E+00
         0.00000E+00
         0.00000E+00
         0.00000E+00
         0.00000E+00
         0.00000E+00
         0.00000E+00
         0.00000E+00
         0.00000E+00
         0.00000E+00
         0.00000E+00
         0.00000E+00
         0.00000E+00
         0.00000E+00
         0.00000E+00
         0.00000E+00
         0.00000E+00
         0.00000E+00
         0.00000E+00
         0.00000E+00
         0.00000E+00
         0.00000E+00
         0.00000E+00
         0.00000E+00
         0.00000E+00
         0.00000E+00
         0.00000E+00
         0.00000E+00
         0.00000E+00
         0.00000E+00
         0.00000E+00
         0.00000E+00
         0.00000E+00
         0.00000E+00
         0.00000E+00
         0.00000E+00
         0.00000E+00
         0.00000E+00
         0.00000E+00
         0.00000E+00
         0.00000E+00
         0.00000E+00
         0.00000E+00
         0.00000E+00
         0.00000E+00
         0.00000E+00
         0.00000E+00
         0.00000E+00
         0.00000E+00
         0.00000E+00
         0.00000E+00
         0.00000E+00
         0.00000E+00
         0.00000E+00
         0.00000E+00
         0.00000E+00
         0.00000E+00
         0.00000E+00
         0.00000E+00
         0.00000E+00
         0.00000E+00
         0.00000E+00
         0.00000E+00
         0.00000E+00
         0.00000E+00
         0.00000E+00
         0.00000E+00
         0.00000E+00
         0.00000E+00
         0.00000E+00
         0.00000E+00
         0.00000E+00
         0.00000E+00
         0.00000E+00
         0.00000E+00
         0.00000E+00
         0.00000E+00
         0.00000E+00
         0.00000E+00
         0.00000E+00
         0.00000E+00
         0.00000E+00
         0.00000E+00
         0.00000E+00
         0.00000E+00
         0.00000E+00
         0.00000E+00
         0.00000E+00
         0.00000E+00
         0.00000E+00
         0.00000E+00
         0.00000E+00
         0.00000E+00
         0.00000E+00
         0.00000E+00
         0.00000E+00
         0.00000E+00
         0.00000E+00
         0.00000E+00
         0.00000E+00
         0.00000E+00
         0.00000E+00
         0.00000E+00
         0.00000E+00
         0.00000E+00
         0.00000E+00
         0.00000E+00
         0.00000E+00
         0.00000E+00
         0.00000E+00
         0.00000E+00
         0.00000E+00
         0.00000E+00
         0.00000E+00
         0.00000E+00
         0.00000E+00
         0.00000E+00
         0.00000E+00
         0.00000E+00
         0.00000E+00
         0.00000E+00
         0.00000E+00
         0.00000E+00
         0.00000E+00
         0.00000E+00
         0.00000E+00
         0.00000E+00
         0.00000E+00
         0.00000E+00
         0.00000E+00
         0.00000E+00
         0.00000E+00
         0.00000E+00
         0.00000E+00
         0.00000E+00
         0.00000E+00
         0.00000E+00
         0.00000E+00
         0.00000E+00
         0.00000E+00
         0.00000E+00
         0.00000E+00
         0.00000E+00
         0.00000E+00
         0.00000E+00
         0.00000E+00
         0.00000E+00
         0.00000E+00
         0.00000E+00
         0.00000E+00
         0.00000E+00
         0.00000E+00
         0.00000E+00
         0.00000E+00
         0.00000E+00
         0.00000E+00
         0.00000E+00
         0.00000E+00
         0.00000E+00
         0.00000E+00
         0.00000E+00
         0.00000E+00
         0.00000E+00
         0.00000E+00
         0.00000E+00
         0.00000E+00
         0.00000E+00
         0.00000E+00
         0.00000E+00
         0.00000E+00
         0.00000E+00
         0.00000E+00
         0.00000E+00
         0.00000E+00
         0.00000E+00
         0.00000E+00
         0.00000E+00
         0.00000E+00
         0.00000E+00
         0.00000E+00
         0.00000E+00
         0.00000E+00
         0.00000E+00
         0.00000E+00
         0.00000E+00
         0.00000E+00
         0.00000E+00
         0.00000E+00
         0.00000E+00
         0.00000E+00
         0.00000E+00
         0.00000E+00
         0.00000E+00
         0.00000E+00
         0.00000E+00
         0.00000E+00
         0.00000E+00
         0.00000E+00
         0.00000E+00
         0.00000E+00
         0.00000E+00
         0.00000E+00
         0.00000E+00
         0.00000E+00
         0.00000E+00
         0.00000E+00
         0.00000E+00
         0.00000E+00
         0.00000E+00
         0.00000E+00
         0.00000E+00
         0.00000E+00
         0.00000E+00
         0.00000E+00
         0.00000E+00
         0.00000E+00
         0.00000E+00
         0.00000E+00
         0.00000E+00
         0.00000E+00
         0.00000E+00
         0.00000E+00
         0.00000E+00
         0.00000E+00
         0.00000E+00
         0.00000E+00
         0.00000E+00
         0.00000E+00
         0.00000E+00
         0.00000E+00
         0.00000E+00
         0.00000E+00
         0.00000E+00
         0.00000E+00
         0.00000E+00
         0.00000E+00
         0.00000E+00
         0.00000E+00
         0.00000E+00
         0.00000E+00
         0.00000E+00
         0.00000E+00
         0.00000E+00
         0.00000E+00
         0.00000E+00
         0.00000E+00
         0.00000E+00
         0.00000E+00
         0.00000E+00
         0.00000E+00
         0.00000E+00
         0.00000E+00
         0.00000E+00
         0.00000E+00
         0.00000E+00
         0.00000E+00
         0.00000E+00
         0.00000E+00
         0.00000E+00
         0.00000E+00
         0.00000E+00
         0.00000E+00
         0.00000E+00
         0.00000E+00
         0.00000E+00
         0.00000E+00
         0.00000E+00
         0.00000E+00
         0.00000E+00
         0.00000E+00
         0.00000E+00
         0.00000E+00
         0.00000E+00
         0.00000E+00
         0.00000E+00
         0.00000E+00
         0.00000E+00
         0.00000E+00
         0.00000E+00
         0.00000E+00
         0.00000E+00
         0.00000E+00
         0.00000E+00
         0.00000E+00
         0.00000E+00
         0.00000E+00
         0.00000E+00
         0.00000E+00
         0.00000E+00
         0.00000E+00
         0.00000E+00
         0.00000E+00
         0.00000E+00
         0.00000E+00
         0.00000E+00
         0.00000E+00
         0.00000E+00
         0.00000E+00
         0.00000E+00
         0.00000E+00
         0.00000E+00
         0.00000E+00
         0.00000E+00
         0.00000E+00
         0.00000E+00
         0.00000E+00
         0.00000E+00
         0.00000E+00
         0.00000E+00
         0.00000E+00
         0.00000E+00
         0.00000E+00
         0.00000E+00
         0.00000E+00
         0.00000E+00
         0.00000E+00
         0.00000E+00
         0.00000E+00
         0.00000E+00
         0.00000E+00
         0.00000E+00
         0.00000E+00
         0.00000E+00
         0.00000E+00
         0.00000E+00
         0.00000E+00
         0.00000E+00
         0.00000E+00
         0.00000E+00
         0.00000E+00
         0.00000E+00
         0.00000E+00
         0.00000E+00
         0.00000E+00
         0.00000E+00
         0.00000E+00
         0.00000E+00
         0.00000E+00
         0.00000E+00
         0.00000E+00
         0.00000E+00
         0.00000E+00
         0.00000E+00
         0.00000E+00
         0.00000E+00
         0.00000E+00
         0.00000E+00
         0.00000E+00
         0.00000E+00
         0.00000E+00
         0.00000E+00
         0.00000E+00
         0.00000E+00
         0.00000E+00
         0.00000E+00
         0.00000E+00
         0.00000E+00
         0.00000E+00
         0.00000E+00
         0.00000E+00
         0.00000E+00
         0.00000E+00
         0.00000E+00
         0.00000E+00
         0.00000E+00
         0.00000E+00
         0.00000E+00
         0.00000E+00
         0.00000E+00
         0.00000E+00
         0.00000E+00
         0.00000E+00
         0.00000E+00
         0.00000E+00
         0.00000E+00
         0.00000E+00
         0.00000E+00
         0.00000E+00
         0.00000E+00
         0.00000E+00
         0.00000E+00
         0.00000E+00
         0.00000E+00
         0.00000E+00
         0.00000E+00
         0.00000E+00
         0.00000E+00
         0.00000E+00
         0.00000E+00
         0.00000E+00
         0.00000E+00
         0.00000E+00
         0.00000E+00
         0.00000E+00
         0.00000E+00
         0.00000E+00
         0.00000E+00
         0.00000E+00
         0.00000E+00
         0.00000E+00
         0.00000E+00
         0.00000E+00
         0.00000E+00
         0.00000E+00
         0.00000E+00
         0.00000E+00
         0.00000E+00
         0.00000E+00
         0.00000E+00
         0.00000E+00
         0.00000E+00
         0.00000E+00
         0.00000E+00
         0.00000E+00
         0.00000E+00
         0.00000E+00
         0.00000E+00
         0.00000E+00
         0.00000E+00
         0.00000E+00
         0.00000E+00
         0.00000E+00
         0.00000E+00
         0.00000E+00
         0.00000E+00
         0.00000E+00
         0.00000E+00
         0.00000E+00
         0.00000E+00
         0.00000E+00
         0.00000E+00
         0.00000E+00
         0.00000E+00
         0.00000E+00
         0.00000E+00
         0.00000E+00
         0.00000E+00
         0.00000E+00
         0.00000E+00
         0.00000E+00
         0.00000E+00
         0.00000E+00
         0.00000E+00
         0.00000E+00
         0.00000E+00
         0.00000E+00
         0.00000E+00
         0.00000E+00
         0.00000E+00
         0.00000E+00
         0.00000E+00
         0.00000E+00
         0.00000E+00
         0.00000E+00
         0.00000E+00
         0.00000E+00
         0.00000E+00
         0.00000E+00
         0.00000E+00
         0.00000E+00
         0.00000E+00
         0.00000E+00
         0.00000E+00
         0.00000E+00
         0.00000E+00
         0.00000E+00
         0.00000E+00
         0.00000E+00
         0.00000E+00
         0.00000E+00
         0.00000E+00
         0.00000E+00
         0.00000E+00
         0.00000E+00
         0.00000E+00
         0.00000E+00
         0.00000E+00
         0.00000E+00
         0.00000E+00
         0.00000E+00
         0.00000E+00
         0.00000E+00
         0.00000E+00
         0.00000E+00
         0.00000E+00
         0.00000E+00
         0.00000E+00
         0.00000E+00
         0.00000E+00
         0.00000E+00
         0.00000E+00
         0.00000E+00
         0.00000E+00
         0.00000E+00
         0.00000E+00
         0.00000E+00
         0.00000E+00
         0.00000E+00
         0.00000E+00
         0.00000E+00
         0.00000E+00
         0.00000E+00
         0.00000E+00
         0.00000E+00
         0.00000E+00
         0.00000E+00
         0.00000E+00
         0.00000E+00
         0.00000E+00
         0.00000E+00
         0.00000E+00
         0.00000E+00
         0.00000E+00
         0.00000E+00
         0.00000E+00
         0.00000E+00
         0.00000E+00
         0.00000E+00
         0.00000E+00
         0.00000E+00
         0.00000E+00
         0.00000E+00
         0.00000E+00
         0.00000E+00
         0.00000E+00
         0.00000E+00
         0.00000E+00
         0.00000E+00
         0.00000E+00
         0.00000E+00
         0.00000E+00
         0.00000E+00
         0.00000E+00
         0.00000E+00
         0.00000E+00
         0.00000E+00
         0.00000E+00
         0.00000E+00
         0.00000E+00
         0.00000E+00
         0.00000E+00
         0.00000E+00
         0.00000E+00
         0.00000E+00
         0.00000E+00
         0.00000E+00
         0.00000E+00
         0.00000E+00
         0.00000E+00
         0.00000E+00
         0.00000E+00
         0.00000E+00
         0.00000E+00
         0.00000E+00
         0.00000E+00
         0.00000E+00
         0.00000E+00
         0.00000E+00
         0.00000E+00
         0.00000E+00
         0.00000E+00
         0.00000E+00
         0.00000E+00
         0.00000E+00
         0.00000E+00
         0.00000E+00
         0.00000E+00
         0.00000E+00
         0.00000E+00
         0.00000E+00
         0.00000E+00
         0.00000E+00
         0.00000E+00
         0.00000E+00
         0.00000E+00
         0.00000E+00
         0.00000E+00
         0.00000E+00
         0.00000E+00
         0.00000E+00
         0.00000E+00
         0.00000E+00
         0.00000E+00
         0.00000E+00
         0.00000E+00
         0.00000E+00
         0.00000E+00
         0.00000E+00
         0.00000E+00
         0.00000E+00
         0.00000E+00
         0.00000E+00
         0.00000E+00
         0.00000E+00
         0.00000E+00
         0.00000E+00
         0.00000E+00
         0.00000E+00
         0.00000E+00
         0.00000E+00
         0.00000E+00
         0.00000E+00
         0.00000E+00
         0.00000E+00
         0.00000E+00
         0.00000E+00
         0.00000E+00
         0.00000E+00
         0.00000E+00
         0.00000E+00
         0.00000E+00
         0.00000E+00
         0.00000E+00
         0.00000E+00
         0.00000E+00
         0.00000E+00
         0.00000E+00
         0.00000E+00
         0.00000E+00
         0.00000E+00
         0.00000E+00
         0.00000E+00
         0.00000E+00
         0.00000E+00
         0.00000E+00
         0.00000E+00
         0.00000E+00
         0.00000E+00
         0.00000E+00
         0.00000E+00
         0.00000E+00
         0.00000E+00
         0.00000E+00
         0.00000E+00
         0.00000E+00
         0.00000E+00
         0.00000E+00
         0.00000E+00
         0.00000E+00
         0.00000E+00
         0.00000E+00
         0.00000E+00
         0.00000E+00
         0.00000E+00
         0.00000E+00
         0.00000E+00
         0.00000E+00
         0.00000E+00
         0.00000E+00
         0.00000E+00
         0.00000E+00
         0.00000E+00
         0.00000E+00
         0.00000E+00
         0.00000E+00
         0.00000E+00
         0.00000E+00
         0.00000E+00
         0.00000E+00
         0.00000E+00
         0.00000E+00
         0.00000E+00
         0.00000E+00
         0.00000E+00
         0.00000E+00
         0.00000E+00
         0.00000E+00
         0.00000E+00
         0.00000E+00
         0.00000E+00
         0.00000E+00
         0.00000E+00
         0.00000E+00
         0.00000E+00
         0.00000E+00
         0.00000E+00
         0.00000E+00
         0.00000E+00
         0.00000E+00
         0.00000E+00
         0.00000E+00
         0.00000E+00
         0.00000E+00
         0.00000E+00
         0.00000E+00
  
SCALARS                init_velocity_y  double 1
LOOKUP_TABLE default
         0.00000E+00
         0.00000E+00
         0.00000E+00
         0.00000E+00
         0.00000E+00
         0.00000E+00
         0.00000E+00
         0.00000E+00
         0.00000E+00
         0.00000E+00
         0.00000E+00
         0.00000E+00
         0.00000E+00
         0.00000E+00
         0.00000E+00
         0.00000E+00
         0.00000E+00
         0.00000E+00
         0.00000E+00
         0.00000E+00
         0.00000E+00
         0.00000E+00
         0.00000E+00
         0.00000E+00
         0.00000E+00
         0.00000E+00
         0.00000E+00
         0.00000E+00
         0.00000E+00
         0.00000E+00
         0.00000E+00
         0.00000E+00
         0.00000E+00
         0.00000E+00
         0.00000E+00
         0.00000E+00
         0.00000E+00
         0.00000E+00
         0.00000E+00
         0.00000E+00
         0.00000E+00
         0.00000E+00
         0.00000E+00
         0.00000E+00
         0.00000E+00
         0.00000E+00
         0.00000E+00
         0.00000E+00
         0.00000E+00
         0.00000E+00
         0.00000E+00
         0.00000E+00
         0.00000E+00
         0.00000E+00
         0.00000E+00
         0.00000E+00
         0.00000E+00
         0.00000E+00
         0.00000E+00
         0.00000E+00
         0.00000E+00
         0.00000E+00
         0.00000E+00
         0.00000E+00
         0.00000E+00
         0.00000E+00
         0.00000E+00
         0.00000E+00
         0.00000E+00
         0.00000E+00
         0.00000E+00
         0.00000E+00
         0.00000E+00
         0.00000E+00
         0.00000E+00
         0.00000E+00
         0.00000E+00
         0.00000E+00
         0.00000E+00
         0.00000E+00
         0.00000E+00
         0.00000E+00
         0.00000E+00
         0.00000E+00
         0.00000E+00
         0.00000E+00
         0.00000E+00
         0.00000E+00
         0.00000E+00
         0.00000E+00
         0.00000E+00
         0.00000E+00
         0.00000E+00
         0.00000E+00
         0.00000E+00
         0.00000E+00
         0.00000E+00
         0.00000E+00
         0.00000E+00
         0.00000E+00
         0.00000E+00
         0.00000E+00
         0.00000E+00
         0.00000E+00
         0.00000E+00
         0.00000E+00
         0.00000E+00
         0.00000E+00
         0.00000E+00
         0.00000E+00
         0.00000E+00
         0.00000E+00
         0.00000E+00
         0.00000E+00
         0.00000E+00
         0.00000E+00
         0.00000E+00
         0.00000E+00
         0.00000E+00
         0.00000E+00
         0.00000E+00
         0.00000E+00
         0.00000E+00
         0.00000E+00
         0.00000E+00
         0.00000E+00
         0.00000E+00
         0.00000E+00
         0.00000E+00
         0.00000E+00
         0.00000E+00
         0.00000E+00
         0.00000E+00
         0.00000E+00
         0.00000E+00
         0.00000E+00
         0.00000E+00
         0.00000E+00
         0.00000E+00
         0.00000E+00
         0.00000E+00
         0.00000E+00
         0.00000E+00
         0.00000E+00
         0.00000E+00
         0.00000E+00
         0.00000E+00
         0.00000E+00
         0.00000E+00
         0.00000E+00
         0.00000E+00
         0.00000E+00
         0.00000E+00
         0.00000E+00
         0.00000E+00
         0.00000E+00
         0.00000E+00
         0.00000E+00
         0.00000E+00
         0.00000E+00
         0.00000E+00
         0.00000E+00
         0.00000E+00
         0.00000E+00
         0.00000E+00
         0.00000E+00
         0.00000E+00
         0.00000E+00
         0.00000E+00
         0.00000E+00
         0.00000E+00
         0.00000E+00
         0.00000E+00
         0.00000E+00
         0.00000E+00
         0.00000E+00
         0.00000E+00
         0.00000E+00
         0.00000E+00
         0.00000E+00
         0.00000E+00
         0.00000E+00
         0.00000E+00
         0.00000E+00
         0.00000E+00
         0.00000E+00
         0.00000E+00
         0.00000E+00
         0.00000E+00
         0.00000E+00
         0.00000E+00
         0.00000E+00
         0.00000E+00
         0.00000E+00
         0.00000E+00
         0.00000E+00
         0.00000E+00
         0.00000E+00
         0.00000E+00
         0.00000E+00
         0.00000E+00
         0.00000E+00
         0.00000E+00
         0.00000E+00
         0.00000E+00
         0.00000E+00
         0.00000E+00
         0.00000E+00
         0.00000E+00
         0.00000E+00
         0.00000E+00
         0.00000E+00
         0.00000E+00
         0.00000E+00
         0.00000E+00
         0.00000E+00
         0.00000E+00
         0.00000E+00
         0.00000E+00
         0.00000E+00
         0.00000E+00
         0.00000E+00
         0.00000E+00
         0.00000E+00
         0.00000E+00
         0.00000E+00
         0.00000E+00
         0.00000E+00
         0.00000E+00
         0.00000E+00
         0.00000E+00
         0.00000E+00
         0.00000E+00
         0.00000E+00
         0.00000E+00
         0.00000E+00
         0.00000E+00
         0.00000E+00
         0.00000E+00
         0.00000E+00
         0.00000E+00
         0.00000E+00
         0.00000E+00
         0.00000E+00
         0.00000E+00
         0.00000E+00
         0.00000E+00
         0.00000E+00
         0.00000E+00
         0.00000E+00
         0.00000E+00
         0.00000E+00
         0.00000E+00
         0.00000E+00
         0.00000E+00
         0.00000E+00
         0.00000E+00
         0.00000E+00
         0.00000E+00
         0.00000E+00
         0.00000E+00
         0.00000E+00
         0.00000E+00
         0.00000E+00
         0.00000E+00
         0.00000E+00
         0.00000E+00
         0.00000E+00
         0.00000E+00
         0.00000E+00
         0.00000E+00
         0.00000E+00
         0.00000E+00
         0.00000E+00
         0.00000E+00
         0.00000E+00
         0.00000E+00
         0.00000E+00
         0.00000E+00
         0.00000E+00
         0.00000E+00
         0.00000E+00
         0.00000E+00
         0.00000E+00
         0.00000E+00
         0.00000E+00
         0.00000E+00
         0.00000E+00
         0.00000E+00
         0.00000E+00
         0.00000E+00
         0.00000E+00
         0.00000E+00
         0.00000E+00
         0.00000E+00
         0.00000E+00
         0.00000E+00
         0.00000E+00
         0.00000E+00
         0.00000E+00
         0.00000E+00
         0.00000E+00
         0.00000E+00
         0.00000E+00
         0.00000E+00
         0.00000E+00
         0.00000E+00
         0.00000E+00
         0.00000E+00
         0.00000E+00
         0.00000E+00
         0.00000E+00
         0.00000E+00
         0.00000E+00
         0.00000E+00
         0.00000E+00
         0.00000E+00
         0.00000E+00
         0.00000E+00
         0.00000E+00
         0.00000E+00
         0.00000E+00
         0.00000E+00
         0.00000E+00
         0.00000E+00
         0.00000E+00
         0.00000E+00
         0.00000E+00
         0.00000E+00
         0.00000E+00
         0.00000E+00
         0.00000E+00
         0.00000E+00
         0.00000E+00
         0.00000E+00
         0.00000E+00
         0.00000E+00
         0.00000E+00
         0.00000E+00
         0.00000E+00
         0.00000E+00
         0.00000E+00
         0.00000E+00
         0.00000E+00
         0.00000E+00
         0.00000E+00
         0.00000E+00
         0.00000E+00
         0.00000E+00
         0.00000E+00
         0.00000E+00
         0.00000E+00
         0.00000E+00
         0.00000E+00
         0.00000E+00
         0.00000E+00
         0.00000E+00
         0.00000E+00
         0.00000E+00
         0.00000E+00
         0.00000E+00
         0.00000E+00
         0.00000E+00
         0.00000E+00
         0.00000E+00
         0.00000E+00
         0.00000E+00
         0.00000E+00
         0.00000E+00
         0.00000E+00
         0.00000E+00
         0.00000E+00
         0.00000E+00
         0.00000E+00
         0.00000E+00
         0.00000E+00
         0.00000E+00
         0.00000E+00
         0.00000E+00
         0.00000E+00
         0.00000E+00
         0.00000E+00
         0.00000E+00
         0.00000E+00
         0.00000E+00
         0.00000E+00
         0.00000E+00
         0.00000E+00
         0.00000E+00
         0.00000E+00
         0.00000E+00
         0.00000E+00
         0.00000E+00
         0.00000E+00
         0.00000E+00
         0.00000E+00
         0.00000E+00
         0.00000E+00
         0.00000E+00
         0.00000E+00
         0.00000E+00
         0.00000E+00
         0.00000E+00
         0.00000E+00
         0.00000E+00
         0.00000E+00
         0.00000E+00
         0.00000E+00
         0.00000E+00
         0.00000E+00
         0.00000E+00
         0.00000E+00
         0.00000E+00
         0.00000E+00
         0.00000E+00
         0.00000E+00
         0.00000E+00
         0.00000E+00
         0.00000E+00
         0.00000E+00
         0.00000E+00
         0.00000E+00
         0.00000E+00
         0.00000E+00
         0.00000E+00
         0.00000E+00
         0.00000E+00
         0.00000E+00
         0.00000E+00
         0.00000E+00
         0.00000E+00
         0.00000E+00
         0.00000E+00
         0.00000E+00
         0.00000E+00
         0.00000E+00
         0.00000E+00
         0.00000E+00
         0.00000E+00
         0.00000E+00
         0.00000E+00
         0.00000E+00
         0.00000E+00
         0.00000E+00
         0.00000E+00
         0.00000E+00
         0.00000E+00
         0.00000E+00
         0.00000E+00
         0.00000E+00
         0.00000E+00
         0.00000E+00
         0.00000E+00
         0.00000E+00
         0.00000E+00
         0.00000E+00
         0.00000E+00
         0.00000E+00
         0.00000E+00
         0.00000E+00
         0.00000E+00
         0.00000E+00
         0.00000E+00
         0.00000E+00
         0.00000E+00
         0.00000E+00
         0.00000E+00
         0.00000E+00
         0.00000E+00
         0.00000E+00
         0.00000E+00
         0.00000E+00
         0.00000E+00
         0.00000E+00
         0.00000E+00
         0.00000E+00
         0.00000E+00
         0.00000E+00
         0.00000E+00
         0.00000E+00
         0.00000E+00
         0.00000E+00
         0.00000E+00
         0.00000E+00
         0.00000E+00
         0.00000E+00
         0.00000E+00
         0.00000E+00
         0.00000E+00
         0.00000E+00
         0.00000E+00
         0.00000E+00
         0.00000E+00
         0.00000E+00
         0.00000E+00
         0.00000E+00
         0.00000E+00
         0.00000E+00
         0.00000E+00
         0.00000E+00
         0.00000E+00
         0.00000E+00
         0.00000E+00
         0.00000E+00
         0.00000E+00
         0.00000E+00
         0.00000E+00
         0.00000E+00
         0.00000E+00
         0.00000E+00
         0.00000E+00
         0.00000E+00
         0.00000E+00
         0.00000E+00
         0.00000E+00
         0.00000E+00
         0.00000E+00
         0.00000E+00
         0.00000E+00
         0.00000E+00
         0.00000E+00
         0.00000E+00
         0.00000E+00
         0.00000E+00
         0.00000E+00
         0.00000E+00
         0.00000E+00
         0.00000E+00
         0.00000E+00
         0.00000E+00
         0.00000E+00
         0.00000E+00
         0.00000E+00
         0.00000E+00
         0.00000E+00
         0.00000E+00
         0.00000E+00
         0.00000E+00
         0.00000E+00
         0.00000E+00
         0.00000E+00
         0.00000E+00
         0.00000E+00
         0.00000E+00
         0.00000E+00
         0.00000E+00
         0.00000E+00
         0.00000E+00
         0.00000E+00
         0.00000E+00
         0.00000E+00
         0.00000E+00
         0.00000E+00
         0.00000E+00
         0.00000E+00
         0.00000E+00
         0.00000E+00
         0.00000E+00
         0.00000E+00
         0.00000E+00
         0.00000E+00
         0.00000E+00
         0.00000E+00
         0.00000E+00
         0.00000E+00
         0.00000E+00
         0.00000E+00
         0.00000E+00
         0.00000E+00
         0.00000E+00
         0.00000E+00
         0.00000E+00
         0.00000E+00
         0.00000E+00
         0.00000E+00
         0.00000E+00
         0.00000E+00
         0.00000E+00
         0.00000E+00
         0.00000E+00
         0.00000E+00
         0.00000E+00
         0.00000E+00
         0.00000E+00
         0.00000E+00
         0.00000E+00
         0.00000E+00
         0.00000E+00
         0.00000E+00
         0.00000E+00
         0.00000E+00
         0.00000E+00
         0.00000E+00
         0.00000E+00
         0.00000E+00
         0.00000E+00
         0.00000E+00
         0.00000E+00
         0.00000E+00
         0.00000E+00
         0.00000E+00
         0.00000E+00
         0.00000E+00
         0.00000E+00
         0.00000E+00
         0.00000E+00
         0.00000E+00
         0.00000E+00
         0.00000E+00
         0.00000E+00
         0.00000E+00
         0.00000E+00
         0.00000E+00
         0.00000E+00
         0.00000E+00
         0.00000E+00
         0.00000E+00
         0.00000E+00
         0.00000E+00
         0.00000E+00
         0.00000E+00
         0.00000E+00
         0.00000E+00
         0.00000E+00
         0.00000E+00
         0.00000E+00
         0.00000E+00
         0.00000E+00
         0.00000E+00
         0.00000E+00
         0.00000E+00
         0.00000E+00
         0.00000E+00
         0.00000E+00
         0.00000E+00
         0.00000E+00
         0.00000E+00
         0.00000E+00
         0.00000E+00
         0.00000E+00
         0.00000E+00
         0.00000E+00
         0.00000E+00
         0.00000E+00
         0.00000E+00
         0.00000E+00
         0.00000E+00
         0.00000E+00
         0.00000E+00
         0.00000E+00
         0.00000E+00
         0.00000E+00
         0.00000E+00
         0.00000E+00
         0.00000E+00
         0.00000E+00
         0.00000E+00
         0.00000E+00
         0.00000E+00
         0.00000E+00
         0.00000E+00
         0.00000E+00
         0.00000E+00
         0.00000E+00
         0.00000E+00
         0.00000E+00
         0.00000E+00
         0.00000E+00
         0.00000E+00
         0.00000E+00
         0.00000E+00
         0.00000E+00
         0.00000E+00
         0.00000E+00
         0.00000E+00
         0.00000E+00
         0.00000E+00
         0.00000E+00
         0.00000E+00
         0.00000E+00
         0.00000E+00
         0.00000E+00
         0.00000E+00
         0.00000E+00
         0.00000E+00
         0.00000E+00
         0.00000E+00
         0.00000E+00
         0.00000E+00
         0.00000E+00
         0.00000E+00
         0.00000E+00
         0.00000E+00
         0.00000E+00
         0.00000E+00
         0.00000E+00
         0.00000E+00
         0.00000E+00
         0.00000E+00
         0.00000E+00
         0.00000E+00
         0.00000E+00
         0.00000E+00
         0.00000E+00
         0.00000E+00
         0.00000E+00
         0.00000E+00
         0.00000E+00
         0.00000E+00
         0.00000E+00
         0.00000E+00
         0.00000E+00
         0.00000E+00
         0.00000E+00
         0.00000E+00
         0.00000E+00
         0.00000E+00
         0.00000E+00
         0.00000E+00
         0.00000E+00
         0.00000E+00
         0.00000E+00
         0.00000E+00
         0.00000E+00
         0.00000E+00
         0.00000E+00
         0.00000E+00
         0.00000E+00
         0.00000E+00
         0.00000E+00
         0.00000E+00
         0.00000E+00
         0.00000E+00
         0.00000E+00
         0.00000E+00
         0.00000E+00
         0.00000E+00
         0.00000E+00
         0.00000E+00
         0.00000E+00
         0.00000E+00
         0.00000E+00
         0.00000E+00
         0.00000E+00
         0.00000E+00
         0.00000E+00
         0.00000E+00
         0.00000E+00
         0.00000E+00
         0.00000E+00
         0.00000E+00
         0.00000E+00
         0.00000E+00
         0.00000E+00
         0.00000E+00
         0.00000E+00
         0.00000E+00
         0.00000E+00
         0.00000E+00
         0.00000E+00
         0.00000E+00
         0.00000E+00
         0.00000E+00
         0.00000E+00
         0.00000E+00
         0.00000E+00
         0.00000E+00
         0.00000E+00
         0.00000E+00
         0.00000E+00
         0.00000E+00
         0.00000E+00
         0.00000E+00
         0.00000E+00
         0.00000E+00
         0.00000E+00
         0.00000E+00
         0.00000E+00
         0.00000E+00
         0.00000E+00
         0.00000E+00
         0.00000E+00
         0.00000E+00
         0.00000E+00
         0.00000E+00
         0.00000E+00
         0.00000E+00
         0.00000E+00
         0.00000E+00
         0.00000E+00
         0.00000E+00
         0.00000E+00
         0.00000E+00
         0.00000E+00
         0.00000E+00
         0.00000E+00
         0.00000E+00
         0.00000E+00
         0.00000E+00
         0.00000E+00
         0.00000E+00
         0.00000E+00
         0.00000E+00
         0.00000E+00
         0.00000E+00
         0.00000E+00
         0.00000E+00
         0.00000E+00
         0.00000E+00
         0.00000E+00
         0.00000E+00
         0.00000E+00
         0.00000E+00
         0.00000E+00
         0.00000E+00
         0.00000E+00
         0.00000E+00
         0.00000E+00
         0.00000E+00
         0.00000E+00
         0.00000E+00
         0.00000E+00
         0.00000E+00
         0.00000E+00
         0.00000E+00
         0.00000E+00
         0.00000E+00
         0.00000E+00
         0.00000E+00
         0.00000E+00
         0.00000E+00
         0.00000E+00
         0.00000E+00
         0.00000E+00
         0.00000E+00
         0.00000E+00
         0.00000E+00
         0.00000E+00
         0.00000E+00
         0.00000E+00
         0.00000E+00
         0.00000E+00
         0.00000E+00
         0.00000E+00
         0.00000E+00
         0.00000E+00
         0.00000E+00
         0.00000E+00
         0.00000E+00
         0.00000E+00
         0.00000E+00
         0.00000E+00
         0.00000E+00
         0.00000E+00
         0.00000E+00
         0.00000E+00
         0.00000E+00
         0.00000E+00
         0.00000E+00
         0.00000E+00
         0.00000E+00
         0.00000E+00
         0.00000E+00
         0.00000E+00
         0.00000E+00
         0.00000E+00
         0.00000E+00
         0.00000E+00
         0.00000E+00
         0.00000E+00
         0.00000E+00
         0.00000E+00
         0.00000E+00
         0.00000E+00
         0.00000E+00
         0.00000E+00
         0.00000E+00
         0.00000E+00
         0.00000E+00
         0.00000E+00
         0.00000E+00
         0.00000E+00
         0.00000E+00
         0.00000E+00
         0.00000E+00
         0.00000E+00
         0.00000E+00
         0.00000E+00
         0.00000E+00
         0.00000E+00
         0.00000E+00
         0.00000E+00
         0.00000E+00
         0.00000E+00
         0.00000E+00
         0.00000E+00
         0.00000E+00
         0.00000E+00
         0.00000E+00
         0.00000E+00
         0.00000E+00
         0.00000E+00
         0.00000E+00
         0.00000E+00
         0.00000E+00
         0.00000E+00
         0.00000E+00
         0.00000E+00
         0.00000E+00
         0.00000E+00
         0.00000E+00
         0.00000E+00
         0.00000E+00
         0.00000E+00
         0.00000E+00
         0.00000E+00
         0.00000E+00
         0.00000E+00
         0.00000E+00
         0.00000E+00
         0.00000E+00
         0.00000E+00
         0.00000E+00
         0.00000E+00
         0.00000E+00
         0.00000E+00
         0.00000E+00
         0.00000E+00
         0.00000E+00
         0.00000E+00
         0.00000E+00
         0.00000E+00
         0.00000E+00
         0.00000E+00
         0.00000E+00
         0.00000E+00
         0.00000E+00
         0.00000E+00
         0.00000E+00
         0.00000E+00
         0.00000E+00
         0.00000E+00
         0.00000E+00
         0.00000E+00
         0.00000E+00
         0.00000E+00
         0.00000E+00
         0.00000E+00
         0.00000E+00
         0.00000E+00
         0.00000E+00
         0.00000E+00
         0.00000E+00
         0.00000E+00
         0.00000E+00
         0.00000E+00
         0.00000E+00
         0.00000E+00
         0.00000E+00
         0.00000E+00
         0.00000E+00
         0.00000E+00
         0.00000E+00
         0.00000E+00
         0.00000E+00
         0.00000E+00
         0.00000E+00
         0.00000E+00
         0.00000E+00
         0.00000E+00
         0.00000E+00
         0.00000E+00
         0.00000E+00
         0.00000E+00
         0.00000E+00
         0.00000E+00
         0.00000E+00
         0.00000E+00
         0.00000E+00
         0.00000E+00
         0.00000E+00
         0.00000E+00
         0.00000E+00
         0.00000E+00
         0.00000E+00
         0.00000E+00
         0.00000E+00
         0.00000E+00
         0.00000E+00
         0.00000E+00
         0.00000E+00
         0.00000E+00
         0.00000E+00
         0.00000E+00
         0.00000E+00
         0.00000E+00
         0.00000E+00
         0.00000E+00
         0.00000E+00
         0.00000E+00
         0.00000E+00
         0.00000E+00
         0.00000E+00
         0.00000E+00
         0.00000E+00
         0.00000E+00
         0.00000E+00
         0.00000E+00
         0.00000E+00
         0.00000E+00
         0.00000E+00
         0.00000E+00
         0.00000E+00
         0.00000E+00
         0.00000E+00
         0.00000E+00
         0.00000E+00
         0.00000E+00
         0.00000E+00
         0.00000E+00
         0.00000E+00
         0.00000E+00
         0.00000E+00
         0.00000E+00
         0.00000E+00
         0.00000E+00
         0.00000E+00
         0.00000E+00
         0.00000E+00
         0.00000E+00
         0.00000E+00
         0.00000E+00
         0.00000E+00
         0.00000E+00
         0.00000E+00
         0.00000E+00
         0.00000E+00
         0.00000E+00
         0.00000E+00
         0.00000E+00
         0.00000E+00
         0.00000E+00
         0.00000E+00
         0.00000E+00
         0.00000E+00
         0.00000E+00
         0.00000E+00
         0.00000E+00
         0.00000E+00
         0.00000E+00
         0.00000E+00
         0.00000E+00
         0.00000E+00
         0.00000E+00
         0.00000E+00
         0.00000E+00
         0.00000E+00
         0.00000E+00
         0.00000E+00
         0.00000E+00
         0.00000E+00
         0.00000E+00
         0.00000E+00
         0.00000E+00
         0.00000E+00
         0.00000E+00
         0.00000E+00
         0.00000E+00
         0.00000E+00
         0.00000E+00
         0.00000E+00
         0.00000E+00
         0.00000E+00
         0.00000E+00
         0.00000E+00
         0.00000E+00
         0.00000E+00
         0.00000E+00
         0.00000E+00
         0.00000E+00
         0.00000E+00
         0.00000E+00
         0.00000E+00
         0.00000E+00
         0.00000E+00
         0.00000E+00
         0.00000E+00
         0.00000E+00
         0.00000E+00
         0.00000E+00
         0.00000E+00
         0.00000E+00
         0.00000E+00
         0.00000E+00
         0.00000E+00
         0.00000E+00
         0.00000E+00
         0.00000E+00
         0.00000E+00
         0.00000E+00
         0.00000E+00
         0.00000E+00
         0.00000E+00
         0.00000E+00
         0.00000E+00
         0.00000E+00
         0.00000E+00
         0.00000E+00
         0.00000E+00
         0.00000E+00
         0.00000E+00
         0.00000E+00
         0.00000E+00
         0.00000E+00
         0.00000E+00
         0.00000E+00
         0.00000E+00
         0.00000E+00
         0.00000E+00
         0.00000E+00
         0.00000E+00
         0.00000E+00
         0.00000E+00
         0.00000E+00
         0.00000E+00
         0.00000E+00
         0.00000E+00
         0.00000E+00
         0.00000E+00
         0.00000E+00
         0.00000E+00
         0.00000E+00
         0.00000E+00
         0.00000E+00
         0.00000E+00
         0.00000E+00
         0.00000E+00
         0.00000E+00
         0.00000E+00
         0.00000E+00
         0.00000E+00
         0.00000E+00
         0.00000E+00
         0.00000E+00
         0.00000E+00
         0.00000E+00
         0.00000E+00
         0.00000E+00
         0.00000E+00
         0.00000E+00
         0.00000E+00
         0.00000E+00
         0.00000E+00
         0.00000E+00
         0.00000E+00
         0.00000E+00
         0.00000E+00
         0.00000E+00
         0.00000E+00
         0.00000E+00
         0.00000E+00
         0.00000E+00
         0.00000E+00
         0.00000E+00
         0.00000E+00
         0.00000E+00
         0.00000E+00
         0.00000E+00
         0.00000E+00
         0.00000E+00
         0.00000E+00
         0.00000E+00
         0.00000E+00
         0.00000E+00
         0.00000E+00
         0.00000E+00
         0.00000E+00
         0.00000E+00
         0.00000E+00
         0.00000E+00
         0.00000E+00
         0.00000E+00
         0.00000E+00
         0.00000E+00
         0.00000E+00
         0.00000E+00
         0.00000E+00
         0.00000E+00
         0.00000E+00
         0.00000E+00
         0.00000E+00
         0.00000E+00
         0.00000E+00
         0.00000E+00
         0.00000E+00
         0.00000E+00
         0.00000E+00
         0.00000E+00
         0.00000E+00
         0.00000E+00
         0.00000E+00
         0.00000E+00
         0.00000E+00
         0.00000E+00
         0.00000E+00
         0.00000E+00
         0.00000E+00
         0.00000E+00
         0.00000E+00
         0.00000E+00
         0.00000E+00
         0.00000E+00
         0.00000E+00
         0.00000E+00
         0.00000E+00
         0.00000E+00
         0.00000E+00
         0.00000E+00
         0.00000E+00
         0.00000E+00
         0.00000E+00
         0.00000E+00
         0.00000E+00
         0.00000E+00
         0.00000E+00
         0.00000E+00
         0.00000E+00
         0.00000E+00
         0.00000E+00
         0.00000E+00
         0.00000E+00
         0.00000E+00
         0.00000E+00
         0.00000E+00
         0.00000E+00
         0.00000E+00
         0.00000E+00
         0.00000E+00
         0.00000E+00
         0.00000E+00
         0.00000E+00
         0.00000E+00
         0.00000E+00
         0.00000E+00
         0.00000E+00
         0.00000E+00
         0.00000E+00
         0.00000E+00
         0.00000E+00
         0.00000E+00
         0.00000E+00
         0.00000E+00
         0.00000E+00
         0.00000E+00
         0.00000E+00
         0.00000E+00
         0.00000E+00
         0.00000E+00
         0.00000E+00
         0.00000E+00
         0.00000E+00
         0.00000E+00
         0.00000E+00
         0.00000E+00
         0.00000E+00
         0.00000E+00
         0.00000E+00
         0.00000E+00
         0.00000E+00
         0.00000E+00
         0.00000E+00
         0.00000E+00
         0.00000E+00
         0.00000E+00
         0.00000E+00
         0.00000E+00
         0.00000E+00
         0.00000E+00
         0.00000E+00
         0.00000E+00
         0.00000E+00
         0.00000E+00
         0.00000E+00
         0.00000E+00
         0.00000E+00
         0.00000E+00
         0.00000E+00
         0.00000E+00
         0.00000E+00
         0.00000E+00
         0.00000E+00
         0.00000E+00
         0.00000E+00
         0.00000E+00
         0.00000E+00
         0.00000E+00
         0.00000E+00
         0.00000E+00
         0.00000E+00
         0.00000E+00
         0.00000E+00
         0.00000E+00
         0.00000E+00
         0.00000E+00
         0.00000E+00
         0.00000E+00
         0.00000E+00
         0.00000E+00
         0.00000E+00
         0.00000E+00
         0.00000E+00
         0.00000E+00
         0.00000E+00
         0.00000E+00
         0.00000E+00
         0.00000E+00
         0.00000E+00
         0.00000E+00
         0.00000E+00
         0.00000E+00
         0.00000E+00
         0.00000E+00
         0.00000E+00
         0.00000E+00
         0.00000E+00
         0.00000E+00
         0.00000E+00
         0.00000E+00
         0.00000E+00
         0.00000E+00
         0.00000E+00
         0.00000E+00
         0.00000E+00
         0.00000E+00
         0.00000E+00
         0.00000E+00
         0.00000E+00
         0.00000E+00
         0.00000E+00
         0.00000E+00
         0.00000E+00
         0.00000E+00
         0.00000E+00
         0.00000E+00
         0.00000E+00
         0.00000E+00
         0.00000E+00
         0.00000E+00
         0.00000E+00
         0.00000E+00
         0.00000E+00
         0.00000E+00
         0.00000E+00
         0.00000E+00
         0.00000E+00
         0.00000E+00
         0.00000E+00
         0.00000E+00
         0.00000E+00
         0.00000E+00
         0.00000E+00
         0.00000E+00
         0.00000E+00
         0.00000E+00
         0.00000E+00
         0.00000E+00
         0.00000E+00
         0.00000E+00
         0.00000E+00
         0.00000E+00
         0.00000E+00
         0.00000E+00
         0.00000E+00
         0.00000E+00
         0.00000E+00
         0.00000E+00
         0.00000E+00
         0.00000E+00
         0.00000E+00
         0.00000E+00
         0.00000E+00
         0.00000E+00
         0.00000E+00
         0.00000E+00
         0.00000E+00
         0.00000E+00
         0.00000E+00
         0.00000E+00
         0.00000E+00
         0.00000E+00
         0.00000E+00
         0.00000E+00
         0.00000E+00
         0.00000E+00
         0.00000E+00
         0.00000E+00
         0.00000E+00
         0.00000E+00
         0.00000E+00
         0.00000E+00
         0.00000E+00
         0.00000E+00
         0.00000E+00
         0.00000E+00
         0.00000E+00
         0.00000E+00
         0.00000E+00
         0.00000E+00
         0.00000E+00
         0.00000E+00
         0.00000E+00
         0.00000E+00
         0.00000E+00
         0.00000E+00
         0.00000E+00
         0.00000E+00
         0.00000E+00
         0.00000E+00
         0.00000E+00
         0.00000E+00
         0.00000E+00
         0.00000E+00
         0.00000E+00
         0.00000E+00
         0.00000E+00
         0.00000E+00
         0.00000E+00
         0.00000E+00
         0.00000E+00
         0.00000E+00
         0.00000E+00
         0.00000E+00
         0.00000E+00
         0.00000E+00
         0.00000E+00
         0.00000E+00
         0.00000E+00
         0.00000E+00
         0.00000E+00
         0.00000E+00
         0.00000E+00
         0.00000E+00
         0.00000E+00
         0.00000E+00
         0.00000E+00
         0.00000E+00
         0.00000E+00
         0.00000E+00
         0.00000E+00
         0.00000E+00
         0.00000E+00
         0.00000E+00
         0.00000E+00
         0.00000E+00
         0.00000E+00
         0.00000E+00
         0.00000E+00
         0.00000E+00
         0.00000E+00
         0.00000E+00
         0.00000E+00
         0.00000E+00
         0.00000E+00
         0.00000E+00
         0.00000E+00
         0.00000E+00
         0.00000E+00
         0.00000E+00
         0.00000E+00
         0.00000E+00
         0.00000E+00
         0.00000E+00
         0.00000E+00
         0.00000E+00
         0.00000E+00
         0.00000E+00
         0.00000E+00
         0.00000E+00
         0.00000E+00
         0.00000E+00
         0.00000E+00
         0.00000E+00
         0.00000E+00
         0.00000E+00
         0.00000E+00
         0.00000E+00
         0.00000E+00
         0.00000E+00
         0.00000E+00
         0.00000E+00
         0.00000E+00
         0.00000E+00
         0.00000E+00
         0.00000E+00
         0.00000E+00
         0.00000E+00
         0.00000E+00
         0.00000E+00
         0.00000E+00
         0.00000E+00
         0.00000E+00
         0.00000E+00
         0.00000E+00
         0.00000E+00
         0.00000E+00
         0.00000E+00
         0.00000E+00
         0.00000E+00
         0.00000E+00
         0.00000E+00
         0.00000E+00
         0.00000E+00
         0.00000E+00
         0.00000E+00
         0.00000E+00
         0.00000E+00
         0.00000E+00
         0.00000E+00
         0.00000E+00
         0.00000E+00
         0.00000E+00
         0.00000E+00
         0.00000E+00
         0.00000E+00
         0.00000E+00
         0.00000E+00
         0.00000E+00
         0.00000E+00
         0.00000E+00
         0.00000E+00
         0.00000E+00
         0.00000E+00
         0.00000E+00
         0.00000E+00
         0.00000E+00
         0.00000E+00
         0.00000E+00
         0.00000E+00
         0.00000E+00
         0.00000E+00
         0.00000E+00
         0.00000E+00
         0.00000E+00
         0.00000E+00
         0.00000E+00
         0.00000E+00
         0.00000E+00
         0.00000E+00
         0.00000E+00
         0.00000E+00
         0.00000E+00
         0.00000E+00
         0.00000E+00
         0.00000E+00
         0.00000E+00
         0.00000E+00
         0.00000E+00
         0.00000E+00
         0.00000E+00
         0.00000E+00
         0.00000E+00
         0.00000E+00
         0.00000E+00
         0.00000E+00
         0.00000E+00
         0.00000E+00
         0.00000E+00
         0.00000E+00
         0.00000E+00
         0.00000E+00
         0.00000E+00
         0.00000E+00
         0.00000E+00
         0.00000E+00
         0.00000E+00
         0.00000E+00
         0.00000E+00
         0.00000E+00
         0.00000E+00
         0.00000E+00
         0.00000E+00
         0.00000E+00
         0.00000E+00
         0.00000E+00
         0.00000E+00
         0.00000E+00
         0.00000E+00
         0.00000E+00
         0.00000E+00
         0.00000E+00
         0.00000E+00
         0.00000E+00
         0.00000E+00
         0.00000E+00
         0.00000E+00
         0.00000E+00
         0.00000E+00
         0.00000E+00
         0.00000E+00
         0.00000E+00
         0.00000E+00
         0.00000E+00
         0.00000E+00
         0.00000E+00
         0.00000E+00
         0.00000E+00
         0.00000E+00
         0.00000E+00
         0.00000E+00
         0.00000E+00
         0.00000E+00
         0.00000E+00
         0.00000E+00
         0.00000E+00
         0.00000E+00
         0.00000E+00
         0.00000E+00
         0.00000E+00
         0.00000E+00
         0.00000E+00
         0.00000E+00
         0.00000E+00
         0.00000E+00
         0.00000E+00
         0.00000E+00
         0.00000E+00
         0.00000E+00
         0.00000E+00
         0.00000E+00
         0.00000E+00
         0.00000E+00
         0.00000E+00
         0.00000E+00
         0.00000E+00
         0.00000E+00
         0.00000E+00
         0.00000E+00
         0.00000E+00
         0.00000E+00
         0.00000E+00
         0.00000E+00
         0.00000E+00
         0.00000E+00
         0.00000E+00
         0.00000E+00
         0.00000E+00
         0.00000E+00
         0.00000E+00
         0.00000E+00
         0.00000E+00
         0.00000E+00
         0.00000E+00
         0.00000E+00
         0.00000E+00
         0.00000E+00
         0.00000E+00
         0.00000E+00
         0.00000E+00
         0.00000E+00
         0.00000E+00
         0.00000E+00
         0.00000E+00
         0.00000E+00
         0.00000E+00
         0.00000E+00
         0.00000E+00
         0.00000E+00
         0.00000E+00
         0.00000E+00
         0.00000E+00
         0.00000E+00
         0.00000E+00
         0.00000E+00
         0.00000E+00
         0.00000E+00
         0.00000E+00
         0.00000E+00
         0.00000E+00
         0.00000E+00
         0.00000E+00
         0.00000E+00
         0.00000E+00
         0.00000E+00
         0.00000E+00
         0.00000E+00
         0.00000E+00
         0.00000E+00
         0.00000E+00
         0.00000E+00
         0.00000E+00
         0.00000E+00
         0.00000E+00
         0.00000E+00
         0.00000E+00
         0.00000E+00
         0.00000E+00
         0.00000E+00
         0.00000E+00
         0.00000E+00
         0.00000E+00
         0.00000E+00
         0.00000E+00
         0.00000E+00
         0.00000E+00
         0.00000E+00
         0.00000E+00
         0.00000E+00
         0.00000E+00
         0.00000E+00
         0.00000E+00
         0.00000E+00
         0.00000E+00
         0.00000E+00
         0.00000E+00
         0.00000E+00
         0.00000E+00
         0.00000E+00
         0.00000E+00
         0.00000E+00
         0.00000E+00
         0.00000E+00
         0.00000E+00
         0.00000E+00
         0.00000E+00
         0.00000E+00
         0.00000E+00
         0.00000E+00
         0.00000E+00
         0.00000E+00
         0.00000E+00
         0.00000E+00
         0.00000E+00
         0.00000E+00
         0.00000E+00
         0.00000E+00
         0.00000E+00
         0.00000E+00
         0.00000E+00
         0.00000E+00
         0.00000E+00
         0.00000E+00
         0.00000E+00
         0.00000E+00
         0.00000E+00
         0.00000E+00
         0.00000E+00
         0.00000E+00
         0.00000E+00
         0.00000E+00
         0.00000E+00
         0.00000E+00
         0.00000E+00
         0.00000E+00
         0.00000E+00
         0.00000E+00
         0.00000E+00
         0.00000E+00
         0.00000E+00
         0.00000E+00
         0.00000E+00
         0.00000E+00
         0.00000E+00
         0.00000E+00
         0.00000E+00
         0.00000E+00
         0.00000E+00
         0.00000E+00
         0.00000E+00
         0.00000E+00
         0.00000E+00
         0.00000E+00
         0.00000E+00
         0.00000E+00
         0.00000E+00
         0.00000E+00
         0.00000E+00
         0.00000E+00
         0.00000E+00
         0.00000E+00
         0.00000E+00
         0.00000E+00
         0.00000E+00
         0.00000E+00
         0.00000E+00
         0.00000E+00
         0.00000E+00
         0.00000E+00
         0.00000E+00
         0.00000E+00
         0.00000E+00
         0.00000E+00
         0.00000E+00
         0.00000E+00
         0.00000E+00
         0.00000E+00
         0.00000E+00
         0.00000E+00
         0.00000E+00
         0.00000E+00
         0.00000E+00
         0.00000E+00
         0.00000E+00
         0.00000E+00
         0.00000E+00
         0.00000E+00
         0.00000E+00
         0.00000E+00
         0.00000E+00
         0.00000E+00
         0.00000E+00
         0.00000E+00
         0.00000E+00
         0.00000E+00
         0.00000E+00
         0.00000E+00
         0.00000E+00
         0.00000E+00
         0.00000E+00
         0.00000E+00
         0.00000E+00
         0.00000E+00
         0.00000E+00
         0.00000E+00
         0.00000E+00
         0.00000E+00
         0.00000E+00
         0.00000E+00
         0.00000E+00
         0.00000E+00
         0.00000E+00
         0.00000E+00
         0.00000E+00
         0.00000E+00
         0.00000E+00
         0.00000E+00
         0.00000E+00
         0.00000E+00
         0.00000E+00
         0.00000E+00
         0.00000E+00
         0.00000E+00
         0.00000E+00
         0.00000E+00
         0.00000E+00
         0.00000E+00
         0.00000E+00
         0.00000E+00
         0.00000E+00
         0.00000E+00
         0.00000E+00
         0.00000E+00
         0.00000E+00
         0.00000E+00
         0.00000E+00
         0.00000E+00
         0.00000E+00
         0.00000E+00
         0.00000E+00
         0.00000E+00
         0.00000E+00
         0.00000E+00
         0.00000E+00
         0.00000E+00
         0.00000E+00
         0.00000E+00
         0.00000E+00
         0.00000E+00
         0.00000E+00
         0.00000E+00
         0.00000E+00
         0.00000E+00
         0.00000E+00
         0.00000E+00
         0.00000E+00
         0.00000E+00
         0.00000E+00
         0.00000E+00
         0.00000E+00
         0.00000E+00
         0.00000E+00
         0.00000E+00
         0.00000E+00
         0.00000E+00
         0.00000E+00
         0.00000E+00
         0.00000E+00
         0.00000E+00
         0.00000E+00
         0.00000E+00
         0.00000E+00
         0.00000E+00
         0.00000E+00
         0.00000E+00
         0.00000E+00
         0.00000E+00
         0.00000E+00
         0.00000E+00
         0.00000E+00
         0.00000E+00
         0.00000E+00
         0.00000E+00
         0.00000E+00
         0.00000E+00
         0.00000E+00
         0.00000E+00
         0.00000E+00
         0.00000E+00
         0.00000E+00
         0.00000E+00
         0.00000E+00
         0.00000E+00
         0.00000E+00
         0.00000E+00
         0.00000E+00
         0.00000E+00
         0.00000E+00
         0.00000E+00
         0.00000E+00
         0.00000E+00
         0.00000E+00
         0.00000E+00
         0.00000E+00
         0.00000E+00
         0.00000E+00
         0.00000E+00
         0.00000E+00
         0.00000E+00
         0.00000E+00
         0.00000E+00
         0.00000E+00
         0.00000E+00
         0.00000E+00
         0.00000E+00
         0.00000E+00
         0.00000E+00
         0.00000E+00
         0.00000E+00
         0.00000E+00
         0.00000E+00
         0.00000E+00
         0.00000E+00
         0.00000E+00
         0.00000E+00
         0.00000E+00
         0.00000E+00
         0.00000E+00
         0.00000E+00
         0.00000E+00
         0.00000E+00
         0.00000E+00
  
SCALARS                init_velocity_z  double 1
LOOKUP_TABLE default
        -0.37300E+03
        -0.37300E+03
        -0.37300E+03
        -0.37300E+03
        -0.37300E+03
        -0.37300E+03
        -0.37300E+03
        -0.37300E+03
        -0.37300E+03
        -0.37300E+03
        -0.37300E+03
        -0.37300E+03
        -0.37300E+03
        -0.37300E+03
        -0.37300E+03
        -0.37300E+03
        -0.37300E+03
        -0.37300E+03
        -0.37300E+03
        -0.37300E+03
        -0.37300E+03
        -0.37300E+03
        -0.37300E+03
        -0.37300E+03
        -0.37300E+03
        -0.37300E+03
        -0.37300E+03
        -0.37300E+03
        -0.37300E+03
        -0.37300E+03
        -0.37300E+03
        -0.37300E+03
        -0.37300E+03
        -0.37300E+03
        -0.37300E+03
        -0.37300E+03
        -0.37300E+03
        -0.37300E+03
        -0.37300E+03
        -0.37300E+03
        -0.37300E+03
        -0.37300E+03
        -0.37300E+03
        -0.37300E+03
        -0.37300E+03
        -0.37300E+03
        -0.37300E+03
        -0.37300E+03
        -0.37300E+03
        -0.37300E+03
        -0.37300E+03
        -0.37300E+03
        -0.37300E+03
        -0.37300E+03
        -0.37300E+03
        -0.37300E+03
        -0.37300E+03
        -0.37300E+03
        -0.37300E+03
        -0.37300E+03
        -0.37300E+03
        -0.37300E+03
        -0.37300E+03
        -0.37300E+03
        -0.37300E+03
        -0.37300E+03
        -0.37300E+03
        -0.37300E+03
        -0.37300E+03
        -0.37300E+03
        -0.37300E+03
        -0.37300E+03
        -0.37300E+03
        -0.37300E+03
        -0.37300E+03
        -0.37300E+03
        -0.37300E+03
        -0.37300E+03
        -0.37300E+03
        -0.37300E+03
        -0.37300E+03
        -0.37300E+03
        -0.37300E+03
        -0.37300E+03
        -0.37300E+03
        -0.37300E+03
        -0.37300E+03
        -0.37300E+03
        -0.37300E+03
        -0.37300E+03
        -0.37300E+03
        -0.37300E+03
        -0.37300E+03
        -0.37300E+03
        -0.37300E+03
        -0.37300E+03
        -0.37300E+03
        -0.37300E+03
        -0.37300E+03
        -0.37300E+03
        -0.37300E+03
        -0.37300E+03
        -0.37300E+03
        -0.37300E+03
        -0.37300E+03
        -0.37300E+03
        -0.37300E+03
        -0.37300E+03
        -0.37300E+03
        -0.37300E+03
        -0.37300E+03
        -0.37300E+03
        -0.37300E+03
        -0.37300E+03
        -0.37300E+03
        -0.37300E+03
        -0.37300E+03
        -0.37300E+03
        -0.37300E+03
        -0.37300E+03
        -0.37300E+03
        -0.37300E+03
        -0.37300E+03
        -0.37300E+03
        -0.37300E+03
        -0.37300E+03
        -0.37300E+03
        -0.37300E+03
        -0.37300E+03
        -0.37300E+03
        -0.37300E+03
        -0.37300E+03
        -0.37300E+03
        -0.37300E+03
        -0.37300E+03
        -0.37300E+03
        -0.37300E+03
        -0.37300E+03
        -0.37300E+03
        -0.37300E+03
        -0.37300E+03
        -0.37300E+03
        -0.37300E+03
        -0.37300E+03
        -0.37300E+03
        -0.37300E+03
        -0.37300E+03
        -0.37300E+03
        -0.37300E+03
        -0.37300E+03
        -0.37300E+03
        -0.37300E+03
        -0.37300E+03
        -0.37300E+03
        -0.37300E+03
        -0.37300E+03
        -0.37300E+03
        -0.37300E+03
        -0.37300E+03
        -0.37300E+03
        -0.37300E+03
        -0.37300E+03
        -0.37300E+03
        -0.37300E+03
        -0.37300E+03
        -0.37300E+03
        -0.37300E+03
        -0.37300E+03
        -0.37300E+03
        -0.37300E+03
        -0.37300E+03
        -0.37300E+03
        -0.37300E+03
        -0.37300E+03
        -0.37300E+03
        -0.37300E+03
        -0.37300E+03
        -0.37300E+03
        -0.37300E+03
        -0.37300E+03
        -0.37300E+03
        -0.37300E+03
        -0.37300E+03
        -0.37300E+03
        -0.37300E+03
        -0.37300E+03
        -0.37300E+03
        -0.37300E+03
        -0.37300E+03
        -0.37300E+03
        -0.37300E+03
        -0.37300E+03
        -0.37300E+03
        -0.37300E+03
        -0.37300E+03
        -0.37300E+03
        -0.37300E+03
        -0.37300E+03
        -0.37300E+03
        -0.37300E+03
        -0.37300E+03
        -0.37300E+03
        -0.37300E+03
        -0.37300E+03
        -0.37300E+03
        -0.37300E+03
        -0.37300E+03
        -0.37300E+03
        -0.37300E+03
        -0.37300E+03
        -0.37300E+03
        -0.37300E+03
        -0.37300E+03
        -0.37300E+03
        -0.37300E+03
        -0.37300E+03
        -0.37300E+03
        -0.37300E+03
        -0.37300E+03
        -0.37300E+03
        -0.37300E+03
        -0.37300E+03
        -0.37300E+03
        -0.37300E+03
        -0.37300E+03
        -0.37300E+03
        -0.37300E+03
        -0.37300E+03
        -0.37300E+03
        -0.37300E+03
        -0.37300E+03
        -0.37300E+03
        -0.37300E+03
        -0.37300E+03
        -0.37300E+03
        -0.37300E+03
        -0.37300E+03
        -0.37300E+03
        -0.37300E+03
        -0.37300E+03
        -0.37300E+03
        -0.37300E+03
        -0.37300E+03
        -0.37300E+03
        -0.37300E+03
        -0.37300E+03
        -0.37300E+03
        -0.37300E+03
        -0.37300E+03
        -0.37300E+03
        -0.37300E+03
        -0.37300E+03
        -0.37300E+03
        -0.37300E+03
        -0.37300E+03
        -0.37300E+03
        -0.37300E+03
        -0.37300E+03
        -0.37300E+03
        -0.37300E+03
        -0.37300E+03
        -0.37300E+03
        -0.37300E+03
        -0.37300E+03
        -0.37300E+03
        -0.37300E+03
        -0.37300E+03
        -0.37300E+03
        -0.37300E+03
        -0.37300E+03
        -0.37300E+03
        -0.37300E+03
        -0.37300E+03
        -0.37300E+03
        -0.37300E+03
        -0.37300E+03
        -0.37300E+03
        -0.37300E+03
        -0.37300E+03
        -0.37300E+03
        -0.37300E+03
        -0.37300E+03
        -0.37300E+03
        -0.37300E+03
        -0.37300E+03
        -0.37300E+03
        -0.37300E+03
        -0.37300E+03
        -0.37300E+03
        -0.37300E+03
        -0.37300E+03
        -0.37300E+03
        -0.37300E+03
        -0.37300E+03
        -0.37300E+03
        -0.37300E+03
        -0.37300E+03
        -0.37300E+03
        -0.37300E+03
        -0.37300E+03
        -0.37300E+03
        -0.37300E+03
        -0.37300E+03
        -0.37300E+03
        -0.37300E+03
        -0.37300E+03
        -0.37300E+03
        -0.37300E+03
        -0.37300E+03
        -0.37300E+03
        -0.37300E+03
        -0.37300E+03
        -0.37300E+03
        -0.37300E+03
        -0.37300E+03
        -0.37300E+03
        -0.37300E+03
        -0.37300E+03
        -0.37300E+03
        -0.37300E+03
        -0.37300E+03
        -0.37300E+03
        -0.37300E+03
        -0.37300E+03
        -0.37300E+03
        -0.37300E+03
        -0.37300E+03
        -0.37300E+03
        -0.37300E+03
        -0.37300E+03
        -0.37300E+03
        -0.37300E+03
        -0.37300E+03
        -0.37300E+03
        -0.37300E+03
        -0.37300E+03
        -0.37300E+03
        -0.37300E+03
        -0.37300E+03
        -0.37300E+03
        -0.37300E+03
        -0.37300E+03
        -0.37300E+03
        -0.37300E+03
        -0.37300E+03
        -0.37300E+03
        -0.37300E+03
        -0.37300E+03
        -0.37300E+03
        -0.37300E+03
        -0.37300E+03
        -0.37300E+03
        -0.37300E+03
        -0.37300E+03
        -0.37300E+03
        -0.37300E+03
        -0.37300E+03
        -0.37300E+03
        -0.37300E+03
        -0.37300E+03
        -0.37300E+03
        -0.37300E+03
        -0.37300E+03
        -0.37300E+03
        -0.37300E+03
        -0.37300E+03
        -0.37300E+03
        -0.37300E+03
        -0.37300E+03
        -0.37300E+03
        -0.37300E+03
        -0.37300E+03
        -0.37300E+03
        -0.37300E+03
        -0.37300E+03
        -0.37300E+03
        -0.37300E+03
        -0.37300E+03
        -0.37300E+03
        -0.37300E+03
        -0.37300E+03
        -0.37300E+03
        -0.37300E+03
        -0.37300E+03
        -0.37300E+03
        -0.37300E+03
        -0.37300E+03
        -0.37300E+03
        -0.37300E+03
        -0.37300E+03
        -0.37300E+03
        -0.37300E+03
        -0.37300E+03
        -0.37300E+03
        -0.37300E+03
        -0.37300E+03
        -0.37300E+03
        -0.37300E+03
        -0.37300E+03
        -0.37300E+03
        -0.37300E+03
        -0.37300E+03
        -0.37300E+03
        -0.37300E+03
        -0.37300E+03
        -0.37300E+03
        -0.37300E+03
        -0.37300E+03
        -0.37300E+03
        -0.37300E+03
        -0.37300E+03
        -0.37300E+03
        -0.37300E+03
        -0.37300E+03
        -0.37300E+03
        -0.37300E+03
        -0.37300E+03
        -0.37300E+03
        -0.37300E+03
        -0.37300E+03
        -0.37300E+03
        -0.37300E+03
        -0.37300E+03
        -0.37300E+03
        -0.37300E+03
        -0.37300E+03
        -0.37300E+03
        -0.37300E+03
        -0.37300E+03
        -0.37300E+03
        -0.37300E+03
        -0.37300E+03
        -0.37300E+03
        -0.37300E+03
        -0.37300E+03
        -0.37300E+03
        -0.37300E+03
        -0.37300E+03
        -0.37300E+03
        -0.37300E+03
        -0.37300E+03
        -0.37300E+03
        -0.37300E+03
        -0.37300E+03
        -0.37300E+03
        -0.37300E+03
        -0.37300E+03
        -0.37300E+03
        -0.37300E+03
        -0.37300E+03
        -0.37300E+03
        -0.37300E+03
        -0.37300E+03
        -0.37300E+03
        -0.37300E+03
        -0.37300E+03
        -0.37300E+03
        -0.37300E+03
        -0.37300E+03
        -0.37300E+03
        -0.37300E+03
        -0.37300E+03
        -0.37300E+03
        -0.37300E+03
        -0.37300E+03
        -0.37300E+03
        -0.37300E+03
        -0.37300E+03
        -0.37300E+03
        -0.37300E+03
        -0.37300E+03
        -0.37300E+03
        -0.37300E+03
        -0.37300E+03
        -0.37300E+03
        -0.37300E+03
        -0.37300E+03
        -0.37300E+03
        -0.37300E+03
        -0.37300E+03
        -0.37300E+03
        -0.37300E+03
        -0.37300E+03
        -0.37300E+03
        -0.37300E+03
        -0.37300E+03
        -0.37300E+03
        -0.37300E+03
        -0.37300E+03
        -0.37300E+03
        -0.37300E+03
        -0.37300E+03
        -0.37300E+03
        -0.37300E+03
        -0.37300E+03
        -0.37300E+03
        -0.37300E+03
        -0.37300E+03
        -0.37300E+03
        -0.37300E+03
        -0.37300E+03
        -0.37300E+03
        -0.37300E+03
        -0.37300E+03
        -0.37300E+03
        -0.37300E+03
        -0.37300E+03
        -0.37300E+03
        -0.37300E+03
        -0.37300E+03
        -0.37300E+03
        -0.37300E+03
        -0.37300E+03
        -0.37300E+03
        -0.37300E+03
        -0.37300E+03
        -0.37300E+03
        -0.37300E+03
        -0.37300E+03
        -0.37300E+03
        -0.37300E+03
        -0.37300E+03
        -0.37300E+03
        -0.37300E+03
        -0.37300E+03
        -0.37300E+03
        -0.37300E+03
        -0.37300E+03
        -0.37300E+03
        -0.37300E+03
        -0.37300E+03
        -0.37300E+03
        -0.37300E+03
        -0.37300E+03
        -0.37300E+03
        -0.37300E+03
        -0.37300E+03
        -0.37300E+03
        -0.37300E+03
        -0.37300E+03
        -0.37300E+03
        -0.37300E+03
        -0.37300E+03
        -0.37300E+03
        -0.37300E+03
        -0.37300E+03
        -0.37300E+03
        -0.37300E+03
        -0.37300E+03
        -0.37300E+03
        -0.37300E+03
        -0.37300E+03
        -0.37300E+03
        -0.37300E+03
        -0.37300E+03
        -0.37300E+03
        -0.37300E+03
        -0.37300E+03
        -0.37300E+03
        -0.37300E+03
        -0.37300E+03
        -0.37300E+03
        -0.37300E+03
        -0.37300E+03
        -0.37300E+03
        -0.37300E+03
        -0.37300E+03
        -0.37300E+03
        -0.37300E+03
        -0.37300E+03
        -0.37300E+03
        -0.37300E+03
        -0.37300E+03
        -0.37300E+03
        -0.37300E+03
        -0.37300E+03
        -0.37300E+03
        -0.37300E+03
        -0.37300E+03
        -0.37300E+03
        -0.37300E+03
        -0.37300E+03
        -0.37300E+03
        -0.37300E+03
        -0.37300E+03
        -0.37300E+03
        -0.37300E+03
        -0.37300E+03
        -0.37300E+03
        -0.37300E+03
        -0.37300E+03
        -0.37300E+03
        -0.37300E+03
        -0.37300E+03
        -0.37300E+03
        -0.37300E+03
        -0.37300E+03
        -0.37300E+03
        -0.37300E+03
        -0.37300E+03
        -0.37300E+03
        -0.37300E+03
        -0.37300E+03
        -0.37300E+03
        -0.37300E+03
        -0.37300E+03
        -0.37300E+03
        -0.37300E+03
        -0.37300E+03
        -0.37300E+03
        -0.37300E+03
        -0.37300E+03
        -0.37300E+03
        -0.37300E+03
        -0.37300E+03
        -0.37300E+03
        -0.37300E+03
        -0.37300E+03
        -0.37300E+03
        -0.37300E+03
        -0.37300E+03
        -0.37300E+03
        -0.37300E+03
        -0.37300E+03
        -0.37300E+03
        -0.37300E+03
        -0.37300E+03
        -0.37300E+03
        -0.37300E+03
        -0.37300E+03
        -0.37300E+03
        -0.37300E+03
        -0.37300E+03
        -0.37300E+03
        -0.37300E+03
        -0.37300E+03
        -0.37300E+03
        -0.37300E+03
        -0.37300E+03
        -0.37300E+03
        -0.37300E+03
        -0.37300E+03
        -0.37300E+03
        -0.37300E+03
        -0.37300E+03
        -0.37300E+03
        -0.37300E+03
        -0.37300E+03
        -0.37300E+03
        -0.37300E+03
        -0.37300E+03
        -0.37300E+03
        -0.37300E+03
        -0.37300E+03
        -0.37300E+03
        -0.37300E+03
        -0.37300E+03
        -0.37300E+03
        -0.37300E+03
        -0.37300E+03
        -0.37300E+03
        -0.37300E+03
        -0.37300E+03
        -0.37300E+03
        -0.37300E+03
        -0.37300E+03
        -0.37300E+03
        -0.37300E+03
        -0.37300E+03
        -0.37300E+03
        -0.37300E+03
        -0.37300E+03
        -0.37300E+03
        -0.37300E+03
        -0.37300E+03
        -0.37300E+03
        -0.37300E+03
        -0.37300E+03
        -0.37300E+03
        -0.37300E+03
        -0.37300E+03
        -0.37300E+03
        -0.37300E+03
        -0.37300E+03
        -0.37300E+03
        -0.37300E+03
        -0.37300E+03
        -0.37300E+03
        -0.37300E+03
        -0.37300E+03
        -0.37300E+03
        -0.37300E+03
        -0.37300E+03
        -0.37300E+03
        -0.37300E+03
        -0.37300E+03
        -0.37300E+03
        -0.37300E+03
        -0.37300E+03
        -0.37300E+03
        -0.37300E+03
        -0.37300E+03
        -0.37300E+03
        -0.37300E+03
        -0.37300E+03
        -0.37300E+03
        -0.37300E+03
        -0.37300E+03
        -0.37300E+03
        -0.37300E+03
        -0.37300E+03
        -0.37300E+03
        -0.37300E+03
        -0.37300E+03
        -0.37300E+03
        -0.37300E+03
        -0.37300E+03
        -0.37300E+03
        -0.37300E+03
        -0.37300E+03
        -0.37300E+03
        -0.37300E+03
        -0.37300E+03
        -0.37300E+03
        -0.37300E+03
        -0.37300E+03
        -0.37300E+03
        -0.37300E+03
        -0.37300E+03
        -0.37300E+03
        -0.37300E+03
        -0.37300E+03
        -0.37300E+03
        -0.37300E+03
        -0.37300E+03
        -0.37300E+03
        -0.37300E+03
        -0.37300E+03
        -0.37300E+03
        -0.37300E+03
        -0.37300E+03
        -0.37300E+03
        -0.37300E+03
        -0.37300E+03
        -0.37300E+03
        -0.37300E+03
        -0.37300E+03
        -0.37300E+03
        -0.37300E+03
        -0.37300E+03
        -0.37300E+03
        -0.37300E+03
        -0.37300E+03
        -0.37300E+03
        -0.37300E+03
        -0.37300E+03
        -0.37300E+03
        -0.37300E+03
        -0.37300E+03
        -0.37300E+03
        -0.37300E+03
        -0.37300E+03
        -0.37300E+03
        -0.37300E+03
        -0.37300E+03
        -0.37300E+03
        -0.37300E+03
        -0.37300E+03
        -0.37300E+03
        -0.37300E+03
        -0.37300E+03
        -0.37300E+03
        -0.37300E+03
        -0.37300E+03
        -0.37300E+03
        -0.37300E+03
        -0.37300E+03
        -0.37300E+03
        -0.37300E+03
        -0.37300E+03
        -0.37300E+03
        -0.37300E+03
        -0.37300E+03
        -0.37300E+03
        -0.37300E+03
        -0.37300E+03
        -0.37300E+03
        -0.37300E+03
        -0.37300E+03
        -0.37300E+03
        -0.37300E+03
        -0.37300E+03
        -0.37300E+03
        -0.37300E+03
        -0.37300E+03
        -0.37300E+03
        -0.37300E+03
        -0.37300E+03
        -0.37300E+03
        -0.37300E+03
        -0.37300E+03
        -0.37300E+03
        -0.37300E+03
        -0.37300E+03
        -0.37300E+03
        -0.37300E+03
        -0.37300E+03
        -0.37300E+03
        -0.37300E+03
        -0.37300E+03
        -0.37300E+03
        -0.37300E+03
        -0.37300E+03
        -0.37300E+03
        -0.37300E+03
        -0.37300E+03
        -0.37300E+03
        -0.37300E+03
        -0.37300E+03
        -0.37300E+03
        -0.37300E+03
        -0.37300E+03
        -0.37300E+03
        -0.37300E+03
        -0.37300E+03
        -0.37300E+03
        -0.37300E+03
        -0.37300E+03
        -0.37300E+03
        -0.37300E+03
        -0.37300E+03
        -0.37300E+03
        -0.37300E+03
        -0.37300E+03
        -0.37300E+03
        -0.37300E+03
        -0.37300E+03
        -0.37300E+03
        -0.37300E+03
        -0.37300E+03
        -0.37300E+03
        -0.37300E+03
        -0.37300E+03
        -0.37300E+03
        -0.37300E+03
        -0.37300E+03
        -0.37300E+03
        -0.37300E+03
        -0.37300E+03
        -0.37300E+03
        -0.37300E+03
        -0.37300E+03
        -0.37300E+03
        -0.37300E+03
        -0.37300E+03
        -0.37300E+03
        -0.37300E+03
        -0.37300E+03
        -0.37300E+03
        -0.37300E+03
        -0.37300E+03
        -0.37300E+03
        -0.37300E+03
        -0.37300E+03
        -0.37300E+03
        -0.37300E+03
        -0.37300E+03
        -0.37300E+03
        -0.37300E+03
        -0.37300E+03
        -0.37300E+03
        -0.37300E+03
        -0.37300E+03
        -0.37300E+03
        -0.37300E+03
        -0.37300E+03
        -0.37300E+03
        -0.37300E+03
        -0.37300E+03
        -0.37300E+03
        -0.37300E+03
        -0.37300E+03
        -0.37300E+03
        -0.37300E+03
        -0.37300E+03
        -0.37300E+03
        -0.37300E+03
        -0.37300E+03
        -0.37300E+03
        -0.37300E+03
        -0.37300E+03
        -0.37300E+03
        -0.37300E+03
        -0.37300E+03
        -0.37300E+03
        -0.37300E+03
        -0.37300E+03
        -0.37300E+03
        -0.37300E+03
        -0.37300E+03
        -0.37300E+03
        -0.37300E+03
        -0.37300E+03
        -0.37300E+03
        -0.37300E+03
        -0.37300E+03
        -0.37300E+03
        -0.37300E+03
        -0.37300E+03
        -0.37300E+03
        -0.37300E+03
        -0.37300E+03
        -0.37300E+03
        -0.37300E+03
        -0.37300E+03
        -0.37300E+03
        -0.37300E+03
        -0.37300E+03
        -0.37300E+03
        -0.37300E+03
        -0.37300E+03
        -0.37300E+03
        -0.37300E+03
        -0.37300E+03
        -0.37300E+03
        -0.37300E+03
        -0.37300E+03
        -0.37300E+03
        -0.37300E+03
        -0.37300E+03
        -0.37300E+03
        -0.37300E+03
        -0.37300E+03
        -0.37300E+03
        -0.37300E+03
        -0.37300E+03
        -0.37300E+03
        -0.37300E+03
        -0.37300E+03
        -0.37300E+03
        -0.37300E+03
        -0.37300E+03
        -0.37300E+03
        -0.37300E+03
        -0.37300E+03
        -0.37300E+03
        -0.37300E+03
        -0.37300E+03
        -0.37300E+03
        -0.37300E+03
        -0.37300E+03
        -0.37300E+03
        -0.37300E+03
        -0.37300E+03
        -0.37300E+03
        -0.37300E+03
        -0.37300E+03
        -0.37300E+03
        -0.37300E+03
        -0.37300E+03
        -0.37300E+03
        -0.37300E+03
        -0.37300E+03
        -0.37300E+03
        -0.37300E+03
        -0.37300E+03
        -0.37300E+03
        -0.37300E+03
        -0.37300E+03
        -0.37300E+03
        -0.37300E+03
        -0.37300E+03
        -0.37300E+03
        -0.37300E+03
        -0.37300E+03
        -0.37300E+03
        -0.37300E+03
        -0.37300E+03
        -0.37300E+03
        -0.37300E+03
        -0.37300E+03
        -0.37300E+03
        -0.37300E+03
        -0.37300E+03
        -0.37300E+03
        -0.37300E+03
        -0.37300E+03
        -0.37300E+03
        -0.37300E+03
        -0.37300E+03
        -0.37300E+03
        -0.37300E+03
        -0.37300E+03
        -0.37300E+03
        -0.37300E+03
        -0.37300E+03
        -0.37300E+03
        -0.37300E+03
        -0.37300E+03
        -0.37300E+03
        -0.37300E+03
        -0.37300E+03
        -0.37300E+03
        -0.37300E+03
        -0.37300E+03
        -0.37300E+03
        -0.37300E+03
        -0.37300E+03
        -0.37300E+03
        -0.37300E+03
        -0.37300E+03
        -0.37300E+03
        -0.37300E+03
        -0.37300E+03
        -0.37300E+03
        -0.37300E+03
        -0.37300E+03
        -0.37300E+03
        -0.37300E+03
        -0.37300E+03
        -0.37300E+03
        -0.37300E+03
        -0.37300E+03
        -0.37300E+03
        -0.37300E+03
        -0.37300E+03
        -0.37300E+03
        -0.37300E+03
        -0.37300E+03
        -0.37300E+03
        -0.37300E+03
        -0.37300E+03
        -0.37300E+03
        -0.37300E+03
        -0.37300E+03
        -0.37300E+03
        -0.37300E+03
        -0.37300E+03
        -0.37300E+03
        -0.37300E+03
        -0.37300E+03
        -0.37300E+03
        -0.37300E+03
        -0.37300E+03
        -0.37300E+03
        -0.37300E+03
        -0.37300E+03
        -0.37300E+03
        -0.37300E+03
        -0.37300E+03
        -0.37300E+03
        -0.37300E+03
        -0.37300E+03
        -0.37300E+03
        -0.37300E+03
        -0.37300E+03
        -0.37300E+03
        -0.37300E+03
        -0.37300E+03
        -0.37300E+03
        -0.37300E+03
        -0.37300E+03
        -0.37300E+03
        -0.37300E+03
        -0.37300E+03
        -0.37300E+03
        -0.37300E+03
        -0.37300E+03
        -0.37300E+03
        -0.37300E+03
        -0.37300E+03
        -0.37300E+03
        -0.37300E+03
        -0.37300E+03
        -0.37300E+03
        -0.37300E+03
        -0.37300E+03
        -0.37300E+03
        -0.37300E+03
        -0.37300E+03
        -0.37300E+03
        -0.37300E+03
        -0.37300E+03
        -0.37300E+03
        -0.37300E+03
        -0.37300E+03
        -0.37300E+03
        -0.37300E+03
        -0.37300E+03
        -0.37300E+03
        -0.37300E+03
        -0.37300E+03
        -0.37300E+03
        -0.37300E+03
        -0.37300E+03
        -0.37300E+03
        -0.37300E+03
        -0.37300E+03
        -0.37300E+03
        -0.37300E+03
        -0.37300E+03
        -0.37300E+03
        -0.37300E+03
        -0.37300E+03
        -0.37300E+03
        -0.37300E+03
        -0.37300E+03
        -0.37300E+03
        -0.37300E+03
        -0.37300E+03
        -0.37300E+03
        -0.37300E+03
        -0.37300E+03
        -0.37300E+03
        -0.37300E+03
        -0.37300E+03
        -0.37300E+03
        -0.37300E+03
        -0.37300E+03
        -0.37300E+03
        -0.37300E+03
        -0.37300E+03
        -0.37300E+03
        -0.37300E+03
        -0.37300E+03
        -0.37300E+03
        -0.37300E+03
        -0.37300E+03
        -0.37300E+03
        -0.37300E+03
        -0.37300E+03
        -0.37300E+03
        -0.37300E+03
        -0.37300E+03
        -0.37300E+03
        -0.37300E+03
        -0.37300E+03
        -0.37300E+03
        -0.37300E+03
        -0.37300E+03
        -0.37300E+03
        -0.37300E+03
        -0.37300E+03
        -0.37300E+03
        -0.37300E+03
        -0.37300E+03
        -0.37300E+03
        -0.37300E+03
        -0.37300E+03
        -0.37300E+03
        -0.37300E+03
        -0.37300E+03
        -0.37300E+03
        -0.37300E+03
        -0.37300E+03
        -0.37300E+03
        -0.37300E+03
        -0.37300E+03
        -0.37300E+03
        -0.37300E+03
        -0.37300E+03
        -0.37300E+03
        -0.37300E+03
        -0.37300E+03
        -0.37300E+03
        -0.37300E+03
        -0.37300E+03
        -0.37300E+03
        -0.37300E+03
        -0.37300E+03
        -0.37300E+03
        -0.37300E+03
        -0.37300E+03
        -0.37300E+03
        -0.37300E+03
        -0.37300E+03
        -0.37300E+03
        -0.37300E+03
        -0.37300E+03
        -0.37300E+03
        -0.37300E+03
        -0.37300E+03
        -0.37300E+03
        -0.37300E+03
        -0.37300E+03
        -0.37300E+03
        -0.37300E+03
        -0.37300E+03
        -0.37300E+03
        -0.37300E+03
        -0.37300E+03
        -0.37300E+03
        -0.37300E+03
        -0.37300E+03
        -0.37300E+03
        -0.37300E+03
        -0.37300E+03
        -0.37300E+03
        -0.37300E+03
        -0.37300E+03
        -0.37300E+03
        -0.37300E+03
        -0.37300E+03
        -0.37300E+03
        -0.37300E+03
        -0.37300E+03
        -0.37300E+03
        -0.37300E+03
        -0.37300E+03
        -0.37300E+03
        -0.37300E+03
        -0.37300E+03
        -0.37300E+03
        -0.37300E+03
        -0.37300E+03
        -0.37300E+03
        -0.37300E+03
        -0.37300E+03
        -0.37300E+03
        -0.37300E+03
        -0.37300E+03
        -0.37300E+03
        -0.37300E+03
        -0.37300E+03
        -0.37300E+03
        -0.37300E+03
        -0.37300E+03
        -0.37300E+03
        -0.37300E+03
        -0.37300E+03
        -0.37300E+03
        -0.37300E+03
        -0.37300E+03
        -0.37300E+03
        -0.37300E+03
        -0.37300E+03
        -0.37300E+03
        -0.37300E+03
        -0.37300E+03
        -0.37300E+03
        -0.37300E+03
        -0.37300E+03
        -0.37300E+03
        -0.37300E+03
        -0.37300E+03
        -0.37300E+03
        -0.37300E+03
        -0.37300E+03
        -0.37300E+03
        -0.37300E+03
        -0.37300E+03
        -0.37300E+03
        -0.37300E+03
        -0.37300E+03
        -0.37300E+03
        -0.37300E+03
        -0.37300E+03
        -0.37300E+03
        -0.37300E+03
        -0.37300E+03
        -0.37300E+03
        -0.37300E+03
        -0.37300E+03
        -0.37300E+03
        -0.37300E+03
        -0.37300E+03
        -0.37300E+03
        -0.37300E+03
        -0.37300E+03
        -0.37300E+03
        -0.37300E+03
        -0.37300E+03
        -0.37300E+03
        -0.37300E+03
        -0.37300E+03
        -0.37300E+03
        -0.37300E+03
        -0.37300E+03
        -0.37300E+03
        -0.37300E+03
        -0.37300E+03
        -0.37300E+03
        -0.37300E+03
        -0.37300E+03
        -0.37300E+03
        -0.37300E+03
        -0.37300E+03
        -0.37300E+03
        -0.37300E+03
        -0.37300E+03
        -0.37300E+03
        -0.37300E+03
        -0.37300E+03
        -0.37300E+03
        -0.37300E+03
        -0.37300E+03
        -0.37300E+03
        -0.37300E+03
        -0.37300E+03
        -0.37300E+03
        -0.37300E+03
        -0.37300E+03
        -0.37300E+03
        -0.37300E+03
        -0.37300E+03
        -0.37300E+03
        -0.37300E+03
        -0.37300E+03
        -0.37300E+03
        -0.37300E+03
        -0.37300E+03
        -0.37300E+03
        -0.37300E+03
        -0.37300E+03
        -0.37300E+03
        -0.37300E+03
        -0.37300E+03
        -0.37300E+03
        -0.37300E+03
        -0.37300E+03
        -0.37300E+03
        -0.37300E+03
        -0.37300E+03
        -0.37300E+03
        -0.37300E+03
        -0.37300E+03
        -0.37300E+03
        -0.37300E+03
        -0.37300E+03
        -0.37300E+03
        -0.37300E+03
        -0.37300E+03
        -0.37300E+03
        -0.37300E+03
        -0.37300E+03
        -0.37300E+03
        -0.37300E+03
        -0.37300E+03
        -0.37300E+03
        -0.37300E+03
        -0.37300E+03
        -0.37300E+03
        -0.37300E+03
        -0.37300E+03
        -0.37300E+03
        -0.37300E+03
        -0.37300E+03
        -0.37300E+03
        -0.37300E+03
        -0.37300E+03
        -0.37300E+03
        -0.37300E+03
        -0.37300E+03
        -0.37300E+03
        -0.37300E+03
        -0.37300E+03
        -0.37300E+03
        -0.37300E+03
        -0.37300E+03
        -0.37300E+03
        -0.37300E+03
        -0.37300E+03
        -0.37300E+03
        -0.37300E+03
        -0.37300E+03
        -0.37300E+03
        -0.37300E+03
        -0.37300E+03
        -0.37300E+03
        -0.37300E+03
        -0.37300E+03
        -0.37300E+03
        -0.37300E+03
        -0.37300E+03
        -0.37300E+03
        -0.37300E+03
        -0.37300E+03
        -0.37300E+03
        -0.37300E+03
        -0.37300E+03
        -0.37300E+03
        -0.37300E+03
        -0.37300E+03
        -0.37300E+03
        -0.37300E+03
        -0.37300E+03
        -0.37300E+03
        -0.37300E+03
        -0.37300E+03
        -0.37300E+03
        -0.37300E+03
        -0.37300E+03
        -0.37300E+03
        -0.37300E+03
        -0.37300E+03
        -0.37300E+03
        -0.37300E+03
        -0.37300E+03
        -0.37300E+03
        -0.37300E+03
        -0.37300E+03
        -0.37300E+03
        -0.37300E+03
        -0.37300E+03
        -0.37300E+03
        -0.37300E+03
        -0.37300E+03
        -0.37300E+03
        -0.37300E+03
        -0.37300E+03
        -0.37300E+03
        -0.37300E+03
        -0.37300E+03
        -0.37300E+03
        -0.37300E+03
        -0.37300E+03
        -0.37300E+03
        -0.37300E+03
        -0.37300E+03
        -0.37300E+03
        -0.37300E+03
        -0.37300E+03
        -0.37300E+03
        -0.37300E+03
        -0.37300E+03
        -0.37300E+03
        -0.37300E+03
        -0.37300E+03
        -0.37300E+03
        -0.37300E+03
        -0.37300E+03
        -0.37300E+03
        -0.37300E+03
        -0.37300E+03
        -0.37300E+03
        -0.37300E+03
        -0.37300E+03
        -0.37300E+03
        -0.37300E+03
        -0.37300E+03
        -0.37300E+03
        -0.37300E+03
        -0.37300E+03
        -0.37300E+03
        -0.37300E+03
        -0.37300E+03
        -0.37300E+03
        -0.37300E+03
        -0.37300E+03
        -0.37300E+03
        -0.37300E+03
        -0.37300E+03
        -0.37300E+03
        -0.37300E+03
        -0.37300E+03
        -0.37300E+03
        -0.37300E+03
        -0.37300E+03
        -0.37300E+03
        -0.37300E+03
        -0.37300E+03
        -0.37300E+03
        -0.37300E+03
        -0.37300E+03
        -0.37300E+03
        -0.37300E+03
        -0.37300E+03
        -0.37300E+03
        -0.37300E+03
        -0.37300E+03
        -0.37300E+03
        -0.37300E+03
        -0.37300E+03
        -0.37300E+03
        -0.37300E+03
        -0.37300E+03
        -0.37300E+03
        -0.37300E+03
        -0.37300E+03
        -0.37300E+03
        -0.37300E+03
        -0.37300E+03
        -0.37300E+03
        -0.37300E+03
        -0.37300E+03
        -0.37300E+03
        -0.37300E+03
        -0.37300E+03
        -0.37300E+03
        -0.37300E+03
        -0.37300E+03
        -0.37300E+03
        -0.37300E+03
        -0.37300E+03
        -0.37300E+03
        -0.37300E+03
        -0.37300E+03
        -0.37300E+03
        -0.37300E+03
        -0.37300E+03
        -0.37300E+03
        -0.37300E+03
        -0.37300E+03
        -0.37300E+03
        -0.37300E+03
        -0.37300E+03
        -0.37300E+03
        -0.37300E+03
        -0.37300E+03
        -0.37300E+03
        -0.37300E+03
        -0.37300E+03
        -0.37300E+03
        -0.37300E+03
        -0.37300E+03
        -0.37300E+03
        -0.37300E+03
        -0.37300E+03
        -0.37300E+03
        -0.37300E+03
        -0.37300E+03
        -0.37300E+03
        -0.37300E+03
        -0.37300E+03
        -0.37300E+03
        -0.37300E+03
        -0.37300E+03
        -0.37300E+03
        -0.37300E+03
        -0.37300E+03
        -0.37300E+03
        -0.37300E+03
        -0.37300E+03
        -0.37300E+03
        -0.37300E+03
        -0.37300E+03
        -0.37300E+03
        -0.37300E+03
        -0.37300E+03
        -0.37300E+03
        -0.37300E+03
        -0.37300E+03
        -0.37300E+03
        -0.37300E+03
        -0.37300E+03
        -0.37300E+03
        -0.37300E+03
        -0.37300E+03
        -0.37300E+03
        -0.37300E+03
        -0.37300E+03
        -0.37300E+03
        -0.37300E+03
        -0.37300E+03
        -0.37300E+03
        -0.37300E+03
        -0.37300E+03
        -0.37300E+03
        -0.37300E+03
        -0.37300E+03
        -0.37300E+03
        -0.37300E+03
        -0.37300E+03
        -0.37300E+03
        -0.37300E+03
        -0.37300E+03
        -0.37300E+03
        -0.37300E+03
        -0.37300E+03
        -0.37300E+03
        -0.37300E+03
        -0.37300E+03
        -0.37300E+03
        -0.37300E+03
        -0.37300E+03
        -0.37300E+03
        -0.37300E+03
        -0.37300E+03
        -0.37300E+03
        -0.37300E+03
        -0.37300E+03
        -0.37300E+03
        -0.37300E+03
        -0.37300E+03
        -0.37300E+03
        -0.37300E+03
        -0.37300E+03
        -0.37300E+03
        -0.37300E+03
        -0.37300E+03
        -0.37300E+03
        -0.37300E+03
        -0.37300E+03
        -0.37300E+03
        -0.37300E+03
        -0.37300E+03
        -0.37300E+03
        -0.37300E+03
        -0.37300E+03
        -0.37300E+03
        -0.37300E+03
        -0.37300E+03
        -0.37300E+03
        -0.37300E+03
        -0.37300E+03
        -0.37300E+03
        -0.37300E+03
        -0.37300E+03
        -0.37300E+03
        -0.37300E+03
        -0.37300E+03
        -0.37300E+03
        -0.37300E+03
        -0.37300E+03
        -0.37300E+03
        -0.37300E+03
        -0.37300E+03
        -0.37300E+03
        -0.37300E+03
        -0.37300E+03
        -0.37300E+03
        -0.37300E+03
        -0.37300E+03
        -0.37300E+03
        -0.37300E+03
        -0.37300E+03
        -0.37300E+03
        -0.37300E+03
        -0.37300E+03
        -0.37300E+03
        -0.37300E+03
        -0.37300E+03
        -0.37300E+03
        -0.37300E+03
        -0.37300E+03
        -0.37300E+03
        -0.37300E+03
        -0.37300E+03
        -0.37300E+03
        -0.37300E+03
        -0.37300E+03
        -0.37300E+03
        -0.37300E+03
        -0.37300E+03
        -0.37300E+03
        -0.37300E+03
        -0.37300E+03
        -0.37300E+03
        -0.37300E+03
        -0.37300E+03
        -0.37300E+03
        -0.37300E+03
        -0.37300E+03
        -0.37300E+03
        -0.37300E+03
        -0.37300E+03
        -0.37300E+03
        -0.37300E+03
        -0.37300E+03
        -0.37300E+03
        -0.37300E+03
        -0.37300E+03
        -0.37300E+03
        -0.37300E+03
        -0.37300E+03
        -0.37300E+03
        -0.37300E+03
        -0.37300E+03
        -0.37300E+03
        -0.37300E+03
        -0.37300E+03
        -0.37300E+03
        -0.37300E+03
        -0.37300E+03
        -0.37300E+03
        -0.37300E+03
        -0.37300E+03
        -0.37300E+03
        -0.37300E+03
        -0.37300E+03
        -0.37300E+03
        -0.37300E+03
        -0.37300E+03
        -0.37300E+03
        -0.37300E+03
        -0.37300E+03
        -0.37300E+03
        -0.37300E+03
        -0.37300E+03
        -0.37300E+03
        -0.37300E+03
        -0.37300E+03
        -0.37300E+03
        -0.37300E+03
        -0.37300E+03
        -0.37300E+03
        -0.37300E+03
        -0.37300E+03
        -0.37300E+03
        -0.37300E+03
        -0.37300E+03
        -0.37300E+03
        -0.37300E+03
        -0.37300E+03
        -0.37300E+03
        -0.37300E+03
        -0.37300E+03
        -0.37300E+03
        -0.37300E+03
        -0.37300E+03
        -0.37300E+03
        -0.37300E+03
        -0.37300E+03
        -0.37300E+03
        -0.37300E+03
        -0.37300E+03
        -0.37300E+03
        -0.37300E+03
        -0.37300E+03
        -0.37300E+03
        -0.37300E+03
        -0.37300E+03
        -0.37300E+03
        -0.37300E+03
        -0.37300E+03
        -0.37300E+03
        -0.37300E+03
        -0.37300E+03
        -0.37300E+03
        -0.37300E+03
        -0.37300E+03
        -0.37300E+03
        -0.37300E+03
        -0.37300E+03
        -0.37300E+03
        -0.37300E+03
        -0.37300E+03
        -0.37300E+03
        -0.37300E+03
        -0.37300E+03
        -0.37300E+03
        -0.37300E+03
        -0.37300E+03
        -0.37300E+03
        -0.37300E+03
        -0.37300E+03
        -0.37300E+03
        -0.37300E+03
        -0.37300E+03
        -0.37300E+03
        -0.37300E+03
        -0.37300E+03
        -0.37300E+03
        -0.37300E+03
        -0.37300E+03
        -0.37300E+03
        -0.37300E+03
        -0.37300E+03
        -0.37300E+03
        -0.37300E+03
        -0.37300E+03
        -0.37300E+03
        -0.37300E+03
        -0.37300E+03
        -0.37300E+03
        -0.37300E+03
        -0.37300E+03
        -0.37300E+03
        -0.37300E+03
        -0.37300E+03
        -0.37300E+03
        -0.37300E+03
        -0.37300E+03
        -0.37300E+03
        -0.37300E+03
        -0.37300E+03
        -0.37300E+03
        -0.37300E+03
        -0.37300E+03
        -0.37300E+03
        -0.37300E+03
        -0.37300E+03
        -0.37300E+03
        -0.37300E+03
        -0.37300E+03
        -0.37300E+03
        -0.37300E+03
        -0.37300E+03
        -0.37300E+03
        -0.37300E+03
        -0.37300E+03
        -0.37300E+03
        -0.37300E+03
        -0.37300E+03
        -0.37300E+03
        -0.37300E+03
        -0.37300E+03
        -0.37300E+03
        -0.37300E+03
        -0.37300E+03
        -0.37300E+03
        -0.37300E+03
        -0.37300E+03
        -0.37300E+03
        -0.37300E+03
        -0.37300E+03
        -0.37300E+03
        -0.37300E+03
        -0.37300E+03
        -0.37300E+03
        -0.37300E+03
        -0.37300E+03
        -0.37300E+03
        -0.37300E+03
        -0.37300E+03
        -0.37300E+03
        -0.37300E+03
        -0.37300E+03
        -0.37300E+03
        -0.37300E+03
        -0.37300E+03
        -0.37300E+03
        -0.37300E+03
        -0.37300E+03
        -0.37300E+03
        -0.37300E+03
        -0.37300E+03
        -0.37300E+03
        -0.37300E+03
        -0.37300E+03
        -0.37300E+03
        -0.37300E+03
        -0.37300E+03
        -0.37300E+03
        -0.37300E+03
        -0.37300E+03
        -0.37300E+03
        -0.37300E+03
        -0.37300E+03
        -0.37300E+03
        -0.37300E+03
        -0.37300E+03
        -0.37300E+03
        -0.37300E+03
        -0.37300E+03
        -0.37300E+03
        -0.37300E+03
        -0.37300E+03
        -0.37300E+03
        -0.37300E+03
        -0.37300E+03
        -0.37300E+03
        -0.37300E+03
        -0.37300E+03
        -0.37300E+03
        -0.37300E+03
        -0.37300E+03
        -0.37300E+03
        -0.37300E+03
        -0.37300E+03
        -0.37300E+03
        -0.37300E+03
        -0.37300E+03
        -0.37300E+03
        -0.37300E+03
        -0.37300E+03
        -0.37300E+03
        -0.37300E+03
        -0.37300E+03
        -0.37300E+03
        -0.37300E+03
        -0.37300E+03
        -0.37300E+03
        -0.37300E+03
        -0.37300E+03
        -0.37300E+03
        -0.37300E+03
        -0.37300E+03
        -0.37300E+03
        -0.37300E+03
        -0.37300E+03
        -0.37300E+03
        -0.37300E+03
        -0.37300E+03
        -0.37300E+03
        -0.37300E+03
        -0.37300E+03
        -0.37300E+03
        -0.37300E+03
        -0.37300E+03
        -0.37300E+03
        -0.37300E+03
        -0.37300E+03
        -0.37300E+03
        -0.37300E+03
        -0.37300E+03
        -0.37300E+03
        -0.37300E+03
        -0.37300E+03
        -0.37300E+03
        -0.37300E+03
        -0.37300E+03
        -0.37300E+03
        -0.37300E+03
        -0.37300E+03
        -0.37300E+03
        -0.37300E+03
        -0.37300E+03
        -0.37300E+03
        -0.37300E+03
        -0.37300E+03
        -0.37300E+03
        -0.37300E+03
        -0.37300E+03
        -0.37300E+03
        -0.37300E+03
        -0.37300E+03
        -0.37300E+03
        -0.37300E+03
        -0.37300E+03
        -0.37300E+03
        -0.37300E+03
        -0.37300E+03
        -0.37300E+03
        -0.37300E+03
        -0.37300E+03
        -0.37300E+03
        -0.37300E+03
        -0.37300E+03
        -0.37300E+03
        -0.37300E+03
        -0.37300E+03
        -0.37300E+03
        -0.37300E+03
        -0.37300E+03
        -0.37300E+03
        -0.37300E+03
        -0.37300E+03
        -0.37300E+03
        -0.37300E+03
        -0.37300E+03
        -0.37300E+03
        -0.37300E+03
        -0.37300E+03
        -0.37300E+03
        -0.37300E+03
        -0.37300E+03
        -0.37300E+03
        -0.37300E+03
        -0.37300E+03
  
SCALARS              normalized_window  double 1
LOOKUP_TABLE default
         0.27500E+01
         0.27500E+01
         0.27500E+01
         0.27500E+01
         0.27500E+01
         0.27500E+01
         0.27500E+01
         0.27500E+01
         0.27500E+01
         0.27500E+01
         0.27500E+01
         0.27500E+01
         0.27500E+01
         0.27500E+01
         0.27500E+01
         0.27500E+01
         0.27500E+01
         0.27500E+01
         0.27500E+01
         0.27500E+01
         0.27500E+01
         0.27500E+01
         0.27500E+01
         0.27500E+01
         0.27500E+01
         0.27500E+01
         0.27500E+01
         0.27500E+01
         0.27500E+01
         0.27500E+01
         0.27500E+01
         0.27500E+01
         0.27500E+01
         0.27500E+01
         0.27500E+01
         0.27500E+01
         0.27500E+01
         0.27500E+01
         0.27500E+01
         0.27500E+01
         0.27500E+01
         0.27500E+01
         0.27500E+01
         0.27500E+01
         0.27500E+01
         0.27500E+01
         0.27500E+01
         0.27500E+01
         0.27500E+01
         0.27500E+01
         0.27500E+01
         0.27500E+01
         0.27500E+01
         0.27500E+01
         0.27500E+01
         0.27500E+01
         0.27500E+01
         0.27500E+01
         0.27500E+01
         0.27500E+01
         0.27500E+01
         0.27500E+01
         0.27500E+01
         0.27500E+01
         0.27500E+01
         0.27500E+01
         0.27500E+01
         0.27500E+01
         0.27500E+01
         0.27500E+01
         0.27500E+01
         0.27500E+01
         0.27500E+01
         0.27500E+01
         0.27500E+01
         0.27500E+01
         0.27500E+01
         0.27500E+01
         0.27500E+01
         0.27500E+01
         0.27500E+01
         0.27500E+01
         0.27500E+01
         0.27500E+01
         0.27500E+01
         0.27500E+01
         0.27500E+01
         0.27500E+01
         0.27500E+01
         0.27500E+01
         0.27500E+01
         0.27500E+01
         0.27500E+01
         0.27500E+01
         0.27500E+01
         0.27500E+01
         0.27500E+01
         0.27500E+01
         0.27500E+01
         0.27500E+01
         0.27500E+01
         0.27500E+01
         0.27500E+01
         0.27500E+01
         0.27500E+01
         0.27500E+01
         0.27500E+01
         0.27500E+01
         0.27500E+01
         0.27500E+01
         0.27500E+01
         0.27500E+01
         0.27500E+01
         0.27500E+01
         0.27500E+01
         0.27500E+01
         0.27500E+01
         0.27500E+01
         0.27500E+01
         0.27500E+01
         0.27500E+01
         0.27500E+01
         0.27500E+01
         0.27500E+01
         0.27500E+01
         0.27500E+01
         0.27500E+01
         0.27500E+01
         0.27500E+01
         0.27500E+01
         0.27500E+01
         0.27500E+01
         0.27500E+01
         0.27500E+01
         0.27500E+01
         0.27500E+01
         0.27500E+01
         0.27500E+01
         0.27500E+01
         0.27500E+01
         0.27500E+01
         0.27500E+01
         0.27500E+01
         0.27500E+01
         0.27500E+01
         0.27500E+01
         0.27500E+01
         0.27500E+01
         0.27500E+01
         0.27500E+01
         0.27500E+01
         0.27500E+01
         0.27500E+01
         0.27500E+01
         0.27500E+01
         0.27500E+01
         0.27500E+01
         0.27500E+01
         0.27500E+01
         0.27500E+01
         0.27500E+01
         0.27500E+01
         0.27500E+01
         0.27500E+01
         0.27500E+01
         0.27500E+01
         0.27500E+01
         0.27500E+01
         0.27500E+01
         0.27500E+01
         0.27500E+01
         0.27500E+01
         0.27500E+01
         0.27500E+01
         0.27500E+01
         0.27500E+01
         0.27500E+01
         0.27500E+01
         0.27500E+01
         0.27500E+01
         0.27500E+01
         0.27500E+01
         0.27500E+01
         0.27500E+01
         0.27500E+01
         0.27500E+01
         0.27500E+01
         0.27500E+01
         0.27500E+01
         0.27500E+01
         0.27500E+01
         0.27500E+01
         0.27500E+01
         0.27500E+01
         0.27500E+01
         0.27500E+01
         0.27500E+01
         0.27500E+01
         0.27500E+01
         0.27500E+01
         0.27500E+01
         0.27500E+01
         0.27500E+01
         0.27500E+01
         0.27500E+01
         0.27500E+01
         0.27500E+01
         0.27500E+01
         0.27500E+01
         0.27500E+01
         0.27500E+01
         0.27500E+01
         0.27500E+01
         0.27500E+01
         0.27500E+01
         0.27500E+01
         0.27500E+01
         0.27500E+01
         0.27500E+01
         0.27500E+01
         0.27500E+01
         0.27500E+01
         0.27500E+01
         0.27500E+01
         0.27500E+01
         0.27500E+01
         0.27500E+01
         0.27500E+01
         0.27500E+01
         0.27500E+01
         0.27500E+01
         0.27500E+01
         0.27500E+01
         0.27500E+01
         0.27500E+01
         0.27500E+01
         0.27500E+01
         0.27500E+01
         0.27500E+01
         0.27500E+01
         0.27500E+01
         0.27500E+01
         0.27500E+01
         0.27500E+01
         0.27500E+01
         0.27500E+01
         0.27500E+01
         0.27500E+01
         0.27500E+01
         0.27500E+01
         0.27500E+01
         0.27500E+01
         0.27500E+01
         0.27500E+01
         0.27500E+01
         0.27500E+01
         0.27500E+01
         0.27500E+01
         0.27500E+01
         0.27500E+01
         0.27500E+01
         0.27500E+01
         0.27500E+01
         0.27500E+01
         0.27500E+01
         0.27500E+01
         0.27500E+01
         0.27500E+01
         0.27500E+01
         0.27500E+01
         0.27500E+01
         0.27500E+01
         0.27500E+01
         0.27500E+01
         0.27500E+01
         0.27500E+01
         0.27500E+01
         0.27500E+01
         0.27500E+01
         0.27500E+01
         0.27500E+01
         0.27500E+01
         0.27500E+01
         0.27500E+01
         0.27500E+01
         0.27500E+01
         0.27500E+01
         0.27500E+01
         0.27500E+01
         0.27500E+01
         0.27500E+01
         0.27500E+01
         0.27500E+01
         0.27500E+01
         0.27500E+01
         0.27500E+01
         0.27500E+01
         0.27500E+01
         0.27500E+01
         0.27500E+01
         0.27500E+01
         0.27500E+01
         0.27500E+01
         0.27500E+01
         0.27500E+01
         0.27500E+01
         0.27500E+01
         0.27500E+01
         0.27500E+01
         0.27500E+01
         0.27500E+01
         0.27500E+01
         0.27500E+01
         0.27500E+01
         0.27500E+01
         0.27500E+01
         0.27500E+01
         0.27500E+01
         0.27500E+01
         0.27500E+01
         0.27500E+01
         0.27500E+01
         0.27500E+01
         0.27500E+01
         0.27500E+01
         0.27500E+01
         0.27500E+01
         0.27500E+01
         0.27500E+01
         0.27500E+01
         0.27500E+01
         0.27500E+01
         0.27500E+01
         0.27500E+01
         0.27500E+01
         0.27500E+01
         0.27500E+01
         0.27500E+01
         0.27500E+01
         0.27500E+01
         0.27500E+01
         0.27500E+01
         0.27500E+01
         0.27500E+01
         0.27500E+01
         0.27500E+01
         0.27500E+01
         0.27500E+01
         0.27500E+01
         0.27500E+01
         0.27500E+01
         0.27500E+01
         0.27500E+01
         0.27500E+01
         0.27500E+01
         0.27500E+01
         0.27500E+01
         0.27500E+01
         0.27500E+01
         0.27500E+01
         0.27500E+01
         0.27500E+01
         0.27500E+01
         0.27500E+01
         0.27500E+01
         0.27500E+01
         0.27500E+01
         0.27500E+01
         0.27500E+01
         0.27500E+01
         0.27500E+01
         0.27500E+01
         0.27500E+01
         0.27500E+01
         0.27500E+01
         0.27500E+01
         0.27500E+01
         0.27500E+01
         0.27500E+01
         0.27500E+01
         0.27500E+01
         0.27500E+01
         0.27500E+01
         0.27500E+01
         0.27500E+01
         0.27500E+01
         0.27500E+01
         0.27500E+01
         0.27500E+01
         0.27500E+01
         0.27500E+01
         0.27500E+01
         0.27500E+01
         0.27500E+01
         0.27500E+01
         0.27500E+01
         0.27500E+01
         0.27500E+01
         0.27500E+01
         0.27500E+01
         0.27500E+01
         0.27500E+01
         0.27500E+01
         0.27500E+01
         0.27500E+01
         0.27500E+01
         0.27500E+01
         0.27500E+01
         0.27500E+01
         0.27500E+01
         0.27500E+01
         0.27500E+01
         0.27500E+01
         0.27500E+01
         0.27500E+01
         0.27500E+01
         0.27500E+01
         0.27500E+01
         0.27500E+01
         0.27500E+01
         0.27500E+01
         0.27500E+01
         0.27500E+01
         0.27500E+01
         0.27500E+01
         0.27500E+01
         0.27500E+01
         0.27500E+01
         0.27500E+01
         0.27500E+01
         0.27500E+01
         0.27500E+01
         0.27500E+01
         0.27500E+01
         0.27500E+01
         0.27500E+01
         0.27500E+01
         0.27500E+01
         0.27500E+01
         0.27500E+01
         0.27500E+01
         0.27500E+01
         0.27500E+01
         0.27500E+01
         0.27500E+01
         0.27500E+01
         0.27500E+01
         0.27500E+01
         0.27500E+01
         0.27500E+01
         0.27500E+01
         0.27500E+01
         0.27500E+01
         0.27500E+01
         0.27500E+01
         0.27500E+01
         0.27500E+01
         0.27500E+01
         0.27500E+01
         0.27500E+01
         0.27500E+01
         0.27500E+01
         0.27500E+01
         0.27500E+01
         0.27500E+01
         0.27500E+01
         0.27500E+01
         0.27500E+01
         0.27500E+01
         0.27500E+01
         0.27500E+01
         0.27500E+01
         0.27500E+01
         0.27500E+01
         0.27500E+01
         0.27500E+01
         0.27500E+01
         0.27500E+01
         0.27500E+01
         0.27500E+01
         0.27500E+01
         0.27500E+01
         0.27500E+01
         0.27500E+01
         0.27500E+01
         0.27500E+01
         0.27500E+01
         0.27500E+01
         0.27500E+01
         0.27500E+01
         0.27500E+01
         0.27500E+01
         0.27500E+01
         0.27500E+01
         0.27500E+01
         0.27500E+01
         0.27500E+01
         0.27500E+01
         0.27500E+01
         0.27500E+01
         0.27500E+01
         0.27500E+01
         0.27500E+01
         0.27500E+01
         0.27500E+01
         0.27500E+01
         0.27500E+01
         0.27500E+01
         0.27500E+01
         0.27500E+01
         0.27500E+01
         0.27500E+01
         0.27500E+01
         0.27500E+01
         0.27500E+01
         0.27500E+01
         0.27500E+01
         0.27500E+01
         0.27500E+01
         0.27500E+01
         0.27500E+01
         0.27500E+01
         0.27500E+01
         0.27500E+01
         0.27500E+01
         0.27500E+01
         0.27500E+01
         0.27500E+01
         0.27500E+01
         0.27500E+01
         0.27500E+01
         0.27500E+01
         0.27500E+01
         0.27500E+01
         0.27500E+01
         0.27500E+01
         0.27500E+01
         0.27500E+01
         0.27500E+01
         0.27500E+01
         0.27500E+01
         0.27500E+01
         0.27500E+01
         0.27500E+01
         0.27500E+01
         0.27500E+01
         0.27500E+01
         0.27500E+01
         0.27500E+01
         0.27500E+01
         0.27500E+01
         0.27500E+01
         0.27500E+01
         0.27500E+01
         0.27500E+01
         0.27500E+01
         0.27500E+01
         0.27500E+01
         0.27500E+01
         0.27500E+01
         0.27500E+01
         0.27500E+01
         0.27500E+01
         0.27500E+01
         0.27500E+01
         0.27500E+01
         0.27500E+01
         0.27500E+01
         0.27500E+01
         0.27500E+01
         0.27500E+01
         0.27500E+01
         0.27500E+01
         0.27500E+01
         0.27500E+01
         0.27500E+01
         0.27500E+01
         0.27500E+01
         0.27500E+01
         0.27500E+01
         0.27500E+01
         0.27500E+01
         0.27500E+01
         0.27500E+01
         0.27500E+01
         0.27500E+01
         0.27500E+01
         0.27500E+01
         0.27500E+01
         0.27500E+01
         0.27500E+01
         0.27500E+01
         0.27500E+01
         0.27500E+01
         0.27500E+01
         0.27500E+01
         0.27500E+01
         0.27500E+01
         0.27500E+01
         0.27500E+01
         0.27500E+01
         0.27500E+01
         0.27500E+01
         0.27500E+01
         0.27500E+01
         0.27500E+01
         0.27500E+01
         0.27500E+01
         0.27500E+01
         0.27500E+01
         0.27500E+01
         0.27500E+01
         0.27500E+01
         0.27500E+01
         0.27500E+01
         0.27500E+01
         0.27500E+01
         0.27500E+01
         0.27500E+01
         0.27500E+01
         0.27500E+01
         0.27500E+01
         0.27500E+01
         0.27500E+01
         0.27500E+01
         0.27500E+01
         0.27500E+01
         0.27500E+01
         0.27500E+01
         0.27500E+01
         0.27500E+01
         0.27500E+01
         0.27500E+01
         0.27500E+01
         0.27500E+01
         0.27500E+01
         0.27500E+01
         0.27500E+01
         0.27500E+01
         0.27500E+01
         0.27500E+01
         0.27500E+01
         0.27500E+01
         0.27500E+01
         0.27500E+01
         0.27500E+01
         0.27500E+01
         0.27500E+01
         0.27500E+01
         0.27500E+01
         0.27500E+01
         0.27500E+01
         0.27500E+01
         0.27500E+01
         0.27500E+01
         0.27500E+01
         0.27500E+01
         0.27500E+01
         0.27500E+01
         0.27500E+01
         0.27500E+01
         0.27500E+01
         0.27500E+01
         0.27500E+01
         0.27500E+01
         0.27500E+01
         0.27500E+01
         0.27500E+01
         0.27500E+01
         0.27500E+01
         0.27500E+01
         0.27500E+01
         0.27500E+01
         0.27500E+01
         0.27500E+01
         0.27500E+01
         0.27500E+01
         0.27500E+01
         0.27500E+01
         0.27500E+01
         0.27500E+01
         0.27500E+01
         0.27500E+01
         0.27500E+01
         0.27500E+01
         0.27500E+01
         0.27500E+01
         0.27500E+01
         0.27500E+01
         0.27500E+01
         0.27500E+01
         0.27500E+01
         0.27500E+01
         0.27500E+01
         0.27500E+01
         0.27500E+01
         0.27500E+01
         0.27500E+01
         0.27500E+01
         0.27500E+01
         0.27500E+01
         0.27500E+01
         0.27500E+01
         0.27500E+01
         0.27500E+01
         0.27500E+01
         0.27500E+01
         0.27500E+01
         0.27500E+01
         0.27500E+01
         0.27500E+01
         0.27500E+01
         0.27500E+01
         0.27500E+01
         0.27500E+01
         0.27500E+01
         0.27500E+01
         0.27500E+01
         0.27500E+01
         0.27500E+01
         0.27500E+01
         0.27500E+01
         0.27500E+01
         0.27500E+01
         0.27500E+01
         0.27500E+01
         0.27500E+01
         0.27500E+01
         0.27500E+01
         0.27500E+01
         0.27500E+01
         0.27500E+01
         0.27500E+01
         0.27500E+01
         0.27500E+01
         0.27500E+01
         0.27500E+01
         0.27500E+01
         0.27500E+01
         0.27500E+01
         0.27500E+01
         0.27500E+01
         0.27500E+01
         0.27500E+01
         0.27500E+01
         0.27500E+01
         0.27500E+01
         0.27500E+01
         0.27500E+01
         0.27500E+01
         0.27500E+01
         0.27500E+01
         0.27500E+01
         0.27500E+01
         0.27500E+01
         0.27500E+01
         0.27500E+01
         0.27500E+01
         0.27500E+01
         0.27500E+01
         0.27500E+01
         0.27500E+01
         0.27500E+01
         0.27500E+01
         0.27500E+01
         0.27500E+01
         0.27500E+01
         0.27500E+01
         0.27500E+01
         0.27500E+01
         0.27500E+01
         0.27500E+01
         0.27500E+01
         0.27500E+01
         0.27500E+01
         0.27500E+01
         0.27500E+01
         0.27500E+01
         0.27500E+01
         0.27500E+01
         0.27500E+01
         0.27500E+01
         0.27500E+01
         0.27500E+01
         0.27500E+01
         0.27500E+01
         0.27500E+01
         0.27500E+01
         0.27500E+01
         0.27500E+01
         0.27500E+01
         0.27500E+01
         0.27500E+01
         0.27500E+01
         0.27500E+01
         0.27500E+01
         0.27500E+01
         0.27500E+01
         0.27500E+01
         0.27500E+01
         0.27500E+01
         0.27500E+01
         0.27500E+01
         0.27500E+01
         0.27500E+01
         0.27500E+01
         0.27500E+01
         0.27500E+01
         0.27500E+01
         0.27500E+01
         0.27500E+01
         0.27500E+01
         0.27500E+01
         0.27500E+01
         0.27500E+01
         0.27500E+01
         0.27500E+01
         0.27500E+01
         0.27500E+01
         0.27500E+01
         0.27500E+01
         0.27500E+01
         0.27500E+01
         0.27500E+01
         0.27500E+01
         0.27500E+01
         0.27500E+01
         0.27500E+01
         0.27500E+01
         0.27500E+01
         0.27500E+01
         0.27500E+01
         0.27500E+01
         0.27500E+01
         0.27500E+01
         0.27500E+01
         0.27500E+01
         0.27500E+01
         0.27500E+01
         0.27500E+01
         0.27500E+01
         0.27500E+01
         0.27500E+01
         0.27500E+01
         0.27500E+01
         0.27500E+01
         0.27500E+01
         0.27500E+01
         0.27500E+01
         0.27500E+01
         0.27500E+01
         0.27500E+01
         0.27500E+01
         0.27500E+01
         0.27500E+01
         0.27500E+01
         0.27500E+01
         0.27500E+01
         0.27500E+01
         0.27500E+01
         0.27500E+01
         0.27500E+01
         0.27500E+01
         0.27500E+01
         0.27500E+01
         0.27500E+01
         0.27500E+01
         0.27500E+01
         0.27500E+01
         0.27500E+01
         0.27500E+01
         0.27500E+01
         0.27500E+01
         0.27500E+01
         0.27500E+01
         0.27500E+01
         0.27500E+01
         0.27500E+01
         0.27500E+01
         0.27500E+01
         0.27500E+01
         0.27500E+01
         0.27500E+01
         0.27500E+01
         0.27500E+01
         0.27500E+01
         0.27500E+01
         0.27500E+01
         0.27500E+01
         0.27500E+01
         0.27500E+01
         0.27500E+01
         0.27500E+01
         0.27500E+01
         0.27500E+01
         0.27500E+01
         0.27500E+01
         0.27500E+01
         0.27500E+01
         0.27500E+01
         0.27500E+01
         0.27500E+01
         0.27500E+01
         0.27500E+01
         0.27500E+01
         0.27500E+01
         0.27500E+01
         0.27500E+01
         0.27500E+01
         0.27500E+01
         0.27500E+01
         0.27500E+01
         0.27500E+01
         0.27500E+01
         0.27500E+01
         0.27500E+01
         0.27500E+01
         0.27500E+01
         0.27500E+01
         0.27500E+01
         0.27500E+01
         0.27500E+01
         0.27500E+01
         0.27500E+01
         0.27500E+01
         0.27500E+01
         0.27500E+01
         0.27500E+01
         0.27500E+01
         0.27500E+01
         0.27500E+01
         0.27500E+01
         0.27500E+01
         0.27500E+01
         0.27500E+01
         0.27500E+01
         0.27500E+01
         0.27500E+01
         0.27500E+01
         0.27500E+01
         0.27500E+01
         0.27500E+01
         0.27500E+01
         0.27500E+01
         0.27500E+01
         0.27500E+01
         0.27500E+01
         0.27500E+01
         0.27500E+01
         0.27500E+01
         0.27500E+01
         0.27500E+01
         0.27500E+01
         0.27500E+01
         0.27500E+01
         0.27500E+01
         0.27500E+01
         0.27500E+01
         0.27500E+01
         0.27500E+01
         0.27500E+01
         0.27500E+01
         0.27500E+01
         0.27500E+01
         0.27500E+01
         0.27500E+01
         0.27500E+01
         0.27500E+01
         0.27500E+01
         0.27500E+01
         0.27500E+01
         0.27500E+01
         0.27500E+01
         0.27500E+01
         0.27500E+01
         0.27500E+01
         0.27500E+01
         0.27500E+01
         0.27500E+01
         0.27500E+01
         0.27500E+01
         0.27500E+01
         0.27500E+01
         0.27500E+01
         0.27500E+01
         0.27500E+01
         0.27500E+01
         0.27500E+01
         0.27500E+01
         0.27500E+01
         0.27500E+01
         0.27500E+01
         0.27500E+01
         0.27500E+01
         0.27500E+01
         0.27500E+01
         0.27500E+01
         0.27500E+01
         0.27500E+01
         0.27500E+01
         0.27500E+01
         0.27500E+01
         0.27500E+01
         0.27500E+01
         0.27500E+01
         0.27500E+01
         0.27500E+01
         0.27500E+01
         0.27500E+01
         0.27500E+01
         0.27500E+01
         0.27500E+01
         0.27500E+01
         0.27500E+01
         0.27500E+01
         0.27500E+01
         0.27500E+01
         0.27500E+01
         0.27500E+01
         0.27500E+01
         0.27500E+01
         0.27500E+01
         0.27500E+01
         0.27500E+01
         0.27500E+01
         0.27500E+01
         0.27500E+01
         0.27500E+01
         0.27500E+01
         0.27500E+01
         0.27500E+01
         0.27500E+01
         0.27500E+01
         0.27500E+01
         0.27500E+01
         0.27500E+01
         0.27500E+01
         0.27500E+01
         0.27500E+01
         0.27500E+01
         0.27500E+01
         0.27500E+01
         0.27500E+01
         0.27500E+01
         0.27500E+01
         0.27500E+01
         0.27500E+01
         0.27500E+01
         0.27500E+01
         0.27500E+01
         0.27500E+01
         0.27500E+01
         0.27500E+01
         0.27500E+01
         0.27500E+01
         0.27500E+01
         0.27500E+01
         0.27500E+01
         0.27500E+01
         0.27500E+01
         0.27500E+01
         0.27500E+01
         0.27500E+01
         0.27500E+01
         0.27500E+01
         0.27500E+01
         0.27500E+01
         0.27500E+01
         0.27500E+01
         0.27500E+01
         0.27500E+01
         0.27500E+01
         0.27500E+01
         0.27500E+01
         0.27500E+01
         0.27500E+01
         0.27500E+01
         0.27500E+01
         0.27500E+01
         0.27500E+01
         0.27500E+01
         0.27500E+01
         0.27500E+01
         0.27500E+01
         0.27500E+01
         0.27500E+01
         0.27500E+01
         0.27500E+01
         0.27500E+01
         0.27500E+01
         0.27500E+01
         0.27500E+01
         0.27500E+01
         0.27500E+01
         0.27500E+01
         0.27500E+01
         0.27500E+01
         0.27500E+01
         0.27500E+01
         0.27500E+01
         0.27500E+01
         0.27500E+01
         0.27500E+01
         0.27500E+01
         0.27500E+01
         0.27500E+01
         0.27500E+01
         0.27500E+01
         0.27500E+01
         0.27500E+01
         0.27500E+01
         0.27500E+01
         0.27500E+01
         0.27500E+01
         0.27500E+01
         0.27500E+01
         0.27500E+01
         0.27500E+01
         0.27500E+01
         0.27500E+01
         0.27500E+01
         0.27500E+01
         0.27500E+01
         0.27500E+01
         0.27500E+01
         0.27500E+01
         0.27500E+01
         0.27500E+01
         0.27500E+01
         0.27500E+01
         0.27500E+01
         0.27500E+01
         0.27500E+01
         0.27500E+01
         0.27500E+01
         0.27500E+01
         0.27500E+01
         0.27500E+01
         0.27500E+01
         0.27500E+01
         0.27500E+01
         0.27500E+01
         0.27500E+01
         0.27500E+01
         0.27500E+01
         0.27500E+01
         0.27500E+01
         0.27500E+01
         0.27500E+01
         0.27500E+01
         0.27500E+01
         0.27500E+01
         0.27500E+01
         0.27500E+01
         0.27500E+01
         0.27500E+01
         0.27500E+01
         0.27500E+01
         0.27500E+01
         0.27500E+01
         0.27500E+01
         0.27500E+01
         0.27500E+01
         0.27500E+01
         0.27500E+01
         0.27500E+01
         0.27500E+01
         0.27500E+01
         0.27500E+01
         0.27500E+01
         0.27500E+01
         0.27500E+01
         0.27500E+01
         0.27500E+01
         0.27500E+01
         0.27500E+01
         0.27500E+01
         0.27500E+01
         0.27500E+01
         0.27500E+01
         0.27500E+01
         0.27500E+01
         0.27500E+01
         0.27500E+01
         0.27500E+01
         0.27500E+01
         0.27500E+01
         0.27500E+01
         0.27500E+01
         0.27500E+01
         0.27500E+01
         0.27500E+01
         0.27500E+01
         0.27500E+01
         0.27500E+01
         0.27500E+01
         0.27500E+01
         0.27500E+01
         0.27500E+01
         0.27500E+01
         0.27500E+01
         0.27500E+01
         0.27500E+01
         0.27500E+01
         0.27500E+01
         0.27500E+01
         0.27500E+01
         0.27500E+01
         0.27500E+01
         0.27500E+01
         0.27500E+01
         0.27500E+01
         0.27500E+01
         0.27500E+01
         0.27500E+01
         0.27500E+01
         0.27500E+01
         0.27500E+01
         0.27500E+01
         0.27500E+01
         0.27500E+01
         0.27500E+01
         0.27500E+01
         0.27500E+01
         0.27500E+01
         0.27500E+01
         0.27500E+01
         0.27500E+01
         0.27500E+01
         0.27500E+01
         0.27500E+01
         0.27500E+01
         0.27500E+01
         0.27500E+01
         0.27500E+01
         0.27500E+01
         0.27500E+01
         0.27500E+01
         0.27500E+01
         0.27500E+01
         0.27500E+01
         0.27500E+01
         0.27500E+01
         0.27500E+01
         0.27500E+01
         0.27500E+01
         0.27500E+01
         0.27500E+01
         0.27500E+01
         0.27500E+01
         0.27500E+01
         0.27500E+01
         0.27500E+01
         0.27500E+01
         0.27500E+01
         0.27500E+01
         0.27500E+01
         0.27500E+01
         0.27500E+01
         0.27500E+01
         0.27500E+01
         0.27500E+01
         0.27500E+01
         0.27500E+01
         0.27500E+01
         0.27500E+01
         0.27500E+01
         0.27500E+01
         0.27500E+01
         0.27500E+01
         0.27500E+01
         0.27500E+01
         0.27500E+01
         0.27500E+01
         0.27500E+01
         0.27500E+01
         0.27500E+01
         0.27500E+01
         0.27500E+01
         0.27500E+01
         0.27500E+01
         0.27500E+01
         0.27500E+01
         0.27500E+01
         0.27500E+01
         0.27500E+01
         0.27500E+01
         0.27500E+01
         0.27500E+01
         0.27500E+01
         0.27500E+01
         0.27500E+01
         0.27500E+01
         0.27500E+01
         0.27500E+01
         0.27500E+01
         0.27500E+01
         0.27500E+01
         0.27500E+01
         0.27500E+01
         0.27500E+01
         0.27500E+01
         0.27500E+01
         0.27500E+01
         0.27500E+01
         0.27500E+01
         0.27500E+01
         0.27500E+01
         0.27500E+01
         0.27500E+01
         0.27500E+01
         0.27500E+01
         0.27500E+01
         0.27500E+01
         0.27500E+01
         0.27500E+01
         0.27500E+01
         0.27500E+01
         0.27500E+01
         0.27500E+01
         0.27500E+01
         0.27500E+01
         0.27500E+01
         0.27500E+01
         0.27500E+01
         0.27500E+01
         0.27500E+01
         0.27500E+01
         0.27500E+01
         0.27500E+01
         0.27500E+01
         0.27500E+01
         0.27500E+01
         0.27500E+01
         0.27500E+01
         0.27500E+01
         0.27500E+01
         0.27500E+01
         0.27500E+01
         0.27500E+01
         0.27500E+01
         0.27500E+01
         0.27500E+01
         0.27500E+01
         0.27500E+01
         0.27500E+01
         0.27500E+01
         0.27500E+01
         0.27500E+01
         0.27500E+01
         0.27500E+01
         0.27500E+01
         0.27500E+01
         0.27500E+01
         0.27500E+01
         0.27500E+01
         0.27500E+01
         0.27500E+01
         0.27500E+01
         0.27500E+01
         0.27500E+01
         0.27500E+01
         0.27500E+01
         0.27500E+01
         0.27500E+01
         0.27500E+01
         0.27500E+01
         0.27500E+01
         0.27500E+01
         0.27500E+01
         0.27500E+01
         0.27500E+01
         0.27500E+01
         0.27500E+01
         0.27500E+01
         0.27500E+01
         0.27500E+01
         0.27500E+01
         0.27500E+01
         0.27500E+01
         0.27500E+01
         0.27500E+01
         0.27500E+01
         0.27500E+01
         0.27500E+01
         0.27500E+01
         0.27500E+01
         0.27500E+01
         0.27500E+01
         0.27500E+01
         0.27500E+01
         0.27500E+01
         0.27500E+01
         0.27500E+01
         0.27500E+01
         0.27500E+01
         0.27500E+01
         0.27500E+01
         0.27500E+01
         0.27500E+01
         0.27500E+01
         0.27500E+01
         0.27500E+01
         0.27500E+01
         0.27500E+01
         0.27500E+01
         0.27500E+01
         0.27500E+01
         0.27500E+01
         0.27500E+01
         0.27500E+01
         0.27500E+01
         0.27500E+01
         0.27500E+01
         0.27500E+01
         0.27500E+01
         0.27500E+01
         0.27500E+01
         0.27500E+01
         0.27500E+01
         0.27500E+01
         0.27500E+01
         0.27500E+01
         0.27500E+01
         0.27500E+01
         0.27500E+01
         0.27500E+01
         0.27500E+01
         0.27500E+01
         0.27500E+01
         0.27500E+01
         0.27500E+01
         0.27500E+01
         0.27500E+01
         0.27500E+01
         0.27500E+01
         0.27500E+01
         0.27500E+01
         0.27500E+01
         0.27500E+01
         0.27500E+01
         0.27500E+01
         0.27500E+01
         0.27500E+01
         0.27500E+01
         0.27500E+01
         0.27500E+01
         0.27500E+01
         0.27500E+01
         0.27500E+01
         0.27500E+01
         0.27500E+01
         0.27500E+01
         0.27500E+01
         0.27500E+01
         0.27500E+01
         0.27500E+01
         0.27500E+01
         0.27500E+01
         0.27500E+01
         0.27500E+01
         0.27500E+01
         0.27500E+01
         0.27500E+01
         0.27500E+01
         0.27500E+01
         0.27500E+01
         0.27500E+01
         0.27500E+01
         0.27500E+01
         0.27500E+01
         0.27500E+01
         0.27500E+01
         0.27500E+01
         0.27500E+01
         0.27500E+01
         0.27500E+01
         0.27500E+01
         0.27500E+01
         0.27500E+01
         0.27500E+01
         0.27500E+01
         0.27500E+01
         0.27500E+01
         0.27500E+01
         0.27500E+01
         0.27500E+01
         0.27500E+01
         0.27500E+01
         0.27500E+01
         0.27500E+01
         0.27500E+01
         0.27500E+01
         0.27500E+01
         0.27500E+01
         0.27500E+01
         0.27500E+01
         0.27500E+01
         0.27500E+01
         0.27500E+01
         0.27500E+01
         0.27500E+01
         0.27500E+01
         0.27500E+01
         0.27500E+01
         0.27500E+01
         0.27500E+01
         0.27500E+01
         0.27500E+01
         0.27500E+01
         0.27500E+01
         0.27500E+01
         0.27500E+01
         0.27500E+01
         0.27500E+01
         0.27500E+01
         0.27500E+01
         0.27500E+01
         0.27500E+01
         0.27500E+01
         0.27500E+01
         0.27500E+01
         0.27500E+01
         0.27500E+01
         0.27500E+01
         0.27500E+01
         0.27500E+01
         0.27500E+01
         0.27500E+01
         0.27500E+01
         0.27500E+01
         0.27500E+01
         0.27500E+01
         0.27500E+01
         0.27500E+01
         0.27500E+01
         0.27500E+01
         0.27500E+01
         0.27500E+01
         0.27500E+01
         0.27500E+01
         0.27500E+01
         0.27500E+01
         0.27500E+01
         0.27500E+01
         0.27500E+01
         0.27500E+01
         0.27500E+01
         0.27500E+01
         0.27500E+01
         0.27500E+01
         0.27500E+01
         0.27500E+01
         0.27500E+01
         0.27500E+01
         0.27500E+01
         0.27500E+01
         0.27500E+01
         0.27500E+01
         0.27500E+01
         0.27500E+01
         0.27500E+01
         0.27500E+01
         0.27500E+01
         0.27500E+01
         0.27500E+01
         0.27500E+01
         0.27500E+01
         0.27500E+01
         0.27500E+01
         0.27500E+01
         0.27500E+01
         0.27500E+01
         0.27500E+01
         0.27500E+01
         0.27500E+01
         0.27500E+01
         0.27500E+01
         0.27500E+01
         0.27500E+01
         0.27500E+01
         0.27500E+01
         0.27500E+01
         0.27500E+01
         0.27500E+01
         0.27500E+01
         0.27500E+01
         0.27500E+01
         0.27500E+01
         0.27500E+01
         0.27500E+01
         0.27500E+01
         0.27500E+01
         0.27500E+01
         0.27500E+01
         0.27500E+01
         0.27500E+01
         0.27500E+01
         0.27500E+01
         0.27500E+01
         0.27500E+01
         0.27500E+01
         0.27500E+01
         0.27500E+01
         0.27500E+01
         0.27500E+01
         0.27500E+01
         0.27500E+01
         0.27500E+01
         0.27500E+01
         0.27500E+01
         0.27500E+01
         0.27500E+01
         0.27500E+01
         0.27500E+01
         0.27500E+01
         0.27500E+01
         0.27500E+01
         0.27500E+01
         0.27500E+01
         0.27500E+01
         0.27500E+01
         0.27500E+01
         0.27500E+01
         0.27500E+01
         0.27500E+01
         0.27500E+01
         0.27500E+01
         0.27500E+01
         0.27500E+01
         0.27500E+01
         0.27500E+01
         0.27500E+01
         0.27500E+01
         0.27500E+01
         0.27500E+01
         0.27500E+01
         0.27500E+01
         0.27500E+01
         0.27500E+01
         0.27500E+01
         0.27500E+01
         0.27500E+01
         0.27500E+01
         0.27500E+01
         0.27500E+01
         0.27500E+01
         0.27500E+01
         0.27500E+01
         0.27500E+01
         0.27500E+01
         0.27500E+01
         0.27500E+01
         0.27500E+01
         0.27500E+01
         0.27500E+01
         0.27500E+01
         0.27500E+01
         0.27500E+01
         0.27500E+01
         0.27500E+01
         0.27500E+01
         0.27500E+01
         0.27500E+01
         0.27500E+01
         0.27500E+01
         0.27500E+01
         0.27500E+01
         0.27500E+01
         0.27500E+01
         0.27500E+01
         0.27500E+01
         0.27500E+01
         0.27500E+01
         0.27500E+01
         0.27500E+01
         0.27500E+01
         0.27500E+01
         0.27500E+01
         0.27500E+01
         0.27500E+01
         0.27500E+01
         0.27500E+01
         0.27500E+01
         0.27500E+01
         0.27500E+01
         0.27500E+01
         0.27500E+01
         0.27500E+01
         0.27500E+01
         0.27500E+01
         0.27500E+01
         0.27500E+01
         0.27500E+01
         0.27500E+01
         0.27500E+01
         0.27500E+01
         0.27500E+01
         0.27500E+01
         0.27500E+01
         0.27500E+01
         0.27500E+01
         0.27500E+01
         0.27500E+01
         0.27500E+01
         0.27500E+01
         0.27500E+01
         0.27500E+01
         0.27500E+01
         0.27500E+01
         0.27500E+01
         0.27500E+01
         0.27500E+01
         0.27500E+01
         0.27500E+01
         0.27500E+01
         0.27500E+01
         0.27500E+01
         0.27500E+01
         0.27500E+01
         0.27500E+01
         0.27500E+01
         0.27500E+01
         0.27500E+01
         0.27500E+01
         0.27500E+01
         0.27500E+01
         0.27500E+01
         0.27500E+01
         0.27500E+01
         0.27500E+01
         0.27500E+01
         0.27500E+01
         0.27500E+01
         0.27500E+01
         0.27500E+01
         0.27500E+01
         0.27500E+01
         0.27500E+01
         0.27500E+01
         0.27500E+01
         0.27500E+01
         0.27500E+01
         0.27500E+01
         0.27500E+01
         0.27500E+01
         0.27500E+01
         0.27500E+01
         0.27500E+01
         0.27500E+01
         0.27500E+01
         0.27500E+01
         0.27500E+01
         0.27500E+01
         0.27500E+01
         0.27500E+01
         0.27500E+01
         0.27500E+01
         0.27500E+01
         0.27500E+01
         0.27500E+01
         0.27500E+01
         0.27500E+01
         0.27500E+01
         0.27500E+01
         0.27500E+01
         0.27500E+01
         0.27500E+01
         0.27500E+01
         0.27500E+01
         0.27500E+01
         0.27500E+01
         0.27500E+01
         0.27500E+01
         0.27500E+01
         0.27500E+01
         0.27500E+01
         0.27500E+01
         0.27500E+01
         0.27500E+01
         0.27500E+01
         0.27500E+01
         0.27500E+01
         0.27500E+01
         0.27500E+01
         0.27500E+01
         0.27500E+01
         0.27500E+01
         0.27500E+01
         0.27500E+01
         0.27500E+01
         0.27500E+01
         0.27500E+01
         0.27500E+01
         0.27500E+01
         0.27500E+01
         0.27500E+01
         0.27500E+01
         0.27500E+01
         0.27500E+01
         0.27500E+01
         0.27500E+01
         0.27500E+01
         0.27500E+01
         0.27500E+01
         0.27500E+01
         0.27500E+01
         0.27500E+01
         0.27500E+01
         0.27500E+01
         0.27500E+01
         0.27500E+01
         0.27500E+01
         0.27500E+01
         0.27500E+01
         0.27500E+01
         0.27500E+01
         0.27500E+01
         0.27500E+01
         0.27500E+01
         0.27500E+01
         0.27500E+01
         0.27500E+01
         0.27500E+01
         0.27500E+01
         0.27500E+01
         0.27500E+01
         0.27500E+01
         0.27500E+01
         0.27500E+01
         0.27500E+01
         0.27500E+01
         0.27500E+01
         0.27500E+01
         0.27500E+01
         0.27500E+01
         0.27500E+01
         0.27500E+01
         0.27500E+01
         0.27500E+01
         0.27500E+01
         0.27500E+01
         0.27500E+01
         0.27500E+01
         0.27500E+01
         0.27500E+01
         0.27500E+01
         0.27500E+01
         0.27500E+01
         0.27500E+01
         0.27500E+01
         0.27500E+01
         0.27500E+01
         0.27500E+01
         0.27500E+01
         0.27500E+01
         0.27500E+01
         0.27500E+01
         0.27500E+01
         0.27500E+01
         0.27500E+01
         0.27500E+01
         0.27500E+01
         0.27500E+01
         0.27500E+01
         0.27500E+01
         0.27500E+01
         0.27500E+01
         0.27500E+01
         0.27500E+01
         0.27500E+01
         0.27500E+01
         0.27500E+01
         0.27500E+01
         0.27500E+01
         0.27500E+01
         0.27500E+01
         0.27500E+01
         0.27500E+01
         0.27500E+01
         0.27500E+01
         0.27500E+01
         0.27500E+01
         0.27500E+01
         0.27500E+01
         0.27500E+01
         0.27500E+01
         0.27500E+01
         0.27500E+01
         0.27500E+01
         0.27500E+01
         0.27500E+01
         0.27500E+01
         0.27500E+01
         0.27500E+01
         0.27500E+01
         0.27500E+01
         0.27500E+01
         0.27500E+01
         0.27500E+01
         0.27500E+01
         0.27500E+01
         0.27500E+01
         0.27500E+01
         0.27500E+01
         0.27500E+01
         0.27500E+01
         0.27500E+01
         0.27500E+01
         0.27500E+01
         0.27500E+01
         0.27500E+01
         0.27500E+01
         0.27500E+01
         0.27500E+01
         0.27500E+01
         0.27500E+01
         0.27500E+01
         0.27500E+01
         0.27500E+01
         0.27500E+01
         0.27500E+01
         0.27500E+01
         0.27500E+01
         0.27500E+01
         0.27500E+01
         0.27500E+01
         0.27500E+01
         0.27500E+01
         0.27500E+01
         0.27500E+01
         0.27500E+01
         0.27500E+01
         0.27500E+01
         0.27500E+01
         0.27500E+01
         0.27500E+01
         0.27500E+01
         0.27500E+01
         0.27500E+01
         0.27500E+01
         0.27500E+01
         0.27500E+01
         0.27500E+01
         0.27500E+01
         0.27500E+01
         0.27500E+01
         0.27500E+01
         0.27500E+01
         0.27500E+01
  
SCALARS              physical_window_x  double 1
LOOKUP_TABLE default
         0.42419E-02
         0.35201E-02
         0.37624E-02
         0.42419E-02
         0.42417E-02
         0.35201E-02
         0.37618E-02
         0.42417E-02
         0.37624E-02
         0.37624E-02
         0.37618E-02
         0.37618E-02
         0.30086E-02
         0.32069E-02
         0.30084E-02
         0.32067E-02
         0.42419E-02
         0.32069E-02
         0.42417E-02
         0.32067E-02
         0.24180E-02
         0.29942E-02
         0.32396E-02
         0.24180E-02
         0.29933E-02
         0.32385E-02
         0.26608E-02
         0.27190E-02
         0.26608E-02
         0.27190E-02
         0.42687E-02
         0.36511E-02
         0.42687E-02
         0.42687E-02
         0.36511E-02
         0.42687E-02
         0.32069E-02
         0.29739E-02
         0.32066E-02
         0.29739E-02
         0.34652E-02
         0.32621E-02
         0.34652E-02
         0.32621E-02
         0.37123E-02
         0.32069E-02
         0.37123E-02
         0.32066E-02
         0.30844E-02
         0.30844E-02
         0.35191E-02
         0.35189E-02
         0.26925E-02
         0.26925E-02
         0.26925E-02
         0.26925E-02
         0.24643E-02
         0.27651E-02
         0.24643E-02
         0.27651E-02
         0.42687E-02
         0.35191E-02
         0.42687E-02
         0.35189E-02
         0.42687E-02
         0.42687E-02
         0.34658E-02
         0.34648E-02
         0.27274E-02
         0.31799E-02
         0.27273E-02
         0.31796E-02
         0.32396E-02
         0.32385E-02
         0.26964E-02
         0.26960E-02
         0.27828E-02
         0.27828E-02
         0.27828E-02
         0.27828E-02
         0.27004E-02
         0.31883E-02
         0.27003E-02
         0.31880E-02
         0.31883E-02
         0.31880E-02
         0.37123E-02
         0.37123E-02
         0.36245E-02
         0.36245E-02
         0.28253E-02
         0.31642E-02
         0.28253E-02
         0.31636E-02
         0.33485E-02
         0.33485E-02
         0.33485E-02
         0.33485E-02
         0.31978E-02
         0.31969E-02
         0.29849E-02
         0.32843E-02
         0.29849E-02
         0.32843E-02
         0.27274E-02
         0.31109E-02
         0.27273E-02
         0.31109E-02
         0.31799E-02
         0.31796E-02
         0.32396E-02
         0.32385E-02
         0.32396E-02
         0.32385E-02
         0.29942E-02
         0.29933E-02
         0.27190E-02
         0.27190E-02
         0.26964E-02
         0.26960E-02
         0.27828E-02
         0.27828E-02
         0.27828E-02
         0.27828E-02
         0.27004E-02
         0.27003E-02
         0.31883E-02
         0.31880E-02
         0.31883E-02
         0.31880E-02
         0.32621E-02
         0.32621E-02
         0.34652E-02
         0.34652E-02
         0.37123E-02
         0.37123E-02
         0.37123E-02
         0.37123E-02
         0.36245E-02
         0.36245E-02
         0.28253E-02
         0.28253E-02
         0.29097E-02
         0.29087E-02
         0.32389E-02
         0.32378E-02
         0.32389E-02
         0.32378E-02
         0.31978E-02
         0.31969E-02
         0.29849E-02
         0.29849E-02
         0.32843E-02
         0.32843E-02
         0.32843E-02
         0.32843E-02
         0.42420E-02
         0.35201E-02
         0.37629E-02
         0.42420E-02
         0.37629E-02
         0.37629E-02
         0.30087E-02
         0.32071E-02
         0.42420E-02
         0.32071E-02
         0.24178E-02
         0.29952E-02
         0.32407E-02
         0.26596E-02
         0.27191E-02
         0.42679E-02
         0.36502E-02
         0.42679E-02
         0.32071E-02
         0.29727E-02
         0.34648E-02
         0.32622E-02
         0.37119E-02
         0.32071E-02
         0.30833E-02
         0.35193E-02
         0.26910E-02
         0.26910E-02
         0.24638E-02
         0.27644E-02
         0.42679E-02
         0.35193E-02
         0.42679E-02
         0.34670E-02
         0.27274E-02
         0.31802E-02
         0.32407E-02
         0.26968E-02
         0.27828E-02
         0.27828E-02
         0.27005E-02
         0.31885E-02
         0.31885E-02
         0.37119E-02
         0.36244E-02
         0.28250E-02
         0.31647E-02
         0.33484E-02
         0.33484E-02
         0.31986E-02
         0.29848E-02
         0.32841E-02
         0.27274E-02
         0.31099E-02
         0.31802E-02
         0.32407E-02
         0.32407E-02
         0.29952E-02
         0.27191E-02
         0.26968E-02
         0.27828E-02
         0.27828E-02
         0.27005E-02
         0.31885E-02
         0.31885E-02
         0.32622E-02
         0.34648E-02
         0.37119E-02
         0.37119E-02
         0.36244E-02
         0.28250E-02
         0.29106E-02
         0.32401E-02
         0.32401E-02
         0.31986E-02
         0.29848E-02
         0.32841E-02
         0.32841E-02
         0.42421E-02
         0.35201E-02
         0.37634E-02
         0.42421E-02
         0.37634E-02
         0.37634E-02
         0.30089E-02
         0.32073E-02
         0.42421E-02
         0.32073E-02
         0.24177E-02
         0.29961E-02
         0.32418E-02
         0.26584E-02
         0.27191E-02
         0.42670E-02
         0.36493E-02
         0.42670E-02
         0.32073E-02
         0.29714E-02
         0.34644E-02
         0.32623E-02
         0.37115E-02
         0.32073E-02
         0.30822E-02
         0.35195E-02
         0.26896E-02
         0.26896E-02
         0.24633E-02
         0.27638E-02
         0.42670E-02
         0.35195E-02
         0.42670E-02
         0.34681E-02
         0.27275E-02
         0.31805E-02
         0.32418E-02
         0.26972E-02
         0.27828E-02
         0.27828E-02
         0.27006E-02
         0.31888E-02
         0.31888E-02
         0.37115E-02
         0.36243E-02
         0.28247E-02
         0.31652E-02
         0.33483E-02
         0.33483E-02
         0.31995E-02
         0.29847E-02
         0.32839E-02
         0.27275E-02
         0.31090E-02
         0.31805E-02
         0.32418E-02
         0.32418E-02
         0.29961E-02
         0.27191E-02
         0.26972E-02
         0.27828E-02
         0.27828E-02
         0.27006E-02
         0.31888E-02
         0.31888E-02
         0.32623E-02
         0.34644E-02
         0.37115E-02
         0.37115E-02
         0.36243E-02
         0.28247E-02
         0.29116E-02
         0.32412E-02
         0.32412E-02
         0.31995E-02
         0.29847E-02
         0.32839E-02
         0.32839E-02
         0.42423E-02
         0.35200E-02
         0.37639E-02
         0.42423E-02
         0.37639E-02
         0.37639E-02
         0.30091E-02
         0.32075E-02
         0.42423E-02
         0.32075E-02
         0.24176E-02
         0.29970E-02
         0.32428E-02
         0.26572E-02
         0.27192E-02
         0.42662E-02
         0.36483E-02
         0.42662E-02
         0.32075E-02
         0.29702E-02
         0.34639E-02
         0.32624E-02
         0.37111E-02
         0.32075E-02
         0.30811E-02
         0.35197E-02
         0.26881E-02
         0.26881E-02
         0.24628E-02
         0.27631E-02
         0.42662E-02
         0.35197E-02
         0.42662E-02
         0.34692E-02
         0.27276E-02
         0.31808E-02
         0.32428E-02
         0.26975E-02
         0.27828E-02
         0.27828E-02
         0.27007E-02
         0.31890E-02
         0.31890E-02
         0.37111E-02
         0.36242E-02
         0.28243E-02
         0.31658E-02
         0.33482E-02
         0.33482E-02
         0.32003E-02
         0.29846E-02
         0.32837E-02
         0.27276E-02
         0.31081E-02
         0.31808E-02
         0.32428E-02
         0.32428E-02
         0.29970E-02
         0.27192E-02
         0.26975E-02
         0.27828E-02
         0.27828E-02
         0.27007E-02
         0.31890E-02
         0.31890E-02
         0.32624E-02
         0.34639E-02
         0.37111E-02
         0.37111E-02
         0.36242E-02
         0.28243E-02
         0.29125E-02
         0.32423E-02
         0.32423E-02
         0.32003E-02
         0.29846E-02
         0.32837E-02
         0.32837E-02
         0.42424E-02
         0.35200E-02
         0.37644E-02
         0.42424E-02
         0.37644E-02
         0.37644E-02
         0.30093E-02
         0.32077E-02
         0.42424E-02
         0.32077E-02
         0.24174E-02
         0.29979E-02
         0.32439E-02
         0.26559E-02
         0.27192E-02
         0.42653E-02
         0.36474E-02
         0.42653E-02
         0.32077E-02
         0.29690E-02
         0.34635E-02
         0.32624E-02
         0.37108E-02
         0.32077E-02
         0.30799E-02
         0.35199E-02
         0.26867E-02
         0.26867E-02
         0.24623E-02
         0.27625E-02
         0.42653E-02
         0.35199E-02
         0.42653E-02
         0.34703E-02
         0.27276E-02
         0.31812E-02
         0.32439E-02
         0.26979E-02
         0.27828E-02
         0.27828E-02
         0.27008E-02
         0.31893E-02
         0.31893E-02
         0.37108E-02
         0.36241E-02
         0.28240E-02
         0.31663E-02
         0.33481E-02
         0.33481E-02
         0.32012E-02
         0.29844E-02
         0.32835E-02
         0.27276E-02
         0.31071E-02
         0.31812E-02
         0.32439E-02
         0.32439E-02
         0.29979E-02
         0.27192E-02
         0.26979E-02
         0.27828E-02
         0.27828E-02
         0.27008E-02
         0.31893E-02
         0.31893E-02
         0.32624E-02
         0.34635E-02
         0.37108E-02
         0.37108E-02
         0.36241E-02
         0.28240E-02
         0.29135E-02
         0.32434E-02
         0.32434E-02
         0.32012E-02
         0.29844E-02
         0.32835E-02
         0.32835E-02
         0.42425E-02
         0.35200E-02
         0.37649E-02
         0.42425E-02
         0.37649E-02
         0.37649E-02
         0.30095E-02
         0.32079E-02
         0.42425E-02
         0.32079E-02
         0.24173E-02
         0.29989E-02
         0.32450E-02
         0.26547E-02
         0.27193E-02
         0.42645E-02
         0.36465E-02
         0.42645E-02
         0.32079E-02
         0.29677E-02
         0.34631E-02
         0.32625E-02
         0.37104E-02
         0.32079E-02
         0.30788E-02
         0.35201E-02
         0.26852E-02
         0.26852E-02
         0.24618E-02
         0.27618E-02
         0.42645E-02
         0.35201E-02
         0.42645E-02
         0.34715E-02
         0.27277E-02
         0.31815E-02
         0.32450E-02
         0.26983E-02
         0.27828E-02
         0.27828E-02
         0.27009E-02
         0.31895E-02
         0.31895E-02
         0.37104E-02
         0.36239E-02
         0.28237E-02
         0.31668E-02
         0.33480E-02
         0.33480E-02
         0.32020E-02
         0.29843E-02
         0.32833E-02
         0.27277E-02
         0.31062E-02
         0.31815E-02
         0.32450E-02
         0.32450E-02
         0.29989E-02
         0.27193E-02
         0.26983E-02
         0.27828E-02
         0.27828E-02
         0.27009E-02
         0.31895E-02
         0.31895E-02
         0.32625E-02
         0.34631E-02
         0.37104E-02
         0.37104E-02
         0.36239E-02
         0.28237E-02
         0.29145E-02
         0.32445E-02
         0.32445E-02
         0.32020E-02
         0.29843E-02
         0.32833E-02
         0.32833E-02
         0.42427E-02
         0.35200E-02
         0.37654E-02
         0.42427E-02
         0.37654E-02
         0.37654E-02
         0.30097E-02
         0.32081E-02
         0.42427E-02
         0.32081E-02
         0.24171E-02
         0.29998E-02
         0.32461E-02
         0.26535E-02
         0.27193E-02
         0.42636E-02
         0.36455E-02
         0.42636E-02
         0.32081E-02
         0.29665E-02
         0.34626E-02
         0.32626E-02
         0.37100E-02
         0.32081E-02
         0.30777E-02
         0.35203E-02
         0.26838E-02
         0.26838E-02
         0.24613E-02
         0.27611E-02
         0.42636E-02
         0.35203E-02
         0.42636E-02
         0.34726E-02
         0.27278E-02
         0.31818E-02
         0.32461E-02
         0.26987E-02
         0.27827E-02
         0.27827E-02
         0.27010E-02
         0.31898E-02
         0.31898E-02
         0.37100E-02
         0.36238E-02
         0.28234E-02
         0.31673E-02
         0.33479E-02
         0.33479E-02
         0.32029E-02
         0.29842E-02
         0.32831E-02
         0.27278E-02
         0.31052E-02
         0.31818E-02
         0.32461E-02
         0.32461E-02
         0.29998E-02
         0.27193E-02
         0.26987E-02
         0.27827E-02
         0.27827E-02
         0.27010E-02
         0.31898E-02
         0.31898E-02
         0.32626E-02
         0.34626E-02
         0.37100E-02
         0.37100E-02
         0.36238E-02
         0.28234E-02
         0.29154E-02
         0.32457E-02
         0.32457E-02
         0.32029E-02
         0.29842E-02
         0.32831E-02
         0.32831E-02
         0.42428E-02
         0.35199E-02
         0.37660E-02
         0.42428E-02
         0.37660E-02
         0.37660E-02
         0.30099E-02
         0.32083E-02
         0.42428E-02
         0.32083E-02
         0.24170E-02
         0.30007E-02
         0.32471E-02
         0.26523E-02
         0.27194E-02
         0.42628E-02
         0.36446E-02
         0.42628E-02
         0.32083E-02
         0.29652E-02
         0.34622E-02
         0.32627E-02
         0.37096E-02
         0.32083E-02
         0.30766E-02
         0.35205E-02
         0.26823E-02
         0.26823E-02
         0.24608E-02
         0.27605E-02
         0.42628E-02
         0.35205E-02
         0.42628E-02
         0.34737E-02
         0.27279E-02
         0.31821E-02
         0.32471E-02
         0.26991E-02
         0.27827E-02
         0.27827E-02
         0.27011E-02
         0.31900E-02
         0.31900E-02
         0.37096E-02
         0.36237E-02
         0.28231E-02
         0.31679E-02
         0.33478E-02
         0.33478E-02
         0.32038E-02
         0.29841E-02
         0.32829E-02
         0.27279E-02
         0.31043E-02
         0.31821E-02
         0.32471E-02
         0.32471E-02
         0.30007E-02
         0.27194E-02
         0.26991E-02
         0.27827E-02
         0.27827E-02
         0.27011E-02
         0.31900E-02
         0.31900E-02
         0.32627E-02
         0.34622E-02
         0.37096E-02
         0.37096E-02
         0.36237E-02
         0.28231E-02
         0.29164E-02
         0.32468E-02
         0.32468E-02
         0.32038E-02
         0.29841E-02
         0.32829E-02
         0.32829E-02
         0.42429E-02
         0.35199E-02
         0.37665E-02
         0.42429E-02
         0.37665E-02
         0.37665E-02
         0.30101E-02
         0.32085E-02
         0.42429E-02
         0.32085E-02
         0.24168E-02
         0.30017E-02
         0.32482E-02
         0.26510E-02
         0.27194E-02
         0.42619E-02
         0.36437E-02
         0.42619E-02
         0.32085E-02
         0.29640E-02
         0.34618E-02
         0.32627E-02
         0.37092E-02
         0.32085E-02
         0.30755E-02
         0.35207E-02
         0.26808E-02
         0.26808E-02
         0.24603E-02
         0.27599E-02
         0.42619E-02
         0.35207E-02
         0.42619E-02
         0.34748E-02
         0.27279E-02
         0.31824E-02
         0.32482E-02
         0.26994E-02
         0.27827E-02
         0.27827E-02
         0.27012E-02
         0.31902E-02
         0.31902E-02
         0.37092E-02
         0.36236E-02
         0.28227E-02
         0.31684E-02
         0.33477E-02
         0.33477E-02
         0.32046E-02
         0.29840E-02
         0.32827E-02
         0.27279E-02
         0.31034E-02
         0.31824E-02
         0.32482E-02
         0.32482E-02
         0.30017E-02
         0.27194E-02
         0.26994E-02
         0.27827E-02
         0.27827E-02
         0.27012E-02
         0.31902E-02
         0.31902E-02
         0.32627E-02
         0.34618E-02
         0.37092E-02
         0.37092E-02
         0.36236E-02
         0.28227E-02
         0.29173E-02
         0.32479E-02
         0.32479E-02
         0.32046E-02
         0.29840E-02
         0.32827E-02
         0.32827E-02
         0.42431E-02
         0.35199E-02
         0.37670E-02
         0.42431E-02
         0.37670E-02
         0.37670E-02
         0.30102E-02
         0.32087E-02
         0.42431E-02
         0.32087E-02
         0.24167E-02
         0.30026E-02
         0.32493E-02
         0.26498E-02
         0.27194E-02
         0.42611E-02
         0.36427E-02
         0.42611E-02
         0.32087E-02
         0.29628E-02
         0.34613E-02
         0.32628E-02
         0.37089E-02
         0.32087E-02
         0.30744E-02
         0.35209E-02
         0.26794E-02
         0.26794E-02
         0.24598E-02
         0.27592E-02
         0.42611E-02
         0.35209E-02
         0.42611E-02
         0.34759E-02
         0.27280E-02
         0.31827E-02
         0.32493E-02
         0.26998E-02
         0.27827E-02
         0.27827E-02
         0.27013E-02
         0.31905E-02
         0.31905E-02
         0.37089E-02
         0.36235E-02
         0.28224E-02
         0.31689E-02
         0.33476E-02
         0.33476E-02
         0.32055E-02
         0.29839E-02
         0.32825E-02
         0.27280E-02
         0.31024E-02
         0.31827E-02
         0.32493E-02
         0.32493E-02
         0.30026E-02
         0.27194E-02
         0.26998E-02
         0.27827E-02
         0.27827E-02
         0.27013E-02
         0.31905E-02
         0.31905E-02
         0.32628E-02
         0.34613E-02
         0.37089E-02
         0.37089E-02
         0.36235E-02
         0.28224E-02
         0.29183E-02
         0.32490E-02
         0.32490E-02
         0.32055E-02
         0.29839E-02
         0.32825E-02
         0.32825E-02
         0.42432E-02
         0.35199E-02
         0.37675E-02
         0.42432E-02
         0.37675E-02
         0.37675E-02
         0.30104E-02
         0.32089E-02
         0.42432E-02
         0.32089E-02
         0.24166E-02
         0.30035E-02
         0.32504E-02
         0.26486E-02
         0.27195E-02
         0.42603E-02
         0.36418E-02
         0.42603E-02
         0.32089E-02
         0.29615E-02
         0.34609E-02
         0.32629E-02
         0.37085E-02
         0.32089E-02
         0.30732E-02
         0.35211E-02
         0.26779E-02
         0.26779E-02
         0.24593E-02
         0.27585E-02
         0.42603E-02
         0.35211E-02
         0.42603E-02
         0.34771E-02
         0.27281E-02
         0.31830E-02
         0.32504E-02
         0.27002E-02
         0.27827E-02
         0.27827E-02
         0.27014E-02
         0.31907E-02
         0.31907E-02
         0.37085E-02
         0.36233E-02
         0.28221E-02
         0.31694E-02
         0.33475E-02
         0.33475E-02
         0.32063E-02
         0.29838E-02
         0.32823E-02
         0.27281E-02
         0.31015E-02
         0.31830E-02
         0.32504E-02
         0.32504E-02
         0.30035E-02
         0.27195E-02
         0.27002E-02
         0.27827E-02
         0.27827E-02
         0.27014E-02
         0.31907E-02
         0.31907E-02
         0.32629E-02
         0.34609E-02
         0.37085E-02
         0.37085E-02
         0.36233E-02
         0.28221E-02
         0.29193E-02
         0.32501E-02
         0.32501E-02
         0.32063E-02
         0.29838E-02
         0.32823E-02
         0.32823E-02
         0.42433E-02
         0.35199E-02
         0.37680E-02
         0.42433E-02
         0.37680E-02
         0.37680E-02
         0.30106E-02
         0.32091E-02
         0.42433E-02
         0.32091E-02
         0.24164E-02
         0.30045E-02
         0.32514E-02
         0.26474E-02
         0.27195E-02
         0.42594E-02
         0.36409E-02
         0.42594E-02
         0.32091E-02
         0.29603E-02
         0.34605E-02
         0.32630E-02
         0.37081E-02
         0.32091E-02
         0.30721E-02
         0.35213E-02
         0.26765E-02
         0.26765E-02
         0.24588E-02
         0.27579E-02
         0.42594E-02
         0.35213E-02
         0.42594E-02
         0.34782E-02
         0.27281E-02
         0.31833E-02
         0.32514E-02
         0.27006E-02
         0.27826E-02
         0.27826E-02
         0.27015E-02
         0.31910E-02
         0.31910E-02
         0.37081E-02
         0.36232E-02
         0.28218E-02
         0.31700E-02
         0.33474E-02
         0.33474E-02
         0.32072E-02
         0.29836E-02
         0.32821E-02
         0.27281E-02
         0.31005E-02
         0.31833E-02
         0.32514E-02
         0.32514E-02
         0.30045E-02
         0.27195E-02
         0.27006E-02
         0.27826E-02
         0.27826E-02
         0.27015E-02
         0.31910E-02
         0.31910E-02
         0.32630E-02
         0.34605E-02
         0.37081E-02
         0.37081E-02
         0.36232E-02
         0.28218E-02
         0.29202E-02
         0.32512E-02
         0.32512E-02
         0.32072E-02
         0.29836E-02
         0.32821E-02
         0.32821E-02
         0.42435E-02
         0.35199E-02
         0.37685E-02
         0.42435E-02
         0.37685E-02
         0.37685E-02
         0.30108E-02
         0.32093E-02
         0.42435E-02
         0.32093E-02
         0.24163E-02
         0.30054E-02
         0.32525E-02
         0.26461E-02
         0.27196E-02
         0.42586E-02
         0.36399E-02
         0.42586E-02
         0.32093E-02
         0.29591E-02
         0.34601E-02
         0.32630E-02
         0.37077E-02
         0.32093E-02
         0.30710E-02
         0.35215E-02
         0.26750E-02
         0.26750E-02
         0.24583E-02
         0.27572E-02
         0.42586E-02
         0.35215E-02
         0.42586E-02
         0.34793E-02
         0.27282E-02
         0.31836E-02
         0.32525E-02
         0.27010E-02
         0.27826E-02
         0.27826E-02
         0.27016E-02
         0.31912E-02
         0.31912E-02
         0.37077E-02
         0.36231E-02
         0.28215E-02
         0.31705E-02
         0.33473E-02
         0.33473E-02
         0.32080E-02
         0.29835E-02
         0.32819E-02
         0.27282E-02
         0.30996E-02
         0.31836E-02
         0.32525E-02
         0.32525E-02
         0.30054E-02
         0.27196E-02
         0.27010E-02
         0.27826E-02
         0.27826E-02
         0.27016E-02
         0.31912E-02
         0.31912E-02
         0.32630E-02
         0.34601E-02
         0.37077E-02
         0.37077E-02
         0.36231E-02
         0.28215E-02
         0.29212E-02
         0.32524E-02
         0.32524E-02
         0.32080E-02
         0.29835E-02
         0.32819E-02
         0.32819E-02
         0.42436E-02
         0.35198E-02
         0.37690E-02
         0.42436E-02
         0.37690E-02
         0.37690E-02
         0.30110E-02
         0.32095E-02
         0.42436E-02
         0.32095E-02
         0.24162E-02
         0.30064E-02
         0.32536E-02
         0.26449E-02
         0.27196E-02
         0.42577E-02
         0.36390E-02
         0.42577E-02
         0.32096E-02
         0.29578E-02
         0.34596E-02
         0.32631E-02
         0.37074E-02
         0.32096E-02
         0.30699E-02
         0.35217E-02
         0.26735E-02
         0.26735E-02
         0.24578E-02
         0.27566E-02
         0.42577E-02
         0.35217E-02
         0.42577E-02
         0.34804E-02
         0.27283E-02
         0.31839E-02
         0.32536E-02
         0.27013E-02
         0.27826E-02
         0.27826E-02
         0.27017E-02
         0.31915E-02
         0.31915E-02
         0.37074E-02
         0.36230E-02
         0.28211E-02
         0.31710E-02
         0.33472E-02
         0.33472E-02
         0.32089E-02
         0.29834E-02
         0.32817E-02
         0.27283E-02
         0.30986E-02
         0.31839E-02
         0.32536E-02
         0.32536E-02
         0.30064E-02
         0.27196E-02
         0.27013E-02
         0.27826E-02
         0.27826E-02
         0.27017E-02
         0.31915E-02
         0.31915E-02
         0.32631E-02
         0.34596E-02
         0.37074E-02
         0.37074E-02
         0.36230E-02
         0.28211E-02
         0.29221E-02
         0.32535E-02
         0.32535E-02
         0.32089E-02
         0.29834E-02
         0.32817E-02
         0.32817E-02
         0.42437E-02
         0.35198E-02
         0.37695E-02
         0.42437E-02
         0.37695E-02
         0.37695E-02
         0.30112E-02
         0.32097E-02
         0.42437E-02
         0.32097E-02
         0.24160E-02
         0.30073E-02
         0.32547E-02
         0.26437E-02
         0.27197E-02
         0.42569E-02
         0.36381E-02
         0.42569E-02
         0.32098E-02
         0.29566E-02
         0.34592E-02
         0.32632E-02
         0.37070E-02
         0.32098E-02
         0.30688E-02
         0.35219E-02
         0.26721E-02
         0.26721E-02
         0.24573E-02
         0.27560E-02
         0.42569E-02
         0.35219E-02
         0.42569E-02
         0.34815E-02
         0.27284E-02
         0.31843E-02
         0.32547E-02
         0.27017E-02
         0.27826E-02
         0.27826E-02
         0.27018E-02
         0.31917E-02
         0.31917E-02
         0.37070E-02
         0.36229E-02
         0.28208E-02
         0.31716E-02
         0.33471E-02
         0.33471E-02
         0.32097E-02
         0.29833E-02
         0.32815E-02
         0.27284E-02
         0.30977E-02
         0.31843E-02
         0.32547E-02
         0.32547E-02
         0.30073E-02
         0.27197E-02
         0.27017E-02
         0.27826E-02
         0.27826E-02
         0.27018E-02
         0.31917E-02
         0.31917E-02
         0.32632E-02
         0.34592E-02
         0.37070E-02
         0.37070E-02
         0.36229E-02
         0.28208E-02
         0.29231E-02
         0.32546E-02
         0.32546E-02
         0.32097E-02
         0.29833E-02
         0.32815E-02
         0.32815E-02
         0.42439E-02
         0.35198E-02
         0.37701E-02
         0.42439E-02
         0.37701E-02
         0.37701E-02
         0.30113E-02
         0.32099E-02
         0.42439E-02
         0.32099E-02
         0.24159E-02
         0.30082E-02
         0.32558E-02
         0.26425E-02
         0.27197E-02
         0.42560E-02
         0.36371E-02
         0.42560E-02
         0.32100E-02
         0.29554E-02
         0.34588E-02
         0.32633E-02
         0.37066E-02
         0.32100E-02
         0.30677E-02
         0.35221E-02
         0.26706E-02
         0.26706E-02
         0.24568E-02
         0.27553E-02
         0.42560E-02
         0.35221E-02
         0.42560E-02
         0.34827E-02
         0.27284E-02
         0.31846E-02
         0.32558E-02
         0.27021E-02
         0.27826E-02
         0.27826E-02
         0.27019E-02
         0.31920E-02
         0.31920E-02
         0.37066E-02
         0.36227E-02
         0.28205E-02
         0.31721E-02
         0.33470E-02
         0.33470E-02
         0.32106E-02
         0.29831E-02
         0.32813E-02
         0.27284E-02
         0.30968E-02
         0.31846E-02
         0.32558E-02
         0.32558E-02
         0.30082E-02
         0.27197E-02
         0.27021E-02
         0.27826E-02
         0.27826E-02
         0.27019E-02
         0.31920E-02
         0.31920E-02
         0.32633E-02
         0.34588E-02
         0.37066E-02
         0.37066E-02
         0.36227E-02
         0.28205E-02
         0.29241E-02
         0.32557E-02
         0.32557E-02
         0.32106E-02
         0.29831E-02
         0.32813E-02
         0.32813E-02
         0.42440E-02
         0.35198E-02
         0.37706E-02
         0.42440E-02
         0.37706E-02
         0.37706E-02
         0.30115E-02
         0.32101E-02
         0.42440E-02
         0.32101E-02
         0.24158E-02
         0.30091E-02
         0.32568E-02
         0.26412E-02
         0.27198E-02
         0.42552E-02
         0.36362E-02
         0.42552E-02
         0.32102E-02
         0.29541E-02
         0.34583E-02
         0.32633E-02
         0.37062E-02
         0.32102E-02
         0.30665E-02
         0.35223E-02
         0.26692E-02
         0.26692E-02
         0.24563E-02
         0.27546E-02
         0.42552E-02
         0.35223E-02
         0.42552E-02
         0.34838E-02
         0.27285E-02
         0.31849E-02
         0.32568E-02
         0.27025E-02
         0.27826E-02
         0.27826E-02
         0.27020E-02
         0.31922E-02
         0.31922E-02
         0.37062E-02
         0.36226E-02
         0.28202E-02
         0.31726E-02
         0.33469E-02
         0.33469E-02
         0.32114E-02
         0.29830E-02
         0.32811E-02
         0.27285E-02
         0.30958E-02
         0.31849E-02
         0.32568E-02
         0.32568E-02
         0.30091E-02
         0.27198E-02
         0.27025E-02
         0.27826E-02
         0.27826E-02
         0.27020E-02
         0.31922E-02
         0.31922E-02
         0.32633E-02
         0.34583E-02
         0.37062E-02
         0.37062E-02
         0.36226E-02
         0.28202E-02
         0.29250E-02
         0.32568E-02
         0.32568E-02
         0.32114E-02
         0.29830E-02
         0.32811E-02
         0.32811E-02
         0.42441E-02
         0.35198E-02
         0.37711E-02
         0.42441E-02
         0.37711E-02
         0.37711E-02
         0.30117E-02
         0.32103E-02
         0.42441E-02
         0.32103E-02
         0.24156E-02
         0.30101E-02
         0.32579E-02
         0.26400E-02
         0.27198E-02
         0.42543E-02
         0.36353E-02
         0.42543E-02
         0.32104E-02
         0.29529E-02
         0.34579E-02
         0.32634E-02
         0.37058E-02
         0.32104E-02
         0.30654E-02
         0.35225E-02
         0.26677E-02
         0.26677E-02
         0.24558E-02
         0.27540E-02
         0.42543E-02
         0.35225E-02
         0.42543E-02
         0.34849E-02
         0.27286E-02
         0.31852E-02
         0.32579E-02
         0.27029E-02
         0.27826E-02
         0.27826E-02
         0.27021E-02
         0.31924E-02
         0.31924E-02
         0.37058E-02
         0.36225E-02
         0.28198E-02
         0.31731E-02
         0.33468E-02
         0.33468E-02
         0.32123E-02
         0.29829E-02
         0.32809E-02
         0.27286E-02
         0.30949E-02
         0.31852E-02
         0.32579E-02
         0.32579E-02
         0.30101E-02
         0.27198E-02
         0.27029E-02
         0.27826E-02
         0.27826E-02
         0.27021E-02
         0.31924E-02
         0.31924E-02
         0.32634E-02
         0.34579E-02
         0.37058E-02
         0.37058E-02
         0.36225E-02
         0.28198E-02
         0.29260E-02
         0.32579E-02
         0.32579E-02
         0.32123E-02
         0.29829E-02
         0.32809E-02
         0.32809E-02
         0.42443E-02
         0.35197E-02
         0.37716E-02
         0.42443E-02
         0.37716E-02
         0.37716E-02
         0.30119E-02
         0.32105E-02
         0.42443E-02
         0.32105E-02
         0.24155E-02
         0.30110E-02
         0.32590E-02
         0.26388E-02
         0.27199E-02
         0.42535E-02
         0.36343E-02
         0.42535E-02
         0.32106E-02
         0.29517E-02
         0.34575E-02
         0.32635E-02
         0.37055E-02
         0.32106E-02
         0.30643E-02
         0.35227E-02
         0.26663E-02
         0.26663E-02
         0.24553E-02
         0.27533E-02
         0.42535E-02
         0.35227E-02
         0.42535E-02
         0.34860E-02
         0.27286E-02
         0.31855E-02
         0.32590E-02
         0.27032E-02
         0.27826E-02
         0.27826E-02
         0.27022E-02
         0.31927E-02
         0.31927E-02
         0.37055E-02
         0.36224E-02
         0.28195E-02
         0.31737E-02
         0.33467E-02
         0.33467E-02
         0.32132E-02
         0.29828E-02
         0.32807E-02
         0.27286E-02
         0.30939E-02
         0.31855E-02
         0.32590E-02
         0.32590E-02
         0.30110E-02
         0.27199E-02
         0.27032E-02
         0.27826E-02
         0.27826E-02
         0.27022E-02
         0.31927E-02
         0.31927E-02
         0.32635E-02
         0.34575E-02
         0.37055E-02
         0.37055E-02
         0.36224E-02
         0.28195E-02
         0.29269E-02
         0.32591E-02
         0.32591E-02
         0.32132E-02
         0.29828E-02
         0.32807E-02
         0.32807E-02
         0.42444E-02
         0.35197E-02
         0.37721E-02
         0.42444E-02
         0.37721E-02
         0.37721E-02
         0.30121E-02
         0.32107E-02
         0.42444E-02
         0.32107E-02
         0.24154E-02
         0.30119E-02
         0.32601E-02
         0.26376E-02
         0.27199E-02
         0.42527E-02
         0.36334E-02
         0.42527E-02
         0.32108E-02
         0.29504E-02
         0.34571E-02
         0.32636E-02
         0.37051E-02
         0.32108E-02
         0.30632E-02
         0.35229E-02
         0.26648E-02
         0.26648E-02
         0.24552E-02
         0.27527E-02
         0.42527E-02
         0.35229E-02
         0.42527E-02
         0.34871E-02
         0.27287E-02
         0.31858E-02
         0.32601E-02
         0.27036E-02
         0.27825E-02
         0.27825E-02
         0.27023E-02
         0.31929E-02
         0.31929E-02
         0.37051E-02
         0.36223E-02
         0.28192E-02
         0.31742E-02
         0.33466E-02
         0.33466E-02
         0.32140E-02
         0.29827E-02
         0.32805E-02
         0.27287E-02
         0.30930E-02
         0.31858E-02
         0.32601E-02
         0.32601E-02
         0.30119E-02
         0.27199E-02
         0.27036E-02
         0.27825E-02
         0.27825E-02
         0.27023E-02
         0.31929E-02
         0.31929E-02
         0.32636E-02
         0.34571E-02
         0.37051E-02
         0.37051E-02
         0.36223E-02
         0.28192E-02
         0.29279E-02
         0.32602E-02
         0.32602E-02
         0.32140E-02
         0.29827E-02
         0.32805E-02
         0.32805E-02
         0.42445E-02
         0.35197E-02
         0.37726E-02
         0.42445E-02
         0.37726E-02
         0.37726E-02
         0.30123E-02
         0.32108E-02
         0.42445E-02
         0.32108E-02
         0.24152E-02
         0.30129E-02
         0.32611E-02
         0.26363E-02
         0.27200E-02
         0.42518E-02
         0.36325E-02
         0.42518E-02
         0.32110E-02
         0.29492E-02
         0.34566E-02
         0.32636E-02
         0.37047E-02
         0.32110E-02
         0.30621E-02
         0.35231E-02
         0.26633E-02
         0.26633E-02
         0.24554E-02
         0.27520E-02
         0.42518E-02
         0.35231E-02
         0.42518E-02
         0.34882E-02
         0.27288E-02
         0.31861E-02
         0.32611E-02
         0.27040E-02
         0.27825E-02
         0.27825E-02
         0.27024E-02
         0.31932E-02
         0.31932E-02
         0.37047E-02
         0.36222E-02
         0.28189E-02
         0.31747E-02
         0.33465E-02
         0.33465E-02
         0.32149E-02
         0.29826E-02
         0.32803E-02
         0.27288E-02
         0.30921E-02
         0.31861E-02
         0.32611E-02
         0.32611E-02
         0.30129E-02
         0.27200E-02
         0.27040E-02
         0.27825E-02
         0.27825E-02
         0.27024E-02
         0.31932E-02
         0.31932E-02
         0.32636E-02
         0.34566E-02
         0.37047E-02
         0.37047E-02
         0.36222E-02
         0.28189E-02
         0.29289E-02
         0.32613E-02
         0.32613E-02
         0.32149E-02
         0.29826E-02
         0.32803E-02
         0.32803E-02
         0.42447E-02
         0.35196E-02
         0.37732E-02
         0.42447E-02
         0.37732E-02
         0.37732E-02
         0.30125E-02
         0.32111E-02
         0.42447E-02
         0.32111E-02
         0.24151E-02
         0.30138E-02
         0.32622E-02
         0.26351E-02
         0.27200E-02
         0.42510E-02
         0.36315E-02
         0.42510E-02
         0.32112E-02
         0.29480E-02
         0.34562E-02
         0.32637E-02
         0.37043E-02
         0.32112E-02
         0.30610E-02
         0.35233E-02
         0.26619E-02
         0.26619E-02
         0.24557E-02
         0.27514E-02
         0.42510E-02
         0.35233E-02
         0.42510E-02
         0.34894E-02
         0.27289E-02
         0.31864E-02
         0.32622E-02
         0.27044E-02
         0.27825E-02
         0.27825E-02
         0.27025E-02
         0.31934E-02
         0.31934E-02
         0.37043E-02
         0.36220E-02
         0.28186E-02
         0.31753E-02
         0.33464E-02
         0.33464E-02
         0.32157E-02
         0.29824E-02
         0.32801E-02
         0.27289E-02
         0.30911E-02
         0.31864E-02
         0.32622E-02
         0.32622E-02
         0.30138E-02
         0.27200E-02
         0.27044E-02
         0.27825E-02
         0.27825E-02
         0.27025E-02
         0.31934E-02
         0.31934E-02
         0.32637E-02
         0.34562E-02
         0.37043E-02
         0.37043E-02
         0.36220E-02
         0.28186E-02
         0.29298E-02
         0.32624E-02
         0.32624E-02
         0.32157E-02
         0.29824E-02
         0.32801E-02
         0.32801E-02
         0.42448E-02
         0.35196E-02
         0.37737E-02
         0.42448E-02
         0.37737E-02
         0.37737E-02
         0.30126E-02
         0.32112E-02
         0.42448E-02
         0.32112E-02
         0.24150E-02
         0.30147E-02
         0.32633E-02
         0.26339E-02
         0.27200E-02
         0.42501E-02
         0.36306E-02
         0.42501E-02
         0.32114E-02
         0.29467E-02
         0.34558E-02
         0.32638E-02
         0.37039E-02
         0.32114E-02
         0.30598E-02
         0.35235E-02
         0.26604E-02
         0.26604E-02
         0.24559E-02
         0.27507E-02
         0.42501E-02
         0.35235E-02
         0.42501E-02
         0.34905E-02
         0.27289E-02
         0.31867E-02
         0.32633E-02
         0.27048E-02
         0.27825E-02
         0.27825E-02
         0.27026E-02
         0.31937E-02
         0.31937E-02
         0.37039E-02
         0.36219E-02
         0.28183E-02
         0.31758E-02
         0.33463E-02
         0.33463E-02
         0.32166E-02
         0.29823E-02
         0.32799E-02
         0.27289E-02
         0.30902E-02
         0.31867E-02
         0.32633E-02
         0.32633E-02
         0.30147E-02
         0.27200E-02
         0.27048E-02
         0.27825E-02
         0.27825E-02
         0.27026E-02
         0.31937E-02
         0.31937E-02
         0.32638E-02
         0.34558E-02
         0.37039E-02
         0.37039E-02
         0.36219E-02
         0.28183E-02
         0.29308E-02
         0.32635E-02
         0.32635E-02
         0.32166E-02
         0.29823E-02
         0.32799E-02
         0.32799E-02
         0.42448E-02
         0.35196E-02
         0.37737E-02
         0.42448E-02
         0.37737E-02
         0.37737E-02
         0.30126E-02
         0.32112E-02
         0.42448E-02
         0.32112E-02
         0.24148E-02
         0.30147E-02
         0.32633E-02
         0.26327E-02
         0.27200E-02
         0.42493E-02
         0.36297E-02
         0.42493E-02
         0.32114E-02
         0.29455E-02
         0.34553E-02
         0.32638E-02
         0.37036E-02
         0.32114E-02
         0.30587E-02
         0.35235E-02
         0.26590E-02
         0.26590E-02
         0.24559E-02
         0.27501E-02
         0.42493E-02
         0.35235E-02
         0.42493E-02
         0.34905E-02
         0.27289E-02
         0.31867E-02
         0.32633E-02
         0.27048E-02
         0.27825E-02
         0.27825E-02
         0.27026E-02
         0.31937E-02
         0.31937E-02
         0.37036E-02
         0.36218E-02
         0.28180E-02
         0.31758E-02
         0.33462E-02
         0.33462E-02
         0.32166E-02
         0.29822E-02
         0.32797E-02
         0.27289E-02
         0.30892E-02
         0.31867E-02
         0.32633E-02
         0.32633E-02
         0.30147E-02
         0.27200E-02
         0.27048E-02
         0.27825E-02
         0.27825E-02
         0.27026E-02
         0.31937E-02
         0.31937E-02
         0.32638E-02
         0.34553E-02
         0.37036E-02
         0.37036E-02
         0.36218E-02
         0.28180E-02
         0.29308E-02
         0.32635E-02
         0.32635E-02
         0.32166E-02
         0.29822E-02
         0.32797E-02
         0.32797E-02
  
SCALARS              physical_window_y  double 1
LOOKUP_TABLE default
         0.43155E-02
         0.43155E-02
         0.43155E-02
         0.43155E-02
         0.43155E-02
         0.43155E-02
         0.43155E-02
         0.43155E-02
         0.34883E-02
         0.34883E-02
         0.34882E-02
         0.34882E-02
         0.32826E-02
         0.32142E-02
         0.32826E-02
         0.32142E-02
         0.37863E-02
         0.31884E-02
         0.37863E-02
         0.31884E-02
         0.27172E-02
         0.33887E-02
         0.37164E-02
         0.27172E-02
         0.33887E-02
         0.37164E-02
         0.27582E-02
         0.28966E-02
         0.27582E-02
         0.28954E-02
         0.37007E-02
         0.35859E-02
         0.37863E-02
         0.37007E-02
         0.35824E-02
         0.37863E-02
         0.29875E-02
         0.29875E-02
         0.29867E-02
         0.29867E-02
         0.28561E-02
         0.26860E-02
         0.28556E-02
         0.26852E-02
         0.29518E-02
         0.28068E-02
         0.29517E-02
         0.28066E-02
         0.29975E-02
         0.29949E-02
         0.37007E-02
         0.37007E-02
         0.28693E-02
         0.28693E-02
         0.28693E-02
         0.28693E-02
         0.27602E-02
         0.26193E-02
         0.27602E-02
         0.26193E-02
         0.37007E-02
         0.37007E-02
         0.37007E-02
         0.37007E-02
         0.37685E-02
         0.37665E-02
         0.37685E-02
         0.37665E-02
         0.30230E-02
         0.37003E-02
         0.30229E-02
         0.37003E-02
         0.37164E-02
         0.37164E-02
         0.31934E-02
         0.31921E-02
         0.32777E-02
         0.32771E-02
         0.32777E-02
         0.32771E-02
         0.27006E-02
         0.25920E-02
         0.27006E-02
         0.25920E-02
         0.25916E-02
         0.25916E-02
         0.29715E-02
         0.29715E-02
         0.29715E-02
         0.29715E-02
         0.26477E-02
         0.29102E-02
         0.26477E-02
         0.29102E-02
         0.34085E-02
         0.34085E-02
         0.35350E-02
         0.35350E-02
         0.35350E-02
         0.35350E-02
         0.29766E-02
         0.32272E-02
         0.29763E-02
         0.32254E-02
         0.29087E-02
         0.29835E-02
         0.29087E-02
         0.29825E-02
         0.37003E-02
         0.37003E-02
         0.37164E-02
         0.37164E-02
         0.37164E-02
         0.37164E-02
         0.33887E-02
         0.33887E-02
         0.28966E-02
         0.28954E-02
         0.31934E-02
         0.31921E-02
         0.32777E-02
         0.32771E-02
         0.32777E-02
         0.32771E-02
         0.27006E-02
         0.27006E-02
         0.25920E-02
         0.25920E-02
         0.25916E-02
         0.25916E-02
         0.26860E-02
         0.26852E-02
         0.28561E-02
         0.28556E-02
         0.29518E-02
         0.29517E-02
         0.29715E-02
         0.29715E-02
         0.29715E-02
         0.29715E-02
         0.26477E-02
         0.26477E-02
         0.27685E-02
         0.27685E-02
         0.34085E-02
         0.34085E-02
         0.35350E-02
         0.35350E-02
         0.35350E-02
         0.35350E-02
         0.29766E-02
         0.29763E-02
         0.31381E-02
         0.31368E-02
         0.31381E-02
         0.31368E-02
         0.43153E-02
         0.43153E-02
         0.43153E-02
         0.43153E-02
         0.34883E-02
         0.34883E-02
         0.32812E-02
         0.32132E-02
         0.37858E-02
         0.31880E-02
         0.27155E-02
         0.33883E-02
         0.37163E-02
         0.27535E-02
         0.28978E-02
         0.37004E-02
         0.35894E-02
         0.37858E-02
         0.29882E-02
         0.29882E-02
         0.28566E-02
         0.26867E-02
         0.29519E-02
         0.28071E-02
         0.30001E-02
         0.37004E-02
         0.28667E-02
         0.28667E-02
         0.27589E-02
         0.26183E-02
         0.37004E-02
         0.37004E-02
         0.37706E-02
         0.37706E-02
         0.30232E-02
         0.36991E-02
         0.37163E-02
         0.31947E-02
         0.32784E-02
         0.32784E-02
         0.27006E-02
         0.25920E-02
         0.25909E-02
         0.29715E-02
         0.29715E-02
         0.26476E-02
         0.29101E-02
         0.34078E-02
         0.35344E-02
         0.35344E-02
         0.29769E-02
         0.32290E-02
         0.29059E-02
         0.29845E-02
         0.36991E-02
         0.37163E-02
         0.37163E-02
         0.33883E-02
         0.28978E-02
         0.31947E-02
         0.32784E-02
         0.32784E-02
         0.27006E-02
         0.25920E-02
         0.25909E-02
         0.26867E-02
         0.28566E-02
         0.29519E-02
         0.29715E-02
         0.29715E-02
         0.26476E-02
         0.27685E-02
         0.34078E-02
         0.35344E-02
         0.35344E-02
         0.29769E-02
         0.31395E-02
         0.31395E-02
         0.43150E-02
         0.43150E-02
         0.43150E-02
         0.43150E-02
         0.34884E-02
         0.34884E-02
         0.32798E-02
         0.32122E-02
         0.37853E-02
         0.31876E-02
         0.27137E-02
         0.33879E-02
         0.37162E-02
         0.27488E-02
         0.28990E-02
         0.37001E-02
         0.35930E-02
         0.37853E-02
         0.29889E-02
         0.29889E-02
         0.28571E-02
         0.26875E-02
         0.29521E-02
         0.28074E-02
         0.30027E-02
         0.37001E-02
         0.28641E-02
         0.28641E-02
         0.27576E-02
         0.26173E-02
         0.37001E-02
         0.37001E-02
         0.37727E-02
         0.37727E-02
         0.30234E-02
         0.36979E-02
         0.37162E-02
         0.31960E-02
         0.32790E-02
         0.32790E-02
         0.27006E-02
         0.25920E-02
         0.25902E-02
         0.29715E-02
         0.29715E-02
         0.26476E-02
         0.29100E-02
         0.34071E-02
         0.35339E-02
         0.35339E-02
         0.29772E-02
         0.32307E-02
         0.29032E-02
         0.29855E-02
         0.36979E-02
         0.37162E-02
         0.37162E-02
         0.33879E-02
         0.28990E-02
         0.31960E-02
         0.32790E-02
         0.32790E-02
         0.27006E-02
         0.25920E-02
         0.25902E-02
         0.26875E-02
         0.28571E-02
         0.29521E-02
         0.29715E-02
         0.29715E-02
         0.26476E-02
         0.27684E-02
         0.34071E-02
         0.35339E-02
         0.35339E-02
         0.29772E-02
         0.31408E-02
         0.31408E-02
         0.43148E-02
         0.43148E-02
         0.43148E-02
         0.43148E-02
         0.34885E-02
         0.34885E-02
         0.32783E-02
         0.32112E-02
         0.37849E-02
         0.31872E-02
         0.27120E-02
         0.33875E-02
         0.37161E-02
         0.27441E-02
         0.29003E-02
         0.36998E-02
         0.35965E-02
         0.37849E-02
         0.29896E-02
         0.29896E-02
         0.28575E-02
         0.26882E-02
         0.29522E-02
         0.28077E-02
         0.30053E-02
         0.36998E-02
         0.28615E-02
         0.28615E-02
         0.27563E-02
         0.26163E-02
         0.36998E-02
         0.36998E-02
         0.37747E-02
         0.37747E-02
         0.30236E-02
         0.36967E-02
         0.37161E-02
         0.31973E-02
         0.32796E-02
         0.32796E-02
         0.27006E-02
         0.25920E-02
         0.25895E-02
         0.29714E-02
         0.29714E-02
         0.26475E-02
         0.29099E-02
         0.34063E-02
         0.35333E-02
         0.35333E-02
         0.29775E-02
         0.32325E-02
         0.29004E-02
         0.29865E-02
         0.36967E-02
         0.37161E-02
         0.37161E-02
         0.33875E-02
         0.29003E-02
         0.31973E-02
         0.32796E-02
         0.32796E-02
         0.27006E-02
         0.25920E-02
         0.25895E-02
         0.26882E-02
         0.28575E-02
         0.29522E-02
         0.29714E-02
         0.29714E-02
         0.26475E-02
         0.27684E-02
         0.34063E-02
         0.35333E-02
         0.35333E-02
         0.29775E-02
         0.31422E-02
         0.31422E-02
         0.43145E-02
         0.43145E-02
         0.43145E-02
         0.43145E-02
         0.34886E-02
         0.34886E-02
         0.32769E-02
         0.32102E-02
         0.37844E-02
         0.31868E-02
         0.27103E-02
         0.33871E-02
         0.37160E-02
         0.27394E-02
         0.29015E-02
         0.36995E-02
         0.36000E-02
         0.37844E-02
         0.29903E-02
         0.29903E-02
         0.28580E-02
         0.26890E-02
         0.29523E-02
         0.28079E-02
         0.30079E-02
         0.36995E-02
         0.28589E-02
         0.28589E-02
         0.27550E-02
         0.26152E-02
         0.36995E-02
         0.36995E-02
         0.37768E-02
         0.37768E-02
         0.30238E-02
         0.36956E-02
         0.37160E-02
         0.31986E-02
         0.32802E-02
         0.32802E-02
         0.27006E-02
         0.25920E-02
         0.25887E-02
         0.29714E-02
         0.29714E-02
         0.26475E-02
         0.29098E-02
         0.34056E-02
         0.35327E-02
         0.35327E-02
         0.29778E-02
         0.32342E-02
         0.28977E-02
         0.29875E-02
         0.36956E-02
         0.37160E-02
         0.37160E-02
         0.33871E-02
         0.29015E-02
         0.31986E-02
         0.32802E-02
         0.32802E-02
         0.27006E-02
         0.25920E-02
         0.25887E-02
         0.26890E-02
         0.28580E-02
         0.29523E-02
         0.29714E-02
         0.29714E-02
         0.26475E-02
         0.27683E-02
         0.34056E-02
         0.35327E-02
         0.35327E-02
         0.29778E-02
         0.31435E-02
         0.31435E-02
         0.43143E-02
         0.43143E-02
         0.43143E-02
         0.43143E-02
         0.34887E-02
         0.34887E-02
         0.32755E-02
         0.32091E-02
         0.37839E-02
         0.31864E-02
         0.27086E-02
         0.33867E-02
         0.37159E-02
         0.27347E-02
         0.29027E-02
         0.36991E-02
         0.36036E-02
         0.37839E-02
         0.29920E-02
         0.29920E-02
         0.28585E-02
         0.26897E-02
         0.29525E-02
         0.28082E-02
         0.30105E-02
         0.36991E-02
         0.28563E-02
         0.28563E-02
         0.27537E-02
         0.26142E-02
         0.36991E-02
         0.36991E-02
         0.37789E-02
         0.37789E-02
         0.30240E-02
         0.36944E-02
         0.37159E-02
         0.31999E-02
         0.32808E-02
         0.32808E-02
         0.27006E-02
         0.25920E-02
         0.25880E-02
         0.29714E-02
         0.29714E-02
         0.26474E-02
         0.29097E-02
         0.34049E-02
         0.35322E-02
         0.35322E-02
         0.29781E-02
         0.32360E-02
         0.28949E-02
         0.29885E-02
         0.36944E-02
         0.37159E-02
         0.37159E-02
         0.33867E-02
         0.29027E-02
         0.31999E-02
         0.32808E-02
         0.32808E-02
         0.27006E-02
         0.25920E-02
         0.25880E-02
         0.26897E-02
         0.28585E-02
         0.29525E-02
         0.29714E-02
         0.29714E-02
         0.26474E-02
         0.27683E-02
         0.34049E-02
         0.35322E-02
         0.35322E-02
         0.29781E-02
         0.31449E-02
         0.31449E-02
         0.43140E-02
         0.43140E-02
         0.43140E-02
         0.43140E-02
         0.34888E-02
         0.34888E-02
         0.32740E-02
         0.32081E-02
         0.37834E-02
         0.31860E-02
         0.27069E-02
         0.33863E-02
         0.37158E-02
         0.27299E-02
         0.29039E-02
         0.36988E-02
         0.36071E-02
         0.37834E-02
         0.29946E-02
         0.29946E-02
         0.28589E-02
         0.26905E-02
         0.29526E-02
         0.28085E-02
         0.30131E-02
         0.36988E-02
         0.28538E-02
         0.28538E-02
         0.27524E-02
         0.26132E-02
         0.36988E-02
         0.36988E-02
         0.37809E-02
         0.37809E-02
         0.30241E-02
         0.36932E-02
         0.37158E-02
         0.32012E-02
         0.32814E-02
         0.32814E-02
         0.27006E-02
         0.25920E-02
         0.25873E-02
         0.29714E-02
         0.29714E-02
         0.26473E-02
         0.29097E-02
         0.34041E-02
         0.35316E-02
         0.35316E-02
         0.29784E-02
         0.32378E-02
         0.28921E-02
         0.29895E-02
         0.36932E-02
         0.37158E-02
         0.37158E-02
         0.33863E-02
         0.29039E-02
         0.32012E-02
         0.32814E-02
         0.32814E-02
         0.27006E-02
         0.25920E-02
         0.25873E-02
         0.26905E-02
         0.28589E-02
         0.29526E-02
         0.29714E-02
         0.29714E-02
         0.26473E-02
         0.27683E-02
         0.34041E-02
         0.35316E-02
         0.35316E-02
         0.29784E-02
         0.31463E-02
         0.31463E-02
         0.43138E-02
         0.43138E-02
         0.43138E-02
         0.43138E-02
         0.34888E-02
         0.34888E-02
         0.32726E-02
         0.32071E-02
         0.37830E-02
         0.31856E-02
         0.27051E-02
         0.33859E-02
         0.37157E-02
         0.27252E-02
         0.29051E-02
         0.36985E-02
         0.36106E-02
         0.37830E-02
         0.29972E-02
         0.29972E-02
         0.28594E-02
         0.26912E-02
         0.29528E-02
         0.28087E-02
         0.30156E-02
         0.36985E-02
         0.28512E-02
         0.28512E-02
         0.27512E-02
         0.26122E-02
         0.36985E-02
         0.36985E-02
         0.37830E-02
         0.37830E-02
         0.30243E-02
         0.36920E-02
         0.37157E-02
         0.32025E-02
         0.32821E-02
         0.32821E-02
         0.27006E-02
         0.25920E-02
         0.25866E-02
         0.29714E-02
         0.29714E-02
         0.26473E-02
         0.29096E-02
         0.34034E-02
         0.35310E-02
         0.35310E-02
         0.29787E-02
         0.32396E-02
         0.28894E-02
         0.29905E-02
         0.36920E-02
         0.37157E-02
         0.37157E-02
         0.33859E-02
         0.29051E-02
         0.32025E-02
         0.32821E-02
         0.32821E-02
         0.27006E-02
         0.25920E-02
         0.25866E-02
         0.26912E-02
         0.28594E-02
         0.29528E-02
         0.29714E-02
         0.29714E-02
         0.26473E-02
         0.27682E-02
         0.34034E-02
         0.35310E-02
         0.35310E-02
         0.29787E-02
         0.31476E-02
         0.31476E-02
         0.43135E-02
         0.43135E-02
         0.43135E-02
         0.43135E-02
         0.34889E-02
         0.34889E-02
         0.32712E-02
         0.32061E-02
         0.37825E-02
         0.31852E-02
         0.27034E-02
         0.33856E-02
         0.37156E-02
         0.27205E-02
         0.29063E-02
         0.36982E-02
         0.36142E-02
         0.37851E-02
         0.29998E-02
         0.29998E-02
         0.28599E-02
         0.26920E-02
         0.29529E-02
         0.28090E-02
         0.30182E-02
         0.36982E-02
         0.28486E-02
         0.28486E-02
         0.27499E-02
         0.26112E-02
         0.36982E-02
         0.36982E-02
         0.37851E-02
         0.37851E-02
         0.30245E-02
         0.36908E-02
         0.37156E-02
         0.32038E-02
         0.32827E-02
         0.32827E-02
         0.27006E-02
         0.25920E-02
         0.25859E-02
         0.29714E-02
         0.29714E-02
         0.26472E-02
         0.29095E-02
         0.34027E-02
         0.35304E-02
         0.35304E-02
         0.29790E-02
         0.32413E-02
         0.28866E-02
         0.29915E-02
         0.36908E-02
         0.37156E-02
         0.37156E-02
         0.33856E-02
         0.29063E-02
         0.32038E-02
         0.32827E-02
         0.32827E-02
         0.27006E-02
         0.25920E-02
         0.25859E-02
         0.26920E-02
         0.28599E-02
         0.29529E-02
         0.29714E-02
         0.29714E-02
         0.26472E-02
         0.27682E-02
         0.34027E-02
         0.35304E-02
         0.35304E-02
         0.29790E-02
         0.31490E-02
         0.31490E-02
         0.43133E-02
         0.43133E-02
         0.43133E-02
         0.43133E-02
         0.34890E-02
         0.34890E-02
         0.32698E-02
         0.32051E-02
         0.37820E-02
         0.31848E-02
         0.27017E-02
         0.33851E-02
         0.37155E-02
         0.27158E-02
         0.29075E-02
         0.36979E-02
         0.36177E-02
         0.37871E-02
         0.30024E-02
         0.30024E-02
         0.28603E-02
         0.26927E-02
         0.29530E-02
         0.28093E-02
         0.30208E-02
         0.36979E-02
         0.28460E-02
         0.28460E-02
         0.27486E-02
         0.26101E-02
         0.36979E-02
         0.36979E-02
         0.37871E-02
         0.37871E-02
         0.30247E-02
         0.36896E-02
         0.37155E-02
         0.32051E-02
         0.32833E-02
         0.32833E-02
         0.27006E-02
         0.25920E-02
         0.25851E-02
         0.29714E-02
         0.29714E-02
         0.26472E-02
         0.29094E-02
         0.34019E-02
         0.35299E-02
         0.35299E-02
         0.29793E-02
         0.32431E-02
         0.28838E-02
         0.29925E-02
         0.36896E-02
         0.37155E-02
         0.37155E-02
         0.33851E-02
         0.29075E-02
         0.32051E-02
         0.32833E-02
         0.32833E-02
         0.27006E-02
         0.25920E-02
         0.25851E-02
         0.26927E-02
         0.28603E-02
         0.29530E-02
         0.29714E-02
         0.29714E-02
         0.26472E-02
         0.27681E-02
         0.34019E-02
         0.35299E-02
         0.35299E-02
         0.29793E-02
         0.31503E-02
         0.31503E-02
         0.43130E-02
         0.43130E-02
         0.43130E-02
         0.43130E-02
         0.34891E-02
         0.34891E-02
         0.32683E-02
         0.32041E-02
         0.37816E-02
         0.31844E-02
         0.27000E-02
         0.33848E-02
         0.37154E-02
         0.27111E-02
         0.29087E-02
         0.36976E-02
         0.36213E-02
         0.37892E-02
         0.30050E-02
         0.30050E-02
         0.28608E-02
         0.26935E-02
         0.29532E-02
         0.28096E-02
         0.30234E-02
         0.36976E-02
         0.28434E-02
         0.28434E-02
         0.27472E-02
         0.26091E-02
         0.36976E-02
         0.36976E-02
         0.37892E-02
         0.37892E-02
         0.30249E-02
         0.36885E-02
         0.37154E-02
         0.32064E-02
         0.32839E-02
         0.32839E-02
         0.27006E-02
         0.25920E-02
         0.25844E-02
         0.29714E-02
         0.29714E-02
         0.26471E-02
         0.29094E-02
         0.34012E-02
         0.35293E-02
         0.35293E-02
         0.29797E-02
         0.32449E-02
         0.28811E-02
         0.29935E-02
         0.36885E-02
         0.37154E-02
         0.37154E-02
         0.33848E-02
         0.29087E-02
         0.32064E-02
         0.32839E-02
         0.32839E-02
         0.27006E-02
         0.25920E-02
         0.25844E-02
         0.26935E-02
         0.28608E-02
         0.29532E-02
         0.29714E-02
         0.29714E-02
         0.26471E-02
         0.27681E-02
         0.34012E-02
         0.35293E-02
         0.35293E-02
         0.29797E-02
         0.31517E-02
         0.31517E-02
         0.43128E-02
         0.43128E-02
         0.43128E-02
         0.43128E-02
         0.34892E-02
         0.34892E-02
         0.32669E-02
         0.32031E-02
         0.37811E-02
         0.31840E-02
         0.26982E-02
         0.33844E-02
         0.37152E-02
         0.27063E-02
         0.29099E-02
         0.36973E-02
         0.36248E-02
         0.37913E-02
         0.30076E-02
         0.30076E-02
         0.28613E-02
         0.26942E-02
         0.29533E-02
         0.28099E-02
         0.30260E-02
         0.36973E-02
         0.28408E-02
         0.28408E-02
         0.27460E-02
         0.26081E-02
         0.36973E-02
         0.36973E-02
         0.37913E-02
         0.37913E-02
         0.30250E-02
         0.36873E-02
         0.37152E-02
         0.32077E-02
         0.32845E-02
         0.32845E-02
         0.27006E-02
         0.25920E-02
         0.25837E-02
         0.29714E-02
         0.29714E-02
         0.26471E-02
         0.29093E-02
         0.34005E-02
         0.35287E-02
         0.35287E-02
         0.29800E-02
         0.32467E-02
         0.28783E-02
         0.29945E-02
         0.36873E-02
         0.37152E-02
         0.37152E-02
         0.33844E-02
         0.29099E-02
         0.32077E-02
         0.32845E-02
         0.32845E-02
         0.27006E-02
         0.25920E-02
         0.25837E-02
         0.26942E-02
         0.28613E-02
         0.29533E-02
         0.29714E-02
         0.29714E-02
         0.26471E-02
         0.27681E-02
         0.34005E-02
         0.35287E-02
         0.35287E-02
         0.29800E-02
         0.31530E-02
         0.31530E-02
         0.43125E-02
         0.43125E-02
         0.43125E-02
         0.43125E-02
         0.34893E-02
         0.34893E-02
         0.32655E-02
         0.32021E-02
         0.37806E-02
         0.31836E-02
         0.26965E-02
         0.33840E-02
         0.37151E-02
         0.27016E-02
         0.29111E-02
         0.36969E-02
         0.36283E-02
         0.37933E-02
         0.30102E-02
         0.30102E-02
         0.28617E-02
         0.26950E-02
         0.29535E-02
         0.28101E-02
         0.30286E-02
         0.36969E-02
         0.28382E-02
         0.28382E-02
         0.27447E-02
         0.26071E-02
         0.36969E-02
         0.36969E-02
         0.37933E-02
         0.37933E-02
         0.30252E-02
         0.36861E-02
         0.37151E-02
         0.32090E-02
         0.32852E-02
         0.32852E-02
         0.27006E-02
         0.25920E-02
         0.25830E-02
         0.29714E-02
         0.29714E-02
         0.26470E-02
         0.29092E-02
         0.33997E-02
         0.35282E-02
         0.35282E-02
         0.29803E-02
         0.32484E-02
         0.28755E-02
         0.29955E-02
         0.36861E-02
         0.37151E-02
         0.37151E-02
         0.33840E-02
         0.29111E-02
         0.32090E-02
         0.32852E-02
         0.32852E-02
         0.27006E-02
         0.25920E-02
         0.25830E-02
         0.26950E-02
         0.28617E-02
         0.29535E-02
         0.29714E-02
         0.29714E-02
         0.26470E-02
         0.27680E-02
         0.33997E-02
         0.35282E-02
         0.35282E-02
         0.29803E-02
         0.31544E-02
         0.31544E-02
         0.43123E-02
         0.43123E-02
         0.43123E-02
         0.43123E-02
         0.34893E-02
         0.34893E-02
         0.32640E-02
         0.32011E-02
         0.37801E-02
         0.31832E-02
         0.26948E-02
         0.33836E-02
         0.37150E-02
         0.26969E-02
         0.29123E-02
         0.36966E-02
         0.36319E-02
         0.37954E-02
         0.30128E-02
         0.30128E-02
         0.28622E-02
         0.26957E-02
         0.29536E-02
         0.28104E-02
         0.30312E-02
         0.36966E-02
         0.28357E-02
         0.28357E-02
         0.27434E-02
         0.26061E-02
         0.36966E-02
         0.36966E-02
         0.37954E-02
         0.37954E-02
         0.30254E-02
         0.36849E-02
         0.37150E-02
         0.32103E-02
         0.32858E-02
         0.32858E-02
         0.27006E-02
         0.25920E-02
         0.25823E-02
         0.29714E-02
         0.29714E-02
         0.26470E-02
         0.29091E-02
         0.33990E-02
         0.35276E-02
         0.35276E-02
         0.29806E-02
         0.32502E-02
         0.28728E-02
         0.29965E-02
         0.36849E-02
         0.37150E-02
         0.37150E-02
         0.33836E-02
         0.29123E-02
         0.32103E-02
         0.32858E-02
         0.32858E-02
         0.27006E-02
         0.25920E-02
         0.25823E-02
         0.26957E-02
         0.28622E-02
         0.29536E-02
         0.29714E-02
         0.29714E-02
         0.26470E-02
         0.27680E-02
         0.33990E-02
         0.35276E-02
         0.35276E-02
         0.29806E-02
         0.31557E-02
         0.31557E-02
         0.43120E-02
         0.43120E-02
         0.43120E-02
         0.43120E-02
         0.34894E-02
         0.34894E-02
         0.32626E-02
         0.32001E-02
         0.37797E-02
         0.31828E-02
         0.26931E-02
         0.33832E-02
         0.37149E-02
         0.26922E-02
         0.29135E-02
         0.36963E-02
         0.36354E-02
         0.37975E-02
         0.30154E-02
         0.30154E-02
         0.28627E-02
         0.26965E-02
         0.29537E-02
         0.28107E-02
         0.30338E-02
         0.36963E-02
         0.28331E-02
         0.28331E-02
         0.27421E-02
         0.26051E-02
         0.36963E-02
         0.36963E-02
         0.37975E-02
         0.37975E-02
         0.30256E-02
         0.36838E-02
         0.37149E-02
         0.32116E-02
         0.32864E-02
         0.32864E-02
         0.27006E-02
         0.25920E-02
         0.25815E-02
         0.29714E-02
         0.29714E-02
         0.26469E-02
         0.29090E-02
         0.33983E-02
         0.35270E-02
         0.35270E-02
         0.29809E-02
         0.32519E-02
         0.28700E-02
         0.29975E-02
         0.36838E-02
         0.37149E-02
         0.37149E-02
         0.33832E-02
         0.29135E-02
         0.32116E-02
         0.32864E-02
         0.32864E-02
         0.27006E-02
         0.25920E-02
         0.25815E-02
         0.26965E-02
         0.28627E-02
         0.29537E-02
         0.29714E-02
         0.29714E-02
         0.26469E-02
         0.27680E-02
         0.33983E-02
         0.35270E-02
         0.35270E-02
         0.29809E-02
         0.31571E-02
         0.31571E-02
         0.43118E-02
         0.43118E-02
         0.43118E-02
         0.43118E-02
         0.34895E-02
         0.34895E-02
         0.32612E-02
         0.31990E-02
         0.37792E-02
         0.31824E-02
         0.26913E-02
         0.33828E-02
         0.37148E-02
         0.26875E-02
         0.29148E-02
         0.36960E-02
         0.36390E-02
         0.37995E-02
         0.30180E-02
         0.30180E-02
         0.28631E-02
         0.26972E-02
         0.29539E-02
         0.28110E-02
         0.30364E-02
         0.36960E-02
         0.28305E-02
         0.28305E-02
         0.27408E-02
         0.26040E-02
         0.36960E-02
         0.36960E-02
         0.37995E-02
         0.37995E-02
         0.30258E-02
         0.36826E-02
         0.37148E-02
         0.32129E-02
         0.32870E-02
         0.32870E-02
         0.27006E-02
         0.25920E-02
         0.25808E-02
         0.29713E-02
         0.29713E-02
         0.26468E-02
         0.29089E-02
         0.33975E-02
         0.35264E-02
         0.35264E-02
         0.29812E-02
         0.32537E-02
         0.28672E-02
         0.29985E-02
         0.36826E-02
         0.37148E-02
         0.37148E-02
         0.33828E-02
         0.29148E-02
         0.32129E-02
         0.32870E-02
         0.32870E-02
         0.27006E-02
         0.25920E-02
         0.25808E-02
         0.26972E-02
         0.28631E-02
         0.29539E-02
         0.29713E-02
         0.29713E-02
         0.26468E-02
         0.27679E-02
         0.33975E-02
         0.35264E-02
         0.35264E-02
         0.29812E-02
         0.31585E-02
         0.31585E-02
         0.43115E-02
         0.43115E-02
         0.43115E-02
         0.43115E-02
         0.34896E-02
         0.34896E-02
         0.32597E-02
         0.31980E-02
         0.37787E-02
         0.31820E-02
         0.26896E-02
         0.33824E-02
         0.37147E-02
         0.26827E-02
         0.29160E-02
         0.36957E-02
         0.36425E-02
         0.38016E-02
         0.30206E-02
         0.30206E-02
         0.28636E-02
         0.26980E-02
         0.29540E-02
         0.28112E-02
         0.30390E-02
         0.36957E-02
         0.28279E-02
         0.28279E-02
         0.27395E-02
         0.26030E-02
         0.36957E-02
         0.36957E-02
         0.38016E-02
         0.38016E-02
         0.30260E-02
         0.36814E-02
         0.37147E-02
         0.32141E-02
         0.32876E-02
         0.32876E-02
         0.27006E-02
         0.25920E-02
         0.25801E-02
         0.29713E-02
         0.29713E-02
         0.26468E-02
         0.29089E-02
         0.33968E-02
         0.35259E-02
         0.35259E-02
         0.29815E-02
         0.32555E-02
         0.28645E-02
         0.29995E-02
         0.36814E-02
         0.37147E-02
         0.37147E-02
         0.33824E-02
         0.29160E-02
         0.32141E-02
         0.32876E-02
         0.32876E-02
         0.27006E-02
         0.25920E-02
         0.25801E-02
         0.26980E-02
         0.28636E-02
         0.29540E-02
         0.29713E-02
         0.29713E-02
         0.26468E-02
         0.27679E-02
         0.33968E-02
         0.35259E-02
         0.35259E-02
         0.29815E-02
         0.31598E-02
         0.31598E-02
         0.43113E-02
         0.43113E-02
         0.43113E-02
         0.43113E-02
         0.34897E-02
         0.34897E-02
         0.32583E-02
         0.31970E-02
         0.37783E-02
         0.31816E-02
         0.26879E-02
         0.33820E-02
         0.37146E-02
         0.26780E-02
         0.29172E-02
         0.36954E-02
         0.36460E-02
         0.38037E-02
         0.30232E-02
         0.30232E-02
         0.28641E-02
         0.26987E-02
         0.29542E-02
         0.28115E-02
         0.30416E-02
         0.36954E-02
         0.28253E-02
         0.28253E-02
         0.27382E-02
         0.26020E-02
         0.36954E-02
         0.36954E-02
         0.38037E-02
         0.38037E-02
         0.30261E-02
         0.36802E-02
         0.37146E-02
         0.32154E-02
         0.32882E-02
         0.32882E-02
         0.27006E-02
         0.25921E-02
         0.25794E-02
         0.29713E-02
         0.29713E-02
         0.26467E-02
         0.29088E-02
         0.33961E-02
         0.35253E-02
         0.35253E-02
         0.29818E-02
         0.32573E-02
         0.28617E-02
         0.30005E-02
         0.36802E-02
         0.37146E-02
         0.37146E-02
         0.33820E-02
         0.29172E-02
         0.32154E-02
         0.32882E-02
         0.32882E-02
         0.27006E-02
         0.25921E-02
         0.25794E-02
         0.26987E-02
         0.28641E-02
         0.29542E-02
         0.29713E-02
         0.29713E-02
         0.26467E-02
         0.27678E-02
         0.33961E-02
         0.35253E-02
         0.35253E-02
         0.29818E-02
         0.31612E-02
         0.31612E-02
         0.43110E-02
         0.43110E-02
         0.43110E-02
         0.43110E-02
         0.34898E-02
         0.34898E-02
         0.32569E-02
         0.31960E-02
         0.37778E-02
         0.31812E-02
         0.26862E-02
         0.33816E-02
         0.37145E-02
         0.26733E-02
         0.29184E-02
         0.36950E-02
         0.36495E-02
         0.38057E-02
         0.30258E-02
         0.30258E-02
         0.28645E-02
         0.26995E-02
         0.29543E-02
         0.28118E-02
         0.30442E-02
         0.36950E-02
         0.28227E-02
         0.28227E-02
         0.27369E-02
         0.26010E-02
         0.36950E-02
         0.36950E-02
         0.38057E-02
         0.38057E-02
         0.30263E-02
         0.36790E-02
         0.37145E-02
         0.32167E-02
         0.32889E-02
         0.32889E-02
         0.27006E-02
         0.25921E-02
         0.25787E-02
         0.29713E-02
         0.29713E-02
         0.26467E-02
         0.29087E-02
         0.33953E-02
         0.35247E-02
         0.35247E-02
         0.29821E-02
         0.32590E-02
         0.28589E-02
         0.30015E-02
         0.36790E-02
         0.37145E-02
         0.37145E-02
         0.33816E-02
         0.29184E-02
         0.32167E-02
         0.32889E-02
         0.32889E-02
         0.27006E-02
         0.25921E-02
         0.25787E-02
         0.26995E-02
         0.28645E-02
         0.29543E-02
         0.29713E-02
         0.29713E-02
         0.26467E-02
         0.27678E-02
         0.33953E-02
         0.35247E-02
         0.35247E-02
         0.29821E-02
         0.31625E-02
         0.31625E-02
         0.43108E-02
         0.43108E-02
         0.43108E-02
         0.43108E-02
         0.34898E-02
         0.34898E-02
         0.32555E-02
         0.31950E-02
         0.37773E-02
         0.31808E-02
         0.26845E-02
         0.33812E-02
         0.37144E-02
         0.26686E-02
         0.29196E-02
         0.36948E-02
         0.36531E-02
         0.38078E-02
         0.30285E-02
         0.30285E-02
         0.28650E-02
         0.27002E-02
         0.29544E-02
         0.28120E-02
         0.30467E-02
         0.36948E-02
         0.28201E-02
         0.28201E-02
         0.27356E-02
         0.26000E-02
         0.36948E-02
         0.36948E-02
         0.38078E-02
         0.38078E-02
         0.30265E-02
         0.36779E-02
         0.37144E-02
         0.32181E-02
         0.32895E-02
         0.32895E-02
         0.27006E-02
         0.25921E-02
         0.25779E-02
         0.29713E-02
         0.29713E-02
         0.26466E-02
         0.29086E-02
         0.33946E-02
         0.35242E-02
         0.35242E-02
         0.29824E-02
         0.32608E-02
         0.28562E-02
         0.30025E-02
         0.36779E-02
         0.37144E-02
         0.37144E-02
         0.33812E-02
         0.29196E-02
         0.32181E-02
         0.32895E-02
         0.32895E-02
         0.27006E-02
         0.25921E-02
         0.25779E-02
         0.27002E-02
         0.28650E-02
         0.29544E-02
         0.29713E-02
         0.29713E-02
         0.26466E-02
         0.27678E-02
         0.33946E-02
         0.35242E-02
         0.35242E-02
         0.29824E-02
         0.31639E-02
         0.31639E-02
         0.43105E-02
         0.43105E-02
         0.43105E-02
         0.43105E-02
         0.34899E-02
         0.34899E-02
         0.32540E-02
         0.31940E-02
         0.37768E-02
         0.31804E-02
         0.26827E-02
         0.33808E-02
         0.37143E-02
         0.26639E-02
         0.29208E-02
         0.36944E-02
         0.36566E-02
         0.38099E-02
         0.30311E-02
         0.30311E-02
         0.28655E-02
         0.27010E-02
         0.29546E-02
         0.28123E-02
         0.30493E-02
         0.36944E-02
         0.28175E-02
         0.28175E-02
         0.27343E-02
         0.25990E-02
         0.36944E-02
         0.36944E-02
         0.38099E-02
         0.38099E-02
         0.30267E-02
         0.36767E-02
         0.37143E-02
         0.32193E-02
         0.32901E-02
         0.32901E-02
         0.27006E-02
         0.25921E-02
         0.25772E-02
         0.29713E-02
         0.29713E-02
         0.26466E-02
         0.29085E-02
         0.33939E-02
         0.35236E-02
         0.35236E-02
         0.29827E-02
         0.32626E-02
         0.28534E-02
         0.30035E-02
         0.36767E-02
         0.37143E-02
         0.37143E-02
         0.33808E-02
         0.29208E-02
         0.32193E-02
         0.32901E-02
         0.32901E-02
         0.27006E-02
         0.25921E-02
         0.25772E-02
         0.27010E-02
         0.28655E-02
         0.29546E-02
         0.29713E-02
         0.29713E-02
         0.26466E-02
         0.27677E-02
         0.33939E-02
         0.35236E-02
         0.35236E-02
         0.29827E-02
         0.31652E-02
         0.31652E-02
         0.43103E-02
         0.43103E-02
         0.43103E-02
         0.43103E-02
         0.34900E-02
         0.34900E-02
         0.32526E-02
         0.31930E-02
         0.37764E-02
         0.31800E-02
         0.26810E-02
         0.33804E-02
         0.37142E-02
         0.26591E-02
         0.29220E-02
         0.36941E-02
         0.36602E-02
         0.38119E-02
         0.30337E-02
         0.30337E-02
         0.28660E-02
         0.27017E-02
         0.29547E-02
         0.28126E-02
         0.30519E-02
         0.36941E-02
         0.28150E-02
         0.28150E-02
         0.27330E-02
         0.25979E-02
         0.36941E-02
         0.36941E-02
         0.38119E-02
         0.38119E-02
         0.30269E-02
         0.36755E-02
         0.37142E-02
         0.32206E-02
         0.32907E-02
         0.32907E-02
         0.27006E-02
         0.25921E-02
         0.25765E-02
         0.29713E-02
         0.29713E-02
         0.26465E-02
         0.29085E-02
         0.33931E-02
         0.35230E-02
         0.35230E-02
         0.29830E-02
         0.32643E-02
         0.28507E-02
         0.30045E-02
         0.36755E-02
         0.37142E-02
         0.37142E-02
         0.33804E-02
         0.29220E-02
         0.32206E-02
         0.32907E-02
         0.32907E-02
         0.27006E-02
         0.25921E-02
         0.25765E-02
         0.27017E-02
         0.28660E-02
         0.29547E-02
         0.29713E-02
         0.29713E-02
         0.26465E-02
         0.27677E-02
         0.33931E-02
         0.35230E-02
         0.35230E-02
         0.29830E-02
         0.31666E-02
         0.31666E-02
         0.43100E-02
         0.43100E-02
         0.43100E-02
         0.43100E-02
         0.34901E-02
         0.34901E-02
         0.32512E-02
         0.31920E-02
         0.37759E-02
         0.31796E-02
         0.26793E-02
         0.33800E-02
         0.37141E-02
         0.26544E-02
         0.29232E-02
         0.36938E-02
         0.36637E-02
         0.38140E-02
         0.30363E-02
         0.30363E-02
         0.28664E-02
         0.27025E-02
         0.29548E-02
         0.28129E-02
         0.30545E-02
         0.36938E-02
         0.28124E-02
         0.28124E-02
         0.27317E-02
         0.25969E-02
         0.36938E-02
         0.36938E-02
         0.38140E-02
         0.38140E-02
         0.30271E-02
         0.36743E-02
         0.37141E-02
         0.32219E-02
         0.32913E-02
         0.32913E-02
         0.27006E-02
         0.25921E-02
         0.25758E-02
         0.29713E-02
         0.29713E-02
         0.26465E-02
         0.29084E-02
         0.33924E-02
         0.35224E-02
         0.35224E-02
         0.29833E-02
         0.32661E-02
         0.28479E-02
         0.30055E-02
         0.36743E-02
         0.37141E-02
         0.37141E-02
         0.33800E-02
         0.29232E-02
         0.32219E-02
         0.32913E-02
         0.32913E-02
         0.27006E-02
         0.25921E-02
         0.25758E-02
         0.27025E-02
         0.28664E-02
         0.29548E-02
         0.29713E-02
         0.29713E-02
         0.26465E-02
         0.27677E-02
         0.33924E-02
         0.35224E-02
         0.35224E-02
         0.29833E-02
         0.31680E-02
         0.31680E-02
         0.43098E-02
         0.43098E-02
         0.43098E-02
         0.43098E-02
         0.34901E-02
         0.34901E-02
         0.32498E-02
         0.31910E-02
         0.37754E-02
         0.31792E-02
         0.26776E-02
         0.33796E-02
         0.37140E-02
         0.26497E-02
         0.29232E-02
         0.36935E-02
         0.36637E-02
         0.38140E-02
         0.30363E-02
         0.30363E-02
         0.28664E-02
         0.27025E-02
         0.29548E-02
         0.28129E-02
         0.30545E-02
         0.36935E-02
         0.28098E-02
         0.28098E-02
         0.27304E-02
         0.25959E-02
         0.36935E-02
         0.36935E-02
         0.38140E-02
         0.38140E-02
         0.30271E-02
         0.36731E-02
         0.37140E-02
         0.32219E-02
         0.32913E-02
         0.32913E-02
         0.27006E-02
         0.25921E-02
         0.25751E-02
         0.29713E-02
         0.29713E-02
         0.26464E-02
         0.29083E-02
         0.33916E-02
         0.35219E-02
         0.35219E-02
         0.29833E-02
         0.32661E-02
         0.28451E-02
         0.30055E-02
         0.36731E-02
         0.37140E-02
         0.37140E-02
         0.33796E-02
         0.29232E-02
         0.32219E-02
         0.32913E-02
         0.32913E-02
         0.27006E-02
         0.25921E-02
         0.25751E-02
         0.27025E-02
         0.28664E-02
         0.29548E-02
         0.29713E-02
         0.29713E-02
         0.26464E-02
         0.27676E-02
         0.33916E-02
         0.35219E-02
         0.35219E-02
         0.29833E-02
         0.31680E-02
         0.31680E-02
  
SCALARS              physical_window_z  double 1
LOOKUP_TABLE default
         0.26928E-02
         0.26928E-02
         0.26928E-02
         0.26928E-02
         0.26928E-02
         0.26928E-02
         0.26928E-02
         0.26928E-02
         0.26928E-02
         0.26928E-02
         0.26928E-02
         0.26928E-02
         0.26928E-02
         0.26928E-02
         0.26928E-02
         0.26928E-02
         0.26928E-02
         0.26928E-02
         0.26928E-02
         0.26928E-02
         0.26928E-02
         0.26928E-02
         0.26928E-02
         0.26928E-02
         0.26928E-02
         0.26928E-02
         0.26928E-02
         0.26928E-02
         0.26928E-02
         0.26928E-02
         0.26928E-02
         0.26928E-02
         0.26928E-02
         0.26928E-02
         0.26928E-02
         0.26928E-02
         0.26928E-02
         0.26928E-02
         0.26928E-02
         0.26928E-02
         0.26928E-02
         0.26928E-02
         0.26928E-02
         0.26928E-02
         0.26928E-02
         0.26928E-02
         0.26928E-02
         0.26928E-02
         0.26928E-02
         0.26928E-02
         0.26928E-02
         0.26928E-02
         0.26928E-02
         0.26928E-02
         0.26928E-02
         0.26928E-02
         0.26928E-02
         0.26928E-02
         0.26928E-02
         0.26928E-02
         0.26928E-02
         0.26928E-02
         0.26928E-02
         0.26928E-02
         0.26928E-02
         0.26928E-02
         0.26928E-02
         0.26928E-02
         0.26928E-02
         0.26928E-02
         0.26928E-02
         0.26928E-02
         0.26928E-02
         0.26928E-02
         0.26928E-02
         0.26928E-02
         0.26928E-02
         0.26928E-02
         0.26928E-02
         0.26928E-02
         0.26928E-02
         0.26928E-02
         0.26928E-02
         0.26928E-02
         0.26928E-02
         0.26928E-02
         0.26928E-02
         0.26928E-02
         0.26928E-02
         0.26928E-02
         0.26928E-02
         0.26928E-02
         0.26928E-02
         0.26928E-02
         0.26928E-02
         0.26928E-02
         0.26928E-02
         0.26928E-02
         0.26928E-02
         0.26928E-02
         0.26928E-02
         0.26928E-02
         0.26928E-02
         0.26928E-02
         0.26928E-02
         0.26928E-02
         0.26928E-02
         0.26928E-02
         0.26928E-02
         0.26928E-02
         0.26928E-02
         0.26928E-02
         0.26928E-02
         0.26928E-02
         0.26928E-02
         0.26928E-02
         0.26928E-02
         0.26928E-02
         0.26928E-02
         0.26928E-02
         0.26928E-02
         0.26928E-02
         0.26928E-02
         0.26928E-02
         0.26928E-02
         0.26928E-02
         0.26928E-02
         0.26928E-02
         0.26928E-02
         0.26928E-02
         0.26928E-02
         0.26928E-02
         0.26928E-02
         0.26928E-02
         0.26928E-02
         0.26928E-02
         0.26928E-02
         0.26928E-02
         0.26928E-02
         0.26928E-02
         0.26928E-02
         0.26928E-02
         0.26928E-02
         0.26928E-02
         0.26928E-02
         0.26928E-02
         0.26928E-02
         0.26928E-02
         0.26928E-02
         0.26928E-02
         0.26928E-02
         0.26928E-02
         0.26928E-02
         0.26928E-02
         0.26928E-02
         0.26928E-02
         0.26927E-02
         0.26927E-02
         0.26927E-02
         0.26927E-02
         0.26927E-02
         0.26927E-02
         0.26927E-02
         0.26927E-02
         0.26927E-02
         0.26927E-02
         0.26927E-02
         0.26927E-02
         0.26927E-02
         0.26927E-02
         0.26927E-02
         0.26927E-02
         0.26927E-02
         0.26927E-02
         0.26927E-02
         0.26927E-02
         0.26927E-02
         0.26927E-02
         0.26927E-02
         0.26927E-02
         0.26927E-02
         0.26927E-02
         0.26927E-02
         0.26927E-02
         0.26927E-02
         0.26927E-02
         0.26927E-02
         0.26927E-02
         0.26927E-02
         0.26927E-02
         0.26927E-02
         0.26927E-02
         0.26927E-02
         0.26927E-02
         0.26927E-02
         0.26927E-02
         0.26927E-02
         0.26927E-02
         0.26927E-02
         0.26927E-02
         0.26927E-02
         0.26927E-02
         0.26927E-02
         0.26927E-02
         0.26927E-02
         0.26927E-02
         0.26927E-02
         0.26927E-02
         0.26927E-02
         0.26927E-02
         0.26927E-02
         0.26927E-02
         0.26927E-02
         0.26927E-02
         0.26927E-02
         0.26927E-02
         0.26927E-02
         0.26927E-02
         0.26927E-02
         0.26927E-02
         0.26927E-02
         0.26927E-02
         0.26927E-02
         0.26927E-02
         0.26927E-02
         0.26927E-02
         0.26927E-02
         0.26927E-02
         0.26927E-02
         0.26927E-02
         0.26927E-02
         0.26927E-02
         0.26927E-02
         0.26927E-02
         0.26927E-02
         0.26927E-02
         0.26927E-02
         0.26927E-02
         0.26927E-02
         0.26927E-02
         0.26927E-02
         0.26927E-02
         0.26927E-02
         0.26927E-02
         0.26927E-02
         0.26927E-02
         0.26927E-02
         0.26927E-02
         0.26927E-02
         0.26927E-02
         0.26927E-02
         0.26927E-02
         0.26927E-02
         0.26927E-02
         0.26927E-02
         0.26927E-02
         0.26927E-02
         0.26927E-02
         0.26927E-02
         0.26927E-02
         0.26927E-02
         0.26927E-02
         0.26927E-02
         0.26927E-02
         0.26927E-02
         0.26927E-02
         0.26927E-02
         0.26927E-02
         0.26927E-02
         0.26927E-02
         0.26927E-02
         0.26927E-02
         0.26927E-02
         0.26927E-02
         0.26927E-02
         0.26927E-02
         0.26927E-02
         0.26927E-02
         0.26927E-02
         0.26927E-02
         0.26927E-02
         0.26927E-02
         0.26927E-02
         0.26927E-02
         0.26927E-02
         0.26927E-02
         0.26927E-02
         0.26927E-02
         0.26927E-02
         0.26927E-02
         0.26927E-02
         0.26927E-02
         0.26927E-02
         0.26927E-02
         0.26927E-02
         0.26927E-02
         0.26927E-02
         0.26927E-02
         0.26927E-02
         0.26927E-02
         0.26927E-02
         0.26927E-02
         0.26927E-02
         0.26927E-02
         0.26927E-02
         0.26927E-02
         0.26927E-02
         0.26927E-02
         0.26927E-02
         0.26927E-02
         0.26927E-02
         0.26927E-02
         0.26927E-02
         0.26927E-02
         0.26927E-02
         0.26927E-02
         0.26927E-02
         0.26927E-02
         0.26927E-02
         0.26927E-02
         0.26927E-02
         0.26927E-02
         0.26927E-02
         0.26927E-02
         0.26927E-02
         0.26927E-02
         0.26927E-02
         0.26927E-02
         0.26927E-02
         0.26927E-02
         0.26927E-02
         0.26927E-02
         0.26927E-02
         0.26927E-02
         0.26927E-02
         0.26927E-02
         0.26927E-02
         0.26927E-02
         0.26927E-02
         0.26927E-02
         0.26927E-02
         0.26927E-02
         0.26927E-02
         0.26927E-02
         0.26927E-02
         0.26927E-02
         0.26927E-02
         0.26927E-02
         0.26927E-02
         0.26927E-02
         0.26927E-02
         0.26927E-02
         0.26927E-02
         0.26927E-02
         0.26927E-02
         0.26927E-02
         0.26927E-02
         0.26927E-02
         0.26927E-02
         0.26927E-02
         0.26927E-02
         0.26927E-02
         0.26927E-02
         0.26927E-02
         0.26927E-02
         0.26927E-02
         0.26927E-02
         0.26927E-02
         0.26927E-02
         0.26927E-02
         0.26927E-02
         0.26927E-02
         0.26927E-02
         0.26927E-02
         0.26927E-02
         0.26927E-02
         0.26927E-02
         0.26927E-02
         0.26927E-02
         0.26927E-02
         0.26927E-02
         0.26927E-02
         0.26927E-02
         0.26927E-02
         0.26927E-02
         0.26927E-02
         0.26927E-02
         0.26927E-02
         0.26927E-02
         0.26927E-02
         0.26927E-02
         0.26927E-02
         0.26927E-02
         0.26927E-02
         0.26927E-02
         0.26927E-02
         0.26927E-02
         0.26927E-02
         0.26927E-02
         0.26927E-02
         0.26927E-02
         0.26927E-02
         0.26927E-02
         0.26927E-02
         0.26927E-02
         0.26927E-02
         0.26927E-02
         0.26927E-02
         0.26927E-02
         0.26927E-02
         0.26927E-02
         0.26927E-02
         0.26927E-02
         0.26927E-02
         0.26927E-02
         0.26927E-02
         0.26927E-02
         0.26927E-02
         0.26927E-02
         0.26927E-02
         0.26927E-02
         0.26927E-02
         0.26927E-02
         0.26927E-02
         0.26927E-02
         0.26927E-02
         0.26927E-02
         0.26927E-02
         0.26927E-02
         0.26927E-02
         0.26927E-02
         0.26927E-02
         0.26927E-02
         0.26927E-02
         0.26927E-02
         0.26927E-02
         0.26927E-02
         0.26927E-02
         0.26927E-02
         0.26927E-02
         0.26927E-02
         0.26927E-02
         0.26927E-02
         0.26927E-02
         0.26927E-02
         0.26927E-02
         0.26927E-02
         0.26927E-02
         0.26927E-02
         0.26927E-02
         0.26927E-02
         0.26927E-02
         0.26927E-02
         0.26927E-02
         0.26927E-02
         0.26927E-02
         0.26927E-02
         0.26927E-02
         0.26927E-02
         0.26927E-02
         0.26927E-02
         0.26927E-02
         0.26927E-02
         0.26927E-02
         0.26927E-02
         0.26927E-02
         0.26927E-02
         0.26927E-02
         0.26927E-02
         0.26927E-02
         0.26927E-02
         0.26927E-02
         0.26927E-02
         0.26927E-02
         0.26927E-02
         0.26927E-02
         0.26927E-02
         0.26927E-02
         0.26927E-02
         0.26927E-02
         0.26927E-02
         0.26927E-02
         0.26927E-02
         0.26927E-02
         0.26927E-02
         0.26927E-02
         0.26927E-02
         0.26927E-02
         0.26927E-02
         0.26927E-02
         0.26927E-02
         0.26927E-02
         0.26927E-02
         0.26927E-02
         0.26927E-02
         0.26927E-02
         0.26927E-02
         0.26927E-02
         0.26927E-02
         0.26927E-02
         0.26927E-02
         0.26927E-02
         0.26927E-02
         0.26927E-02
         0.26927E-02
         0.26927E-02
         0.26927E-02
         0.26927E-02
         0.26927E-02
         0.26927E-02
         0.26927E-02
         0.26927E-02
         0.26927E-02
         0.26927E-02
         0.26927E-02
         0.26927E-02
         0.26927E-02
         0.26927E-02
         0.26927E-02
         0.26927E-02
         0.26927E-02
         0.26927E-02
         0.26927E-02
         0.26927E-02
         0.26927E-02
         0.26927E-02
         0.26927E-02
         0.26927E-02
         0.26927E-02
         0.26927E-02
         0.26927E-02
         0.26927E-02
         0.26927E-02
         0.26927E-02
         0.26927E-02
         0.26927E-02
         0.26927E-02
         0.26927E-02
         0.26927E-02
         0.26927E-02
         0.26927E-02
         0.26927E-02
         0.26927E-02
         0.26927E-02
         0.26927E-02
         0.26927E-02
         0.26927E-02
         0.26927E-02
         0.26927E-02
         0.26927E-02
         0.26927E-02
         0.26927E-02
         0.26927E-02
         0.26927E-02
         0.26927E-02
         0.26927E-02
         0.26927E-02
         0.26927E-02
         0.26927E-02
         0.26927E-02
         0.26927E-02
         0.26927E-02
         0.26927E-02
         0.26927E-02
         0.26927E-02
         0.26927E-02
         0.26927E-02
         0.26927E-02
         0.26927E-02
         0.26927E-02
         0.26927E-02
         0.26927E-02
         0.26927E-02
         0.26927E-02
         0.26927E-02
         0.26927E-02
         0.26927E-02
         0.26927E-02
         0.26927E-02
         0.26927E-02
         0.26927E-02
         0.26927E-02
         0.26927E-02
         0.26927E-02
         0.26927E-02
         0.26927E-02
         0.26927E-02
         0.26927E-02
         0.26927E-02
         0.26927E-02
         0.26927E-02
         0.26927E-02
         0.26927E-02
         0.26927E-02
         0.26927E-02
         0.26927E-02
         0.26927E-02
         0.26927E-02
         0.26927E-02
         0.26927E-02
         0.26927E-02
         0.26927E-02
         0.26927E-02
         0.26927E-02
         0.26927E-02
         0.26927E-02
         0.26927E-02
         0.26927E-02
         0.26927E-02
         0.26927E-02
         0.26927E-02
         0.26927E-02
         0.26927E-02
         0.26927E-02
         0.26927E-02
         0.26927E-02
         0.26927E-02
         0.26927E-02
         0.26927E-02
         0.26927E-02
         0.26927E-02
         0.26927E-02
         0.26927E-02
         0.26927E-02
         0.26927E-02
         0.26927E-02
         0.26927E-02
         0.26927E-02
         0.26927E-02
         0.26927E-02
         0.26927E-02
         0.26927E-02
         0.26927E-02
         0.26927E-02
         0.26927E-02
         0.26927E-02
         0.26927E-02
         0.26927E-02
         0.26927E-02
         0.26927E-02
         0.26927E-02
         0.26927E-02
         0.26927E-02
         0.26927E-02
         0.26927E-02
         0.26927E-02
         0.26927E-02
         0.26927E-02
         0.26927E-02
         0.26927E-02
         0.26927E-02
         0.26927E-02
         0.26927E-02
         0.26927E-02
         0.26927E-02
         0.26927E-02
         0.26927E-02
         0.26927E-02
         0.26927E-02
         0.26927E-02
         0.26927E-02
         0.26927E-02
         0.26927E-02
         0.26927E-02
         0.26927E-02
         0.26927E-02
         0.26927E-02
         0.26927E-02
         0.26927E-02
         0.26927E-02
         0.26927E-02
         0.26927E-02
         0.26927E-02
         0.26927E-02
         0.26927E-02
         0.26927E-02
         0.26927E-02
         0.26927E-02
         0.26927E-02
         0.26927E-02
         0.26927E-02
         0.26927E-02
         0.26927E-02
         0.26927E-02
         0.26927E-02
         0.26927E-02
         0.26927E-02
         0.26927E-02
         0.26927E-02
         0.26927E-02
         0.26927E-02
         0.26927E-02
         0.26927E-02
         0.26927E-02
         0.26927E-02
         0.26927E-02
         0.26927E-02
         0.26927E-02
         0.26927E-02
         0.26927E-02
         0.26927E-02
         0.26927E-02
         0.26927E-02
         0.26927E-02
         0.26927E-02
         0.26927E-02
         0.26927E-02
         0.26927E-02
         0.26927E-02
         0.26927E-02
         0.26927E-02
         0.26927E-02
         0.26927E-02
         0.26927E-02
         0.26927E-02
         0.26927E-02
         0.26927E-02
         0.26927E-02
         0.26927E-02
         0.26927E-02
         0.26927E-02
         0.26927E-02
         0.26927E-02
         0.26927E-02
         0.26927E-02
         0.26927E-02
         0.26927E-02
         0.26927E-02
         0.26927E-02
         0.26927E-02
         0.26927E-02
         0.26927E-02
         0.26927E-02
         0.26927E-02
         0.26927E-02
         0.26927E-02
         0.26927E-02
         0.26927E-02
         0.26927E-02
         0.26927E-02
         0.26927E-02
         0.26927E-02
         0.26927E-02
         0.26927E-02
         0.26927E-02
         0.26927E-02
         0.26927E-02
         0.26927E-02
         0.26927E-02
         0.26927E-02
         0.26927E-02
         0.26927E-02
         0.26927E-02
         0.26927E-02
         0.26927E-02
         0.26927E-02
         0.26927E-02
         0.26927E-02
         0.26927E-02
         0.26927E-02
         0.26927E-02
         0.26927E-02
         0.26927E-02
         0.26927E-02
         0.26927E-02
         0.26927E-02
         0.26927E-02
         0.26927E-02
         0.26927E-02
         0.26927E-02
         0.26927E-02
         0.26927E-02
         0.26927E-02
         0.26927E-02
         0.26927E-02
         0.26927E-02
         0.26927E-02
         0.26927E-02
         0.26927E-02
         0.26927E-02
         0.26927E-02
         0.26927E-02
         0.26927E-02
         0.26927E-02
         0.26927E-02
         0.26927E-02
         0.26927E-02
         0.26927E-02
         0.26927E-02
         0.26927E-02
         0.26927E-02
         0.26927E-02
         0.26927E-02
         0.26927E-02
         0.26927E-02
         0.26927E-02
         0.26927E-02
         0.26927E-02
         0.26927E-02
         0.26927E-02
         0.26927E-02
         0.26927E-02
         0.26927E-02
         0.26927E-02
         0.26927E-02
         0.26927E-02
         0.26927E-02
         0.26927E-02
         0.26927E-02
         0.26927E-02
         0.26927E-02
         0.26927E-02
         0.26927E-02
         0.26927E-02
         0.26927E-02
         0.26927E-02
         0.26927E-02
         0.26927E-02
         0.26927E-02
         0.26927E-02
         0.26927E-02
         0.26927E-02
         0.26927E-02
         0.26927E-02
         0.26927E-02
         0.26927E-02
         0.26927E-02
         0.26927E-02
         0.26927E-02
         0.26927E-02
         0.26927E-02
         0.26927E-02
         0.26927E-02
         0.26927E-02
         0.26927E-02
         0.26927E-02
         0.26927E-02
         0.26927E-02
         0.26927E-02
         0.26927E-02
         0.26927E-02
         0.26927E-02
         0.26927E-02
         0.26927E-02
         0.26927E-02
         0.26927E-02
         0.26927E-02
         0.26927E-02
         0.26927E-02
         0.26927E-02
         0.26927E-02
         0.26927E-02
         0.26927E-02
         0.26927E-02
         0.26927E-02
         0.26927E-02
         0.26927E-02
         0.26927E-02
         0.26927E-02
         0.26927E-02
         0.26927E-02
         0.26927E-02
         0.26927E-02
         0.26927E-02
         0.26927E-02
         0.26927E-02
         0.26927E-02
         0.26927E-02
         0.26927E-02
         0.26927E-02
         0.26927E-02
         0.26927E-02
         0.26927E-02
         0.26927E-02
         0.26927E-02
         0.26927E-02
         0.26927E-02
         0.26927E-02
         0.26927E-02
         0.26927E-02
         0.26927E-02
         0.26927E-02
         0.26927E-02
         0.26927E-02
         0.26927E-02
         0.26927E-02
         0.26927E-02
         0.26927E-02
         0.26927E-02
         0.26927E-02
         0.26927E-02
         0.26927E-02
         0.26927E-02
         0.26927E-02
         0.26927E-02
         0.26927E-02
         0.26927E-02
         0.26927E-02
         0.26927E-02
         0.26927E-02
         0.26927E-02
         0.26927E-02
         0.26927E-02
         0.26927E-02
         0.26927E-02
         0.26927E-02
         0.26927E-02
         0.26927E-02
         0.26927E-02
         0.26927E-02
         0.26927E-02
         0.26927E-02
         0.26927E-02
         0.26927E-02
         0.26927E-02
         0.26927E-02
         0.26927E-02
         0.26927E-02
         0.26927E-02
         0.26927E-02
         0.26927E-02
         0.26927E-02
         0.26927E-02
         0.26927E-02
         0.26927E-02
         0.26927E-02
         0.26927E-02
         0.26927E-02
         0.26927E-02
         0.26927E-02
         0.26927E-02
         0.26927E-02
         0.26927E-02
         0.26927E-02
         0.26927E-02
         0.26927E-02
         0.26927E-02
         0.26927E-02
         0.26927E-02
         0.26927E-02
         0.26927E-02
         0.26927E-02
         0.26927E-02
         0.26927E-02
         0.26927E-02
         0.26927E-02
         0.26927E-02
         0.26927E-02
         0.26927E-02
         0.26927E-02
         0.26927E-02
         0.26927E-02
         0.26927E-02
         0.26927E-02
         0.26927E-02
         0.26927E-02
         0.26927E-02
         0.26927E-02
         0.26927E-02
         0.26927E-02
         0.26927E-02
         0.26927E-02
         0.26927E-02
         0.26927E-02
         0.26927E-02
         0.26927E-02
         0.26927E-02
         0.26927E-02
         0.26927E-02
         0.26927E-02
         0.26927E-02
         0.26927E-02
         0.26927E-02
         0.26927E-02
         0.26927E-02
         0.26927E-02
         0.26927E-02
         0.26927E-02
         0.26927E-02
         0.26927E-02
         0.26927E-02
         0.26927E-02
         0.26927E-02
         0.26927E-02
         0.26927E-02
         0.26927E-02
         0.26927E-02
         0.26927E-02
         0.26927E-02
         0.26927E-02
         0.26927E-02
         0.26927E-02
         0.26927E-02
         0.26927E-02
         0.26927E-02
         0.26927E-02
         0.26927E-02
         0.26927E-02
         0.26927E-02
         0.26927E-02
         0.26927E-02
         0.26927E-02
         0.26927E-02
         0.26927E-02
         0.26927E-02
         0.26927E-02
         0.26927E-02
         0.26927E-02
         0.26927E-02
         0.26927E-02
         0.26927E-02
         0.26927E-02
         0.26927E-02
         0.26927E-02
         0.26927E-02
         0.26927E-02
         0.26927E-02
         0.26927E-02
         0.26927E-02
         0.26927E-02
         0.26927E-02
         0.26927E-02
         0.26927E-02
         0.26927E-02
         0.26927E-02
         0.26927E-02
         0.26927E-02
         0.26927E-02
         0.26927E-02
         0.26927E-02
         0.26927E-02
         0.26927E-02
         0.26927E-02
         0.26927E-02
         0.26927E-02
         0.26927E-02
         0.26927E-02
         0.26927E-02
         0.26927E-02
         0.26927E-02
         0.26927E-02
         0.26927E-02
         0.26927E-02
         0.26927E-02
         0.26927E-02
         0.26927E-02
         0.26927E-02
         0.26927E-02
         0.26927E-02
         0.26927E-02
         0.26927E-02
         0.26927E-02
         0.26927E-02
         0.26927E-02
         0.26927E-02
         0.26927E-02
         0.26927E-02
         0.26927E-02
         0.26927E-02
         0.26927E-02
         0.26927E-02
         0.26927E-02
         0.26927E-02
         0.26927E-02
         0.26927E-02
         0.26927E-02
         0.26927E-02
         0.26927E-02
         0.26927E-02
         0.26927E-02
         0.26927E-02
         0.26927E-02
         0.26927E-02
         0.26927E-02
         0.26927E-02
         0.26927E-02
         0.26927E-02
         0.26927E-02
         0.26927E-02
         0.26927E-02
         0.26927E-02
         0.26927E-02
         0.26927E-02
         0.26927E-02
         0.26927E-02
         0.26927E-02
         0.26927E-02
         0.26927E-02
         0.26927E-02
         0.26927E-02
         0.26927E-02
         0.26927E-02
         0.26927E-02
         0.26927E-02
         0.26927E-02
         0.26927E-02
         0.26927E-02
         0.26927E-02
         0.26927E-02
         0.26927E-02
         0.26927E-02
         0.26927E-02
         0.26927E-02
         0.26927E-02
         0.26927E-02
         0.26927E-02
         0.26927E-02
         0.26927E-02
         0.26927E-02
         0.26927E-02
         0.26927E-02
         0.26927E-02
         0.26927E-02
         0.26927E-02
         0.26927E-02
         0.26927E-02
         0.26927E-02
         0.26927E-02
         0.26927E-02
         0.26927E-02
         0.26927E-02
         0.26927E-02
         0.26927E-02
         0.26927E-02
         0.26927E-02
         0.26927E-02
         0.26927E-02
         0.26927E-02
         0.26927E-02
         0.26927E-02
         0.26927E-02
         0.26927E-02
         0.26927E-02
         0.26927E-02
         0.26927E-02
         0.26927E-02
         0.26927E-02
         0.26927E-02
         0.26927E-02
         0.26927E-02
         0.26927E-02
         0.26927E-02
         0.26927E-02
         0.26927E-02
         0.26927E-02
         0.26927E-02
         0.26927E-02
         0.26927E-02
         0.26927E-02
         0.26927E-02
         0.26927E-02
         0.26927E-02
         0.26927E-02
         0.26927E-02
         0.26927E-02
         0.26927E-02
         0.26927E-02
         0.26927E-02
         0.26927E-02
         0.26927E-02
         0.26927E-02
         0.26927E-02
         0.26927E-02
         0.26927E-02
         0.26927E-02
         0.26927E-02
         0.26927E-02
         0.26927E-02
         0.26927E-02
         0.26927E-02
         0.26927E-02
         0.26927E-02
         0.26927E-02
         0.26927E-02
         0.26927E-02
         0.26927E-02
         0.26927E-02
         0.26927E-02
         0.26927E-02
         0.26927E-02
         0.26927E-02
         0.26927E-02
         0.26927E-02
         0.26927E-02
         0.26927E-02
         0.26927E-02
         0.26927E-02
         0.26927E-02
         0.26927E-02
         0.26927E-02
         0.26927E-02
         0.26927E-02
         0.26927E-02
         0.26927E-02
         0.26927E-02
         0.26927E-02
         0.26927E-02
         0.26927E-02
         0.26927E-02
         0.26927E-02
         0.26927E-02
         0.26927E-02
         0.26927E-02
         0.26927E-02
         0.26927E-02
         0.26927E-02
         0.26927E-02
         0.26927E-02
         0.26927E-02
         0.26927E-02
         0.26927E-02
         0.26927E-02
         0.26927E-02
         0.26927E-02
         0.26927E-02
         0.26927E-02
         0.26927E-02
         0.26927E-02
         0.26927E-02
         0.26927E-02
         0.26927E-02
         0.26927E-02
         0.26927E-02
         0.26927E-02
         0.26927E-02
         0.26927E-02
         0.26927E-02
         0.26927E-02
         0.26927E-02
         0.26927E-02
         0.26927E-02
         0.26927E-02
         0.26927E-02
         0.26927E-02
         0.26927E-02
         0.26927E-02
         0.26927E-02
         0.26927E-02
         0.26927E-02
         0.26927E-02
         0.26927E-02
         0.26927E-02
         0.26927E-02
         0.26927E-02
         0.26927E-02
         0.26927E-02
         0.26927E-02
         0.26927E-02
         0.26927E-02
         0.26927E-02
         0.26927E-02
         0.26927E-02
         0.26927E-02
         0.26927E-02
         0.26927E-02
         0.26927E-02
         0.26927E-02
         0.26927E-02
         0.26927E-02
         0.26927E-02
         0.26927E-02
         0.26927E-02
         0.26927E-02
         0.26927E-02
         0.26927E-02
         0.26927E-02
         0.26927E-02
         0.26927E-02
         0.26927E-02
         0.26927E-02
         0.26927E-02
         0.26927E-02
         0.26927E-02
         0.26927E-02
         0.26927E-02
         0.26927E-02
         0.26927E-02
         0.26927E-02
         0.26927E-02
         0.26927E-02
         0.26927E-02
         0.26927E-02
         0.26927E-02
         0.26927E-02
         0.26927E-02
         0.26927E-02
         0.26927E-02
         0.26927E-02
         0.26927E-02
         0.26927E-02
         0.26927E-02
         0.26927E-02
         0.26927E-02
         0.26927E-02
         0.26927E-02
         0.26927E-02
         0.26927E-02
         0.26927E-02
         0.26927E-02
         0.26927E-02
         0.26927E-02
         0.26927E-02
         0.26927E-02
         0.26927E-02
         0.26927E-02
         0.26927E-02
         0.26927E-02
         0.26927E-02
         0.26927E-02
         0.26927E-02
         0.26927E-02
         0.26927E-02
         0.26927E-02
         0.26927E-02
         0.26927E-02
         0.26927E-02
         0.26927E-02
         0.26927E-02
         0.26927E-02
         0.26927E-02
         0.26927E-02
         0.26927E-02
         0.26927E-02
         0.26927E-02
         0.26927E-02
         0.26927E-02
         0.26927E-02
         0.26927E-02
         0.26927E-02
         0.26927E-02
         0.26927E-02
         0.26927E-02
         0.26927E-02
         0.26927E-02
         0.26927E-02
         0.26927E-02
         0.26927E-02
         0.26927E-02
         0.26927E-02
         0.26927E-02
         0.26927E-02
         0.26927E-02
         0.26927E-02
         0.26927E-02
         0.26927E-02
         0.26927E-02
         0.26927E-02
         0.26927E-02
         0.26927E-02
         0.26927E-02
         0.26927E-02
         0.26927E-02
         0.26927E-02
         0.26927E-02
         0.26927E-02
         0.26927E-02
         0.26927E-02
         0.26927E-02
         0.26927E-02
         0.26927E-02
         0.26927E-02
         0.26927E-02
         0.26927E-02
         0.26927E-02
         0.26927E-02
         0.26927E-02
         0.26927E-02
         0.26927E-02
         0.26927E-02
         0.26927E-02
         0.26927E-02
         0.26927E-02
         0.26927E-02
         0.26927E-02
         0.26927E-02
         0.26927E-02
         0.26927E-02
         0.26927E-02
         0.26927E-02
         0.26927E-02
         0.26927E-02
         0.26927E-02
         0.26927E-02
         0.26927E-02
         0.26927E-02
         0.26927E-02
         0.26927E-02
         0.26927E-02
         0.26927E-02
         0.26927E-02
         0.26927E-02
         0.26927E-02
         0.26927E-02
         0.26927E-02
         0.26927E-02
         0.26927E-02
         0.26927E-02
         0.26927E-02
         0.26927E-02
         0.26927E-02
         0.26927E-02
         0.26927E-02
         0.26927E-02
         0.26927E-02
         0.26927E-02
         0.26927E-02
         0.26927E-02
         0.26927E-02
         0.26927E-02
         0.26927E-02
         0.26927E-02
         0.26927E-02
         0.26927E-02
         0.26927E-02
         0.26927E-02
         0.26927E-02
         0.26927E-02
         0.26927E-02
         0.26927E-02
         0.26927E-02
         0.26927E-02
         0.26927E-02
         0.26927E-02
         0.26927E-02
         0.26927E-02
         0.26927E-02
         0.26927E-02
         0.26927E-02
         0.26927E-02
         0.26927E-02
         0.26927E-02
         0.26927E-02
         0.26927E-02
         0.26927E-02
         0.26927E-02
         0.26927E-02
         0.26927E-02
         0.26927E-02
         0.26927E-02
         0.26927E-02
         0.26927E-02
         0.26927E-02
         0.26927E-02
         0.26927E-02
         0.26927E-02
         0.26927E-02
         0.26927E-02
         0.26927E-02
         0.26927E-02
         0.26927E-02
         0.26927E-02
         0.26927E-02
         0.26927E-02
         0.26927E-02
         0.26927E-02
         0.26927E-02
         0.26927E-02
         0.26927E-02
         0.26927E-02
         0.26927E-02
         0.26927E-02
         0.26927E-02
         0.26927E-02
         0.26927E-02
         0.26927E-02
         0.26927E-02
         0.26927E-02
         0.26927E-02
         0.26927E-02
         0.26927E-02
         0.26927E-02
         0.26927E-02
         0.26927E-02
         0.26927E-02
         0.26927E-02
         0.26927E-02
         0.26927E-02
         0.26927E-02
         0.26927E-02
         0.26927E-02
         0.26927E-02
         0.26927E-02
         0.26927E-02
         0.26927E-02
         0.26927E-02
         0.26927E-02
         0.26927E-02
         0.26927E-02
         0.26927E-02
         0.26927E-02
         0.26927E-02
         0.26927E-02
         0.26927E-02
         0.26927E-02
         0.26927E-02
         0.26927E-02
         0.26927E-02
         0.26927E-02
         0.26927E-02
         0.26927E-02
         0.26927E-02
         0.26927E-02
         0.26927E-02
         0.26927E-02
         0.26927E-02
         0.26927E-02
         0.26927E-02
         0.26927E-02
         0.26927E-02
         0.26927E-02
         0.26927E-02
         0.26927E-02
         0.26927E-02
         0.26927E-02
         0.26927E-02
         0.26927E-02
         0.26927E-02
         0.26927E-02
         0.26927E-02
         0.26927E-02
         0.26927E-02
         0.26927E-02
         0.26927E-02
         0.26927E-02
         0.26927E-02
         0.26927E-02
         0.26927E-02
         0.26927E-02
         0.26927E-02
         0.26927E-02
         0.26927E-02
         0.26927E-02
         0.26927E-02
         0.26927E-02
         0.26927E-02
         0.26927E-02
         0.26927E-02
         0.26927E-02
         0.26927E-02
         0.26927E-02
         0.26927E-02
         0.26927E-02
         0.26927E-02
         0.26927E-02
         0.26927E-02
         0.26927E-02
         0.26927E-02
         0.26927E-02
         0.26927E-02
         0.26927E-02
         0.26927E-02
         0.26927E-02
         0.26927E-02
         0.26927E-02
         0.26927E-02
         0.26927E-02
         0.26927E-02
         0.26927E-02
         0.26927E-02
         0.26927E-02
         0.26927E-02
         0.26927E-02
         0.26927E-02
         0.26927E-02
         0.26927E-02
         0.26927E-02
         0.26927E-02
         0.26927E-02
         0.26927E-02
         0.26927E-02
         0.26927E-02
         0.26927E-02
         0.26927E-02
         0.26927E-02
         0.26927E-02
         0.26927E-02
         0.26927E-02
         0.26927E-02
         0.26927E-02
         0.26927E-02
         0.26927E-02
         0.26927E-02
         0.26927E-02
         0.26927E-02
         0.26927E-02
         0.26927E-02
         0.26927E-02
         0.26927E-02
         0.26927E-02
         0.26927E-02
         0.26927E-02
         0.26927E-02
         0.26927E-02
         0.26927E-02
         0.26927E-02
         0.26927E-02
         0.26927E-02
         0.26927E-02
         0.26927E-02
         0.26927E-02
         0.26927E-02
         0.26927E-02
         0.26927E-02
         0.26927E-02
         0.26927E-02
         0.26927E-02
         0.26927E-02
         0.26927E-02
         0.26927E-02
         0.26927E-02
         0.26927E-02
         0.26927E-02
         0.26927E-02
         0.26927E-02
         0.26927E-02
         0.26927E-02
         0.26927E-02
         0.26927E-02
         0.26927E-02
         0.26927E-02
         0.26927E-02
         0.26927E-02
         0.26927E-02
         0.26927E-02
         0.26927E-02
         0.26927E-02
         0.26927E-02
         0.26927E-02
         0.26927E-02
         0.26927E-02
         0.26927E-02
         0.26927E-02
         0.26927E-02
         0.26927E-02
         0.26927E-02
         0.26927E-02
         0.26927E-02
         0.26927E-02
         0.26927E-02
         0.26927E-02
         0.26927E-02
         0.26927E-02
         0.26927E-02
         0.26927E-02
         0.26927E-02
         0.26927E-02
         0.26927E-02
         0.26927E-02
         0.26927E-02
         0.26927E-02
         0.26927E-02
         0.26927E-02
         0.26927E-02
         0.26927E-02
         0.26927E-02
         0.26927E-02
         0.26927E-02
         0.26927E-02
         0.26927E-02
         0.26927E-02
         0.26927E-02
         0.26927E-02
         0.26927E-02
         0.26927E-02
         0.26927E-02
         0.26927E-02
         0.26927E-02
         0.26927E-02
         0.26927E-02
         0.26927E-02
         0.26927E-02
         0.26927E-02
         0.26927E-02
         0.26927E-02
         0.26927E-02
         0.26927E-02
         0.26927E-02
         0.26927E-02
         0.26927E-02
         0.26927E-02
         0.26927E-02
         0.26927E-02
         0.26927E-02
         0.26927E-02
         0.26927E-02
         0.26927E-02
         0.26927E-02
         0.26927E-02
         0.26927E-02
         0.26927E-02
         0.26927E-02
         0.26927E-02
         0.26927E-02
         0.26927E-02
         0.26927E-02
         0.26927E-02
         0.26927E-02
         0.26927E-02
         0.26927E-02
         0.26927E-02
         0.26927E-02
         0.26927E-02
         0.26927E-02
         0.26927E-02
         0.26927E-02
         0.26927E-02
         0.26927E-02
         0.26927E-02
         0.26927E-02
         0.26927E-02
         0.26927E-02
         0.26927E-02
         0.26927E-02
         0.26927E-02
         0.26927E-02
         0.26927E-02
         0.26927E-02
         0.26927E-02
         0.26927E-02
         0.26927E-02
         0.26927E-02
         0.26927E-02
         0.26927E-02
         0.26927E-02
         0.26927E-02
         0.26927E-02
         0.26927E-02
         0.26927E-02
         0.26927E-02
         0.26927E-02
         0.26927E-02
         0.26927E-02
         0.26927E-02
         0.26927E-02
         0.26927E-02
         0.26927E-02
         0.26927E-02
         0.26927E-02
         0.26927E-02
         0.26927E-02
         0.26927E-02
         0.26927E-02
         0.26927E-02
         0.26927E-02
         0.26927E-02
         0.26927E-02
         0.26927E-02
         0.26927E-02
         0.26927E-02
         0.26927E-02
         0.26927E-02
         0.26927E-02
         0.26927E-02
         0.26927E-02
         0.26927E-02
         0.26927E-02
         0.26927E-02
         0.26927E-02
         0.26927E-02
         0.26927E-02
         0.26927E-02
         0.26927E-02
         0.26927E-02
         0.26927E-02
         0.26927E-02
         0.26927E-02
         0.26927E-02
         0.26927E-02
         0.26927E-02
         0.26927E-02
         0.26927E-02
         0.26927E-02
         0.26927E-02
         0.26927E-02
         0.26927E-02
         0.26927E-02
         0.26927E-02
         0.26927E-02
         0.26927E-02
         0.26927E-02
         0.26927E-02
         0.26927E-02
         0.26927E-02
         0.26927E-02
         0.26927E-02
         0.26927E-02
         0.26927E-02
         0.26927E-02
         0.26927E-02
         0.26927E-02
         0.26927E-02
         0.26927E-02
         0.26927E-02
         0.26927E-02
         0.26928E-02
         0.26928E-02
         0.26928E-02
         0.26928E-02
         0.26928E-02
         0.26928E-02
         0.26928E-02
         0.26928E-02
         0.26928E-02
         0.26928E-02
         0.26928E-02
         0.26928E-02
         0.26928E-02
         0.26928E-02
         0.26928E-02
         0.26928E-02
         0.26928E-02
         0.26928E-02
         0.26928E-02
         0.26928E-02
         0.26928E-02
         0.26928E-02
         0.26928E-02
         0.26928E-02
         0.26928E-02
         0.26928E-02
         0.26928E-02
         0.26928E-02
         0.26928E-02
         0.26928E-02
         0.26928E-02
         0.26928E-02
         0.26928E-02
         0.26928E-02
         0.26928E-02
         0.26928E-02
         0.26928E-02
         0.26928E-02
         0.26928E-02
         0.26928E-02
         0.26928E-02
         0.26928E-02
         0.26928E-02
         0.26928E-02
         0.26928E-02
         0.26928E-02
         0.26928E-02
         0.26928E-02
         0.26928E-02
         0.26928E-02
         0.26928E-02
         0.26928E-02
         0.26928E-02
         0.26928E-02
         0.26928E-02
         0.26928E-02
         0.26928E-02
         0.26928E-02
         0.26928E-02
         0.26928E-02
         0.26928E-02
         0.26928E-02
         0.26928E-02
         0.26928E-02
         0.26928E-02
         0.26928E-02
         0.26928E-02
         0.26928E-02
         0.26928E-02
         0.26928E-02
         0.26928E-02
         0.26928E-02
         0.26928E-02
         0.26928E-02
         0.26928E-02
         0.26928E-02
         0.26928E-02
         0.26928E-02
         0.26928E-02
         0.26928E-02
         0.26928E-02
         0.26928E-02
         0.26928E-02
         0.26928E-02
         0.26928E-02
         0.26928E-02
         0.26928E-02
         0.26928E-02
         0.26928E-02
         0.26928E-02
         0.26928E-02
         0.26928E-02
         0.26928E-02
         0.26928E-02
         0.26928E-02
         0.26928E-02
         0.26928E-02
         0.26928E-02
         0.26928E-02
         0.26928E-02
         0.26928E-02
         0.26928E-02
         0.26928E-02
         0.26928E-02
         0.26928E-02
         0.26928E-02
         0.26928E-02
         0.26928E-02
         0.26928E-02
         0.26928E-02
         0.26928E-02
         0.26928E-02
         0.26928E-02
         0.26928E-02
         0.26928E-02
         0.26928E-02
         0.26928E-02
         0.26928E-02
         0.26928E-02
         0.26928E-02
         0.26928E-02
         0.26928E-02
         0.26928E-02
         0.26928E-02
         0.26928E-02
         0.26928E-02
         0.26928E-02
         0.26928E-02
         0.26928E-02
         0.26928E-02
         0.26928E-02
         0.26928E-02
         0.26928E-02
         0.26928E-02
         0.26928E-02
         0.26928E-02
         0.26928E-02
         0.26928E-02
         0.26928E-02
         0.26928E-02
         0.26928E-02
         0.26928E-02
         0.26928E-02
         0.26928E-02
         0.26928E-02
         0.26928E-02
         0.26928E-02
         0.26928E-02
         0.26928E-02
         0.26928E-02
         0.26928E-02
         0.26928E-02
         0.26928E-02
         0.26928E-02
         0.26928E-02
         0.26928E-02
  
SCALARS                   nodal_volume  double 1
LOOKUP_TABLE default
         0.91140E-09
         0.72412E-09
         0.77574E-09
         0.13316E-08
         0.45570E-09
         0.36211E-09
         0.38787E-09
         0.66566E-09
         0.71537E-09
         0.91211E-09
         0.35767E-09
         0.45600E-09
         0.51195E-09
         0.61532E-09
         0.25605E-09
         0.30776E-09
         0.10101E-08
         0.74536E-09
         0.50500E-09
         0.37281E-09
         0.30273E-09
         0.57012E-09
         0.62699E-09
         0.15144E-09
         0.28509E-09
         0.31352E-09
         0.51329E-09
         0.64933E-09
         0.25683E-09
         0.32471E-09
         0.12026E-08
         0.93909E-09
         0.11935E-08
         0.60122E-09
         0.46945E-09
         0.59663E-09
         0.70296E-09
         0.80270E-09
         0.35149E-09
         0.40134E-09
         0.75859E-09
         0.84013E-09
         0.37932E-09
         0.42007E-09
         0.64542E-09
         0.40086E-09
         0.32274E-09
         0.20045E-09
         0.76288E-09
         0.38153E-09
         0.63346E-09
         0.31675E-09
         0.66583E-09
         0.33318E-09
         0.68008E-09
         0.34022E-09
         0.58930E-09
         0.71738E-09
         0.29472E-09
         0.35874E-09
         0.90938E-09
         0.64302E-09
         0.45469E-09
         0.32154E-09
         0.10152E-08
         0.50747E-09
         0.88120E-09
         0.44042E-09
         0.40077E-09
         0.61872E-09
         0.20039E-09
         0.30940E-09
         0.70206E-09
         0.35106E-09
         0.74172E-09
         0.37089E-09
         0.71539E-09
         0.35770E-09
         0.56226E-09
         0.28113E-09
         0.35349E-09
         0.58452E-09
         0.17675E-09
         0.29229E-09
         0.77354E-09
         0.38679E-09
         0.62469E-09
         0.31238E-09
         0.54957E-09
         0.27483E-09
         0.36009E-09
         0.61365E-09
         0.18007E-09
         0.30685E-09
         0.83268E-09
         0.41635E-09
         0.87287E-09
         0.43642E-09
         0.70438E-09
         0.35217E-09
         0.43365E-09
         0.74413E-09
         0.21683E-09
         0.37198E-09
         0.27660E-09
         0.35144E-09
         0.13833E-09
         0.17573E-09
         0.32921E-09
         0.16465E-09
         0.38764E-09
         0.19382E-09
         0.37797E-09
         0.18897E-09
         0.36707E-09
         0.18352E-09
         0.39112E-09
         0.19552E-09
         0.41268E-09
         0.20627E-09
         0.38876E-09
         0.19433E-09
         0.30402E-09
         0.15200E-09
         0.24796E-09
         0.12398E-09
         0.31999E-09
         0.16000E-09
         0.42608E-09
         0.21303E-09
         0.46805E-09
         0.23401E-09
         0.44933E-09
         0.22466E-09
         0.40550E-09
         0.20276E-09
         0.36826E-09
         0.18414E-09
         0.29911E-09
         0.14956E-09
         0.25178E-09
         0.12591E-09
         0.32888E-09
         0.16445E-09
         0.43529E-09
         0.21765E-09
         0.44963E-09
         0.22482E-09
         0.36384E-09
         0.18194E-09
         0.29543E-09
         0.14774E-09
         0.36126E-09
         0.18063E-09
         0.42771E-09
         0.21386E-09
         0.91143E-09
         0.72396E-09
         0.77579E-09
         0.13322E-08
         0.71547E-09
         0.91237E-09
         0.51167E-09
         0.61494E-09
         0.10105E-08
         0.74486E-09
         0.30244E-09
         0.57001E-09
         0.62694E-09
         0.51257E-09
         0.64918E-09
         0.12029E-08
         0.93950E-09
         0.11941E-08
         0.70298E-09
         0.80279E-09
         0.75855E-09
         0.84015E-09
         0.64535E-09
         0.40081E-09
         0.76254E-09
         0.63339E-09
         0.66483E-09
         0.67941E-09
         0.58904E-09
         0.71721E-09
         0.90946E-09
         0.64293E-09
         0.10157E-08
         0.88199E-09
         0.40076E-09
         0.61859E-09
         0.70195E-09
         0.74166E-09
         0.71543E-09
         0.56228E-09
         0.35349E-09
         0.58443E-09
         0.77349E-09
         0.62459E-09
         0.54943E-09
         0.35999E-09
         0.61359E-09
         0.83268E-09
         0.87299E-09
         0.70451E-09
         0.43366E-09
         0.74449E-09
         0.27651E-09
         0.35143E-09
         0.32904E-09
         0.38765E-09
         0.37805E-09
         0.36714E-09
         0.39129E-09
         0.41297E-09
         0.38899E-09
         0.30408E-09
         0.24798E-09
         0.31999E-09
         0.42613E-09
         0.46815E-09
         0.44938E-09
         0.40548E-09
         0.36823E-09
         0.29908E-09
         0.25174E-09
         0.32885E-09
         0.43527E-09
         0.44962E-09
         0.36376E-09
         0.29536E-09
         0.36130E-09
         0.42769E-09
         0.91151E-09
         0.72383E-09
         0.77587E-09
         0.13329E-08
         0.71560E-09
         0.91267E-09
         0.51142E-09
         0.61459E-09
         0.10109E-08
         0.74439E-09
         0.30216E-09
         0.56992E-09
         0.62691E-09
         0.51187E-09
         0.64906E-09
         0.12033E-08
         0.93995E-09
         0.11947E-08
         0.70302E-09
         0.80291E-09
         0.75853E-09
         0.84020E-09
         0.64530E-09
         0.40078E-09
         0.76223E-09
         0.63335E-09
         0.66385E-09
         0.67875E-09
         0.58880E-09
         0.71706E-09
         0.90957E-09
         0.64286E-09
         0.10162E-08
         0.88281E-09
         0.40076E-09
         0.61849E-09
         0.70188E-09
         0.74162E-09
         0.71550E-09
         0.56232E-09
         0.35350E-09
         0.58436E-09
         0.77347E-09
         0.62452E-09
         0.54931E-09
         0.35990E-09
         0.61355E-09
         0.83270E-09
         0.87315E-09
         0.70467E-09
         0.43368E-09
         0.74487E-09
         0.27643E-09
         0.35143E-09
         0.32889E-09
         0.38767E-09
         0.37814E-09
         0.36723E-09
         0.39147E-09
         0.41328E-09
         0.38923E-09
         0.30416E-09
         0.24800E-09
         0.32001E-09
         0.42620E-09
         0.46826E-09
         0.44944E-09
         0.40548E-09
         0.36821E-09
         0.29906E-09
         0.25171E-09
         0.32883E-09
         0.43527E-09
         0.44963E-09
         0.36369E-09
         0.29530E-09
         0.36135E-09
         0.42769E-09
         0.91156E-09
         0.72368E-09
         0.77594E-09
         0.13335E-08
         0.71571E-09
         0.91295E-09
         0.51115E-09
         0.61422E-09
         0.10112E-08
         0.74389E-09
         0.30187E-09
         0.56982E-09
         0.62686E-09
         0.51116E-09
         0.64892E-09
         0.12036E-08
         0.94038E-09
         0.11953E-08
         0.70304E-09
         0.80300E-09
         0.75850E-09
         0.84023E-09
         0.64523E-09
         0.40073E-09
         0.76190E-09
         0.63330E-09
         0.66285E-09
         0.67809E-09
         0.58855E-09
         0.71689E-09
         0.90966E-09
         0.64278E-09
         0.10168E-08
         0.88361E-09
         0.40076E-09
         0.61837E-09
         0.70178E-09
         0.74156E-09
         0.71554E-09
         0.56234E-09
         0.35350E-09
         0.58428E-09
         0.77343E-09
         0.62442E-09
         0.54918E-09
         0.35981E-09
         0.61349E-09
         0.83271E-09
         0.87328E-09
         0.70481E-09
         0.43369E-09
         0.74524E-09
         0.27634E-09
         0.35142E-09
         0.32873E-09
         0.38768E-09
         0.37823E-09
         0.36731E-09
         0.39163E-09
         0.41358E-09
         0.38945E-09
         0.30422E-09
         0.24802E-09
         0.32001E-09
         0.42625E-09
         0.46837E-09
         0.44949E-09
         0.40546E-09
         0.36819E-09
         0.29904E-09
         0.25167E-09
         0.32881E-09
         0.43526E-09
         0.44963E-09
         0.36362E-09
         0.29523E-09
         0.36139E-09
         0.42768E-09
         0.91161E-09
         0.72353E-09
         0.77600E-09
         0.13341E-08
         0.71583E-09
         0.91323E-09
         0.51088E-09
         0.61386E-09
         0.10116E-08
         0.74341E-09
         0.30158E-09
         0.56972E-09
         0.62682E-09
         0.51045E-09
         0.64879E-09
         0.12040E-08
         0.94081E-09
         0.11959E-08
         0.70307E-09
         0.80310E-09
         0.75847E-09
         0.84027E-09
         0.64517E-09
         0.40069E-09
         0.76158E-09
         0.63325E-09
         0.66186E-09
         0.67742E-09
         0.58831E-09
         0.71673E-09
         0.90975E-09
         0.64270E-09
         0.10173E-08
         0.88441E-09
         0.40075E-09
         0.61825E-09
         0.70169E-09
         0.74151E-09
         0.71559E-09
         0.56237E-09
         0.35350E-09
         0.58420E-09
         0.77339E-09
         0.62433E-09
         0.54905E-09
         0.35972E-09
         0.61344E-09
         0.83272E-09
         0.87341E-09
         0.70496E-09
         0.43370E-09
         0.74562E-09
         0.27626E-09
         0.35142E-09
         0.32857E-09
         0.38770E-09
         0.37832E-09
         0.36739E-09
         0.39181E-09
         0.41387E-09
         0.38968E-09
         0.30429E-09
         0.24804E-09
         0.32002E-09
         0.42631E-09
         0.46847E-09
         0.44954E-09
         0.40545E-09
         0.36816E-09
         0.29901E-09
         0.25163E-09
         0.32878E-09
         0.43525E-09
         0.44963E-09
         0.36354E-09
         0.29517E-09
         0.36144E-09
         0.42766E-09
         0.91167E-09
         0.72338E-09
         0.77607E-09
         0.13348E-08
         0.71594E-09
         0.91351E-09
         0.51062E-09
         0.61349E-09
         0.10119E-08
         0.74292E-09
         0.30129E-09
         0.56962E-09
         0.62678E-09
         0.50974E-09
         0.64865E-09
         0.12044E-08
         0.94125E-09
         0.11965E-08
         0.70310E-09
         0.80321E-09
         0.75844E-09
         0.84031E-09
         0.64511E-09
         0.40065E-09
         0.76125E-09
         0.63320E-09
         0.66087E-09
         0.67676E-09
         0.58806E-09
         0.71657E-09
         0.90984E-09
         0.64263E-09
         0.10179E-08
         0.88522E-09
         0.40075E-09
         0.61813E-09
         0.70160E-09
         0.74146E-09
         0.71564E-09
         0.56240E-09
         0.35350E-09
         0.58412E-09
         0.77336E-09
         0.62425E-09
         0.54892E-09
         0.35963E-09
         0.61339E-09
         0.83274E-09
         0.87355E-09
         0.70511E-09
         0.43371E-09
         0.74599E-09
         0.27618E-09
         0.35141E-09
         0.32841E-09
         0.38771E-09
         0.37841E-09
         0.36747E-09
         0.39198E-09
         0.41417E-09
         0.38992E-09
         0.30436E-09
         0.24806E-09
         0.32003E-09
         0.42637E-09
         0.46858E-09
         0.44960E-09
         0.40544E-09
         0.36814E-09
         0.29899E-09
         0.25159E-09
         0.32876E-09
         0.43525E-09
         0.44963E-09
         0.36347E-09
         0.29511E-09
         0.36148E-09
         0.42766E-09
         0.91171E-09
         0.72323E-09
         0.77613E-09
         0.13354E-08
         0.71606E-09
         0.91379E-09
         0.51035E-09
         0.61313E-09
         0.10123E-08
         0.74243E-09
         0.30101E-09
         0.56952E-09
         0.62674E-09
         0.50903E-09
         0.64851E-09
         0.12047E-08
         0.94167E-09
         0.11971E-08
         0.70312E-09
         0.80331E-09
         0.75840E-09
         0.84034E-09
         0.64504E-09
         0.40061E-09
         0.76092E-09
         0.63314E-09
         0.65988E-09
         0.67609E-09
         0.58781E-09
         0.71641E-09
         0.90993E-09
         0.64255E-09
         0.10184E-08
         0.88601E-09
         0.40075E-09
         0.61801E-09
         0.70151E-09
         0.74140E-09
         0.71569E-09
         0.56243E-09
         0.35350E-09
         0.58404E-09
         0.77332E-09
         0.62416E-09
         0.54879E-09
         0.35953E-09
         0.61334E-09
         0.83274E-09
         0.87368E-09
         0.70525E-09
         0.43372E-09
         0.74636E-09
         0.27609E-09
         0.35141E-09
         0.32825E-09
         0.38772E-09
         0.37849E-09
         0.36754E-09
         0.39215E-09
         0.41447E-09
         0.39014E-09
         0.30443E-09
         0.24808E-09
         0.32004E-09
         0.42642E-09
         0.46868E-09
         0.44965E-09
         0.40543E-09
         0.36812E-09
         0.29897E-09
         0.25155E-09
         0.32874E-09
         0.43524E-09
         0.44963E-09
         0.36340E-09
         0.29504E-09
         0.36153E-09
         0.42764E-09
         0.91176E-09
         0.72308E-09
         0.77620E-09
         0.13360E-08
         0.71617E-09
         0.91407E-09
         0.51008E-09
         0.61276E-09
         0.10126E-08
         0.74195E-09
         0.30072E-09
         0.56942E-09
         0.62670E-09
         0.50832E-09
         0.64838E-09
         0.12051E-08
         0.94210E-09
         0.11977E-08
         0.70314E-09
         0.80341E-09
         0.75837E-09
         0.84038E-09
         0.64498E-09
         0.40056E-09
         0.76060E-09
         0.63309E-09
         0.65888E-09
         0.67542E-09
         0.58756E-09
         0.71624E-09
         0.91002E-09
         0.64247E-09
         0.10189E-08
         0.88682E-09
         0.40074E-09
         0.61790E-09
         0.70142E-09
         0.74135E-09
         0.71574E-09
         0.56245E-09
         0.35351E-09
         0.58396E-09
         0.77328E-09
         0.62407E-09
         0.54866E-09
         0.35944E-09
         0.61329E-09
         0.83275E-09
         0.87382E-09
         0.70539E-09
         0.43373E-09
         0.74673E-09
         0.27601E-09
         0.35140E-09
         0.32809E-09
         0.38774E-09
         0.37858E-09
         0.36762E-09
         0.39232E-09
         0.41477E-09
         0.39037E-09
         0.30450E-09
         0.24810E-09
         0.32005E-09
         0.42648E-09
         0.46879E-09
         0.44970E-09
         0.40541E-09
         0.36809E-09
         0.29894E-09
         0.25151E-09
         0.32871E-09
         0.43523E-09
         0.44963E-09
         0.36333E-09
         0.29497E-09
         0.36157E-09
         0.42763E-09
         0.91182E-09
         0.72293E-09
         0.77627E-09
         0.13367E-08
         0.71629E-09
         0.91436E-09
         0.50982E-09
         0.61240E-09
         0.10130E-08
         0.74146E-09
         0.30043E-09
         0.56932E-09
         0.62666E-09
         0.50762E-09
         0.64825E-09
         0.12054E-08
         0.94253E-09
         0.11983E-08
         0.70317E-09
         0.80351E-09
         0.75834E-09
         0.84041E-09
         0.64491E-09
         0.40053E-09
         0.76028E-09
         0.63304E-09
         0.65790E-09
         0.67476E-09
         0.58731E-09
         0.71609E-09
         0.91012E-09
         0.64239E-09
         0.10195E-08
         0.88762E-09
         0.40074E-09
         0.61778E-09
         0.70133E-09
         0.74130E-09
         0.71579E-09
         0.56249E-09
         0.35351E-09
         0.58388E-09
         0.77324E-09
         0.62398E-09
         0.54853E-09
         0.35935E-09
         0.61324E-09
         0.83277E-09
         0.87396E-09
         0.70554E-09
         0.43375E-09
         0.74711E-09
         0.27592E-09
         0.35140E-09
         0.32793E-09
         0.38775E-09
         0.37867E-09
         0.36770E-09
         0.39249E-09
         0.41507E-09
         0.39061E-09
         0.30457E-09
         0.24812E-09
         0.32006E-09
         0.42654E-09
         0.46890E-09
         0.44975E-09
         0.40540E-09
         0.36807E-09
         0.29892E-09
         0.25148E-09
         0.32869E-09
         0.43522E-09
         0.44963E-09
         0.36325E-09
         0.29491E-09
         0.36162E-09
         0.42762E-09
         0.91187E-09
         0.72278E-09
         0.77633E-09
         0.13373E-08
         0.71640E-09
         0.91463E-09
         0.50955E-09
         0.61204E-09
         0.10134E-08
         0.74098E-09
         0.30015E-09
         0.56922E-09
         0.62662E-09
         0.50691E-09
         0.64811E-09
         0.12058E-08
         0.94296E-09
         0.11989E-08
         0.70320E-09
         0.80361E-09
         0.75831E-09
         0.84045E-09
         0.64485E-09
         0.40048E-09
         0.75995E-09
         0.63298E-09
         0.65690E-09
         0.67409E-09
         0.58706E-09
         0.71592E-09
         0.91020E-09
         0.64231E-09
         0.10200E-08
         0.88843E-09
         0.40074E-09
         0.61766E-09
         0.70124E-09
         0.74124E-09
         0.71584E-09
         0.56251E-09
         0.35351E-09
         0.58380E-09
         0.77320E-09
         0.62389E-09
         0.54840E-09
         0.35926E-09
         0.61318E-09
         0.83277E-09
         0.87409E-09
         0.70568E-09
         0.43376E-09
         0.74748E-09
         0.27584E-09
         0.35139E-09
         0.32777E-09
         0.38777E-09
         0.37876E-09
         0.36778E-09
         0.39266E-09
         0.41536E-09
         0.39084E-09
         0.30464E-09
         0.24814E-09
         0.32006E-09
         0.42659E-09
         0.46900E-09
         0.44980E-09
         0.40539E-09
         0.36805E-09
         0.29890E-09
         0.25144E-09
         0.32867E-09
         0.43521E-09
         0.44963E-09
         0.36318E-09
         0.29485E-09
         0.36166E-09
         0.42761E-09
         0.91192E-09
         0.72263E-09
         0.77640E-09
         0.13380E-08
         0.71652E-09
         0.91491E-09
         0.50928E-09
         0.61167E-09
         0.10137E-08
         0.74049E-09
         0.29986E-09
         0.56912E-09
         0.62657E-09
         0.50620E-09
         0.64797E-09
         0.12061E-08
         0.94339E-09
         0.11995E-08
         0.70322E-09
         0.80371E-09
         0.75827E-09
         0.84048E-09
         0.64478E-09
         0.40044E-09
         0.75962E-09
         0.63293E-09
         0.65591E-09
         0.67343E-09
         0.58681E-09
         0.71576E-09
         0.91029E-09
         0.64223E-09
         0.10205E-08
         0.88923E-09
         0.40073E-09
         0.61754E-09
         0.70114E-09
         0.74119E-09
         0.71588E-09
         0.56254E-09
         0.35351E-09
         0.58372E-09
         0.77316E-09
         0.62380E-09
         0.54827E-09
         0.35917E-09
         0.61313E-09
         0.83278E-09
         0.87422E-09
         0.70582E-09
         0.43377E-09
         0.74785E-09
         0.27575E-09
         0.35138E-09
         0.32761E-09
         0.38778E-09
         0.37885E-09
         0.36786E-09
         0.39283E-09
         0.41566E-09
         0.39107E-09
         0.30470E-09
         0.24816E-09
         0.32007E-09
         0.42665E-09
         0.46911E-09
         0.44985E-09
         0.40538E-09
         0.36802E-09
         0.29887E-09
         0.25140E-09
         0.32864E-09
         0.43520E-09
         0.44963E-09
         0.36310E-09
         0.29478E-09
         0.36170E-09
         0.42760E-09
         0.91198E-09
         0.72248E-09
         0.77646E-09
         0.13386E-08
         0.71663E-09
         0.91520E-09
         0.50901E-09
         0.61131E-09
         0.10141E-08
         0.74000E-09
         0.29957E-09
         0.56902E-09
         0.62653E-09
         0.50549E-09
         0.64784E-09
         0.12065E-08
         0.94382E-09
         0.12002E-08
         0.70325E-09
         0.80381E-09
         0.75824E-09
         0.84052E-09
         0.64472E-09
         0.40040E-09
         0.75929E-09
         0.63288E-09
         0.65492E-09
         0.67276E-09
         0.58657E-09
         0.71560E-09
         0.91038E-09
         0.64216E-09
         0.10211E-08
         0.89003E-09
         0.40073E-09
         0.61742E-09
         0.70105E-09
         0.74114E-09
         0.71593E-09
         0.56257E-09
         0.35351E-09
         0.58364E-09
         0.77313E-09
         0.62371E-09
         0.54814E-09
         0.35908E-09
         0.61308E-09
         0.83280E-09
         0.87436E-09
         0.70597E-09
         0.43378E-09
         0.74823E-09
         0.27567E-09
         0.35138E-09
         0.32745E-09
         0.38779E-09
         0.37893E-09
         0.36794E-09
         0.39300E-09
         0.41596E-09
         0.39130E-09
         0.30477E-09
         0.24818E-09
         0.32008E-09
         0.42671E-09
         0.46921E-09
         0.44991E-09
         0.40537E-09
         0.36800E-09
         0.29885E-09
         0.25136E-09
         0.32862E-09
         0.43520E-09
         0.44963E-09
         0.36303E-09
         0.29472E-09
         0.36175E-09
         0.42759E-09
         0.91203E-09
         0.72233E-09
         0.77653E-09
         0.13392E-08
         0.71675E-09
         0.91547E-09
         0.50875E-09
         0.61094E-09
         0.10144E-08
         0.73952E-09
         0.29928E-09
         0.56892E-09
         0.62649E-09
         0.50478E-09
         0.64770E-09
         0.12068E-08
         0.94424E-09
         0.12008E-08
         0.70327E-09
         0.80391E-09
         0.75821E-09
         0.84055E-09
         0.64465E-09
         0.40035E-09
         0.75896E-09
         0.63282E-09
         0.65393E-09
         0.67210E-09
         0.58632E-09
         0.71543E-09
         0.91047E-09
         0.64208E-09
         0.10216E-08
         0.89084E-09
         0.40073E-09
         0.61730E-09
         0.70096E-09
         0.74108E-09
         0.71598E-09
         0.56259E-09
         0.35351E-09
         0.58356E-09
         0.77309E-09
         0.62362E-09
         0.54801E-09
         0.35898E-09
         0.61303E-09
         0.83281E-09
         0.87449E-09
         0.70611E-09
         0.43379E-09
         0.74860E-09
         0.27558E-09
         0.35137E-09
         0.32729E-09
         0.38781E-09
         0.37902E-09
         0.36802E-09
         0.39317E-09
         0.41625E-09
         0.39153E-09
         0.30484E-09
         0.24820E-09
         0.32009E-09
         0.42677E-09
         0.46932E-09
         0.44996E-09
         0.40536E-09
         0.36798E-09
         0.29883E-09
         0.25132E-09
         0.32859E-09
         0.43519E-09
         0.44963E-09
         0.36296E-09
         0.29465E-09
         0.36179E-09
         0.42758E-09
         0.91208E-09
         0.72218E-09
         0.77659E-09
         0.13399E-08
         0.71686E-09
         0.91576E-09
         0.50848E-09
         0.61058E-09
         0.10148E-08
         0.73903E-09
         0.29900E-09
         0.56882E-09
         0.62645E-09
         0.50408E-09
         0.64757E-09
         0.12072E-08
         0.94467E-09
         0.12014E-08
         0.70330E-09
         0.80401E-09
         0.75818E-09
         0.84059E-09
         0.64459E-09
         0.40031E-09
         0.75864E-09
         0.63277E-09
         0.65294E-09
         0.67143E-09
         0.58607E-09
         0.71527E-09
         0.91057E-09
         0.64200E-09
         0.10221E-08
         0.89164E-09
         0.40072E-09
         0.61719E-09
         0.70087E-09
         0.74103E-09
         0.71603E-09
         0.56262E-09
         0.35352E-09
         0.58348E-09
         0.77305E-09
         0.62354E-09
         0.54788E-09
         0.35889E-09
         0.61298E-09
         0.83282E-09
         0.87463E-09
         0.70626E-09
         0.43380E-09
         0.74897E-09
         0.27550E-09
         0.35137E-09
         0.32713E-09
         0.38782E-09
         0.37911E-09
         0.36810E-09
         0.39334E-09
         0.41655E-09
         0.39176E-09
         0.30491E-09
         0.24822E-09
         0.32010E-09
         0.42682E-09
         0.46942E-09
         0.45001E-09
         0.40534E-09
         0.36796E-09
         0.29881E-09
         0.25128E-09
         0.32857E-09
         0.43518E-09
         0.44963E-09
         0.36288E-09
         0.29459E-09
         0.36184E-09
         0.42757E-09
         0.91214E-09
         0.72204E-09
         0.77666E-09
         0.13405E-08
         0.71698E-09
         0.91604E-09
         0.50822E-09
         0.61022E-09
         0.10151E-08
         0.73855E-09
         0.29871E-09
         0.56872E-09
         0.62641E-09
         0.50337E-09
         0.64743E-09
         0.12075E-08
         0.94510E-09
         0.12020E-08
         0.70333E-09
         0.80411E-09
         0.75815E-09
         0.84063E-09
         0.64453E-09
         0.40027E-09
         0.75831E-09
         0.63272E-09
         0.65196E-09
         0.67077E-09
         0.58582E-09
         0.71511E-09
         0.91066E-09
         0.64192E-09
         0.10227E-08
         0.89245E-09
         0.40072E-09
         0.61707E-09
         0.70078E-09
         0.74098E-09
         0.71608E-09
         0.56265E-09
         0.35352E-09
         0.58340E-09
         0.77301E-09
         0.62345E-09
         0.54775E-09
         0.35880E-09
         0.61293E-09
         0.83283E-09
         0.87476E-09
         0.70641E-09
         0.43382E-09
         0.74935E-09
         0.27541E-09
         0.35136E-09
         0.32697E-09
         0.38784E-09
         0.37920E-09
         0.36818E-09
         0.39352E-09
         0.41685E-09
         0.39199E-09
         0.30498E-09
         0.24824E-09
         0.32011E-09
         0.42688E-09
         0.46953E-09
         0.45007E-09
         0.40533E-09
         0.36793E-09
         0.29878E-09
         0.25124E-09
         0.32855E-09
         0.43517E-09
         0.44963E-09
         0.36281E-09
         0.29452E-09
         0.36188E-09
         0.42756E-09
         0.91219E-09
         0.72188E-09
         0.77672E-09
         0.13412E-08
         0.71709E-09
         0.91632E-09
         0.50795E-09
         0.60986E-09
         0.10155E-08
         0.73806E-09
         0.29842E-09
         0.56862E-09
         0.62636E-09
         0.50266E-09
         0.64730E-09
         0.12079E-08
         0.94552E-09
         0.12026E-08
         0.70335E-09
         0.80421E-09
         0.75811E-09
         0.84066E-09
         0.64446E-09
         0.40023E-09
         0.75798E-09
         0.63267E-09
         0.65096E-09
         0.67010E-09
         0.58557E-09
         0.71494E-09
         0.91074E-09
         0.64184E-09
         0.10232E-08
         0.89325E-09
         0.40072E-09
         0.61695E-09
         0.70069E-09
         0.74092E-09
         0.71612E-09
         0.56268E-09
         0.35352E-09
         0.58332E-09
         0.77297E-09
         0.62336E-09
         0.54762E-09
         0.35871E-09
         0.61287E-09
         0.83284E-09
         0.87489E-09
         0.70655E-09
         0.43383E-09
         0.74972E-09
         0.27533E-09
         0.35136E-09
         0.32681E-09
         0.38785E-09
         0.37929E-09
         0.36825E-09
         0.39369E-09
         0.41715E-09
         0.39222E-09
         0.30505E-09
         0.24826E-09
         0.32011E-09
         0.42694E-09
         0.46963E-09
         0.45011E-09
         0.40532E-09
         0.36791E-09
         0.29876E-09
         0.25120E-09
         0.32853E-09
         0.43516E-09
         0.44962E-09
         0.36274E-09
         0.29445E-09
         0.36192E-09
         0.42755E-09
         0.91224E-09
         0.72173E-09
         0.77679E-09
         0.13418E-08
         0.71720E-09
         0.91660E-09
         0.50768E-09
         0.60949E-09
         0.10158E-08
         0.73758E-09
         0.29814E-09
         0.56852E-09
         0.62632E-09
         0.50195E-09
         0.64716E-09
         0.12082E-08
         0.94595E-09
         0.12032E-08
         0.70337E-09
         0.80431E-09
         0.75808E-09
         0.84069E-09
         0.64440E-09
         0.40018E-09
         0.75766E-09
         0.63262E-09
         0.64998E-09
         0.66943E-09
         0.58532E-09
         0.71478E-09
         0.91083E-09
         0.64176E-09
         0.10238E-08
         0.89406E-09
         0.40071E-09
         0.61683E-09
         0.70059E-09
         0.74087E-09
         0.71617E-09
         0.56270E-09
         0.35352E-09
         0.58324E-09
         0.77294E-09
         0.62327E-09
         0.54749E-09
         0.35861E-09
         0.61282E-09
         0.83284E-09
         0.87503E-09
         0.70669E-09
         0.43384E-09
         0.75009E-09
         0.27524E-09
         0.35135E-09
         0.32665E-09
         0.38786E-09
         0.37937E-09
         0.36833E-09
         0.39386E-09
         0.41745E-09
         0.39245E-09
         0.30512E-09
         0.24828E-09
         0.32012E-09
         0.42699E-09
         0.46974E-09
         0.45017E-09
         0.40531E-09
         0.36788E-09
         0.29873E-09
         0.25117E-09
         0.32850E-09
         0.43515E-09
         0.44962E-09
         0.36266E-09
         0.29439E-09
         0.36197E-09
         0.42754E-09
         0.91230E-09
         0.72159E-09
         0.77686E-09
         0.13425E-08
         0.71732E-09
         0.91688E-09
         0.50742E-09
         0.60913E-09
         0.10162E-08
         0.73710E-09
         0.29785E-09
         0.56842E-09
         0.62628E-09
         0.50125E-09
         0.64703E-09
         0.12086E-08
         0.94638E-09
         0.12038E-08
         0.70340E-09
         0.80441E-09
         0.75805E-09
         0.84073E-09
         0.64433E-09
         0.40014E-09
         0.75733E-09
         0.63257E-09
         0.64899E-09
         0.66877E-09
         0.58508E-09
         0.71462E-09
         0.91093E-09
         0.64169E-09
         0.10243E-08
         0.89487E-09
         0.40071E-09
         0.61671E-09
         0.70051E-09
         0.74082E-09
         0.71622E-09
         0.56273E-09
         0.35352E-09
         0.58316E-09
         0.77290E-09
         0.62318E-09
         0.54737E-09
         0.35852E-09
         0.61277E-09
         0.83286E-09
         0.87517E-09
         0.70684E-09
         0.43385E-09
         0.75047E-09
         0.27516E-09
         0.35135E-09
         0.32649E-09
         0.38788E-09
         0.37946E-09
         0.36841E-09
         0.39403E-09
         0.41775E-09
         0.39268E-09
         0.30519E-09
         0.24830E-09
         0.32013E-09
         0.42705E-09
         0.46985E-09
         0.45022E-09
         0.40530E-09
         0.36786E-09
         0.29871E-09
         0.25113E-09
         0.32848E-09
         0.43515E-09
         0.44962E-09
         0.36259E-09
         0.29433E-09
         0.36201E-09
         0.42753E-09
         0.91235E-09
         0.72143E-09
         0.77692E-09
         0.13431E-08
         0.71743E-09
         0.91716E-09
         0.50715E-09
         0.60877E-09
         0.10165E-08
         0.73661E-09
         0.29757E-09
         0.56832E-09
         0.62624E-09
         0.50054E-09
         0.64689E-09
         0.12089E-08
         0.94680E-09
         0.12044E-08
         0.70342E-09
         0.80450E-09
         0.75802E-09
         0.84076E-09
         0.64427E-09
         0.40010E-09
         0.75700E-09
         0.63251E-09
         0.64800E-09
         0.66810E-09
         0.58482E-09
         0.71445E-09
         0.91101E-09
         0.64161E-09
         0.10248E-08
         0.89567E-09
         0.40071E-09
         0.61659E-09
         0.70041E-09
         0.74077E-09
         0.71627E-09
         0.56276E-09
         0.35352E-09
         0.58308E-09
         0.77286E-09
         0.62309E-09
         0.54723E-09
         0.35843E-09
         0.61272E-09
         0.83287E-09
         0.87530E-09
         0.70698E-09
         0.43386E-09
         0.75084E-09
         0.27507E-09
         0.35134E-09
         0.32633E-09
         0.38789E-09
         0.37955E-09
         0.36849E-09
         0.39420E-09
         0.41804E-09
         0.39291E-09
         0.30525E-09
         0.24832E-09
         0.32014E-09
         0.42711E-09
         0.46995E-09
         0.45027E-09
         0.40528E-09
         0.36784E-09
         0.29869E-09
         0.25109E-09
         0.32845E-09
         0.43514E-09
         0.44962E-09
         0.36252E-09
         0.29426E-09
         0.36206E-09
         0.42751E-09
         0.91240E-09
         0.72128E-09
         0.77698E-09
         0.13437E-08
         0.71755E-09
         0.91744E-09
         0.50688E-09
         0.60841E-09
         0.10169E-08
         0.73612E-09
         0.29728E-09
         0.56822E-09
         0.62619E-09
         0.49984E-09
         0.64676E-09
         0.12093E-08
         0.94723E-09
         0.12050E-08
         0.70345E-09
         0.80460E-09
         0.75798E-09
         0.84080E-09
         0.64420E-09
         0.40006E-09
         0.75667E-09
         0.63246E-09
         0.64701E-09
         0.66744E-09
         0.58457E-09
         0.71429E-09
         0.91110E-09
         0.64153E-09
         0.10254E-08
         0.89648E-09
         0.40070E-09
         0.61647E-09
         0.70032E-09
         0.74071E-09
         0.71632E-09
         0.56279E-09
         0.35353E-09
         0.58300E-09
         0.77282E-09
         0.62300E-09
         0.54710E-09
         0.35834E-09
         0.61266E-09
         0.83288E-09
         0.87543E-09
         0.70713E-09
         0.43387E-09
         0.75122E-09
         0.27499E-09
         0.35133E-09
         0.32617E-09
         0.38790E-09
         0.37964E-09
         0.36857E-09
         0.39437E-09
         0.41834E-09
         0.39314E-09
         0.30532E-09
         0.24834E-09
         0.32014E-09
         0.42716E-09
         0.47005E-09
         0.45032E-09
         0.40527E-09
         0.36781E-09
         0.29866E-09
         0.25105E-09
         0.32843E-09
         0.43513E-09
         0.44962E-09
         0.36244E-09
         0.29419E-09
         0.36210E-09
         0.42750E-09
         0.91246E-09
         0.72114E-09
         0.77705E-09
         0.13444E-08
         0.71767E-09
         0.91773E-09
         0.50662E-09
         0.60805E-09
         0.10173E-08
         0.73564E-09
         0.29700E-09
         0.56812E-09
         0.62616E-09
         0.49914E-09
         0.64663E-09
         0.12097E-08
         0.94766E-09
         0.12056E-08
         0.70348E-09
         0.80471E-09
         0.75796E-09
         0.84084E-09
         0.64414E-09
         0.40002E-09
         0.75635E-09
         0.63241E-09
         0.64603E-09
         0.66678E-09
         0.58433E-09
         0.71413E-09
         0.91120E-09
         0.64146E-09
         0.10259E-08
         0.89729E-09
         0.40070E-09
         0.61636E-09
         0.70023E-09
         0.74067E-09
         0.71637E-09
         0.56282E-09
         0.35353E-09
         0.58293E-09
         0.77279E-09
         0.62291E-09
         0.54698E-09
         0.35825E-09
         0.61261E-09
         0.83289E-09
         0.87557E-09
         0.70728E-09
         0.43389E-09
         0.75160E-09
         0.27491E-09
         0.35133E-09
         0.32601E-09
         0.38792E-09
         0.37972E-09
         0.36865E-09
         0.39454E-09
         0.41864E-09
         0.39337E-09
         0.30539E-09
         0.24836E-09
         0.32015E-09
         0.42722E-09
         0.47016E-09
         0.45038E-09
         0.40526E-09
         0.36779E-09
         0.29864E-09
         0.25101E-09
         0.32841E-09
         0.43512E-09
         0.44962E-09
         0.36237E-09
         0.29413E-09
         0.36215E-09
         0.42750E-09
         0.91249E-09
         0.72097E-09
         0.77710E-09
         0.13450E-08
         0.71777E-09
         0.91799E-09
         0.50634E-09
         0.60767E-09
         0.10176E-08
         0.73514E-09
         0.29670E-09
         0.56801E-09
         0.62610E-09
         0.49842E-09
         0.64648E-09
         0.12100E-08
         0.94806E-09
         0.12062E-08
         0.70349E-09
         0.80479E-09
         0.75791E-09
         0.84086E-09
         0.64406E-09
         0.39997E-09
         0.75600E-09
         0.63234E-09
         0.64503E-09
         0.66610E-09
         0.58407E-09
         0.71395E-09
         0.91127E-09
         0.64136E-09
         0.10264E-08
         0.89808E-09
         0.40069E-09
         0.61622E-09
         0.70012E-09
         0.74060E-09
         0.71641E-09
         0.56283E-09
         0.35352E-09
         0.58283E-09
         0.77273E-09
         0.62281E-09
         0.54684E-09
         0.35815E-09
         0.61255E-09
         0.83288E-09
         0.87569E-09
         0.70741E-09
         0.43389E-09
         0.75195E-09
         0.27482E-09
         0.35132E-09
         0.32584E-09
         0.38793E-09
         0.37980E-09
         0.36872E-09
         0.39470E-09
         0.41893E-09
         0.39360E-09
         0.30545E-09
         0.24837E-09
         0.32016E-09
         0.42727E-09
         0.47026E-09
         0.45042E-09
         0.40524E-09
         0.36776E-09
         0.29861E-09
         0.25097E-09
         0.32838E-09
         0.43510E-09
         0.44961E-09
         0.36229E-09
         0.29406E-09
         0.36218E-09
         0.42748E-09
         0.91256E-09
         0.72083E-09
         0.77718E-09
         0.13457E-08
         0.71789E-09
         0.91829E-09
         0.50608E-09
         0.60732E-09
         0.10180E-08
         0.73467E-09
         0.29642E-09
         0.56792E-09
         0.62607E-09
         0.49772E-09
         0.64636E-09
         0.12103E-08
         0.94850E-09
         0.12068E-08
         0.70352E-09
         0.80490E-09
         0.75789E-09
         0.84091E-09
         0.64401E-09
         0.39993E-09
         0.75569E-09
         0.63230E-09
         0.64405E-09
         0.66544E-09
         0.58382E-09
         0.71379E-09
         0.91137E-09
         0.64129E-09
         0.10270E-08
         0.89890E-09
         0.40069E-09
         0.61611E-09
         0.70004E-09
         0.74056E-09
         0.71646E-09
         0.56287E-09
         0.35353E-09
         0.58276E-09
         0.77271E-09
         0.62273E-09
         0.54672E-09
         0.35806E-09
         0.61251E-09
         0.83291E-09
         0.87583E-09
         0.70756E-09
         0.43391E-09
         0.75234E-09
         0.27474E-09
         0.35132E-09
         0.32569E-09
         0.38794E-09
         0.37990E-09
         0.36881E-09
         0.39488E-09
         0.41923E-09
         0.39383E-09
         0.30553E-09
         0.24840E-09
         0.32017E-09
         0.42734E-09
         0.47037E-09
         0.45048E-09
         0.40524E-09
         0.36774E-09
         0.29859E-09
         0.25093E-09
         0.32836E-09
         0.43510E-09
         0.44962E-09
         0.36222E-09
         0.29400E-09
         0.36223E-09
         0.42747E-09
         0.45631E-09
         0.36039E-09
         0.38862E-09
         0.67302E-09
         0.35899E-09
         0.45923E-09
         0.25298E-09
         0.30358E-09
         0.50909E-09
         0.36723E-09
         0.14815E-09
         0.28394E-09
         0.31303E-09
         0.24869E-09
         0.32316E-09
         0.60528E-09
         0.47437E-09
         0.60357E-09
         0.35178E-09
         0.40249E-09
         0.37895E-09
         0.42048E-09
         0.32200E-09
         0.19996E-09
         0.37777E-09
         0.31615E-09
         0.32179E-09
         0.33257E-09
         0.29186E-09
         0.35687E-09
         0.45572E-09
         0.32064E-09
         0.51365E-09
         0.44967E-09
         0.20035E-09
         0.30804E-09
         0.35001E-09
         0.37028E-09
         0.35826E-09
         0.28145E-09
         0.17677E-09
         0.29137E-09
         0.38636E-09
         0.31135E-09
         0.27333E-09
         0.17901E-09
         0.30625E-09
         0.41647E-09
         0.43797E-09
         0.35383E-09
         0.21697E-09
         0.37628E-09
         0.13735E-09
         0.17566E-09
         0.16281E-09
         0.19398E-09
         0.18998E-09
         0.18443E-09
         0.19749E-09
         0.20970E-09
         0.19698E-09
         0.15279E-09
         0.12421E-09
         0.16009E-09
         0.21369E-09
         0.23522E-09
         0.22526E-09
         0.20262E-09
         0.18387E-09
         0.14930E-09
         0.12546E-09
         0.16418E-09
         0.21756E-09
         0.22482E-09
         0.18110E-09
         0.14699E-09
         0.18113E-09
         0.21374E-09
  
SCALARS               pre_disp_force_x  double 1
LOOKUP_TABLE default
         0.00000E+00
         0.00000E+00
         0.00000E+00
         0.00000E+00
         0.00000E+00
         0.00000E+00
         0.00000E+00
         0.00000E+00
         0.00000E+00
         0.00000E+00
         0.00000E+00
         0.00000E+00
         0.00000E+00
         0.00000E+00
         0.00000E+00
         0.00000E+00
         0.00000E+00
         0.00000E+00
         0.00000E+00
         0.00000E+00
         0.00000E+00
         0.00000E+00
         0.00000E+00
         0.00000E+00
         0.00000E+00
         0.00000E+00
         0.00000E+00
         0.00000E+00
         0.00000E+00
         0.00000E+00
         0.00000E+00
         0.00000E+00
         0.00000E+00
         0.00000E+00
         0.00000E+00
         0.00000E+00
         0.00000E+00
         0.00000E+00
         0.00000E+00
         0.00000E+00
         0.00000E+00
         0.00000E+00
         0.00000E+00
         0.00000E+00
         0.00000E+00
         0.00000E+00
         0.00000E+00
         0.00000E+00
         0.00000E+00
         0.00000E+00
         0.00000E+00
         0.00000E+00
         0.00000E+00
         0.00000E+00
         0.00000E+00
         0.00000E+00
         0.00000E+00
         0.00000E+00
         0.00000E+00
         0.00000E+00
         0.00000E+00
         0.00000E+00
         0.00000E+00
         0.00000E+00
         0.00000E+00
         0.00000E+00
         0.00000E+00
         0.00000E+00
         0.00000E+00
         0.00000E+00
         0.00000E+00
         0.00000E+00
         0.00000E+00
         0.00000E+00
         0.00000E+00
         0.00000E+00
         0.00000E+00
         0.00000E+00
         0.00000E+00
         0.00000E+00
         0.00000E+00
         0.00000E+00
         0.00000E+00
         0.00000E+00
         0.00000E+00
         0.00000E+00
         0.00000E+00
         0.00000E+00
         0.00000E+00
         0.00000E+00
         0.00000E+00
         0.00000E+00
         0.00000E+00
         0.00000E+00
         0.00000E+00
         0.00000E+00
         0.00000E+00
         0.00000E+00
         0.00000E+00
         0.00000E+00
         0.00000E+00
         0.00000E+00
         0.00000E+00
         0.00000E+00
         0.00000E+00
         0.00000E+00
         0.00000E+00
         0.00000E+00
         0.00000E+00
         0.00000E+00
         0.00000E+00
         0.00000E+00
         0.00000E+00
         0.00000E+00
         0.00000E+00
         0.00000E+00
         0.00000E+00
         0.00000E+00
         0.00000E+00
         0.00000E+00
         0.00000E+00
         0.00000E+00
         0.00000E+00
         0.00000E+00
         0.00000E+00
         0.00000E+00
         0.00000E+00
         0.00000E+00
         0.00000E+00
         0.00000E+00
         0.00000E+00
         0.00000E+00
         0.00000E+00
         0.00000E+00
         0.00000E+00
         0.00000E+00
         0.00000E+00
         0.00000E+00
         0.00000E+00
         0.00000E+00
         0.00000E+00
         0.00000E+00
         0.00000E+00
         0.00000E+00
         0.00000E+00
         0.00000E+00
         0.00000E+00
         0.00000E+00
         0.00000E+00
         0.00000E+00
         0.00000E+00
         0.00000E+00
         0.00000E+00
         0.00000E+00
         0.00000E+00
         0.00000E+00
         0.00000E+00
         0.00000E+00
         0.00000E+00
         0.00000E+00
         0.00000E+00
         0.00000E+00
         0.00000E+00
         0.00000E+00
         0.00000E+00
         0.00000E+00
         0.00000E+00
         0.00000E+00
         0.00000E+00
         0.00000E+00
         0.00000E+00
         0.00000E+00
         0.00000E+00
         0.00000E+00
         0.00000E+00
         0.00000E+00
         0.00000E+00
         0.00000E+00
         0.00000E+00
         0.00000E+00
         0.00000E+00
         0.00000E+00
         0.00000E+00
         0.00000E+00
         0.00000E+00
         0.00000E+00
         0.00000E+00
         0.00000E+00
         0.00000E+00
         0.00000E+00
         0.00000E+00
         0.00000E+00
         0.00000E+00
         0.00000E+00
         0.00000E+00
         0.00000E+00
         0.00000E+00
         0.00000E+00
         0.00000E+00
         0.00000E+00
         0.00000E+00
         0.00000E+00
         0.00000E+00
         0.00000E+00
         0.00000E+00
         0.00000E+00
         0.00000E+00
         0.00000E+00
         0.00000E+00
         0.00000E+00
         0.00000E+00
         0.00000E+00
         0.00000E+00
         0.00000E+00
         0.00000E+00
         0.00000E+00
         0.00000E+00
         0.00000E+00
         0.00000E+00
         0.00000E+00
         0.00000E+00
         0.00000E+00
         0.00000E+00
         0.00000E+00
         0.00000E+00
         0.00000E+00
         0.00000E+00
         0.00000E+00
         0.00000E+00
         0.00000E+00
         0.00000E+00
         0.00000E+00
         0.00000E+00
         0.00000E+00
         0.00000E+00
         0.00000E+00
         0.00000E+00
         0.00000E+00
         0.00000E+00
         0.00000E+00
         0.00000E+00
         0.00000E+00
         0.00000E+00
         0.00000E+00
         0.00000E+00
         0.00000E+00
         0.00000E+00
         0.00000E+00
         0.00000E+00
         0.00000E+00
         0.00000E+00
         0.00000E+00
         0.00000E+00
         0.00000E+00
         0.00000E+00
         0.00000E+00
         0.00000E+00
         0.00000E+00
         0.00000E+00
         0.00000E+00
         0.00000E+00
         0.00000E+00
         0.00000E+00
         0.00000E+00
         0.00000E+00
         0.00000E+00
         0.00000E+00
         0.00000E+00
         0.00000E+00
         0.00000E+00
         0.00000E+00
         0.00000E+00
         0.00000E+00
         0.00000E+00
         0.00000E+00
         0.00000E+00
         0.00000E+00
         0.00000E+00
         0.00000E+00
         0.00000E+00
         0.00000E+00
         0.00000E+00
         0.00000E+00
         0.00000E+00
         0.00000E+00
         0.00000E+00
         0.00000E+00
         0.00000E+00
         0.00000E+00
         0.00000E+00
         0.00000E+00
         0.00000E+00
         0.00000E+00
         0.00000E+00
         0.00000E+00
         0.00000E+00
         0.00000E+00
         0.00000E+00
         0.00000E+00
         0.00000E+00
         0.00000E+00
         0.00000E+00
         0.00000E+00
         0.00000E+00
         0.00000E+00
         0.00000E+00
         0.00000E+00
         0.00000E+00
         0.00000E+00
         0.00000E+00
         0.00000E+00
         0.00000E+00
         0.00000E+00
         0.00000E+00
         0.00000E+00
         0.00000E+00
         0.00000E+00
         0.00000E+00
         0.00000E+00
         0.00000E+00
         0.00000E+00
         0.00000E+00
         0.00000E+00
         0.00000E+00
         0.00000E+00
         0.00000E+00
         0.00000E+00
         0.00000E+00
         0.00000E+00
         0.00000E+00
         0.00000E+00
         0.00000E+00
         0.00000E+00
         0.00000E+00
         0.00000E+00
         0.00000E+00
         0.00000E+00
         0.00000E+00
         0.00000E+00
         0.00000E+00
         0.00000E+00
         0.00000E+00
         0.00000E+00
         0.00000E+00
         0.00000E+00
         0.00000E+00
         0.00000E+00
         0.00000E+00
         0.00000E+00
         0.00000E+00
         0.00000E+00
         0.00000E+00
         0.00000E+00
         0.00000E+00
         0.00000E+00
         0.00000E+00
         0.00000E+00
         0.00000E+00
         0.00000E+00
         0.00000E+00
         0.00000E+00
         0.00000E+00
         0.00000E+00
         0.00000E+00
         0.00000E+00
         0.00000E+00
         0.00000E+00
         0.00000E+00
         0.00000E+00
         0.00000E+00
         0.00000E+00
         0.00000E+00
         0.00000E+00
         0.00000E+00
         0.00000E+00
         0.00000E+00
         0.00000E+00
         0.00000E+00
         0.00000E+00
         0.00000E+00
         0.00000E+00
         0.00000E+00
         0.00000E+00
         0.00000E+00
         0.00000E+00
         0.00000E+00
         0.00000E+00
         0.00000E+00
         0.00000E+00
         0.00000E+00
         0.00000E+00
         0.00000E+00
         0.00000E+00
         0.00000E+00
         0.00000E+00
         0.00000E+00
         0.00000E+00
         0.00000E+00
         0.00000E+00
         0.00000E+00
         0.00000E+00
         0.00000E+00
         0.00000E+00
         0.00000E+00
         0.00000E+00
         0.00000E+00
         0.00000E+00
         0.00000E+00
         0.00000E+00
         0.00000E+00
         0.00000E+00
         0.00000E+00
         0.00000E+00
         0.00000E+00
         0.00000E+00
         0.00000E+00
         0.00000E+00
         0.00000E+00
         0.00000E+00
         0.00000E+00
         0.00000E+00
         0.00000E+00
         0.00000E+00
         0.00000E+00
         0.00000E+00
         0.00000E+00
         0.00000E+00
         0.00000E+00
         0.00000E+00
         0.00000E+00
         0.00000E+00
         0.00000E+00
         0.00000E+00
         0.00000E+00
         0.00000E+00
         0.00000E+00
         0.00000E+00
         0.00000E+00
         0.00000E+00
         0.00000E+00
         0.00000E+00
         0.00000E+00
         0.00000E+00
         0.00000E+00
         0.00000E+00
         0.00000E+00
         0.00000E+00
         0.00000E+00
         0.00000E+00
         0.00000E+00
         0.00000E+00
         0.00000E+00
         0.00000E+00
         0.00000E+00
         0.00000E+00
         0.00000E+00
         0.00000E+00
         0.00000E+00
         0.00000E+00
         0.00000E+00
         0.00000E+00
         0.00000E+00
         0.00000E+00
         0.00000E+00
         0.00000E+00
         0.00000E+00
         0.00000E+00
         0.00000E+00
         0.00000E+00
         0.00000E+00
         0.00000E+00
         0.00000E+00
         0.00000E+00
         0.00000E+00
         0.00000E+00
         0.00000E+00
         0.00000E+00
         0.00000E+00
         0.00000E+00
         0.00000E+00
         0.00000E+00
         0.00000E+00
         0.00000E+00
         0.00000E+00
         0.00000E+00
         0.00000E+00
         0.00000E+00
         0.00000E+00
         0.00000E+00
         0.00000E+00
         0.00000E+00
         0.00000E+00
         0.00000E+00
         0.00000E+00
         0.00000E+00
         0.00000E+00
         0.00000E+00
         0.00000E+00
         0.00000E+00
         0.00000E+00
         0.00000E+00
         0.00000E+00
         0.00000E+00
         0.00000E+00
         0.00000E+00
         0.00000E+00
         0.00000E+00
         0.00000E+00
         0.00000E+00
         0.00000E+00
         0.00000E+00
         0.00000E+00
         0.00000E+00
         0.00000E+00
         0.00000E+00
         0.00000E+00
         0.00000E+00
         0.00000E+00
         0.00000E+00
         0.00000E+00
         0.00000E+00
         0.00000E+00
         0.00000E+00
         0.00000E+00
         0.00000E+00
         0.00000E+00
         0.00000E+00
         0.00000E+00
         0.00000E+00
         0.00000E+00
         0.00000E+00
         0.00000E+00
         0.00000E+00
         0.00000E+00
         0.00000E+00
         0.00000E+00
         0.00000E+00
         0.00000E+00
         0.00000E+00
         0.00000E+00
         0.00000E+00
         0.00000E+00
         0.00000E+00
         0.00000E+00
         0.00000E+00
         0.00000E+00
         0.00000E+00
         0.00000E+00
         0.00000E+00
         0.00000E+00
         0.00000E+00
         0.00000E+00
         0.00000E+00
         0.00000E+00
         0.00000E+00
         0.00000E+00
         0.00000E+00
         0.00000E+00
         0.00000E+00
         0.00000E+00
         0.00000E+00
         0.00000E+00
         0.00000E+00
         0.00000E+00
         0.00000E+00
         0.00000E+00
         0.00000E+00
         0.00000E+00
         0.00000E+00
         0.00000E+00
         0.00000E+00
         0.00000E+00
         0.00000E+00
         0.00000E+00
         0.00000E+00
         0.00000E+00
         0.00000E+00
         0.00000E+00
         0.00000E+00
         0.00000E+00
         0.00000E+00
         0.00000E+00
         0.00000E+00
         0.00000E+00
         0.00000E+00
         0.00000E+00
         0.00000E+00
         0.00000E+00
         0.00000E+00
         0.00000E+00
         0.00000E+00
         0.00000E+00
         0.00000E+00
         0.00000E+00
         0.00000E+00
         0.00000E+00
         0.00000E+00
         0.00000E+00
         0.00000E+00
         0.00000E+00
         0.00000E+00
         0.00000E+00
         0.00000E+00
         0.00000E+00
         0.00000E+00
         0.00000E+00
         0.00000E+00
         0.00000E+00
         0.00000E+00
         0.00000E+00
         0.00000E+00
         0.00000E+00
         0.00000E+00
         0.00000E+00
         0.00000E+00
         0.00000E+00
         0.00000E+00
         0.00000E+00
         0.00000E+00
         0.00000E+00
         0.00000E+00
         0.00000E+00
         0.00000E+00
         0.00000E+00
         0.00000E+00
         0.00000E+00
         0.00000E+00
         0.00000E+00
         0.00000E+00
         0.00000E+00
         0.00000E+00
         0.00000E+00
         0.00000E+00
         0.00000E+00
         0.00000E+00
         0.00000E+00
         0.00000E+00
         0.00000E+00
         0.00000E+00
         0.00000E+00
         0.00000E+00
         0.00000E+00
         0.00000E+00
         0.00000E+00
         0.00000E+00
         0.00000E+00
         0.00000E+00
         0.00000E+00
         0.00000E+00
         0.00000E+00
         0.00000E+00
         0.00000E+00
         0.00000E+00
         0.00000E+00
         0.00000E+00
         0.00000E+00
         0.00000E+00
         0.00000E+00
         0.00000E+00
         0.00000E+00
         0.00000E+00
         0.00000E+00
         0.00000E+00
         0.00000E+00
         0.00000E+00
         0.00000E+00
         0.00000E+00
         0.00000E+00
         0.00000E+00
         0.00000E+00
         0.00000E+00
         0.00000E+00
         0.00000E+00
         0.00000E+00
         0.00000E+00
         0.00000E+00
         0.00000E+00
         0.00000E+00
         0.00000E+00
         0.00000E+00
         0.00000E+00
         0.00000E+00
         0.00000E+00
         0.00000E+00
         0.00000E+00
         0.00000E+00
         0.00000E+00
         0.00000E+00
         0.00000E+00
         0.00000E+00
         0.00000E+00
         0.00000E+00
         0.00000E+00
         0.00000E+00
         0.00000E+00
         0.00000E+00
         0.00000E+00
         0.00000E+00
         0.00000E+00
         0.00000E+00
         0.00000E+00
         0.00000E+00
         0.00000E+00
         0.00000E+00
         0.00000E+00
         0.00000E+00
         0.00000E+00
         0.00000E+00
         0.00000E+00
         0.00000E+00
         0.00000E+00
         0.00000E+00
         0.00000E+00
         0.00000E+00
         0.00000E+00
         0.00000E+00
         0.00000E+00
         0.00000E+00
         0.00000E+00
         0.00000E+00
         0.00000E+00
         0.00000E+00
         0.00000E+00
         0.00000E+00
         0.00000E+00
         0.00000E+00
         0.00000E+00
         0.00000E+00
         0.00000E+00
         0.00000E+00
         0.00000E+00
         0.00000E+00
         0.00000E+00
         0.00000E+00
         0.00000E+00
         0.00000E+00
         0.00000E+00
         0.00000E+00
         0.00000E+00
         0.00000E+00
         0.00000E+00
         0.00000E+00
         0.00000E+00
         0.00000E+00
         0.00000E+00
         0.00000E+00
         0.00000E+00
         0.00000E+00
         0.00000E+00
         0.00000E+00
         0.00000E+00
         0.00000E+00
         0.00000E+00
         0.00000E+00
         0.00000E+00
         0.00000E+00
         0.00000E+00
         0.00000E+00
         0.00000E+00
         0.00000E+00
         0.00000E+00
         0.00000E+00
         0.00000E+00
         0.00000E+00
         0.00000E+00
         0.00000E+00
         0.00000E+00
         0.00000E+00
         0.00000E+00
         0.00000E+00
         0.00000E+00
         0.00000E+00
         0.00000E+00
         0.00000E+00
         0.00000E+00
         0.00000E+00
         0.00000E+00
         0.00000E+00
         0.00000E+00
         0.00000E+00
         0.00000E+00
         0.00000E+00
         0.00000E+00
         0.00000E+00
         0.00000E+00
         0.00000E+00
         0.00000E+00
         0.00000E+00
         0.00000E+00
         0.00000E+00
         0.00000E+00
         0.00000E+00
         0.00000E+00
         0.00000E+00
         0.00000E+00
         0.00000E+00
         0.00000E+00
         0.00000E+00
         0.00000E+00
         0.00000E+00
         0.00000E+00
         0.00000E+00
         0.00000E+00
         0.00000E+00
         0.00000E+00
         0.00000E+00
         0.00000E+00
         0.00000E+00
         0.00000E+00
         0.00000E+00
         0.00000E+00
         0.00000E+00
         0.00000E+00
         0.00000E+00
         0.00000E+00
         0.00000E+00
         0.00000E+00
         0.00000E+00
         0.00000E+00
         0.00000E+00
         0.00000E+00
         0.00000E+00
         0.00000E+00
         0.00000E+00
         0.00000E+00
         0.00000E+00
         0.00000E+00
         0.00000E+00
         0.00000E+00
         0.00000E+00
         0.00000E+00
         0.00000E+00
         0.00000E+00
         0.00000E+00
         0.00000E+00
         0.00000E+00
         0.00000E+00
         0.00000E+00
         0.00000E+00
         0.00000E+00
         0.00000E+00
         0.00000E+00
         0.00000E+00
         0.00000E+00
         0.00000E+00
         0.00000E+00
         0.00000E+00
         0.00000E+00
         0.00000E+00
         0.00000E+00
         0.00000E+00
         0.00000E+00
         0.00000E+00
         0.00000E+00
         0.00000E+00
         0.00000E+00
         0.00000E+00
         0.00000E+00
         0.00000E+00
         0.00000E+00
         0.00000E+00
         0.00000E+00
         0.00000E+00
         0.00000E+00
         0.00000E+00
         0.00000E+00
         0.00000E+00
         0.00000E+00
         0.00000E+00
         0.00000E+00
         0.00000E+00
         0.00000E+00
         0.00000E+00
         0.00000E+00
         0.00000E+00
         0.00000E+00
         0.00000E+00
         0.00000E+00
         0.00000E+00
         0.00000E+00
         0.00000E+00
         0.00000E+00
         0.00000E+00
         0.00000E+00
         0.00000E+00
         0.00000E+00
         0.00000E+00
         0.00000E+00
         0.00000E+00
         0.00000E+00
         0.00000E+00
         0.00000E+00
         0.00000E+00
         0.00000E+00
         0.00000E+00
         0.00000E+00
         0.00000E+00
         0.00000E+00
         0.00000E+00
         0.00000E+00
         0.00000E+00
         0.00000E+00
         0.00000E+00
         0.00000E+00
         0.00000E+00
         0.00000E+00
         0.00000E+00
         0.00000E+00
         0.00000E+00
         0.00000E+00
         0.00000E+00
         0.00000E+00
         0.00000E+00
         0.00000E+00
         0.00000E+00
         0.00000E+00
         0.00000E+00
         0.00000E+00
         0.00000E+00
         0.00000E+00
         0.00000E+00
         0.00000E+00
         0.00000E+00
         0.00000E+00
         0.00000E+00
         0.00000E+00
         0.00000E+00
         0.00000E+00
         0.00000E+00
         0.00000E+00
         0.00000E+00
         0.00000E+00
         0.00000E+00
         0.00000E+00
         0.00000E+00
         0.00000E+00
         0.00000E+00
         0.00000E+00
         0.00000E+00
         0.00000E+00
         0.00000E+00
         0.00000E+00
         0.00000E+00
         0.00000E+00
         0.00000E+00
         0.00000E+00
         0.00000E+00
         0.00000E+00
         0.00000E+00
         0.00000E+00
         0.00000E+00
         0.00000E+00
         0.00000E+00
         0.00000E+00
         0.00000E+00
         0.00000E+00
         0.00000E+00
         0.00000E+00
         0.00000E+00
         0.00000E+00
         0.00000E+00
         0.00000E+00
         0.00000E+00
         0.00000E+00
         0.00000E+00
         0.00000E+00
         0.00000E+00
         0.00000E+00
         0.00000E+00
         0.00000E+00
         0.00000E+00
         0.00000E+00
         0.00000E+00
         0.00000E+00
         0.00000E+00
         0.00000E+00
         0.00000E+00
         0.00000E+00
         0.00000E+00
         0.00000E+00
         0.00000E+00
         0.00000E+00
         0.00000E+00
         0.00000E+00
         0.00000E+00
         0.00000E+00
         0.00000E+00
         0.00000E+00
         0.00000E+00
         0.00000E+00
         0.00000E+00
         0.00000E+00
         0.00000E+00
         0.00000E+00
         0.00000E+00
         0.00000E+00
         0.00000E+00
         0.00000E+00
         0.00000E+00
         0.00000E+00
         0.00000E+00
         0.00000E+00
         0.00000E+00
         0.00000E+00
         0.00000E+00
         0.00000E+00
         0.00000E+00
         0.00000E+00
         0.00000E+00
         0.00000E+00
         0.00000E+00
         0.00000E+00
         0.00000E+00
         0.00000E+00
         0.00000E+00
         0.00000E+00
         0.00000E+00
         0.00000E+00
         0.00000E+00
         0.00000E+00
         0.00000E+00
         0.00000E+00
         0.00000E+00
         0.00000E+00
         0.00000E+00
         0.00000E+00
         0.00000E+00
         0.00000E+00
         0.00000E+00
         0.00000E+00
         0.00000E+00
         0.00000E+00
         0.00000E+00
         0.00000E+00
         0.00000E+00
         0.00000E+00
         0.00000E+00
         0.00000E+00
         0.00000E+00
         0.00000E+00
         0.00000E+00
         0.00000E+00
         0.00000E+00
         0.00000E+00
         0.00000E+00
         0.00000E+00
         0.00000E+00
         0.00000E+00
         0.00000E+00
         0.00000E+00
         0.00000E+00
         0.00000E+00
         0.00000E+00
         0.00000E+00
         0.00000E+00
         0.00000E+00
         0.00000E+00
         0.00000E+00
         0.00000E+00
         0.00000E+00
         0.00000E+00
         0.00000E+00
         0.00000E+00
         0.00000E+00
         0.00000E+00
         0.00000E+00
         0.00000E+00
         0.00000E+00
         0.00000E+00
         0.00000E+00
         0.00000E+00
         0.00000E+00
         0.00000E+00
         0.00000E+00
         0.00000E+00
         0.00000E+00
         0.00000E+00
         0.00000E+00
         0.00000E+00
         0.00000E+00
         0.00000E+00
         0.00000E+00
         0.00000E+00
         0.00000E+00
         0.00000E+00
         0.00000E+00
         0.00000E+00
         0.00000E+00
         0.00000E+00
         0.00000E+00
         0.00000E+00
         0.00000E+00
         0.00000E+00
         0.00000E+00
         0.00000E+00
         0.00000E+00
         0.00000E+00
         0.00000E+00
         0.00000E+00
         0.00000E+00
         0.00000E+00
         0.00000E+00
         0.00000E+00
         0.00000E+00
         0.00000E+00
         0.00000E+00
         0.00000E+00
         0.00000E+00
         0.00000E+00
         0.00000E+00
         0.00000E+00
         0.00000E+00
         0.00000E+00
         0.00000E+00
         0.00000E+00
         0.00000E+00
         0.00000E+00
         0.00000E+00
         0.00000E+00
         0.00000E+00
         0.00000E+00
         0.00000E+00
         0.00000E+00
         0.00000E+00
         0.00000E+00
         0.00000E+00
         0.00000E+00
         0.00000E+00
         0.00000E+00
         0.00000E+00
         0.00000E+00
         0.00000E+00
         0.00000E+00
         0.00000E+00
         0.00000E+00
         0.00000E+00
         0.00000E+00
         0.00000E+00
         0.00000E+00
         0.00000E+00
         0.00000E+00
         0.00000E+00
         0.00000E+00
         0.00000E+00
         0.00000E+00
         0.00000E+00
         0.00000E+00
         0.00000E+00
         0.00000E+00
         0.00000E+00
         0.00000E+00
         0.00000E+00
         0.00000E+00
         0.00000E+00
         0.00000E+00
         0.00000E+00
         0.00000E+00
         0.00000E+00
         0.00000E+00
         0.00000E+00
         0.00000E+00
         0.00000E+00
         0.00000E+00
         0.00000E+00
         0.00000E+00
         0.00000E+00
         0.00000E+00
         0.00000E+00
         0.00000E+00
         0.00000E+00
         0.00000E+00
         0.00000E+00
         0.00000E+00
         0.00000E+00
         0.00000E+00
         0.00000E+00
         0.00000E+00
         0.00000E+00
         0.00000E+00
         0.00000E+00
         0.00000E+00
         0.00000E+00
         0.00000E+00
         0.00000E+00
         0.00000E+00
         0.00000E+00
         0.00000E+00
         0.00000E+00
         0.00000E+00
         0.00000E+00
         0.00000E+00
         0.00000E+00
         0.00000E+00
         0.00000E+00
         0.00000E+00
         0.00000E+00
         0.00000E+00
         0.00000E+00
         0.00000E+00
         0.00000E+00
         0.00000E+00
         0.00000E+00
         0.00000E+00
         0.00000E+00
         0.00000E+00
         0.00000E+00
         0.00000E+00
         0.00000E+00
         0.00000E+00
         0.00000E+00
         0.00000E+00
         0.00000E+00
         0.00000E+00
         0.00000E+00
         0.00000E+00
         0.00000E+00
         0.00000E+00
         0.00000E+00
         0.00000E+00
         0.00000E+00
         0.00000E+00
         0.00000E+00
         0.00000E+00
         0.00000E+00
         0.00000E+00
         0.00000E+00
         0.00000E+00
         0.00000E+00
         0.00000E+00
         0.00000E+00
         0.00000E+00
         0.00000E+00
         0.00000E+00
         0.00000E+00
         0.00000E+00
         0.00000E+00
         0.00000E+00
         0.00000E+00
         0.00000E+00
         0.00000E+00
         0.00000E+00
         0.00000E+00
         0.00000E+00
         0.00000E+00
         0.00000E+00
         0.00000E+00
         0.00000E+00
         0.00000E+00
         0.00000E+00
         0.00000E+00
         0.00000E+00
         0.00000E+00
         0.00000E+00
         0.00000E+00
         0.00000E+00
         0.00000E+00
         0.00000E+00
         0.00000E+00
         0.00000E+00
         0.00000E+00
         0.00000E+00
         0.00000E+00
         0.00000E+00
         0.00000E+00
         0.00000E+00
         0.00000E+00
         0.00000E+00
         0.00000E+00
         0.00000E+00
         0.00000E+00
         0.00000E+00
         0.00000E+00
         0.00000E+00
         0.00000E+00
         0.00000E+00
         0.00000E+00
         0.00000E+00
         0.00000E+00
         0.00000E+00
         0.00000E+00
         0.00000E+00
         0.00000E+00
         0.00000E+00
         0.00000E+00
         0.00000E+00
         0.00000E+00
         0.00000E+00
         0.00000E+00
         0.00000E+00
         0.00000E+00
         0.00000E+00
         0.00000E+00
         0.00000E+00
         0.00000E+00
         0.00000E+00
         0.00000E+00
         0.00000E+00
         0.00000E+00
         0.00000E+00
         0.00000E+00
         0.00000E+00
         0.00000E+00
         0.00000E+00
         0.00000E+00
         0.00000E+00
         0.00000E+00
         0.00000E+00
         0.00000E+00
         0.00000E+00
         0.00000E+00
         0.00000E+00
         0.00000E+00
         0.00000E+00
         0.00000E+00
         0.00000E+00
         0.00000E+00
         0.00000E+00
         0.00000E+00
         0.00000E+00
         0.00000E+00
         0.00000E+00
         0.00000E+00
         0.00000E+00
         0.00000E+00
         0.00000E+00
         0.00000E+00
         0.00000E+00
         0.00000E+00
         0.00000E+00
         0.00000E+00
         0.00000E+00
         0.00000E+00
         0.00000E+00
         0.00000E+00
         0.00000E+00
         0.00000E+00
         0.00000E+00
         0.00000E+00
         0.00000E+00
         0.00000E+00
         0.00000E+00
         0.00000E+00
         0.00000E+00
         0.00000E+00
         0.00000E+00
         0.00000E+00
         0.00000E+00
         0.00000E+00
         0.00000E+00
         0.00000E+00
         0.00000E+00
         0.00000E+00
         0.00000E+00
         0.00000E+00
         0.00000E+00
         0.00000E+00
         0.00000E+00
         0.00000E+00
         0.00000E+00
         0.00000E+00
         0.00000E+00
         0.00000E+00
         0.00000E+00
         0.00000E+00
         0.00000E+00
         0.00000E+00
         0.00000E+00
         0.00000E+00
         0.00000E+00
         0.00000E+00
         0.00000E+00
         0.00000E+00
         0.00000E+00
         0.00000E+00
         0.00000E+00
         0.00000E+00
         0.00000E+00
         0.00000E+00
         0.00000E+00
         0.00000E+00
         0.00000E+00
         0.00000E+00
         0.00000E+00
         0.00000E+00
         0.00000E+00
         0.00000E+00
         0.00000E+00
         0.00000E+00
         0.00000E+00
         0.00000E+00
         0.00000E+00
         0.00000E+00
         0.00000E+00
         0.00000E+00
         0.00000E+00
         0.00000E+00
         0.00000E+00
         0.00000E+00
         0.00000E+00
         0.00000E+00
         0.00000E+00
         0.00000E+00
         0.00000E+00
         0.00000E+00
         0.00000E+00
         0.00000E+00
         0.00000E+00
         0.00000E+00
         0.00000E+00
         0.00000E+00
         0.00000E+00
         0.00000E+00
         0.00000E+00
         0.00000E+00
         0.00000E+00
         0.00000E+00
         0.00000E+00
         0.00000E+00
         0.00000E+00
         0.00000E+00
         0.00000E+00
         0.00000E+00
         0.00000E+00
         0.00000E+00
         0.00000E+00
         0.00000E+00
         0.00000E+00
         0.00000E+00
         0.00000E+00
         0.00000E+00
         0.00000E+00
         0.00000E+00
         0.00000E+00
         0.00000E+00
         0.00000E+00
         0.00000E+00
         0.00000E+00
         0.00000E+00
         0.00000E+00
         0.00000E+00
         0.00000E+00
         0.00000E+00
         0.00000E+00
         0.00000E+00
         0.00000E+00
         0.00000E+00
         0.00000E+00
         0.00000E+00
         0.00000E+00
         0.00000E+00
         0.00000E+00
         0.00000E+00
         0.00000E+00
         0.00000E+00
         0.00000E+00
         0.00000E+00
         0.00000E+00
         0.00000E+00
         0.00000E+00
         0.00000E+00
         0.00000E+00
         0.00000E+00
         0.00000E+00
         0.00000E+00
         0.00000E+00
         0.00000E+00
         0.00000E+00
         0.00000E+00
         0.00000E+00
         0.00000E+00
         0.00000E+00
         0.00000E+00
         0.00000E+00
         0.00000E+00
         0.00000E+00
         0.00000E+00
         0.00000E+00
         0.00000E+00
         0.00000E+00
         0.00000E+00
         0.00000E+00
         0.00000E+00
         0.00000E+00
         0.00000E+00
         0.00000E+00
         0.00000E+00
         0.00000E+00
         0.00000E+00
         0.00000E+00
         0.00000E+00
         0.00000E+00
         0.00000E+00
         0.00000E+00
         0.00000E+00
         0.00000E+00
         0.00000E+00
         0.00000E+00
         0.00000E+00
         0.00000E+00
         0.00000E+00
         0.00000E+00
         0.00000E+00
         0.00000E+00
         0.00000E+00
         0.00000E+00
         0.00000E+00
         0.00000E+00
         0.00000E+00
         0.00000E+00
         0.00000E+00
         0.00000E+00
         0.00000E+00
         0.00000E+00
         0.00000E+00
         0.00000E+00
         0.00000E+00
         0.00000E+00
         0.00000E+00
         0.00000E+00
         0.00000E+00
         0.00000E+00
         0.00000E+00
         0.00000E+00
         0.00000E+00
         0.00000E+00
         0.00000E+00
         0.00000E+00
         0.00000E+00
         0.00000E+00
         0.00000E+00
         0.00000E+00
         0.00000E+00
         0.00000E+00
         0.00000E+00
         0.00000E+00
         0.00000E+00
         0.00000E+00
         0.00000E+00
         0.00000E+00
         0.00000E+00
         0.00000E+00
         0.00000E+00
         0.00000E+00
         0.00000E+00
         0.00000E+00
         0.00000E+00
         0.00000E+00
         0.00000E+00
         0.00000E+00
         0.00000E+00
         0.00000E+00
         0.00000E+00
         0.00000E+00
         0.00000E+00
         0.00000E+00
         0.00000E+00
         0.00000E+00
         0.00000E+00
         0.00000E+00
         0.00000E+00
         0.00000E+00
         0.00000E+00
         0.00000E+00
         0.00000E+00
         0.00000E+00
         0.00000E+00
         0.00000E+00
         0.00000E+00
         0.00000E+00
         0.00000E+00
         0.00000E+00
         0.00000E+00
         0.00000E+00
         0.00000E+00
         0.00000E+00
         0.00000E+00
         0.00000E+00
         0.00000E+00
         0.00000E+00
         0.00000E+00
         0.00000E+00
         0.00000E+00
         0.00000E+00
         0.00000E+00
         0.00000E+00
         0.00000E+00
         0.00000E+00
         0.00000E+00
         0.00000E+00
         0.00000E+00
         0.00000E+00
         0.00000E+00
         0.00000E+00
         0.00000E+00
         0.00000E+00
         0.00000E+00
         0.00000E+00
         0.00000E+00
         0.00000E+00
         0.00000E+00
         0.00000E+00
         0.00000E+00
         0.00000E+00
         0.00000E+00
         0.00000E+00
         0.00000E+00
         0.00000E+00
         0.00000E+00
         0.00000E+00
         0.00000E+00
         0.00000E+00
         0.00000E+00
         0.00000E+00
         0.00000E+00
         0.00000E+00
         0.00000E+00
         0.00000E+00
         0.00000E+00
         0.00000E+00
         0.00000E+00
         0.00000E+00
         0.00000E+00
         0.00000E+00
         0.00000E+00
         0.00000E+00
         0.00000E+00
         0.00000E+00
         0.00000E+00
         0.00000E+00
         0.00000E+00
         0.00000E+00
         0.00000E+00
         0.00000E+00
         0.00000E+00
         0.00000E+00
         0.00000E+00
         0.00000E+00
         0.00000E+00
         0.00000E+00
         0.00000E+00
         0.00000E+00
         0.00000E+00
         0.00000E+00
         0.00000E+00
         0.00000E+00
         0.00000E+00
         0.00000E+00
         0.00000E+00
         0.00000E+00
         0.00000E+00
         0.00000E+00
         0.00000E+00
         0.00000E+00
         0.00000E+00
         0.00000E+00
         0.00000E+00
         0.00000E+00
         0.00000E+00
         0.00000E+00
         0.00000E+00
         0.00000E+00
         0.00000E+00
         0.00000E+00
         0.00000E+00
         0.00000E+00
         0.00000E+00
         0.00000E+00
         0.00000E+00
         0.00000E+00
         0.00000E+00
         0.00000E+00
         0.00000E+00
         0.00000E+00
         0.00000E+00
         0.00000E+00
         0.00000E+00
         0.00000E+00
         0.00000E+00
         0.00000E+00
         0.00000E+00
         0.00000E+00
         0.00000E+00
         0.00000E+00
         0.00000E+00
         0.00000E+00
         0.00000E+00
         0.00000E+00
         0.00000E+00
         0.00000E+00
         0.00000E+00
         0.00000E+00
         0.00000E+00
         0.00000E+00
         0.00000E+00
         0.00000E+00
         0.00000E+00
         0.00000E+00
         0.00000E+00
         0.00000E+00
         0.00000E+00
         0.00000E+00
         0.00000E+00
         0.00000E+00
         0.00000E+00
         0.00000E+00
         0.00000E+00
         0.00000E+00
         0.00000E+00
         0.00000E+00
         0.00000E+00
         0.00000E+00
         0.00000E+00
         0.00000E+00
         0.00000E+00
         0.00000E+00
         0.00000E+00
         0.00000E+00
         0.00000E+00
         0.00000E+00
         0.00000E+00
         0.00000E+00
         0.00000E+00
         0.00000E+00
         0.00000E+00
         0.00000E+00
         0.00000E+00
         0.00000E+00
         0.00000E+00
         0.00000E+00
         0.00000E+00
         0.00000E+00
         0.00000E+00
         0.00000E+00
         0.00000E+00
         0.00000E+00
         0.00000E+00
         0.00000E+00
         0.00000E+00
         0.00000E+00
         0.00000E+00
         0.00000E+00
         0.00000E+00
         0.00000E+00
         0.00000E+00
         0.00000E+00
         0.00000E+00
         0.00000E+00
         0.00000E+00
         0.00000E+00
         0.00000E+00
         0.00000E+00
         0.00000E+00
         0.00000E+00
         0.00000E+00
         0.00000E+00
         0.00000E+00
         0.00000E+00
         0.00000E+00
         0.00000E+00
         0.00000E+00
         0.00000E+00
         0.00000E+00
         0.00000E+00
         0.00000E+00
         0.00000E+00
         0.00000E+00
         0.00000E+00
         0.00000E+00
         0.00000E+00
         0.00000E+00
         0.00000E+00
         0.00000E+00
         0.00000E+00
         0.00000E+00
         0.00000E+00
         0.00000E+00
         0.00000E+00
         0.00000E+00
         0.00000E+00
         0.00000E+00
         0.00000E+00
         0.00000E+00
         0.00000E+00
         0.00000E+00
         0.00000E+00
         0.00000E+00
         0.00000E+00
         0.00000E+00
         0.00000E+00
         0.00000E+00
         0.00000E+00
         0.00000E+00
         0.00000E+00
         0.00000E+00
         0.00000E+00
         0.00000E+00
         0.00000E+00
         0.00000E+00
         0.00000E+00
         0.00000E+00
         0.00000E+00
         0.00000E+00
         0.00000E+00
         0.00000E+00
         0.00000E+00
         0.00000E+00
         0.00000E+00
         0.00000E+00
         0.00000E+00
         0.00000E+00
         0.00000E+00
         0.00000E+00
         0.00000E+00
         0.00000E+00
         0.00000E+00
         0.00000E+00
         0.00000E+00
         0.00000E+00
         0.00000E+00
         0.00000E+00
         0.00000E+00
         0.00000E+00
         0.00000E+00
         0.00000E+00
         0.00000E+00
         0.00000E+00
         0.00000E+00
         0.00000E+00
         0.00000E+00
         0.00000E+00
         0.00000E+00
         0.00000E+00
         0.00000E+00
         0.00000E+00
         0.00000E+00
         0.00000E+00
         0.00000E+00
         0.00000E+00
         0.00000E+00
         0.00000E+00
         0.00000E+00
         0.00000E+00
         0.00000E+00
         0.00000E+00
         0.00000E+00
         0.00000E+00
         0.00000E+00
         0.00000E+00
         0.00000E+00
         0.00000E+00
         0.00000E+00
         0.00000E+00
         0.00000E+00
         0.00000E+00
         0.00000E+00
         0.00000E+00
         0.00000E+00
         0.00000E+00
         0.00000E+00
         0.00000E+00
         0.00000E+00
         0.00000E+00
         0.00000E+00
         0.00000E+00
         0.00000E+00
         0.00000E+00
         0.00000E+00
         0.00000E+00
         0.00000E+00
         0.00000E+00
         0.00000E+00
         0.00000E+00
         0.00000E+00
         0.00000E+00
         0.00000E+00
         0.00000E+00
         0.00000E+00
         0.00000E+00
         0.00000E+00
         0.00000E+00
         0.00000E+00
         0.00000E+00
         0.00000E+00
         0.00000E+00
         0.00000E+00
         0.00000E+00
         0.00000E+00
         0.00000E+00
         0.00000E+00
         0.00000E+00
         0.00000E+00
         0.00000E+00
         0.00000E+00
         0.00000E+00
         0.00000E+00
         0.00000E+00
         0.00000E+00
         0.00000E+00
         0.00000E+00
         0.00000E+00
         0.00000E+00
         0.00000E+00
         0.00000E+00
         0.00000E+00
         0.00000E+00
         0.00000E+00
         0.00000E+00
         0.00000E+00
         0.00000E+00
         0.00000E+00
         0.00000E+00
         0.00000E+00
         0.00000E+00
         0.00000E+00
         0.00000E+00
         0.00000E+00
         0.00000E+00
         0.00000E+00
         0.00000E+00
         0.00000E+00
         0.00000E+00
         0.00000E+00
         0.00000E+00
         0.00000E+00
         0.00000E+00
         0.00000E+00
         0.00000E+00
         0.00000E+00
         0.00000E+00
         0.00000E+00
         0.00000E+00
         0.00000E+00
         0.00000E+00
         0.00000E+00
         0.00000E+00
         0.00000E+00
         0.00000E+00
         0.00000E+00
         0.00000E+00
         0.00000E+00
         0.00000E+00
         0.00000E+00
         0.00000E+00
         0.00000E+00
         0.00000E+00
         0.00000E+00
         0.00000E+00
         0.00000E+00
         0.00000E+00
         0.00000E+00
  
SCALARS               pre_disp_force_y  double 1
LOOKUP_TABLE default
         0.00000E+00
         0.00000E+00
         0.00000E+00
         0.00000E+00
         0.00000E+00
         0.00000E+00
         0.00000E+00
         0.00000E+00
         0.00000E+00
         0.00000E+00
         0.00000E+00
         0.00000E+00
         0.00000E+00
         0.00000E+00
         0.00000E+00
         0.00000E+00
         0.00000E+00
         0.00000E+00
         0.00000E+00
         0.00000E+00
         0.00000E+00
         0.00000E+00
         0.00000E+00
         0.00000E+00
         0.00000E+00
         0.00000E+00
         0.00000E+00
         0.00000E+00
         0.00000E+00
         0.00000E+00
         0.00000E+00
         0.00000E+00
         0.00000E+00
         0.00000E+00
         0.00000E+00
         0.00000E+00
         0.00000E+00
         0.00000E+00
         0.00000E+00
         0.00000E+00
         0.00000E+00
         0.00000E+00
         0.00000E+00
         0.00000E+00
         0.00000E+00
         0.00000E+00
         0.00000E+00
         0.00000E+00
         0.00000E+00
         0.00000E+00
         0.00000E+00
         0.00000E+00
         0.00000E+00
         0.00000E+00
         0.00000E+00
         0.00000E+00
         0.00000E+00
         0.00000E+00
         0.00000E+00
         0.00000E+00
         0.00000E+00
         0.00000E+00
         0.00000E+00
         0.00000E+00
         0.00000E+00
         0.00000E+00
         0.00000E+00
         0.00000E+00
         0.00000E+00
         0.00000E+00
         0.00000E+00
         0.00000E+00
         0.00000E+00
         0.00000E+00
         0.00000E+00
         0.00000E+00
         0.00000E+00
         0.00000E+00
         0.00000E+00
         0.00000E+00
         0.00000E+00
         0.00000E+00
         0.00000E+00
         0.00000E+00
         0.00000E+00
         0.00000E+00
         0.00000E+00
         0.00000E+00
         0.00000E+00
         0.00000E+00
         0.00000E+00
         0.00000E+00
         0.00000E+00
         0.00000E+00
         0.00000E+00
         0.00000E+00
         0.00000E+00
         0.00000E+00
         0.00000E+00
         0.00000E+00
         0.00000E+00
         0.00000E+00
         0.00000E+00
         0.00000E+00
         0.00000E+00
         0.00000E+00
         0.00000E+00
         0.00000E+00
         0.00000E+00
         0.00000E+00
         0.00000E+00
         0.00000E+00
         0.00000E+00
         0.00000E+00
         0.00000E+00
         0.00000E+00
         0.00000E+00
         0.00000E+00
         0.00000E+00
         0.00000E+00
         0.00000E+00
         0.00000E+00
         0.00000E+00
         0.00000E+00
         0.00000E+00
         0.00000E+00
         0.00000E+00
         0.00000E+00
         0.00000E+00
         0.00000E+00
         0.00000E+00
         0.00000E+00
         0.00000E+00
         0.00000E+00
         0.00000E+00
         0.00000E+00
         0.00000E+00
         0.00000E+00
         0.00000E+00
         0.00000E+00
         0.00000E+00
         0.00000E+00
         0.00000E+00
         0.00000E+00
         0.00000E+00
         0.00000E+00
         0.00000E+00
         0.00000E+00
         0.00000E+00
         0.00000E+00
         0.00000E+00
         0.00000E+00
         0.00000E+00
         0.00000E+00
         0.00000E+00
         0.00000E+00
         0.00000E+00
         0.00000E+00
         0.00000E+00
         0.00000E+00
         0.00000E+00
         0.00000E+00
         0.00000E+00
         0.00000E+00
         0.00000E+00
         0.00000E+00
         0.00000E+00
         0.00000E+00
         0.00000E+00
         0.00000E+00
         0.00000E+00
         0.00000E+00
         0.00000E+00
         0.00000E+00
         0.00000E+00
         0.00000E+00
         0.00000E+00
         0.00000E+00
         0.00000E+00
         0.00000E+00
         0.00000E+00
         0.00000E+00
         0.00000E+00
         0.00000E+00
         0.00000E+00
         0.00000E+00
         0.00000E+00
         0.00000E+00
         0.00000E+00
         0.00000E+00
         0.00000E+00
         0.00000E+00
         0.00000E+00
         0.00000E+00
         0.00000E+00
         0.00000E+00
         0.00000E+00
         0.00000E+00
         0.00000E+00
         0.00000E+00
         0.00000E+00
         0.00000E+00
         0.00000E+00
         0.00000E+00
         0.00000E+00
         0.00000E+00
         0.00000E+00
         0.00000E+00
         0.00000E+00
         0.00000E+00
         0.00000E+00
         0.00000E+00
         0.00000E+00
         0.00000E+00
         0.00000E+00
         0.00000E+00
         0.00000E+00
         0.00000E+00
         0.00000E+00
         0.00000E+00
         0.00000E+00
         0.00000E+00
         0.00000E+00
         0.00000E+00
         0.00000E+00
         0.00000E+00
         0.00000E+00
         0.00000E+00
         0.00000E+00
         0.00000E+00
         0.00000E+00
         0.00000E+00
         0.00000E+00
         0.00000E+00
         0.00000E+00
         0.00000E+00
         0.00000E+00
         0.00000E+00
         0.00000E+00
         0.00000E+00
         0.00000E+00
         0.00000E+00
         0.00000E+00
         0.00000E+00
         0.00000E+00
         0.00000E+00
         0.00000E+00
         0.00000E+00
         0.00000E+00
         0.00000E+00
         0.00000E+00
         0.00000E+00
         0.00000E+00
         0.00000E+00
         0.00000E+00
         0.00000E+00
         0.00000E+00
         0.00000E+00
         0.00000E+00
         0.00000E+00
         0.00000E+00
         0.00000E+00
         0.00000E+00
         0.00000E+00
         0.00000E+00
         0.00000E+00
         0.00000E+00
         0.00000E+00
         0.00000E+00
         0.00000E+00
         0.00000E+00
         0.00000E+00
         0.00000E+00
         0.00000E+00
         0.00000E+00
         0.00000E+00
         0.00000E+00
         0.00000E+00
         0.00000E+00
         0.00000E+00
         0.00000E+00
         0.00000E+00
         0.00000E+00
         0.00000E+00
         0.00000E+00
         0.00000E+00
         0.00000E+00
         0.00000E+00
         0.00000E+00
         0.00000E+00
         0.00000E+00
         0.00000E+00
         0.00000E+00
         0.00000E+00
         0.00000E+00
         0.00000E+00
         0.00000E+00
         0.00000E+00
         0.00000E+00
         0.00000E+00
         0.00000E+00
         0.00000E+00
         0.00000E+00
         0.00000E+00
         0.00000E+00
         0.00000E+00
         0.00000E+00
         0.00000E+00
         0.00000E+00
         0.00000E+00
         0.00000E+00
         0.00000E+00
         0.00000E+00
         0.00000E+00
         0.00000E+00
         0.00000E+00
         0.00000E+00
         0.00000E+00
         0.00000E+00
         0.00000E+00
         0.00000E+00
         0.00000E+00
         0.00000E+00
         0.00000E+00
         0.00000E+00
         0.00000E+00
         0.00000E+00
         0.00000E+00
         0.00000E+00
         0.00000E+00
         0.00000E+00
         0.00000E+00
         0.00000E+00
         0.00000E+00
         0.00000E+00
         0.00000E+00
         0.00000E+00
         0.00000E+00
         0.00000E+00
         0.00000E+00
         0.00000E+00
         0.00000E+00
         0.00000E+00
         0.00000E+00
         0.00000E+00
         0.00000E+00
         0.00000E+00
         0.00000E+00
         0.00000E+00
         0.00000E+00
         0.00000E+00
         0.00000E+00
         0.00000E+00
         0.00000E+00
         0.00000E+00
         0.00000E+00
         0.00000E+00
         0.00000E+00
         0.00000E+00
         0.00000E+00
         0.00000E+00
         0.00000E+00
         0.00000E+00
         0.00000E+00
         0.00000E+00
         0.00000E+00
         0.00000E+00
         0.00000E+00
         0.00000E+00
         0.00000E+00
         0.00000E+00
         0.00000E+00
         0.00000E+00
         0.00000E+00
         0.00000E+00
         0.00000E+00
         0.00000E+00
         0.00000E+00
         0.00000E+00
         0.00000E+00
         0.00000E+00
         0.00000E+00
         0.00000E+00
         0.00000E+00
         0.00000E+00
         0.00000E+00
         0.00000E+00
         0.00000E+00
         0.00000E+00
         0.00000E+00
         0.00000E+00
         0.00000E+00
         0.00000E+00
         0.00000E+00
         0.00000E+00
         0.00000E+00
         0.00000E+00
         0.00000E+00
         0.00000E+00
         0.00000E+00
         0.00000E+00
         0.00000E+00
         0.00000E+00
         0.00000E+00
         0.00000E+00
         0.00000E+00
         0.00000E+00
         0.00000E+00
         0.00000E+00
         0.00000E+00
         0.00000E+00
         0.00000E+00
         0.00000E+00
         0.00000E+00
         0.00000E+00
         0.00000E+00
         0.00000E+00
         0.00000E+00
         0.00000E+00
         0.00000E+00
         0.00000E+00
         0.00000E+00
         0.00000E+00
         0.00000E+00
         0.00000E+00
         0.00000E+00
         0.00000E+00
         0.00000E+00
         0.00000E+00
         0.00000E+00
         0.00000E+00
         0.00000E+00
         0.00000E+00
         0.00000E+00
         0.00000E+00
         0.00000E+00
         0.00000E+00
         0.00000E+00
         0.00000E+00
         0.00000E+00
         0.00000E+00
         0.00000E+00
         0.00000E+00
         0.00000E+00
         0.00000E+00
         0.00000E+00
         0.00000E+00
         0.00000E+00
         0.00000E+00
         0.00000E+00
         0.00000E+00
         0.00000E+00
         0.00000E+00
         0.00000E+00
         0.00000E+00
         0.00000E+00
         0.00000E+00
         0.00000E+00
         0.00000E+00
         0.00000E+00
         0.00000E+00
         0.00000E+00
         0.00000E+00
         0.00000E+00
         0.00000E+00
         0.00000E+00
         0.00000E+00
         0.00000E+00
         0.00000E+00
         0.00000E+00
         0.00000E+00
         0.00000E+00
         0.00000E+00
         0.00000E+00
         0.00000E+00
         0.00000E+00
         0.00000E+00
         0.00000E+00
         0.00000E+00
         0.00000E+00
         0.00000E+00
         0.00000E+00
         0.00000E+00
         0.00000E+00
         0.00000E+00
         0.00000E+00
         0.00000E+00
         0.00000E+00
         0.00000E+00
         0.00000E+00
         0.00000E+00
         0.00000E+00
         0.00000E+00
         0.00000E+00
         0.00000E+00
         0.00000E+00
         0.00000E+00
         0.00000E+00
         0.00000E+00
         0.00000E+00
         0.00000E+00
         0.00000E+00
         0.00000E+00
         0.00000E+00
         0.00000E+00
         0.00000E+00
         0.00000E+00
         0.00000E+00
         0.00000E+00
         0.00000E+00
         0.00000E+00
         0.00000E+00
         0.00000E+00
         0.00000E+00
         0.00000E+00
         0.00000E+00
         0.00000E+00
         0.00000E+00
         0.00000E+00
         0.00000E+00
         0.00000E+00
         0.00000E+00
         0.00000E+00
         0.00000E+00
         0.00000E+00
         0.00000E+00
         0.00000E+00
         0.00000E+00
         0.00000E+00
         0.00000E+00
         0.00000E+00
         0.00000E+00
         0.00000E+00
         0.00000E+00
         0.00000E+00
         0.00000E+00
         0.00000E+00
         0.00000E+00
         0.00000E+00
         0.00000E+00
         0.00000E+00
         0.00000E+00
         0.00000E+00
         0.00000E+00
         0.00000E+00
         0.00000E+00
         0.00000E+00
         0.00000E+00
         0.00000E+00
         0.00000E+00
         0.00000E+00
         0.00000E+00
         0.00000E+00
         0.00000E+00
         0.00000E+00
         0.00000E+00
         0.00000E+00
         0.00000E+00
         0.00000E+00
         0.00000E+00
         0.00000E+00
         0.00000E+00
         0.00000E+00
         0.00000E+00
         0.00000E+00
         0.00000E+00
         0.00000E+00
         0.00000E+00
         0.00000E+00
         0.00000E+00
         0.00000E+00
         0.00000E+00
         0.00000E+00
         0.00000E+00
         0.00000E+00
         0.00000E+00
         0.00000E+00
         0.00000E+00
         0.00000E+00
         0.00000E+00
         0.00000E+00
         0.00000E+00
         0.00000E+00
         0.00000E+00
         0.00000E+00
         0.00000E+00
         0.00000E+00
         0.00000E+00
         0.00000E+00
         0.00000E+00
         0.00000E+00
         0.00000E+00
         0.00000E+00
         0.00000E+00
         0.00000E+00
         0.00000E+00
         0.00000E+00
         0.00000E+00
         0.00000E+00
         0.00000E+00
         0.00000E+00
         0.00000E+00
         0.00000E+00
         0.00000E+00
         0.00000E+00
         0.00000E+00
         0.00000E+00
         0.00000E+00
         0.00000E+00
         0.00000E+00
         0.00000E+00
         0.00000E+00
         0.00000E+00
         0.00000E+00
         0.00000E+00
         0.00000E+00
         0.00000E+00
         0.00000E+00
         0.00000E+00
         0.00000E+00
         0.00000E+00
         0.00000E+00
         0.00000E+00
         0.00000E+00
         0.00000E+00
         0.00000E+00
         0.00000E+00
         0.00000E+00
         0.00000E+00
         0.00000E+00
         0.00000E+00
         0.00000E+00
         0.00000E+00
         0.00000E+00
         0.00000E+00
         0.00000E+00
         0.00000E+00
         0.00000E+00
         0.00000E+00
         0.00000E+00
         0.00000E+00
         0.00000E+00
         0.00000E+00
         0.00000E+00
         0.00000E+00
         0.00000E+00
         0.00000E+00
         0.00000E+00
         0.00000E+00
         0.00000E+00
         0.00000E+00
         0.00000E+00
         0.00000E+00
         0.00000E+00
         0.00000E+00
         0.00000E+00
         0.00000E+00
         0.00000E+00
         0.00000E+00
         0.00000E+00
         0.00000E+00
         0.00000E+00
         0.00000E+00
         0.00000E+00
         0.00000E+00
         0.00000E+00
         0.00000E+00
         0.00000E+00
         0.00000E+00
         0.00000E+00
         0.00000E+00
         0.00000E+00
         0.00000E+00
         0.00000E+00
         0.00000E+00
         0.00000E+00
         0.00000E+00
         0.00000E+00
         0.00000E+00
         0.00000E+00
         0.00000E+00
         0.00000E+00
         0.00000E+00
         0.00000E+00
         0.00000E+00
         0.00000E+00
         0.00000E+00
         0.00000E+00
         0.00000E+00
         0.00000E+00
         0.00000E+00
         0.00000E+00
         0.00000E+00
         0.00000E+00
         0.00000E+00
         0.00000E+00
         0.00000E+00
         0.00000E+00
         0.00000E+00
         0.00000E+00
         0.00000E+00
         0.00000E+00
         0.00000E+00
         0.00000E+00
         0.00000E+00
         0.00000E+00
         0.00000E+00
         0.00000E+00
         0.00000E+00
         0.00000E+00
         0.00000E+00
         0.00000E+00
         0.00000E+00
         0.00000E+00
         0.00000E+00
         0.00000E+00
         0.00000E+00
         0.00000E+00
         0.00000E+00
         0.00000E+00
         0.00000E+00
         0.00000E+00
         0.00000E+00
         0.00000E+00
         0.00000E+00
         0.00000E+00
         0.00000E+00
         0.00000E+00
         0.00000E+00
         0.00000E+00
         0.00000E+00
         0.00000E+00
         0.00000E+00
         0.00000E+00
         0.00000E+00
         0.00000E+00
         0.00000E+00
         0.00000E+00
         0.00000E+00
         0.00000E+00
         0.00000E+00
         0.00000E+00
         0.00000E+00
         0.00000E+00
         0.00000E+00
         0.00000E+00
         0.00000E+00
         0.00000E+00
         0.00000E+00
         0.00000E+00
         0.00000E+00
         0.00000E+00
         0.00000E+00
         0.00000E+00
         0.00000E+00
         0.00000E+00
         0.00000E+00
         0.00000E+00
         0.00000E+00
         0.00000E+00
         0.00000E+00
         0.00000E+00
         0.00000E+00
         0.00000E+00
         0.00000E+00
         0.00000E+00
         0.00000E+00
         0.00000E+00
         0.00000E+00
         0.00000E+00
         0.00000E+00
         0.00000E+00
         0.00000E+00
         0.00000E+00
         0.00000E+00
         0.00000E+00
         0.00000E+00
         0.00000E+00
         0.00000E+00
         0.00000E+00
         0.00000E+00
         0.00000E+00
         0.00000E+00
         0.00000E+00
         0.00000E+00
         0.00000E+00
         0.00000E+00
         0.00000E+00
         0.00000E+00
         0.00000E+00
         0.00000E+00
         0.00000E+00
         0.00000E+00
         0.00000E+00
         0.00000E+00
         0.00000E+00
         0.00000E+00
         0.00000E+00
         0.00000E+00
         0.00000E+00
         0.00000E+00
         0.00000E+00
         0.00000E+00
         0.00000E+00
         0.00000E+00
         0.00000E+00
         0.00000E+00
         0.00000E+00
         0.00000E+00
         0.00000E+00
         0.00000E+00
         0.00000E+00
         0.00000E+00
         0.00000E+00
         0.00000E+00
         0.00000E+00
         0.00000E+00
         0.00000E+00
         0.00000E+00
         0.00000E+00
         0.00000E+00
         0.00000E+00
         0.00000E+00
         0.00000E+00
         0.00000E+00
         0.00000E+00
         0.00000E+00
         0.00000E+00
         0.00000E+00
         0.00000E+00
         0.00000E+00
         0.00000E+00
         0.00000E+00
         0.00000E+00
         0.00000E+00
         0.00000E+00
         0.00000E+00
         0.00000E+00
         0.00000E+00
         0.00000E+00
         0.00000E+00
         0.00000E+00
         0.00000E+00
         0.00000E+00
         0.00000E+00
         0.00000E+00
         0.00000E+00
         0.00000E+00
         0.00000E+00
         0.00000E+00
         0.00000E+00
         0.00000E+00
         0.00000E+00
         0.00000E+00
         0.00000E+00
         0.00000E+00
         0.00000E+00
         0.00000E+00
         0.00000E+00
         0.00000E+00
         0.00000E+00
         0.00000E+00
         0.00000E+00
         0.00000E+00
         0.00000E+00
         0.00000E+00
         0.00000E+00
         0.00000E+00
         0.00000E+00
         0.00000E+00
         0.00000E+00
         0.00000E+00
         0.00000E+00
         0.00000E+00
         0.00000E+00
         0.00000E+00
         0.00000E+00
         0.00000E+00
         0.00000E+00
         0.00000E+00
         0.00000E+00
         0.00000E+00
         0.00000E+00
         0.00000E+00
         0.00000E+00
         0.00000E+00
         0.00000E+00
         0.00000E+00
         0.00000E+00
         0.00000E+00
         0.00000E+00
         0.00000E+00
         0.00000E+00
         0.00000E+00
         0.00000E+00
         0.00000E+00
         0.00000E+00
         0.00000E+00
         0.00000E+00
         0.00000E+00
         0.00000E+00
         0.00000E+00
         0.00000E+00
         0.00000E+00
         0.00000E+00
         0.00000E+00
         0.00000E+00
         0.00000E+00
         0.00000E+00
         0.00000E+00
         0.00000E+00
         0.00000E+00
         0.00000E+00
         0.00000E+00
         0.00000E+00
         0.00000E+00
         0.00000E+00
         0.00000E+00
         0.00000E+00
         0.00000E+00
         0.00000E+00
         0.00000E+00
         0.00000E+00
         0.00000E+00
         0.00000E+00
         0.00000E+00
         0.00000E+00
         0.00000E+00
         0.00000E+00
         0.00000E+00
         0.00000E+00
         0.00000E+00
         0.00000E+00
         0.00000E+00
         0.00000E+00
         0.00000E+00
         0.00000E+00
         0.00000E+00
         0.00000E+00
         0.00000E+00
         0.00000E+00
         0.00000E+00
         0.00000E+00
         0.00000E+00
         0.00000E+00
         0.00000E+00
         0.00000E+00
         0.00000E+00
         0.00000E+00
         0.00000E+00
         0.00000E+00
         0.00000E+00
         0.00000E+00
         0.00000E+00
         0.00000E+00
         0.00000E+00
         0.00000E+00
         0.00000E+00
         0.00000E+00
         0.00000E+00
         0.00000E+00
         0.00000E+00
         0.00000E+00
         0.00000E+00
         0.00000E+00
         0.00000E+00
         0.00000E+00
         0.00000E+00
         0.00000E+00
         0.00000E+00
         0.00000E+00
         0.00000E+00
         0.00000E+00
         0.00000E+00
         0.00000E+00
         0.00000E+00
         0.00000E+00
         0.00000E+00
         0.00000E+00
         0.00000E+00
         0.00000E+00
         0.00000E+00
         0.00000E+00
         0.00000E+00
         0.00000E+00
         0.00000E+00
         0.00000E+00
         0.00000E+00
         0.00000E+00
         0.00000E+00
         0.00000E+00
         0.00000E+00
         0.00000E+00
         0.00000E+00
         0.00000E+00
         0.00000E+00
         0.00000E+00
         0.00000E+00
         0.00000E+00
         0.00000E+00
         0.00000E+00
         0.00000E+00
         0.00000E+00
         0.00000E+00
         0.00000E+00
         0.00000E+00
         0.00000E+00
         0.00000E+00
         0.00000E+00
         0.00000E+00
         0.00000E+00
         0.00000E+00
         0.00000E+00
         0.00000E+00
         0.00000E+00
         0.00000E+00
         0.00000E+00
         0.00000E+00
         0.00000E+00
         0.00000E+00
         0.00000E+00
         0.00000E+00
         0.00000E+00
         0.00000E+00
         0.00000E+00
         0.00000E+00
         0.00000E+00
         0.00000E+00
         0.00000E+00
         0.00000E+00
         0.00000E+00
         0.00000E+00
         0.00000E+00
         0.00000E+00
         0.00000E+00
         0.00000E+00
         0.00000E+00
         0.00000E+00
         0.00000E+00
         0.00000E+00
         0.00000E+00
         0.00000E+00
         0.00000E+00
         0.00000E+00
         0.00000E+00
         0.00000E+00
         0.00000E+00
         0.00000E+00
         0.00000E+00
         0.00000E+00
         0.00000E+00
         0.00000E+00
         0.00000E+00
         0.00000E+00
         0.00000E+00
         0.00000E+00
         0.00000E+00
         0.00000E+00
         0.00000E+00
         0.00000E+00
         0.00000E+00
         0.00000E+00
         0.00000E+00
         0.00000E+00
         0.00000E+00
         0.00000E+00
         0.00000E+00
         0.00000E+00
         0.00000E+00
         0.00000E+00
         0.00000E+00
         0.00000E+00
         0.00000E+00
         0.00000E+00
         0.00000E+00
         0.00000E+00
         0.00000E+00
         0.00000E+00
         0.00000E+00
         0.00000E+00
         0.00000E+00
         0.00000E+00
         0.00000E+00
         0.00000E+00
         0.00000E+00
         0.00000E+00
         0.00000E+00
         0.00000E+00
         0.00000E+00
         0.00000E+00
         0.00000E+00
         0.00000E+00
         0.00000E+00
         0.00000E+00
         0.00000E+00
         0.00000E+00
         0.00000E+00
         0.00000E+00
         0.00000E+00
         0.00000E+00
         0.00000E+00
         0.00000E+00
         0.00000E+00
         0.00000E+00
         0.00000E+00
         0.00000E+00
         0.00000E+00
         0.00000E+00
         0.00000E+00
         0.00000E+00
         0.00000E+00
         0.00000E+00
         0.00000E+00
         0.00000E+00
         0.00000E+00
         0.00000E+00
         0.00000E+00
         0.00000E+00
         0.00000E+00
         0.00000E+00
         0.00000E+00
         0.00000E+00
         0.00000E+00
         0.00000E+00
         0.00000E+00
         0.00000E+00
         0.00000E+00
         0.00000E+00
         0.00000E+00
         0.00000E+00
         0.00000E+00
         0.00000E+00
         0.00000E+00
         0.00000E+00
         0.00000E+00
         0.00000E+00
         0.00000E+00
         0.00000E+00
         0.00000E+00
         0.00000E+00
         0.00000E+00
         0.00000E+00
         0.00000E+00
         0.00000E+00
         0.00000E+00
         0.00000E+00
         0.00000E+00
         0.00000E+00
         0.00000E+00
         0.00000E+00
         0.00000E+00
         0.00000E+00
         0.00000E+00
         0.00000E+00
         0.00000E+00
         0.00000E+00
         0.00000E+00
         0.00000E+00
         0.00000E+00
         0.00000E+00
         0.00000E+00
         0.00000E+00
         0.00000E+00
         0.00000E+00
         0.00000E+00
         0.00000E+00
         0.00000E+00
         0.00000E+00
         0.00000E+00
         0.00000E+00
         0.00000E+00
         0.00000E+00
         0.00000E+00
         0.00000E+00
         0.00000E+00
         0.00000E+00
         0.00000E+00
         0.00000E+00
         0.00000E+00
         0.00000E+00
         0.00000E+00
         0.00000E+00
         0.00000E+00
         0.00000E+00
         0.00000E+00
         0.00000E+00
         0.00000E+00
         0.00000E+00
         0.00000E+00
         0.00000E+00
         0.00000E+00
         0.00000E+00
         0.00000E+00
         0.00000E+00
         0.00000E+00
         0.00000E+00
         0.00000E+00
         0.00000E+00
         0.00000E+00
         0.00000E+00
         0.00000E+00
         0.00000E+00
         0.00000E+00
         0.00000E+00
         0.00000E+00
         0.00000E+00
         0.00000E+00
         0.00000E+00
         0.00000E+00
         0.00000E+00
         0.00000E+00
         0.00000E+00
         0.00000E+00
         0.00000E+00
         0.00000E+00
         0.00000E+00
         0.00000E+00
         0.00000E+00
         0.00000E+00
         0.00000E+00
         0.00000E+00
         0.00000E+00
         0.00000E+00
         0.00000E+00
         0.00000E+00
         0.00000E+00
         0.00000E+00
         0.00000E+00
         0.00000E+00
         0.00000E+00
         0.00000E+00
         0.00000E+00
         0.00000E+00
         0.00000E+00
         0.00000E+00
         0.00000E+00
         0.00000E+00
         0.00000E+00
         0.00000E+00
         0.00000E+00
         0.00000E+00
         0.00000E+00
         0.00000E+00
         0.00000E+00
         0.00000E+00
         0.00000E+00
         0.00000E+00
         0.00000E+00
         0.00000E+00
         0.00000E+00
         0.00000E+00
         0.00000E+00
         0.00000E+00
         0.00000E+00
         0.00000E+00
         0.00000E+00
         0.00000E+00
         0.00000E+00
         0.00000E+00
         0.00000E+00
         0.00000E+00
         0.00000E+00
         0.00000E+00
         0.00000E+00
         0.00000E+00
         0.00000E+00
         0.00000E+00
         0.00000E+00
         0.00000E+00
         0.00000E+00
         0.00000E+00
         0.00000E+00
         0.00000E+00
         0.00000E+00
         0.00000E+00
         0.00000E+00
         0.00000E+00
         0.00000E+00
         0.00000E+00
         0.00000E+00
         0.00000E+00
         0.00000E+00
         0.00000E+00
         0.00000E+00
         0.00000E+00
         0.00000E+00
         0.00000E+00
         0.00000E+00
         0.00000E+00
         0.00000E+00
         0.00000E+00
         0.00000E+00
         0.00000E+00
         0.00000E+00
         0.00000E+00
         0.00000E+00
         0.00000E+00
         0.00000E+00
         0.00000E+00
         0.00000E+00
         0.00000E+00
         0.00000E+00
         0.00000E+00
         0.00000E+00
         0.00000E+00
         0.00000E+00
         0.00000E+00
         0.00000E+00
         0.00000E+00
         0.00000E+00
         0.00000E+00
         0.00000E+00
         0.00000E+00
         0.00000E+00
         0.00000E+00
         0.00000E+00
         0.00000E+00
         0.00000E+00
         0.00000E+00
         0.00000E+00
         0.00000E+00
         0.00000E+00
         0.00000E+00
         0.00000E+00
         0.00000E+00
         0.00000E+00
         0.00000E+00
         0.00000E+00
         0.00000E+00
         0.00000E+00
         0.00000E+00
         0.00000E+00
         0.00000E+00
         0.00000E+00
         0.00000E+00
         0.00000E+00
         0.00000E+00
         0.00000E+00
         0.00000E+00
         0.00000E+00
         0.00000E+00
         0.00000E+00
         0.00000E+00
         0.00000E+00
         0.00000E+00
         0.00000E+00
         0.00000E+00
         0.00000E+00
         0.00000E+00
         0.00000E+00
         0.00000E+00
         0.00000E+00
         0.00000E+00
         0.00000E+00
         0.00000E+00
         0.00000E+00
         0.00000E+00
         0.00000E+00
         0.00000E+00
         0.00000E+00
         0.00000E+00
         0.00000E+00
         0.00000E+00
         0.00000E+00
         0.00000E+00
         0.00000E+00
         0.00000E+00
         0.00000E+00
         0.00000E+00
         0.00000E+00
         0.00000E+00
         0.00000E+00
         0.00000E+00
         0.00000E+00
         0.00000E+00
         0.00000E+00
         0.00000E+00
         0.00000E+00
         0.00000E+00
         0.00000E+00
         0.00000E+00
         0.00000E+00
         0.00000E+00
         0.00000E+00
         0.00000E+00
         0.00000E+00
         0.00000E+00
         0.00000E+00
         0.00000E+00
         0.00000E+00
         0.00000E+00
         0.00000E+00
         0.00000E+00
         0.00000E+00
         0.00000E+00
         0.00000E+00
         0.00000E+00
         0.00000E+00
         0.00000E+00
         0.00000E+00
         0.00000E+00
         0.00000E+00
         0.00000E+00
         0.00000E+00
         0.00000E+00
         0.00000E+00
         0.00000E+00
         0.00000E+00
         0.00000E+00
         0.00000E+00
         0.00000E+00
         0.00000E+00
         0.00000E+00
         0.00000E+00
         0.00000E+00
         0.00000E+00
         0.00000E+00
         0.00000E+00
         0.00000E+00
         0.00000E+00
         0.00000E+00
         0.00000E+00
         0.00000E+00
         0.00000E+00
         0.00000E+00
         0.00000E+00
         0.00000E+00
         0.00000E+00
         0.00000E+00
         0.00000E+00
         0.00000E+00
         0.00000E+00
         0.00000E+00
         0.00000E+00
         0.00000E+00
         0.00000E+00
         0.00000E+00
         0.00000E+00
         0.00000E+00
         0.00000E+00
         0.00000E+00
         0.00000E+00
         0.00000E+00
         0.00000E+00
         0.00000E+00
         0.00000E+00
         0.00000E+00
         0.00000E+00
         0.00000E+00
         0.00000E+00
         0.00000E+00
         0.00000E+00
         0.00000E+00
         0.00000E+00
         0.00000E+00
         0.00000E+00
         0.00000E+00
         0.00000E+00
         0.00000E+00
         0.00000E+00
         0.00000E+00
         0.00000E+00
         0.00000E+00
         0.00000E+00
         0.00000E+00
         0.00000E+00
         0.00000E+00
         0.00000E+00
         0.00000E+00
         0.00000E+00
         0.00000E+00
         0.00000E+00
         0.00000E+00
         0.00000E+00
         0.00000E+00
         0.00000E+00
         0.00000E+00
         0.00000E+00
         0.00000E+00
         0.00000E+00
         0.00000E+00
         0.00000E+00
         0.00000E+00
         0.00000E+00
         0.00000E+00
         0.00000E+00
         0.00000E+00
         0.00000E+00
         0.00000E+00
         0.00000E+00
         0.00000E+00
         0.00000E+00
         0.00000E+00
         0.00000E+00
         0.00000E+00
         0.00000E+00
         0.00000E+00
         0.00000E+00
         0.00000E+00
         0.00000E+00
         0.00000E+00
         0.00000E+00
         0.00000E+00
         0.00000E+00
         0.00000E+00
         0.00000E+00
         0.00000E+00
         0.00000E+00
         0.00000E+00
         0.00000E+00
         0.00000E+00
         0.00000E+00
         0.00000E+00
         0.00000E+00
         0.00000E+00
         0.00000E+00
         0.00000E+00
         0.00000E+00
         0.00000E+00
         0.00000E+00
         0.00000E+00
         0.00000E+00
         0.00000E+00
         0.00000E+00
         0.00000E+00
         0.00000E+00
         0.00000E+00
         0.00000E+00
         0.00000E+00
         0.00000E+00
         0.00000E+00
         0.00000E+00
         0.00000E+00
         0.00000E+00
         0.00000E+00
         0.00000E+00
         0.00000E+00
         0.00000E+00
         0.00000E+00
         0.00000E+00
         0.00000E+00
         0.00000E+00
         0.00000E+00
         0.00000E+00
         0.00000E+00
         0.00000E+00
         0.00000E+00
         0.00000E+00
         0.00000E+00
         0.00000E+00
         0.00000E+00
         0.00000E+00
         0.00000E+00
         0.00000E+00
         0.00000E+00
         0.00000E+00
         0.00000E+00
         0.00000E+00
         0.00000E+00
         0.00000E+00
         0.00000E+00
         0.00000E+00
         0.00000E+00
         0.00000E+00
         0.00000E+00
         0.00000E+00
         0.00000E+00
         0.00000E+00
         0.00000E+00
         0.00000E+00
         0.00000E+00
         0.00000E+00
         0.00000E+00
         0.00000E+00
         0.00000E+00
         0.00000E+00
         0.00000E+00
         0.00000E+00
         0.00000E+00
         0.00000E+00
         0.00000E+00
         0.00000E+00
         0.00000E+00
         0.00000E+00
         0.00000E+00
         0.00000E+00
         0.00000E+00
         0.00000E+00
         0.00000E+00
         0.00000E+00
         0.00000E+00
         0.00000E+00
         0.00000E+00
         0.00000E+00
         0.00000E+00
         0.00000E+00
         0.00000E+00
         0.00000E+00
         0.00000E+00
         0.00000E+00
         0.00000E+00
         0.00000E+00
         0.00000E+00
         0.00000E+00
         0.00000E+00
         0.00000E+00
         0.00000E+00
         0.00000E+00
         0.00000E+00
         0.00000E+00
         0.00000E+00
         0.00000E+00
         0.00000E+00
         0.00000E+00
         0.00000E+00
         0.00000E+00
         0.00000E+00
         0.00000E+00
         0.00000E+00
         0.00000E+00
         0.00000E+00
         0.00000E+00
         0.00000E+00
         0.00000E+00
         0.00000E+00
         0.00000E+00
         0.00000E+00
         0.00000E+00
         0.00000E+00
         0.00000E+00
         0.00000E+00
         0.00000E+00
         0.00000E+00
         0.00000E+00
         0.00000E+00
         0.00000E+00
         0.00000E+00
         0.00000E+00
         0.00000E+00
         0.00000E+00
         0.00000E+00
         0.00000E+00
         0.00000E+00
         0.00000E+00
         0.00000E+00
         0.00000E+00
         0.00000E+00
         0.00000E+00
         0.00000E+00
         0.00000E+00
         0.00000E+00
         0.00000E+00
         0.00000E+00
         0.00000E+00
         0.00000E+00
         0.00000E+00
         0.00000E+00
         0.00000E+00
         0.00000E+00
         0.00000E+00
         0.00000E+00
         0.00000E+00
         0.00000E+00
         0.00000E+00
         0.00000E+00
         0.00000E+00
         0.00000E+00
         0.00000E+00
         0.00000E+00
         0.00000E+00
         0.00000E+00
         0.00000E+00
         0.00000E+00
         0.00000E+00
         0.00000E+00
         0.00000E+00
         0.00000E+00
         0.00000E+00
         0.00000E+00
         0.00000E+00
         0.00000E+00
         0.00000E+00
         0.00000E+00
         0.00000E+00
         0.00000E+00
         0.00000E+00
         0.00000E+00
         0.00000E+00
         0.00000E+00
         0.00000E+00
         0.00000E+00
         0.00000E+00
         0.00000E+00
         0.00000E+00
         0.00000E+00
         0.00000E+00
         0.00000E+00
         0.00000E+00
         0.00000E+00
         0.00000E+00
         0.00000E+00
         0.00000E+00
         0.00000E+00
         0.00000E+00
         0.00000E+00
         0.00000E+00
         0.00000E+00
         0.00000E+00
         0.00000E+00
         0.00000E+00
         0.00000E+00
         0.00000E+00
         0.00000E+00
         0.00000E+00
         0.00000E+00
         0.00000E+00
         0.00000E+00
         0.00000E+00
         0.00000E+00
         0.00000E+00
         0.00000E+00
         0.00000E+00
         0.00000E+00
         0.00000E+00
         0.00000E+00
         0.00000E+00
         0.00000E+00
         0.00000E+00
         0.00000E+00
         0.00000E+00
         0.00000E+00
         0.00000E+00
         0.00000E+00
         0.00000E+00
         0.00000E+00
         0.00000E+00
         0.00000E+00
         0.00000E+00
         0.00000E+00
         0.00000E+00
         0.00000E+00
         0.00000E+00
         0.00000E+00
         0.00000E+00
         0.00000E+00
         0.00000E+00
         0.00000E+00
         0.00000E+00
         0.00000E+00
         0.00000E+00
         0.00000E+00
         0.00000E+00
         0.00000E+00
         0.00000E+00
         0.00000E+00
         0.00000E+00
         0.00000E+00
         0.00000E+00
         0.00000E+00
         0.00000E+00
         0.00000E+00
         0.00000E+00
         0.00000E+00
         0.00000E+00
         0.00000E+00
         0.00000E+00
         0.00000E+00
         0.00000E+00
         0.00000E+00
         0.00000E+00
         0.00000E+00
         0.00000E+00
         0.00000E+00
         0.00000E+00
         0.00000E+00
         0.00000E+00
         0.00000E+00
         0.00000E+00
         0.00000E+00
         0.00000E+00
         0.00000E+00
         0.00000E+00
         0.00000E+00
         0.00000E+00
         0.00000E+00
         0.00000E+00
         0.00000E+00
         0.00000E+00
         0.00000E+00
         0.00000E+00
         0.00000E+00
         0.00000E+00
         0.00000E+00
         0.00000E+00
         0.00000E+00
         0.00000E+00
         0.00000E+00
         0.00000E+00
         0.00000E+00
         0.00000E+00
         0.00000E+00
         0.00000E+00
         0.00000E+00
         0.00000E+00
         0.00000E+00
         0.00000E+00
         0.00000E+00
         0.00000E+00
         0.00000E+00
         0.00000E+00
         0.00000E+00
         0.00000E+00
         0.00000E+00
         0.00000E+00
         0.00000E+00
         0.00000E+00
         0.00000E+00
         0.00000E+00
         0.00000E+00
         0.00000E+00
         0.00000E+00
         0.00000E+00
         0.00000E+00
         0.00000E+00
         0.00000E+00
         0.00000E+00
         0.00000E+00
         0.00000E+00
         0.00000E+00
         0.00000E+00
         0.00000E+00
         0.00000E+00
         0.00000E+00
         0.00000E+00
         0.00000E+00
         0.00000E+00
         0.00000E+00
         0.00000E+00
         0.00000E+00
         0.00000E+00
         0.00000E+00
         0.00000E+00
         0.00000E+00
         0.00000E+00
         0.00000E+00
         0.00000E+00
         0.00000E+00
         0.00000E+00
         0.00000E+00
         0.00000E+00
         0.00000E+00
         0.00000E+00
         0.00000E+00
         0.00000E+00
         0.00000E+00
         0.00000E+00
         0.00000E+00
         0.00000E+00
         0.00000E+00
         0.00000E+00
         0.00000E+00
         0.00000E+00
         0.00000E+00
         0.00000E+00
         0.00000E+00
         0.00000E+00
         0.00000E+00
         0.00000E+00
         0.00000E+00
         0.00000E+00
         0.00000E+00
         0.00000E+00
         0.00000E+00
         0.00000E+00
         0.00000E+00
         0.00000E+00
         0.00000E+00
         0.00000E+00
         0.00000E+00
         0.00000E+00
         0.00000E+00
         0.00000E+00
         0.00000E+00
         0.00000E+00
         0.00000E+00
         0.00000E+00
         0.00000E+00
         0.00000E+00
         0.00000E+00
         0.00000E+00
         0.00000E+00
         0.00000E+00
         0.00000E+00
         0.00000E+00
         0.00000E+00
         0.00000E+00
         0.00000E+00
         0.00000E+00
         0.00000E+00
         0.00000E+00
         0.00000E+00
         0.00000E+00
         0.00000E+00
         0.00000E+00
         0.00000E+00
         0.00000E+00
         0.00000E+00
         0.00000E+00
         0.00000E+00
         0.00000E+00
         0.00000E+00
         0.00000E+00
         0.00000E+00
         0.00000E+00
         0.00000E+00
         0.00000E+00
         0.00000E+00
         0.00000E+00
         0.00000E+00
         0.00000E+00
         0.00000E+00
         0.00000E+00
         0.00000E+00
         0.00000E+00
         0.00000E+00
         0.00000E+00
         0.00000E+00
         0.00000E+00
         0.00000E+00
         0.00000E+00
         0.00000E+00
         0.00000E+00
         0.00000E+00
         0.00000E+00
         0.00000E+00
         0.00000E+00
         0.00000E+00
         0.00000E+00
         0.00000E+00
         0.00000E+00
         0.00000E+00
         0.00000E+00
         0.00000E+00
         0.00000E+00
         0.00000E+00
         0.00000E+00
         0.00000E+00
         0.00000E+00
         0.00000E+00
         0.00000E+00
  
SCALARS               pre_disp_force_z  double 1
LOOKUP_TABLE default
         0.00000E+00
         0.00000E+00
         0.00000E+00
         0.00000E+00
        -0.00000E+00
        -0.00000E+00
        -0.00000E+00
        -0.00000E+00
         0.00000E+00
         0.00000E+00
        -0.00000E+00
        -0.00000E+00
         0.00000E+00
         0.00000E+00
        -0.00000E+00
        -0.00000E+00
         0.00000E+00
         0.00000E+00
        -0.00000E+00
        -0.00000E+00
         0.00000E+00
         0.00000E+00
         0.00000E+00
        -0.00000E+00
        -0.00000E+00
        -0.00000E+00
         0.00000E+00
         0.00000E+00
        -0.00000E+00
        -0.00000E+00
         0.00000E+00
         0.00000E+00
         0.00000E+00
        -0.00000E+00
        -0.00000E+00
        -0.00000E+00
         0.00000E+00
         0.00000E+00
        -0.00000E+00
        -0.00000E+00
         0.00000E+00
         0.00000E+00
        -0.00000E+00
        -0.00000E+00
         0.00000E+00
         0.00000E+00
        -0.00000E+00
        -0.00000E+00
         0.00000E+00
        -0.00000E+00
         0.00000E+00
        -0.00000E+00
         0.00000E+00
        -0.00000E+00
         0.00000E+00
        -0.00000E+00
         0.00000E+00
         0.00000E+00
        -0.00000E+00
        -0.00000E+00
         0.00000E+00
         0.00000E+00
        -0.00000E+00
        -0.00000E+00
         0.00000E+00
        -0.00000E+00
         0.00000E+00
        -0.00000E+00
         0.00000E+00
         0.00000E+00
        -0.00000E+00
        -0.00000E+00
         0.00000E+00
        -0.00000E+00
         0.00000E+00
        -0.00000E+00
         0.00000E+00
        -0.00000E+00
         0.00000E+00
        -0.00000E+00
         0.00000E+00
         0.00000E+00
        -0.00000E+00
        -0.00000E+00
         0.00000E+00
        -0.00000E+00
         0.00000E+00
        -0.00000E+00
         0.00000E+00
        -0.00000E+00
         0.00000E+00
         0.00000E+00
        -0.00000E+00
        -0.00000E+00
         0.00000E+00
        -0.00000E+00
         0.00000E+00
        -0.00000E+00
         0.00000E+00
        -0.00000E+00
         0.00000E+00
         0.00000E+00
        -0.00000E+00
        -0.00000E+00
         0.00000E+00
         0.00000E+00
        -0.00000E+00
        -0.00000E+00
         0.00000E+00
        -0.00000E+00
         0.00000E+00
        -0.00000E+00
         0.00000E+00
        -0.00000E+00
         0.00000E+00
        -0.00000E+00
         0.00000E+00
        -0.00000E+00
         0.00000E+00
        -0.00000E+00
         0.00000E+00
        -0.00000E+00
         0.00000E+00
        -0.00000E+00
         0.00000E+00
        -0.00000E+00
         0.00000E+00
        -0.00000E+00
         0.00000E+00
        -0.00000E+00
         0.00000E+00
        -0.00000E+00
         0.00000E+00
        -0.00000E+00
         0.00000E+00
        -0.00000E+00
         0.00000E+00
        -0.00000E+00
         0.00000E+00
        -0.00000E+00
         0.00000E+00
        -0.00000E+00
         0.00000E+00
        -0.00000E+00
         0.00000E+00
        -0.00000E+00
         0.00000E+00
        -0.00000E+00
         0.00000E+00
        -0.00000E+00
         0.00000E+00
        -0.00000E+00
         0.00000E+00
        -0.00000E+00
         0.00000E+00
        -0.00000E+00
         0.00000E+00
         0.00000E+00
         0.00000E+00
         0.00000E+00
         0.00000E+00
         0.00000E+00
         0.00000E+00
         0.00000E+00
         0.00000E+00
         0.00000E+00
         0.00000E+00
         0.00000E+00
         0.00000E+00
         0.00000E+00
         0.00000E+00
         0.00000E+00
         0.00000E+00
         0.00000E+00
         0.00000E+00
         0.00000E+00
         0.00000E+00
         0.00000E+00
         0.00000E+00
         0.00000E+00
         0.00000E+00
         0.00000E+00
         0.00000E+00
         0.00000E+00
         0.00000E+00
         0.00000E+00
         0.00000E+00
         0.00000E+00
         0.00000E+00
         0.00000E+00
         0.00000E+00
         0.00000E+00
         0.00000E+00
         0.00000E+00
         0.00000E+00
         0.00000E+00
         0.00000E+00
         0.00000E+00
         0.00000E+00
         0.00000E+00
         0.00000E+00
         0.00000E+00
         0.00000E+00
         0.00000E+00
         0.00000E+00
         0.00000E+00
         0.00000E+00
         0.00000E+00
         0.00000E+00
         0.00000E+00
         0.00000E+00
         0.00000E+00
         0.00000E+00
         0.00000E+00
         0.00000E+00
         0.00000E+00
         0.00000E+00
         0.00000E+00
         0.00000E+00
         0.00000E+00
         0.00000E+00
         0.00000E+00
         0.00000E+00
         0.00000E+00
         0.00000E+00
         0.00000E+00
         0.00000E+00
         0.00000E+00
         0.00000E+00
         0.00000E+00
         0.00000E+00
         0.00000E+00
         0.00000E+00
         0.00000E+00
         0.00000E+00
         0.00000E+00
         0.00000E+00
         0.00000E+00
         0.00000E+00
         0.00000E+00
         0.00000E+00
         0.00000E+00
         0.00000E+00
         0.00000E+00
         0.00000E+00
         0.00000E+00
         0.00000E+00
         0.00000E+00
         0.00000E+00
         0.00000E+00
         0.00000E+00
         0.00000E+00
         0.00000E+00
         0.00000E+00
         0.00000E+00
         0.00000E+00
         0.00000E+00
         0.00000E+00
         0.00000E+00
         0.00000E+00
         0.00000E+00
         0.00000E+00
         0.00000E+00
         0.00000E+00
         0.00000E+00
         0.00000E+00
         0.00000E+00
         0.00000E+00
         0.00000E+00
         0.00000E+00
         0.00000E+00
         0.00000E+00
         0.00000E+00
         0.00000E+00
         0.00000E+00
         0.00000E+00
         0.00000E+00
         0.00000E+00
         0.00000E+00
         0.00000E+00
         0.00000E+00
         0.00000E+00
         0.00000E+00
         0.00000E+00
         0.00000E+00
         0.00000E+00
         0.00000E+00
         0.00000E+00
         0.00000E+00
         0.00000E+00
         0.00000E+00
         0.00000E+00
         0.00000E+00
         0.00000E+00
         0.00000E+00
         0.00000E+00
         0.00000E+00
         0.00000E+00
         0.00000E+00
         0.00000E+00
         0.00000E+00
         0.00000E+00
         0.00000E+00
         0.00000E+00
         0.00000E+00
         0.00000E+00
         0.00000E+00
         0.00000E+00
         0.00000E+00
         0.00000E+00
         0.00000E+00
         0.00000E+00
         0.00000E+00
         0.00000E+00
         0.00000E+00
         0.00000E+00
         0.00000E+00
         0.00000E+00
         0.00000E+00
         0.00000E+00
         0.00000E+00
         0.00000E+00
         0.00000E+00
         0.00000E+00
         0.00000E+00
         0.00000E+00
         0.00000E+00
         0.00000E+00
         0.00000E+00
         0.00000E+00
         0.00000E+00
         0.00000E+00
         0.00000E+00
         0.00000E+00
         0.00000E+00
         0.00000E+00
         0.00000E+00
         0.00000E+00
         0.00000E+00
         0.00000E+00
         0.00000E+00
         0.00000E+00
         0.00000E+00
         0.00000E+00
         0.00000E+00
         0.00000E+00
         0.00000E+00
         0.00000E+00
         0.00000E+00
         0.00000E+00
         0.00000E+00
         0.00000E+00
         0.00000E+00
         0.00000E+00
         0.00000E+00
         0.00000E+00
         0.00000E+00
         0.00000E+00
         0.00000E+00
         0.00000E+00
         0.00000E+00
         0.00000E+00
         0.00000E+00
         0.00000E+00
         0.00000E+00
         0.00000E+00
         0.00000E+00
         0.00000E+00
         0.00000E+00
         0.00000E+00
         0.00000E+00
         0.00000E+00
         0.00000E+00
         0.00000E+00
         0.00000E+00
         0.00000E+00
         0.00000E+00
         0.00000E+00
         0.00000E+00
         0.00000E+00
         0.00000E+00
         0.00000E+00
         0.00000E+00
         0.00000E+00
         0.00000E+00
         0.00000E+00
         0.00000E+00
         0.00000E+00
         0.00000E+00
         0.00000E+00
         0.00000E+00
         0.00000E+00
         0.00000E+00
         0.00000E+00
         0.00000E+00
         0.00000E+00
         0.00000E+00
         0.00000E+00
         0.00000E+00
         0.00000E+00
         0.00000E+00
         0.00000E+00
         0.00000E+00
         0.00000E+00
         0.00000E+00
         0.00000E+00
         0.00000E+00
         0.00000E+00
         0.00000E+00
         0.00000E+00
         0.00000E+00
         0.00000E+00
         0.00000E+00
         0.00000E+00
         0.00000E+00
         0.00000E+00
         0.00000E+00
         0.00000E+00
         0.00000E+00
         0.00000E+00
         0.00000E+00
         0.00000E+00
         0.00000E+00
         0.00000E+00
         0.00000E+00
         0.00000E+00
         0.00000E+00
         0.00000E+00
         0.00000E+00
         0.00000E+00
         0.00000E+00
         0.00000E+00
         0.00000E+00
         0.00000E+00
         0.00000E+00
         0.00000E+00
         0.00000E+00
         0.00000E+00
         0.00000E+00
         0.00000E+00
         0.00000E+00
         0.00000E+00
         0.00000E+00
         0.00000E+00
         0.00000E+00
         0.00000E+00
         0.00000E+00
         0.00000E+00
         0.00000E+00
         0.00000E+00
         0.00000E+00
         0.00000E+00
         0.00000E+00
         0.00000E+00
         0.00000E+00
         0.00000E+00
         0.00000E+00
         0.00000E+00
         0.00000E+00
         0.00000E+00
         0.00000E+00
         0.00000E+00
         0.00000E+00
         0.00000E+00
         0.00000E+00
         0.00000E+00
         0.00000E+00
         0.00000E+00
         0.00000E+00
         0.00000E+00
         0.00000E+00
         0.00000E+00
         0.00000E+00
         0.00000E+00
         0.00000E+00
         0.00000E+00
         0.00000E+00
         0.00000E+00
         0.00000E+00
         0.00000E+00
         0.00000E+00
         0.00000E+00
         0.00000E+00
         0.00000E+00
         0.00000E+00
         0.00000E+00
         0.00000E+00
         0.00000E+00
         0.00000E+00
         0.00000E+00
         0.00000E+00
         0.00000E+00
         0.00000E+00
         0.00000E+00
         0.00000E+00
         0.00000E+00
         0.00000E+00
         0.00000E+00
         0.00000E+00
         0.00000E+00
         0.00000E+00
         0.00000E+00
         0.00000E+00
         0.00000E+00
         0.00000E+00
         0.00000E+00
         0.00000E+00
         0.00000E+00
         0.00000E+00
         0.00000E+00
         0.00000E+00
         0.00000E+00
         0.00000E+00
         0.00000E+00
         0.00000E+00
         0.00000E+00
         0.00000E+00
         0.00000E+00
         0.00000E+00
         0.00000E+00
         0.00000E+00
         0.00000E+00
         0.00000E+00
         0.00000E+00
         0.00000E+00
         0.00000E+00
         0.00000E+00
         0.00000E+00
         0.00000E+00
         0.00000E+00
         0.00000E+00
         0.00000E+00
         0.00000E+00
         0.00000E+00
         0.00000E+00
         0.00000E+00
         0.00000E+00
         0.00000E+00
         0.00000E+00
         0.00000E+00
         0.00000E+00
         0.00000E+00
         0.00000E+00
         0.00000E+00
         0.00000E+00
         0.00000E+00
         0.00000E+00
         0.00000E+00
         0.00000E+00
         0.00000E+00
         0.00000E+00
         0.00000E+00
         0.00000E+00
         0.00000E+00
         0.00000E+00
         0.00000E+00
         0.00000E+00
         0.00000E+00
         0.00000E+00
         0.00000E+00
         0.00000E+00
         0.00000E+00
         0.00000E+00
         0.00000E+00
         0.00000E+00
         0.00000E+00
         0.00000E+00
         0.00000E+00
         0.00000E+00
         0.00000E+00
         0.00000E+00
         0.00000E+00
         0.00000E+00
         0.00000E+00
         0.00000E+00
         0.00000E+00
         0.00000E+00
         0.00000E+00
         0.00000E+00
         0.00000E+00
         0.00000E+00
         0.00000E+00
         0.00000E+00
         0.00000E+00
         0.00000E+00
         0.00000E+00
         0.00000E+00
         0.00000E+00
         0.00000E+00
         0.00000E+00
         0.00000E+00
         0.00000E+00
         0.00000E+00
         0.00000E+00
         0.00000E+00
         0.00000E+00
         0.00000E+00
         0.00000E+00
         0.00000E+00
         0.00000E+00
         0.00000E+00
         0.00000E+00
         0.00000E+00
         0.00000E+00
         0.00000E+00
         0.00000E+00
         0.00000E+00
         0.00000E+00
         0.00000E+00
         0.00000E+00
         0.00000E+00
         0.00000E+00
         0.00000E+00
         0.00000E+00
         0.00000E+00
         0.00000E+00
         0.00000E+00
         0.00000E+00
         0.00000E+00
         0.00000E+00
         0.00000E+00
         0.00000E+00
         0.00000E+00
         0.00000E+00
         0.00000E+00
         0.00000E+00
         0.00000E+00
         0.00000E+00
         0.00000E+00
         0.00000E+00
         0.00000E+00
         0.00000E+00
         0.00000E+00
         0.00000E+00
         0.00000E+00
         0.00000E+00
         0.00000E+00
         0.00000E+00
         0.00000E+00
         0.00000E+00
         0.00000E+00
         0.00000E+00
         0.00000E+00
         0.00000E+00
         0.00000E+00
         0.00000E+00
         0.00000E+00
         0.00000E+00
         0.00000E+00
         0.00000E+00
         0.00000E+00
         0.00000E+00
         0.00000E+00
         0.00000E+00
         0.00000E+00
         0.00000E+00
         0.00000E+00
         0.00000E+00
         0.00000E+00
         0.00000E+00
         0.00000E+00
         0.00000E+00
         0.00000E+00
         0.00000E+00
         0.00000E+00
         0.00000E+00
         0.00000E+00
         0.00000E+00
         0.00000E+00
         0.00000E+00
         0.00000E+00
         0.00000E+00
         0.00000E+00
         0.00000E+00
         0.00000E+00
         0.00000E+00
         0.00000E+00
         0.00000E+00
         0.00000E+00
         0.00000E+00
         0.00000E+00
         0.00000E+00
         0.00000E+00
         0.00000E+00
         0.00000E+00
         0.00000E+00
         0.00000E+00
         0.00000E+00
         0.00000E+00
         0.00000E+00
         0.00000E+00
         0.00000E+00
         0.00000E+00
         0.00000E+00
         0.00000E+00
         0.00000E+00
         0.00000E+00
         0.00000E+00
         0.00000E+00
         0.00000E+00
         0.00000E+00
         0.00000E+00
         0.00000E+00
         0.00000E+00
         0.00000E+00
         0.00000E+00
         0.00000E+00
         0.00000E+00
         0.00000E+00
         0.00000E+00
         0.00000E+00
         0.00000E+00
         0.00000E+00
         0.00000E+00
         0.00000E+00
         0.00000E+00
         0.00000E+00
         0.00000E+00
         0.00000E+00
         0.00000E+00
         0.00000E+00
         0.00000E+00
         0.00000E+00
         0.00000E+00
         0.00000E+00
         0.00000E+00
         0.00000E+00
         0.00000E+00
         0.00000E+00
         0.00000E+00
         0.00000E+00
         0.00000E+00
         0.00000E+00
         0.00000E+00
         0.00000E+00
         0.00000E+00
         0.00000E+00
         0.00000E+00
         0.00000E+00
         0.00000E+00
         0.00000E+00
         0.00000E+00
         0.00000E+00
         0.00000E+00
         0.00000E+00
         0.00000E+00
         0.00000E+00
         0.00000E+00
         0.00000E+00
         0.00000E+00
         0.00000E+00
         0.00000E+00
         0.00000E+00
         0.00000E+00
         0.00000E+00
         0.00000E+00
         0.00000E+00
         0.00000E+00
         0.00000E+00
         0.00000E+00
         0.00000E+00
         0.00000E+00
         0.00000E+00
         0.00000E+00
         0.00000E+00
         0.00000E+00
         0.00000E+00
         0.00000E+00
         0.00000E+00
         0.00000E+00
         0.00000E+00
         0.00000E+00
         0.00000E+00
         0.00000E+00
         0.00000E+00
         0.00000E+00
         0.00000E+00
         0.00000E+00
         0.00000E+00
         0.00000E+00
         0.00000E+00
         0.00000E+00
         0.00000E+00
         0.00000E+00
         0.00000E+00
         0.00000E+00
         0.00000E+00
         0.00000E+00
         0.00000E+00
         0.00000E+00
         0.00000E+00
         0.00000E+00
         0.00000E+00
         0.00000E+00
         0.00000E+00
         0.00000E+00
         0.00000E+00
         0.00000E+00
         0.00000E+00
         0.00000E+00
         0.00000E+00
         0.00000E+00
         0.00000E+00
         0.00000E+00
         0.00000E+00
         0.00000E+00
         0.00000E+00
         0.00000E+00
         0.00000E+00
         0.00000E+00
         0.00000E+00
         0.00000E+00
         0.00000E+00
         0.00000E+00
         0.00000E+00
         0.00000E+00
         0.00000E+00
         0.00000E+00
         0.00000E+00
         0.00000E+00
         0.00000E+00
         0.00000E+00
         0.00000E+00
         0.00000E+00
         0.00000E+00
         0.00000E+00
         0.00000E+00
         0.00000E+00
         0.00000E+00
         0.00000E+00
         0.00000E+00
         0.00000E+00
         0.00000E+00
         0.00000E+00
         0.00000E+00
         0.00000E+00
         0.00000E+00
         0.00000E+00
         0.00000E+00
         0.00000E+00
         0.00000E+00
         0.00000E+00
         0.00000E+00
         0.00000E+00
         0.00000E+00
         0.00000E+00
         0.00000E+00
         0.00000E+00
         0.00000E+00
         0.00000E+00
         0.00000E+00
         0.00000E+00
         0.00000E+00
         0.00000E+00
         0.00000E+00
         0.00000E+00
         0.00000E+00
         0.00000E+00
         0.00000E+00
         0.00000E+00
         0.00000E+00
         0.00000E+00
         0.00000E+00
         0.00000E+00
         0.00000E+00
         0.00000E+00
         0.00000E+00
         0.00000E+00
         0.00000E+00
         0.00000E+00
         0.00000E+00
         0.00000E+00
         0.00000E+00
         0.00000E+00
         0.00000E+00
         0.00000E+00
         0.00000E+00
         0.00000E+00
         0.00000E+00
         0.00000E+00
         0.00000E+00
         0.00000E+00
         0.00000E+00
         0.00000E+00
         0.00000E+00
         0.00000E+00
         0.00000E+00
         0.00000E+00
         0.00000E+00
         0.00000E+00
         0.00000E+00
         0.00000E+00
         0.00000E+00
         0.00000E+00
         0.00000E+00
         0.00000E+00
         0.00000E+00
         0.00000E+00
         0.00000E+00
         0.00000E+00
         0.00000E+00
         0.00000E+00
         0.00000E+00
         0.00000E+00
         0.00000E+00
         0.00000E+00
         0.00000E+00
         0.00000E+00
         0.00000E+00
         0.00000E+00
         0.00000E+00
         0.00000E+00
         0.00000E+00
         0.00000E+00
         0.00000E+00
         0.00000E+00
         0.00000E+00
         0.00000E+00
         0.00000E+00
         0.00000E+00
         0.00000E+00
         0.00000E+00
         0.00000E+00
         0.00000E+00
         0.00000E+00
         0.00000E+00
         0.00000E+00
         0.00000E+00
         0.00000E+00
         0.00000E+00
         0.00000E+00
         0.00000E+00
         0.00000E+00
         0.00000E+00
         0.00000E+00
         0.00000E+00
         0.00000E+00
         0.00000E+00
         0.00000E+00
         0.00000E+00
         0.00000E+00
         0.00000E+00
         0.00000E+00
         0.00000E+00
         0.00000E+00
         0.00000E+00
         0.00000E+00
         0.00000E+00
         0.00000E+00
         0.00000E+00
         0.00000E+00
         0.00000E+00
         0.00000E+00
         0.00000E+00
         0.00000E+00
         0.00000E+00
         0.00000E+00
         0.00000E+00
         0.00000E+00
         0.00000E+00
         0.00000E+00
         0.00000E+00
         0.00000E+00
         0.00000E+00
         0.00000E+00
         0.00000E+00
         0.00000E+00
         0.00000E+00
         0.00000E+00
         0.00000E+00
         0.00000E+00
         0.00000E+00
         0.00000E+00
         0.00000E+00
         0.00000E+00
         0.00000E+00
         0.00000E+00
         0.00000E+00
         0.00000E+00
         0.00000E+00
         0.00000E+00
         0.00000E+00
         0.00000E+00
         0.00000E+00
         0.00000E+00
         0.00000E+00
         0.00000E+00
         0.00000E+00
         0.00000E+00
         0.00000E+00
         0.00000E+00
         0.00000E+00
         0.00000E+00
         0.00000E+00
         0.00000E+00
         0.00000E+00
         0.00000E+00
         0.00000E+00
         0.00000E+00
         0.00000E+00
         0.00000E+00
         0.00000E+00
         0.00000E+00
         0.00000E+00
         0.00000E+00
         0.00000E+00
         0.00000E+00
         0.00000E+00
         0.00000E+00
         0.00000E+00
         0.00000E+00
         0.00000E+00
         0.00000E+00
         0.00000E+00
         0.00000E+00
         0.00000E+00
         0.00000E+00
         0.00000E+00
         0.00000E+00
         0.00000E+00
         0.00000E+00
         0.00000E+00
         0.00000E+00
         0.00000E+00
         0.00000E+00
         0.00000E+00
         0.00000E+00
         0.00000E+00
         0.00000E+00
         0.00000E+00
         0.00000E+00
         0.00000E+00
         0.00000E+00
         0.00000E+00
         0.00000E+00
         0.00000E+00
         0.00000E+00
         0.00000E+00
         0.00000E+00
         0.00000E+00
         0.00000E+00
         0.00000E+00
         0.00000E+00
         0.00000E+00
         0.00000E+00
         0.00000E+00
         0.00000E+00
         0.00000E+00
         0.00000E+00
         0.00000E+00
         0.00000E+00
         0.00000E+00
         0.00000E+00
         0.00000E+00
         0.00000E+00
         0.00000E+00
         0.00000E+00
         0.00000E+00
         0.00000E+00
         0.00000E+00
         0.00000E+00
         0.00000E+00
         0.00000E+00
         0.00000E+00
         0.00000E+00
         0.00000E+00
         0.00000E+00
         0.00000E+00
         0.00000E+00
         0.00000E+00
         0.00000E+00
         0.00000E+00
         0.00000E+00
         0.00000E+00
         0.00000E+00
         0.00000E+00
         0.00000E+00
         0.00000E+00
         0.00000E+00
         0.00000E+00
         0.00000E+00
         0.00000E+00
         0.00000E+00
         0.00000E+00
         0.00000E+00
         0.00000E+00
         0.00000E+00
         0.00000E+00
         0.00000E+00
         0.00000E+00
         0.00000E+00
         0.00000E+00
         0.00000E+00
         0.00000E+00
         0.00000E+00
         0.00000E+00
         0.00000E+00
         0.00000E+00
         0.00000E+00
         0.00000E+00
         0.00000E+00
         0.00000E+00
         0.00000E+00
         0.00000E+00
         0.00000E+00
         0.00000E+00
         0.00000E+00
         0.00000E+00
         0.00000E+00
         0.00000E+00
         0.00000E+00
         0.00000E+00
         0.00000E+00
         0.00000E+00
         0.00000E+00
         0.00000E+00
         0.00000E+00
         0.00000E+00
         0.00000E+00
         0.00000E+00
         0.00000E+00
         0.00000E+00
         0.00000E+00
         0.00000E+00
         0.00000E+00
         0.00000E+00
         0.00000E+00
         0.00000E+00
         0.00000E+00
         0.00000E+00
         0.00000E+00
         0.00000E+00
         0.00000E+00
         0.00000E+00
         0.00000E+00
         0.00000E+00
         0.00000E+00
         0.00000E+00
         0.00000E+00
         0.00000E+00
         0.00000E+00
         0.00000E+00
         0.00000E+00
         0.00000E+00
         0.00000E+00
         0.00000E+00
         0.00000E+00
         0.00000E+00
         0.00000E+00
         0.00000E+00
         0.00000E+00
         0.00000E+00
         0.00000E+00
         0.00000E+00
         0.00000E+00
         0.00000E+00
         0.00000E+00
         0.00000E+00
         0.00000E+00
         0.00000E+00
         0.00000E+00
         0.00000E+00
         0.00000E+00
         0.00000E+00
         0.00000E+00
         0.00000E+00
         0.00000E+00
         0.00000E+00
         0.00000E+00
         0.00000E+00
         0.00000E+00
         0.00000E+00
         0.00000E+00
         0.00000E+00
         0.00000E+00
         0.00000E+00
         0.00000E+00
         0.00000E+00
         0.00000E+00
         0.00000E+00
         0.00000E+00
         0.00000E+00
         0.00000E+00
         0.00000E+00
         0.00000E+00
         0.00000E+00
         0.00000E+00
         0.00000E+00
         0.00000E+00
         0.00000E+00
         0.00000E+00
         0.00000E+00
         0.00000E+00
         0.00000E+00
         0.00000E+00
         0.00000E+00
         0.00000E+00
         0.00000E+00
         0.00000E+00
         0.00000E+00
         0.00000E+00
         0.00000E+00
         0.00000E+00
         0.00000E+00
         0.00000E+00
         0.00000E+00
         0.00000E+00
         0.00000E+00
         0.00000E+00
         0.00000E+00
         0.00000E+00
         0.00000E+00
         0.00000E+00
         0.00000E+00
         0.00000E+00
         0.00000E+00
         0.00000E+00
         0.00000E+00
         0.00000E+00
         0.00000E+00
         0.00000E+00
         0.00000E+00
         0.00000E+00
         0.00000E+00
         0.00000E+00
         0.00000E+00
         0.00000E+00
         0.00000E+00
         0.00000E+00
         0.00000E+00
         0.00000E+00
         0.00000E+00
         0.00000E+00
         0.00000E+00
         0.00000E+00
         0.00000E+00
         0.00000E+00
         0.00000E+00
         0.00000E+00
         0.00000E+00
         0.00000E+00
         0.00000E+00
         0.00000E+00
         0.00000E+00
         0.00000E+00
         0.00000E+00
         0.00000E+00
         0.00000E+00
         0.00000E+00
         0.00000E+00
         0.00000E+00
         0.00000E+00
         0.00000E+00
         0.00000E+00
         0.00000E+00
         0.00000E+00
         0.00000E+00
         0.00000E+00
         0.00000E+00
         0.00000E+00
         0.00000E+00
         0.00000E+00
         0.00000E+00
         0.00000E+00
         0.00000E+00
         0.00000E+00
         0.00000E+00
         0.00000E+00
         0.00000E+00
         0.00000E+00
         0.00000E+00
         0.00000E+00
         0.00000E+00
         0.00000E+00
         0.00000E+00
         0.00000E+00
         0.00000E+00
         0.00000E+00
         0.00000E+00
         0.00000E+00
         0.00000E+00
         0.00000E+00
         0.00000E+00
         0.00000E+00
         0.00000E+00
         0.00000E+00
         0.00000E+00
         0.00000E+00
         0.00000E+00
         0.00000E+00
         0.00000E+00
         0.00000E+00
         0.00000E+00
         0.00000E+00
         0.00000E+00
         0.00000E+00
         0.00000E+00
         0.00000E+00
         0.00000E+00
         0.00000E+00
         0.00000E+00
         0.00000E+00
         0.00000E+00
         0.00000E+00
         0.00000E+00
         0.00000E+00
         0.00000E+00
         0.00000E+00
         0.00000E+00
         0.00000E+00
         0.00000E+00
         0.00000E+00
         0.00000E+00
         0.00000E+00
         0.00000E+00
         0.00000E+00
         0.00000E+00
         0.00000E+00
         0.00000E+00
         0.00000E+00
         0.00000E+00
         0.00000E+00
         0.00000E+00
         0.00000E+00
         0.00000E+00
         0.00000E+00
         0.00000E+00
         0.00000E+00
         0.00000E+00
         0.00000E+00
         0.00000E+00
         0.00000E+00
         0.00000E+00
         0.00000E+00
         0.00000E+00
         0.00000E+00
         0.00000E+00
         0.00000E+00
         0.00000E+00
         0.00000E+00
         0.00000E+00
         0.00000E+00
         0.00000E+00
         0.00000E+00
         0.00000E+00
         0.00000E+00
         0.00000E+00
         0.00000E+00
         0.00000E+00
         0.00000E+00
         0.00000E+00
         0.00000E+00
         0.00000E+00
         0.00000E+00
         0.00000E+00
         0.00000E+00
         0.00000E+00
         0.00000E+00
         0.00000E+00
         0.00000E+00
         0.00000E+00
         0.00000E+00
         0.00000E+00
         0.00000E+00
         0.00000E+00
         0.00000E+00
         0.00000E+00
         0.00000E+00
         0.00000E+00
         0.00000E+00
         0.00000E+00
         0.00000E+00
         0.00000E+00
         0.00000E+00
         0.00000E+00
         0.00000E+00
         0.00000E+00
         0.00000E+00
         0.00000E+00
         0.00000E+00
         0.00000E+00
         0.00000E+00
         0.00000E+00
         0.00000E+00
         0.00000E+00
         0.00000E+00
         0.00000E+00
         0.00000E+00
         0.00000E+00
         0.00000E+00
         0.00000E+00
         0.00000E+00
         0.00000E+00
         0.00000E+00
         0.00000E+00
         0.00000E+00
         0.00000E+00
         0.00000E+00
         0.00000E+00
         0.00000E+00
         0.00000E+00
         0.00000E+00
         0.00000E+00
         0.00000E+00
         0.00000E+00
         0.00000E+00
         0.00000E+00
         0.00000E+00
         0.00000E+00
         0.00000E+00
         0.00000E+00
         0.00000E+00
         0.00000E+00
         0.00000E+00
         0.00000E+00
         0.00000E+00
         0.00000E+00
         0.00000E+00
         0.00000E+00
         0.00000E+00
         0.00000E+00
         0.00000E+00
         0.00000E+00
         0.00000E+00
         0.00000E+00
         0.00000E+00
         0.00000E+00
         0.00000E+00
         0.00000E+00
         0.00000E+00
         0.00000E+00
         0.00000E+00
         0.00000E+00
         0.00000E+00
         0.00000E+00
         0.00000E+00
         0.00000E+00
         0.00000E+00
         0.00000E+00
         0.00000E+00
         0.00000E+00
         0.00000E+00
         0.00000E+00
         0.00000E+00
         0.00000E+00
         0.00000E+00
         0.00000E+00
         0.00000E+00
         0.00000E+00
         0.00000E+00
         0.00000E+00
         0.00000E+00
         0.00000E+00
         0.00000E+00
         0.00000E+00
         0.00000E+00
         0.00000E+00
         0.00000E+00
         0.00000E+00
         0.00000E+00
         0.00000E+00
         0.00000E+00
         0.00000E+00
         0.00000E+00
         0.00000E+00
         0.00000E+00
         0.00000E+00
         0.00000E+00
         0.00000E+00
         0.00000E+00
         0.00000E+00
         0.00000E+00
         0.00000E+00
         0.00000E+00
         0.00000E+00
         0.00000E+00
         0.00000E+00
         0.00000E+00
         0.00000E+00
         0.00000E+00
         0.00000E+00
         0.00000E+00
         0.00000E+00
         0.00000E+00
         0.00000E+00
         0.00000E+00
         0.00000E+00
         0.00000E+00
         0.00000E+00
         0.00000E+00
         0.00000E+00
         0.00000E+00
         0.00000E+00
         0.00000E+00
         0.00000E+00
         0.00000E+00
         0.00000E+00
         0.00000E+00
         0.00000E+00
         0.00000E+00
         0.00000E+00
         0.00000E+00
         0.00000E+00
         0.00000E+00
         0.00000E+00
         0.00000E+00
         0.00000E+00
         0.00000E+00
         0.00000E+00
         0.00000E+00
         0.00000E+00
         0.00000E+00
         0.00000E+00
         0.00000E+00
         0.00000E+00
         0.00000E+00
         0.00000E+00
         0.00000E+00
         0.00000E+00
         0.00000E+00
         0.00000E+00
         0.00000E+00
         0.00000E+00
         0.00000E+00
         0.00000E+00
         0.00000E+00
         0.00000E+00
         0.00000E+00
         0.00000E+00
         0.00000E+00
         0.00000E+00
         0.00000E+00
         0.00000E+00
         0.00000E+00
         0.00000E+00
         0.00000E+00
         0.00000E+00
         0.00000E+00
         0.00000E+00
         0.00000E+00
         0.00000E+00
         0.00000E+00
         0.00000E+00
         0.00000E+00
         0.00000E+00
         0.00000E+00
         0.00000E+00
         0.00000E+00
         0.00000E+00
         0.00000E+00
         0.00000E+00
         0.00000E+00
         0.00000E+00
         0.00000E+00
         0.00000E+00
         0.00000E+00
         0.00000E+00
         0.00000E+00
         0.00000E+00
         0.00000E+00
         0.00000E+00
         0.00000E+00
         0.00000E+00
         0.00000E+00
         0.00000E+00
         0.00000E+00
         0.00000E+00
         0.00000E+00
         0.00000E+00
         0.00000E+00
         0.00000E+00
         0.00000E+00
         0.00000E+00
         0.00000E+00
         0.00000E+00
         0.00000E+00
         0.00000E+00
         0.00000E+00
         0.00000E+00
         0.00000E+00
         0.00000E+00
         0.00000E+00
         0.00000E+00
         0.00000E+00
         0.00000E+00
         0.00000E+00
         0.00000E+00
         0.00000E+00
         0.00000E+00
         0.00000E+00
         0.00000E+00
         0.00000E+00
         0.00000E+00
         0.00000E+00
         0.00000E+00
         0.00000E+00
         0.00000E+00
         0.00000E+00
         0.00000E+00
         0.00000E+00
         0.00000E+00
         0.00000E+00
         0.00000E+00
         0.00000E+00
         0.00000E+00
         0.00000E+00
         0.00000E+00
         0.00000E+00
         0.00000E+00
         0.00000E+00
         0.00000E+00
         0.00000E+00
         0.00000E+00
         0.00000E+00
         0.00000E+00
         0.00000E+00
         0.00000E+00
         0.00000E+00
         0.00000E+00
         0.00000E+00
         0.00000E+00
         0.00000E+00
         0.00000E+00
         0.00000E+00
         0.00000E+00
         0.00000E+00
         0.00000E+00
         0.00000E+00
         0.00000E+00
         0.00000E+00
         0.00000E+00
         0.00000E+00
         0.00000E+00
         0.00000E+00
         0.00000E+00
         0.00000E+00
         0.00000E+00
         0.00000E+00
         0.00000E+00
         0.00000E+00
         0.00000E+00
         0.00000E+00
         0.00000E+00
         0.00000E+00
         0.00000E+00
         0.00000E+00
         0.00000E+00
         0.00000E+00
         0.00000E+00
         0.00000E+00
         0.00000E+00
         0.00000E+00
         0.00000E+00
         0.00000E+00
         0.00000E+00
         0.00000E+00
         0.00000E+00
         0.00000E+00
         0.00000E+00
         0.00000E+00
         0.00000E+00
         0.00000E+00
         0.00000E+00
         0.00000E+00
         0.00000E+00
         0.00000E+00
         0.00000E+00
         0.00000E+00
         0.00000E+00
         0.00000E+00
         0.00000E+00
         0.00000E+00
         0.00000E+00
         0.00000E+00
         0.00000E+00
         0.00000E+00
         0.00000E+00
         0.00000E+00
         0.00000E+00
         0.00000E+00
         0.00000E+00
         0.00000E+00
         0.00000E+00
         0.00000E+00
         0.00000E+00
         0.00000E+00
         0.00000E+00
         0.00000E+00
         0.00000E+00
         0.00000E+00
         0.00000E+00
         0.00000E+00
         0.00000E+00
         0.00000E+00
         0.00000E+00
         0.00000E+00
         0.00000E+00
         0.00000E+00
         0.00000E+00
         0.00000E+00
         0.00000E+00
         0.00000E+00
         0.00000E+00
         0.00000E+00
         0.00000E+00
         0.00000E+00
         0.00000E+00
         0.00000E+00
         0.00000E+00
         0.00000E+00
         0.00000E+00
         0.00000E+00
         0.00000E+00
         0.00000E+00
         0.00000E+00
         0.00000E+00
         0.00000E+00
         0.00000E+00
         0.00000E+00
         0.00000E+00
         0.00000E+00
         0.00000E+00
         0.00000E+00
         0.00000E+00
         0.00000E+00
         0.00000E+00
         0.00000E+00
         0.00000E+00
         0.00000E+00
         0.00000E+00
         0.00000E+00
         0.00000E+00
         0.00000E+00
         0.00000E+00
         0.00000E+00
         0.00000E+00
         0.00000E+00
         0.00000E+00
         0.00000E+00
         0.00000E+00
         0.00000E+00
         0.00000E+00
         0.00000E+00
         0.00000E+00
         0.00000E+00
         0.00000E+00
         0.00000E+00
         0.00000E+00
         0.00000E+00
         0.00000E+00
         0.00000E+00
         0.00000E+00
         0.00000E+00
         0.00000E+00
         0.00000E+00
         0.00000E+00
         0.00000E+00
         0.00000E+00
         0.00000E+00
         0.00000E+00
         0.00000E+00
         0.00000E+00
         0.00000E+00
         0.00000E+00
         0.00000E+00
         0.00000E+00
         0.00000E+00
         0.00000E+00
         0.00000E+00
         0.00000E+00
         0.00000E+00
         0.00000E+00
         0.00000E+00
         0.00000E+00
         0.00000E+00
         0.00000E+00
         0.00000E+00
         0.00000E+00
         0.00000E+00
         0.00000E+00
         0.00000E+00
         0.00000E+00
         0.00000E+00
         0.00000E+00
         0.00000E+00
         0.00000E+00
         0.00000E+00
         0.00000E+00
         0.00000E+00
         0.00000E+00
         0.00000E+00
         0.00000E+00
         0.00000E+00
         0.00000E+00
         0.00000E+00
         0.00000E+00
         0.00000E+00
         0.00000E+00
         0.00000E+00
         0.00000E+00
         0.00000E+00
         0.00000E+00
         0.00000E+00
         0.00000E+00
         0.00000E+00
         0.00000E+00
         0.00000E+00
         0.00000E+00
         0.00000E+00
         0.00000E+00
         0.00000E+00
         0.00000E+00
         0.00000E+00
         0.00000E+00
         0.00000E+00
         0.00000E+00
         0.00000E+00
         0.00000E+00
         0.00000E+00
         0.00000E+00
         0.00000E+00
         0.00000E+00
         0.00000E+00
         0.00000E+00
         0.00000E+00
         0.00000E+00
         0.00000E+00
         0.00000E+00
         0.00000E+00
         0.00000E+00
         0.00000E+00
         0.00000E+00
         0.00000E+00
         0.00000E+00
         0.00000E+00
         0.00000E+00
         0.00000E+00
         0.00000E+00
         0.00000E+00
         0.00000E+00
         0.00000E+00
         0.00000E+00
         0.00000E+00
         0.00000E+00
         0.00000E+00
         0.00000E+00
         0.00000E+00
         0.00000E+00
         0.00000E+00
         0.00000E+00
         0.00000E+00
         0.00000E+00
         0.00000E+00
         0.00000E+00
         0.00000E+00
         0.00000E+00
         0.00000E+00
         0.00000E+00
         0.00000E+00
         0.00000E+00
         0.00000E+00
         0.00000E+00
         0.00000E+00
         0.00000E+00
         0.00000E+00
         0.00000E+00
         0.00000E+00
         0.00000E+00
         0.00000E+00
         0.00000E+00
         0.00000E+00
         0.00000E+00
         0.00000E+00
         0.00000E+00
         0.00000E+00
         0.00000E+00
         0.00000E+00
         0.00000E+00
         0.00000E+00
         0.00000E+00
         0.00000E+00
         0.00000E+00
         0.00000E+00
         0.00000E+00
         0.00000E+00
         0.00000E+00
         0.00000E+00
         0.00000E+00
         0.00000E+00
         0.00000E+00
         0.00000E+00
         0.00000E+00
         0.00000E+00
         0.00000E+00
         0.00000E+00
         0.00000E+00
         0.00000E+00
         0.00000E+00
         0.00000E+00
         0.00000E+00
         0.00000E+00
         0.00000E+00
         0.00000E+00
         0.00000E+00
         0.00000E+00
         0.00000E+00
         0.00000E+00
         0.00000E+00
         0.00000E+00
         0.00000E+00
         0.00000E+00
         0.00000E+00
         0.00000E+00
         0.00000E+00
         0.00000E+00
         0.00000E+00
         0.00000E+00
         0.00000E+00
         0.00000E+00
         0.00000E+00
         0.00000E+00
         0.00000E+00
         0.00000E+00
         0.00000E+00
         0.00000E+00
         0.00000E+00
         0.00000E+00
         0.00000E+00
         0.00000E+00
         0.00000E+00
         0.00000E+00
         0.00000E+00
         0.00000E+00
         0.00000E+00
         0.00000E+00
         0.00000E+00
         0.00000E+00
         0.00000E+00
         0.00000E+00
         0.00000E+00
         0.00000E+00
         0.00000E+00
         0.00000E+00
         0.00000E+00
         0.00000E+00
         0.00000E+00
         0.00000E+00
         0.00000E+00
         0.00000E+00
         0.00000E+00
  
SCALARS                      stress_xx  double 1
LOOKUP_TABLE default
         0.77207E+12
         0.76175E+12
         0.76830E+12
         0.78003E+12
        -0.15290E+03
        -0.17145E+03
        -0.16417E+03
        -0.14914E+03
         0.76139E+12
         0.76489E+12
        -0.15418E+03
        -0.14921E+03
         0.74680E+12
         0.74624E+12
        -0.18320E+03
        -0.17225E+03
         0.77831E+12
         0.74705E+12
        -0.13536E+03
        -0.15014E+03
         0.73555E+12
         0.72661E+12
         0.74083E+12
        -0.18157E+03
        -0.15857E+03
        -0.16374E+03
         0.72696E+12
         0.71390E+12
        -0.17419E+03
        -0.14690E+03
         0.77774E+12
         0.76415E+12
         0.79091E+12
        -0.14865E+03
        -0.13819E+03
        -0.13436E+03
         0.76988E+12
         0.75255E+12
        -0.15726E+03
        -0.14350E+03
         0.76302E+12
         0.74965E+12
        -0.13592E+03
        -0.12033E+03
         0.77433E+12
         0.77935E+12
        -0.14895E+03
        -0.16643E+03
         0.73891E+12
        -0.14551E+03
         0.77837E+12
        -0.17098E+03
         0.72320E+12
        -0.15366E+03
         0.71909E+12
        -0.14739E+03
         0.71916E+12
         0.73374E+12
        -0.15018E+03
        -0.14626E+03
         0.77747E+12
         0.77224E+12
        -0.15059E+03
        -0.17024E+03
         0.78073E+12
        -0.14531E+03
         0.77452E+12
        -0.15859E+03
         0.75817E+12
         0.75654E+12
        -0.15266E+03
        -0.15996E+03
         0.75284E+12
        -0.16130E+03
         0.70926E+12
        -0.12744E+03
         0.70697E+12
        -0.12370E+03
         0.70811E+12
        -0.13043E+03
         0.71442E+12
         0.72099E+12
        -0.12427E+03
        -0.12955E+03
         0.73421E+12
        -0.12066E+03
         0.77407E+12
        -0.15823E+03
         0.76786E+12
        -0.16195E+03
         0.76276E+12
         0.75996E+12
        -0.15552E+03
        -0.15734E+03
         0.76341E+12
        -0.14291E+03
         0.76586E+12
        -0.14087E+03
         0.76365E+12
        -0.15080E+03
         0.76286E+12
         0.76511E+12
        -0.14788E+03
        -0.15222E+03
         0.75055E+12
         0.75646E+12
        -0.11482E+03
        -0.10799E+03
         0.74943E+12
        -0.10964E+03
         0.75625E+12
        -0.10512E+03
         0.74952E+12
        -0.10366E+03
         0.73462E+12
        -0.97957E+02
         0.72016E+12
        -0.87024E+02
         0.71149E+12
        -0.78361E+02
         0.71060E+12
        -0.77816E+02
         0.71088E+12
        -0.84387E+02
         0.72028E+12
        -0.88689E+02
         0.73783E+12
        -0.80982E+02
         0.75708E+12
        -0.72997E+02
         0.76835E+12
        -0.72914E+02
         0.77947E+12
        -0.81499E+02
         0.78681E+12
        -0.92928E+02
         0.78654E+12
        -0.99833E+02
         0.76870E+12
        -0.10782E+03
         0.75625E+12
        -0.11551E+03
         0.75197E+12
        -0.10582E+03
         0.75865E+12
        -0.92830E+02
         0.76213E+12
        -0.92543E+02
         0.75629E+12
        -0.10125E+03
         0.75638E+12
        -0.10794E+03
         0.76078E+12
        -0.10244E+03
         0.76652E+12
        -0.99033E+02
        -0.32031E+11
        -0.31905E+11
        -0.31923E+11
        -0.32078E+11
        -0.31764E+11
        -0.31938E+11
        -0.31717E+11
        -0.31838E+11
        -0.32056E+11
        -0.31928E+11
        -0.31526E+11
        -0.31459E+11
        -0.31633E+11
        -0.31644E+11
        -0.31534E+11
        -0.32072E+11
        -0.32045E+11
        -0.32117E+11
        -0.31890E+11
        -0.31937E+11
        -0.31869E+11
        -0.31914E+11
        -0.31828E+11
        -0.31851E+11
        -0.31933E+11
        -0.31927E+11
        -0.31783E+11
        -0.31797E+11
        -0.31675E+11
        -0.31854E+11
        -0.32059E+11
        -0.31903E+11
        -0.32058E+11
        -0.31959E+11
        -0.31412E+11
        -0.31653E+11
        -0.31736E+11
        -0.31634E+11
        -0.31617E+11
        -0.31394E+11
        -0.31220E+11
        -0.31626E+11
        -0.31872E+11
        -0.31843E+11
        -0.31729E+11
        -0.31422E+11
        -0.31698E+11
        -0.31880E+11
        -0.31869E+11
        -0.31728E+11
        -0.31516E+11
        -0.31780E+11
        -0.30753E+11
        -0.31109E+11
        -0.31053E+11
        -0.31132E+11
        -0.31112E+11
        -0.30924E+11
        -0.30721E+11
        -0.30653E+11
        -0.30682E+11
        -0.30661E+11
        -0.30570E+11
        -0.31094E+11
        -0.31273E+11
        -0.31339E+11
        -0.31448E+11
        -0.31528E+11
        -0.31524E+11
        -0.31386E+11
        -0.30876E+11
        -0.31005E+11
        -0.31183E+11
        -0.31181E+11
        -0.31151E+11
        -0.30978E+11
        -0.31229E+11
        -0.31317E+11
         0.11339E+07
         0.50534E+06
         0.63850E+06
         0.62863E+06
         0.38068E+06
         0.75144E+06
        -0.42282E+06
        -0.89179E+06
         0.14276E+07
        -0.98115E+06
        -0.11061E+07
        -0.42617E+05
        -0.67941E+05
        -0.33612E+07
        -0.10517E+07
        -0.23487E+06
         0.22382E+06
         0.67967E+06
        -0.18146E+05
        -0.14059E+06
        -0.11719E+07
        -0.54902E+06
        -0.16749E+07
        -0.64894E+06
        -0.10907E+07
        -0.16346E+06
        -0.42926E+07
        -0.23045E+07
        -0.13982E+07
        -0.10681E+07
        -0.12653E+06
        -0.45116E+06
         0.60853E+06
         0.11008E+07
        -0.97230E+06
        -0.66505E+06
        -0.30578E+06
        -0.13290E+07
        -0.86966E+06
        -0.54378E+06
        -0.75393E+06
        -0.13221E+07
        -0.11189E+07
        -0.13660E+07
        -0.10283E+07
        -0.45298E+06
        -0.19961E+06
        -0.22590E+06
         0.60855E+06
         0.10071E+07
         0.39372E+06
         0.52592E+06
        -0.28095E+07
        -0.54549E+06
        -0.16305E+07
         0.40567E+06
         0.21377E+07
         0.33734E+07
         0.27887E+07
         0.30335E+07
         0.24105E+07
         0.12849E+07
         0.32813E+06
        -0.42361E+06
        -0.11143E+07
        -0.20908E+06
        -0.17691E+07
        -0.27795E+07
        -0.23228E+07
        -0.20401E+07
        -0.10931E+07
         0.59508E+06
         0.59051E+06
         0.53930E+05
        -0.90183E+06
        -0.14418E+07
        -0.93109E+06
        -0.51650E+05
         0.10642E+07
         0.43833E+06
         0.57303E+06
         0.57605E+06
         0.29812E+06
         0.67799E+06
        -0.48586E+06
        -0.97074E+06
         0.13590E+07
        -0.10671E+07
        -0.11823E+07
        -0.15193E+06
        -0.16221E+06
        -0.34436E+07
        -0.11600E+07
        -0.30782E+06
         0.15626E+06
         0.63137E+06
        -0.93000E+05
        -0.20811E+06
        -0.12651E+07
        -0.63983E+06
        -0.17707E+07
        -0.71891E+06
        -0.11805E+07
        -0.22728E+06
        -0.43738E+07
        -0.23719E+07
        -0.14752E+07
        -0.11613E+07
        -0.19542E+06
        -0.51194E+06
         0.55483E+06
         0.10491E+07
        -0.10677E+07
        -0.74403E+06
        -0.38759E+06
        -0.14383E+07
        -0.97085E+06
        -0.64324E+06
        -0.86160E+06
        -0.14272E+07
        -0.12186E+07
        -0.14576E+07
        -0.11144E+07
        -0.54912E+06
        -0.28558E+06
        -0.30615E+06
         0.53752E+06
         0.93399E+06
         0.30612E+06
         0.44811E+06
        -0.29863E+07
        -0.71784E+06
        -0.18001E+07
         0.24310E+06
         0.19658E+07
         0.31819E+07
         0.25974E+07
         0.28399E+07
         0.22151E+07
         0.10851E+07
         0.12921E+06
        -0.60749E+06
        -0.12678E+07
        -0.35243E+06
        -0.19194E+07
        -0.29399E+07
        -0.24867E+07
        -0.22115E+07
        -0.12650E+07
         0.41315E+06
         0.41892E+06
        -0.10109E+06
        -0.10570E+07
        -0.16007E+07
        -0.10918E+07
        -0.21534E+06
         0.10803E+07
         0.45146E+06
         0.58693E+06
         0.59105E+06
         0.32054E+06
         0.69853E+06
        -0.47533E+06
        -0.95177E+06
         0.13710E+07
        -0.10630E+07
        -0.11659E+07
        -0.13116E+06
        -0.14454E+06
        -0.34206E+07
        -0.11330E+07
        -0.32297E+06
         0.15267E+06
         0.64578E+06
        -0.11138E+06
        -0.22017E+06
        -0.12802E+07
        -0.64561E+06
        -0.18336E+07
        -0.76942E+06
        -0.12196E+07
        -0.27209E+06
        -0.43581E+07
        -0.23796E+07
        -0.15082E+07
        -0.12265E+07
        -0.19608E+06
        -0.52578E+06
         0.57151E+06
         0.10668E+07
        -0.10432E+07
        -0.72365E+06
        -0.36923E+06
        -0.14199E+07
        -0.95519E+06
        -0.63835E+06
        -0.86440E+06
        -0.14656E+07
        -0.12722E+07
        -0.15187E+07
        -0.11289E+07
        -0.53577E+06
        -0.26986E+06
        -0.28850E+06
         0.55704E+06
         0.95647E+06
         0.33123E+06
         0.47046E+06
        -0.29335E+07
        -0.67051E+06
        -0.17477E+07
         0.28338E+06
         0.19958E+07
         0.32116E+07
         0.26354E+07
         0.28779E+07
         0.22537E+07
         0.11251E+07
         0.15275E+06
        -0.60834E+06
        -0.12653E+07
        -0.32599E+06
        -0.19019E+07
        -0.29725E+07
        -0.25219E+07
        -0.22023E+07
        -0.12177E+07
         0.46787E+06
         0.46792E+06
        -0.51603E+05
        -0.10013E+07
        -0.15540E+07
        -0.10538E+07
        -0.17874E+06
         0.10703E+07
         0.44575E+06
         0.58144E+06
         0.58334E+06
         0.31333E+06
         0.69281E+06
        -0.48256E+06
        -0.96129E+06
         0.13515E+07
        -0.10996E+07
        -0.11731E+07
        -0.14257E+06
        -0.15230E+06
        -0.34285E+07
        -0.11462E+07
        -0.38120E+06
         0.11271E+06
         0.63802E+06
        -0.17682E+06
        -0.27684E+06
        -0.13508E+07
        -0.70833E+06
        -0.19799E+07
        -0.88232E+06
        -0.13263E+07
        -0.37388E+06
        -0.43803E+07
        -0.24340E+07
        -0.16021E+07
        -0.13826E+07
        -0.23004E+06
        -0.58069E+06
         0.56475E+06
         0.10589E+07
        -0.10557E+07
        -0.73126E+06
        -0.37560E+06
        -0.14405E+07
        -0.98047E+06
        -0.68385E+06
        -0.92540E+06
        -0.15847E+07
        -0.14179E+07
        -0.16632E+07
        -0.11999E+07
        -0.57442E+06
        -0.29743E+06
        -0.30372E+06
         0.54503E+06
         0.94265E+06
         0.31820E+06
         0.46218E+06
        -0.29582E+07
        -0.68741E+06
        -0.17744E+07
         0.25993E+06
         0.19801E+07
         0.31935E+07
         0.26049E+07
         0.28448E+07
         0.22219E+07
         0.10865E+07
         0.91472E+05
        -0.70724E+06
        -0.13583E+07
        -0.37009E+06
        -0.19516E+07
        -0.31089E+07
        -0.26664E+07
        -0.22700E+07
        -0.12498E+07
         0.43720E+06
         0.44464E+06
        -0.79160E+05
        -0.10299E+07
        -0.15735E+07
        -0.10687E+07
        -0.19358E+06
         0.10522E+07
         0.43420E+06
         0.57189E+06
         0.57534E+06
         0.30491E+06
         0.68462E+06
        -0.49275E+06
        -0.97767E+06
         0.13281E+07
        -0.11377E+07
        -0.11809E+07
        -0.14973E+06
        -0.16093E+06
        -0.34373E+07
        -0.11524E+07
        -0.42085E+06
         0.80975E+05
         0.63090E+06
        -0.21987E+06
        -0.31738E+06
        -0.13962E+07
        -0.75338E+06
        -0.20698E+07
        -0.95230E+06
        -0.14036E+07
        -0.43919E+06
        -0.43996E+07
        -0.24728E+07
        -0.16679E+07
        -0.14865E+07
        -0.26555E+06
        -0.62071E+06
         0.54984E+06
         0.10475E+07
        -0.10687E+07
        -0.74110E+06
        -0.38525E+06
        -0.14558E+07
        -0.10015E+07
        -0.71851E+06
        -0.96842E+06
        -0.16649E+07
        -0.15135E+07
        -0.17549E+07
        -0.12465E+07
        -0.59985E+06
        -0.32188E+06
        -0.32789E+06
         0.52407E+06
         0.92220E+06
         0.29774E+06
         0.44859E+06
        -0.29803E+07
        -0.70216E+06
        -0.17971E+07
         0.24168E+06
         0.19728E+07
         0.31881E+07
         0.25919E+07
         0.28229E+07
         0.21949E+07
         0.10626E+07
         0.54175E+05
        -0.77566E+06
        -0.14217E+07
        -0.40417E+06
        -0.19867E+07
        -0.31974E+07
        -0.27678E+07
        -0.23184E+07
        -0.12644E+07
         0.40934E+06
         0.41376E+06
        -0.11078E+06
        -0.10668E+07
        -0.16053E+07
        -0.10883E+07
        -0.20837E+06
         0.10084E+07
         0.41206E+06
         0.56246E+06
         0.58348E+06
         0.31680E+06
         0.69913E+06
        -0.50047E+06
        -0.10070E+07
         0.12951E+07
        -0.11894E+07
        -0.11737E+07
        -0.12544E+06
        -0.15177E+06
        -0.34316E+07
        -0.11215E+07
        -0.41449E+06
         0.73432E+05
         0.64565E+06
        -0.21098E+06
        -0.31038E+06
        -0.13827E+07
        -0.73746E+06
        -0.20678E+07
        -0.95377E+06
        -0.14373E+07
        -0.44860E+06
        -0.44042E+07
        -0.24760E+07
        -0.16678E+07
        -0.14904E+07
        -0.30782E+06
        -0.64190E+06
         0.52372E+06
         0.10452E+07
        -0.10580E+07
        -0.73965E+06
        -0.38687E+06
        -0.14371E+07
        -0.98558E+06
        -0.70082E+06
        -0.94749E+06
        -0.16527E+07
        -0.15033E+07
        -0.17604E+07
        -0.12521E+07
        -0.60399E+06
        -0.34301E+06
        -0.37617E+06
         0.47259E+06
         0.89440E+06
         0.29115E+06
         0.45541E+06
        -0.29370E+07
        -0.65733E+06
        -0.17605E+07
         0.26609E+06
         0.19985E+07
         0.32230E+07
         0.26313E+07
         0.28607E+07
         0.22384E+07
         0.11201E+07
         0.10445E+06
        -0.74531E+06
        -0.13882E+07
        -0.36925E+06
        -0.19531E+07
        -0.31705E+07
        -0.27482E+07
        -0.22990E+07
        -0.12409E+07
         0.42547E+06
         0.41031E+06
        -0.13277E+06
        -0.10812E+07
        -0.15978E+07
        -0.10666E+07
        -0.17727E+06
         0.94191E+06
         0.37290E+06
         0.53991E+06
         0.57897E+06
         0.30849E+06
         0.69894E+06
        -0.52723E+06
        -0.10651E+07
         0.12389E+07
        -0.12660E+07
        -0.11915E+07
        -0.13490E+06
        -0.16720E+06
        -0.34563E+07
        -0.11278E+07
        -0.42689E+06
         0.47307E+05
         0.64426E+06
        -0.21849E+06
        -0.31908E+06
        -0.13888E+07
        -0.74183E+06
        -0.20749E+07
        -0.96235E+06
        -0.14844E+07
        -0.46527E+06
        -0.44371E+07
        -0.24952E+07
        -0.16780E+07
        -0.15030E+07
        -0.36655E+06
        -0.67641E+06
         0.48299E+06
         0.10299E+07
        -0.10731E+07
        -0.75588E+06
        -0.40600E+06
        -0.14532E+07
        -0.10010E+07
        -0.70945E+06
        -0.95121E+06
        -0.16549E+07
        -0.15043E+07
        -0.17741E+07
        -0.12777E+07
        -0.64006E+06
        -0.39180E+06
        -0.44849E+06
         0.39915E+06
         0.84586E+06
         0.26372E+06
         0.44628E+06
        -0.29550E+07
        -0.67132E+06
        -0.17712E+07
         0.25378E+06
         0.19808E+07
         0.32016E+07
         0.26136E+07
         0.28455E+07
         0.22233E+07
         0.11088E+07
         0.95388E+05
        -0.75632E+06
        -0.13902E+07
        -0.37197E+06
        -0.19605E+07
        -0.31748E+07
        -0.27567E+07
        -0.23296E+07
        -0.12864E+07
         0.37524E+06
         0.35394E+06
        -0.20244E+06
        -0.11422E+07
        -0.16301E+07
        -0.10841E+07
        -0.19101E+06
         0.92241E+06
         0.35831E+06
         0.53064E+06
         0.57259E+06
         0.29948E+06
         0.69102E+06
        -0.54191E+06
        -0.10846E+07
         0.12227E+07
        -0.12888E+07
        -0.12041E+07
        -0.14814E+06
        -0.18240E+06
        -0.34689E+07
        -0.11388E+07
        -0.43811E+06
         0.36639E+05
         0.63897E+06
        -0.22537E+06
        -0.32573E+06
        -0.13986E+07
        -0.75217E+06
        -0.20842E+07
        -0.96892E+06
        -0.15019E+07
        -0.47484E+06
        -0.44512E+07
        -0.25048E+07
        -0.16931E+07
        -0.15151E+07
        -0.38633E+06
        -0.69008E+06
         0.47124E+06
         0.10216E+07
        -0.10860E+07
        -0.76452E+06
        -0.41759E+06
        -0.14734E+07
        -0.10187E+07
        -0.72718E+06
        -0.96930E+06
        -0.16696E+07
        -0.15135E+07
        -0.17863E+07
        -0.12929E+07
        -0.65690E+06
        -0.40778E+06
        -0.46661E+06
         0.38107E+06
         0.82901E+06
         0.24681E+06
         0.43479E+06
        -0.29798E+07
        -0.69565E+06
        -0.17876E+07
         0.23676E+06
         0.19602E+07
         0.31835E+07
         0.25950E+07
         0.28197E+07
         0.21894E+07
         0.10731E+07
         0.63056E+05
        -0.77093E+06
        -0.14018E+07
        -0.39676E+06
        -0.19867E+07
        -0.31996E+07
        -0.27889E+07
        -0.23605E+07
        -0.13123E+07
         0.35424E+06
         0.33682E+06
        -0.22565E+06
        -0.11728E+07
        -0.16587E+07
        -0.11082E+07
        -0.21495E+06
         0.93456E+06
         0.36803E+06
         0.53776E+06
         0.57571E+06
         0.31050E+06
         0.69427E+06
        -0.53557E+06
        -0.10687E+07
         0.12340E+07
        -0.12738E+07
        -0.11943E+07
        -0.13503E+06
        -0.17298E+06
        -0.34512E+07
        -0.11176E+07
        -0.42515E+06
         0.46507E+05
         0.64634E+06
        -0.21233E+06
        -0.31498E+06
        -0.13847E+07
        -0.73940E+06
        -0.20706E+07
        -0.95750E+06
        -0.14912E+07
        -0.46475E+06
        -0.44313E+07
        -0.24905E+07
        -0.16874E+07
        -0.15041E+07
        -0.37621E+06
        -0.68233E+06
         0.48007E+06
         0.10253E+07
        -0.10721E+07
        -0.75386E+06
        -0.40827E+06
        -0.14596E+07
        -0.10080E+07
        -0.71778E+06
        -0.95698E+06
        -0.16566E+07
        -0.14999E+07
        -0.17738E+07
        -0.12824E+07
        -0.64600E+06
        -0.39703E+06
        -0.45439E+06
         0.39323E+06
         0.83845E+06
         0.25421E+06
         0.43792E+06
        -0.29427E+07
        -0.65919E+06
        -0.17658E+07
         0.24567E+06
         0.19784E+07
         0.32117E+07
         0.26264E+07
         0.28420E+07
         0.21981E+07
         0.10864E+07
         0.86937E+05
        -0.73703E+06
        -0.13721E+07
        -0.37754E+06
        -0.19686E+07
        -0.31788E+07
        -0.27676E+07
        -0.23343E+07
        -0.12873E+07
         0.38348E+06
         0.36706E+06
        -0.19870E+06
        -0.11502E+07
        -0.16386E+07
        -0.10881E+07
        -0.19330E+06
         0.93125E+06
         0.36710E+06
         0.53590E+06
         0.57174E+06
         0.30911E+06
         0.69030E+06
        -0.53930E+06
        -0.10732E+07
         0.12262E+07
        -0.12824E+07
        -0.11994E+07
        -0.14311E+06
        -0.17549E+06
        -0.34563E+07
        -0.11291E+07
        -0.43236E+06
         0.39552E+05
         0.64059E+06
        -0.21800E+06
        -0.31997E+06
        -0.13896E+07
        -0.74597E+06
        -0.20754E+07
        -0.96186E+06
        -0.14971E+07
        -0.46883E+06
        -0.44358E+07
        -0.24904E+07
        -0.16941E+07
        -0.15099E+07
        -0.38299E+06
        -0.68654E+06
         0.47458E+06
         0.10194E+07
        -0.10770E+07
        -0.75756E+06
        -0.41084E+06
        -0.14771E+07
        -0.10182E+07
        -0.72704E+06
        -0.96580E+06
        -0.16625E+07
        -0.15078E+07
        -0.17770E+07
        -0.12856E+07
        -0.65131E+06
        -0.40436E+06
        -0.46278E+06
         0.38621E+06
         0.83185E+06
         0.24766E+06
         0.43142E+06
        -0.29534E+07
        -0.66758E+06
        -0.17831E+07
         0.23092E+06
         0.19764E+07
         0.32013E+07
         0.26022E+07
         0.28150E+07
         0.21824E+07
         0.10627E+07
         0.61021E+05
        -0.74993E+06
        -0.13874E+07
        -0.38590E+06
        -0.19766E+07
        -0.31863E+07
        -0.27687E+07
        -0.23395E+07
        -0.12947E+07
         0.36369E+06
         0.34264E+06
        -0.21754E+06
        -0.11596E+07
        -0.16432E+07
        -0.10989E+07
        -0.20862E+06
         0.92222E+06
         0.35961E+06
         0.53058E+06
         0.56984E+06
         0.30296E+06
         0.68800E+06
        -0.54661E+06
        -0.10803E+07
         0.12192E+07
        -0.12909E+07
        -0.12052E+07
        -0.15379E+06
        -0.18252E+06
        -0.34597E+07
        -0.11409E+07
        -0.44212E+06
         0.34010E+05
         0.63774E+06
        -0.22499E+06
        -0.32347E+06
        -0.13961E+07
        -0.75265E+06
        -0.20828E+07
        -0.96862E+06
        -0.15029E+07
        -0.47635E+06
        -0.44392E+07
        -0.24919E+07
        -0.17013E+07
        -0.15142E+07
        -0.39235E+06
        -0.69343E+06
         0.47234E+06
         0.10189E+07
        -0.10883E+07
        -0.76427E+06
        -0.41699E+06
        -0.14941E+07
        -0.10295E+07
        -0.73520E+06
        -0.97086E+06
        -0.16676E+07
        -0.15149E+07
        -0.17834E+07
        -0.12916E+07
        -0.65849E+06
        -0.41117E+06
        -0.47007E+06
         0.37950E+06
         0.82606E+06
         0.24145E+06
         0.42868E+06
        -0.29748E+07
        -0.68536E+06
        -0.17961E+07
         0.22645E+06
         0.19707E+07
         0.31803E+07
         0.25718E+07
         0.27905E+07
         0.21661E+07
         0.10456E+07
         0.50429E+05
        -0.76266E+06
        -0.14057E+07
        -0.39835E+06
        -0.19898E+07
        -0.32015E+07
        -0.27787E+07
        -0.23514E+07
        -0.13092E+07
         0.34736E+06
         0.32411E+06
        -0.23683E+06
        -0.11733E+07
        -0.16563E+07
        -0.11154E+07
        -0.22604E+06
         0.92790E+06
         0.36259E+06
         0.53320E+06
         0.57481E+06
         0.31061E+06
         0.69505E+06
        -0.54330E+06
        -0.10690E+07
         0.12247E+07
        -0.12844E+07
        -0.11961E+07
        -0.14485E+06
        -0.17980E+06
        -0.34432E+07
        -0.11212E+07
        -0.43516E+06
         0.37870E+05
         0.64507E+06
        -0.21712E+06
        -0.31472E+06
        -0.13850E+07
        -0.74123E+06
        -0.20735E+07
        -0.96164E+06
        -0.14984E+07
        -0.47004E+06
        -0.44264E+07
        -0.24824E+07
        -0.16944E+07
        -0.15022E+07
        -0.38454E+06
        -0.68816E+06
         0.48260E+06
         0.10270E+07
        -0.10799E+07
        -0.75731E+06
        -0.41298E+06
        -0.14830E+07
        -0.10189E+07
        -0.72115E+06
        -0.95712E+06
        -0.16578E+07
        -0.15040E+07
        -0.17756E+07
        -0.12851E+07
        -0.65240E+06
        -0.40456E+06
        -0.46274E+06
         0.38757E+06
         0.83409E+06
         0.24920E+06
         0.43692E+06
        -0.29477E+07
        -0.65597E+06
        -0.17684E+07
         0.23996E+06
         0.19663E+07
         0.31817E+07
         0.25936E+07
         0.28145E+07
         0.21825E+07
         0.10704E+07
         0.73892E+05
        -0.75150E+06
        -0.13859E+07
        -0.37822E+06
        -0.19716E+07
        -0.31875E+07
        -0.27691E+07
        -0.23394E+07
        -0.12978E+07
         0.36496E+06
         0.34499E+06
        -0.21679E+06
        -0.11558E+07
        -0.16415E+07
        -0.10936E+07
        -0.20064E+06
         0.92363E+06
         0.35657E+06
         0.52806E+06
         0.57024E+06
         0.30434E+06
         0.68915E+06
        -0.55198E+06
        -0.10753E+07
         0.12191E+07
        -0.12950E+07
        -0.12047E+07
        -0.15811E+06
        -0.19378E+06
        -0.34505E+07
        -0.11295E+07
        -0.44318E+06
         0.30771E+05
         0.63886E+06
        -0.22570E+06
        -0.32073E+06
        -0.13968E+07
        -0.75335E+06
        -0.20861E+07
        -0.96945E+06
        -0.15092E+07
        -0.47667E+06
        -0.44385E+07
        -0.24916E+07
        -0.17067E+07
        -0.15096E+07
        -0.39333E+06
        -0.69466E+06
         0.47558E+06
         0.10217E+07
        -0.10907E+07
        -0.76521E+06
        -0.42324E+06
        -0.15015E+07
        -0.10368E+07
        -0.73655E+06
        -0.97403E+06
        -0.16739E+07
        -0.15162E+07
        -0.17891E+07
        -0.12966E+07
        -0.66289E+06
        -0.41438E+06
        -0.47407E+06
         0.37887E+06
         0.82757E+06
         0.24087E+06
         0.42948E+06
        -0.29688E+07
        -0.67418E+06
        -0.17892E+07
         0.21587E+06
         0.19383E+07
         0.31549E+07
         0.25771E+07
         0.27933E+07
         0.21549E+07
         0.10429E+07
         0.40447E+05
        -0.78453E+06
        -0.14078E+07
        -0.40093E+06
        -0.19912E+07
        -0.32099E+07
        -0.28037E+07
        -0.23704E+07
        -0.13133E+07
         0.34340E+06
         0.32288E+06
        -0.22814E+06
        -0.11634E+07
        -0.16576E+07
        -0.11159E+07
        -0.22283E+06
         0.92278E+06
         0.35452E+06
         0.52650E+06
         0.56943E+06
         0.30412E+06
         0.68793E+06
        -0.55527E+06
        -0.10749E+07
         0.12200E+07
        -0.12950E+07
        -0.12057E+07
        -0.16001E+06
        -0.19621E+06
        -0.34471E+07
        -0.11286E+07
        -0.44527E+06
         0.30925E+05
         0.63842E+06
        -0.22648E+06
        -0.32042E+06
        -0.13991E+07
        -0.75516E+06
        -0.20889E+07
        -0.97099E+06
        -0.15112E+07
        -0.47872E+06
        -0.44361E+07
        -0.24917E+07
        -0.17128E+07
        -0.15115E+07
        -0.39840E+06
        -0.69725E+06
         0.47395E+06
         0.10211E+07
        -0.10935E+07
        -0.76747E+06
        -0.42620E+06
        -0.15105E+07
        -0.10472E+07
        -0.74310E+06
        -0.97593E+06
        -0.16756E+07
        -0.15179E+07
        -0.17911E+07
        -0.12983E+07
        -0.66532E+06
        -0.41740E+06
        -0.47863E+06
         0.37557E+06
         0.82622E+06
         0.23944E+06
         0.42790E+06
        -0.29693E+07
        -0.67371E+06
        -0.17947E+07
         0.20658E+06
         0.19379E+07
         0.31544E+07
         0.25705E+07
         0.27756E+07
         0.21349E+07
         0.10320E+07
         0.39370E+05
        -0.78776E+06
        -0.14133E+07
        -0.40975E+06
        -0.20015E+07
        -0.32172E+07
        -0.28083E+07
        -0.23745E+07
        -0.13176E+07
         0.33562E+06
         0.31317E+06
        -0.23437E+06
        -0.11638E+07
        -0.16596E+07
        -0.11258E+07
        -0.23186E+06
         0.94096E+06
         0.37310E+06
         0.54198E+06
         0.58103E+06
         0.32537E+06
         0.70337E+06
        -0.53909E+06
        -0.10521E+07
         0.12334E+07
        -0.12778E+07
        -0.11843E+07
        -0.13152E+06
        -0.17171E+06
        -0.34208E+07
        -0.10994E+07
        -0.42940E+06
         0.44577E+05
         0.65112E+06
        -0.20930E+06
        -0.30330E+06
        -0.13748E+07
        -0.73263E+06
        -0.20662E+07
        -0.95575E+06
        -0.14927E+07
        -0.46441E+06
        -0.44108E+07
        -0.24687E+07
        -0.16958E+07
        -0.14889E+07
        -0.38175E+06
        -0.68236E+06
         0.48868E+06
         0.10318E+07
        -0.10703E+07
        -0.74799E+06
        -0.40592E+06
        -0.14929E+07
        -0.10256E+07
        -0.71983E+06
        -0.95292E+06
        -0.16530E+07
        -0.14975E+07
        -0.17676E+07
        -0.12750E+07
        -0.64145E+06
        -0.39666E+06
        -0.45971E+06
         0.39169E+06
         0.84070E+06
         0.25544E+06
         0.44203E+06
        -0.29201E+07
        -0.62465E+06
        -0.17534E+07
         0.23645E+06
         0.19744E+07
         0.32006E+07
         0.26092E+07
         0.28049E+07
         0.21681E+07
         0.10682E+07
         0.71994E+05
        -0.74952E+06
        -0.13831E+07
        -0.37608E+06
        -0.19632E+07
        -0.31773E+07
        -0.27632E+07
        -0.23260E+07
        -0.12759E+07
         0.37913E+06
         0.35033E+06
        -0.20675E+06
        -0.11332E+07
        -0.16233E+07
        -0.10864E+07
        -0.19219E+06
         0.93319E+06
         0.36767E+06
         0.53720E+06
         0.57519E+06
         0.31734E+06
         0.69727E+06
        -0.54706E+06
        -0.10607E+07
         0.12252E+07
        -0.12911E+07
        -0.11929E+07
        -0.14173E+06
        -0.17801E+06
        -0.34286E+07
        -0.11115E+07
        -0.43952E+06
         0.35667E+05
         0.64623E+06
        -0.22064E+06
        -0.31092E+06
        -0.13826E+07
        -0.74368E+06
        -0.20740E+07
        -0.96514E+06
        -0.15052E+07
        -0.47369E+06
        -0.44216E+07
        -0.24746E+07
        -0.17014E+07
        -0.14943E+07
        -0.38839E+06
        -0.68972E+06
         0.48449E+06
         0.10252E+07
        -0.10841E+07
        -0.75510E+06
        -0.41081E+06
        -0.15137E+07
        -0.10403E+07
        -0.72692E+06
        -0.96358E+06
        -0.16655E+07
        -0.15115E+07
        -0.17775E+07
        -0.12849E+07
        -0.65131E+06
        -0.40479E+06
        -0.46615E+06
         0.38442E+06
         0.83092E+06
         0.24543E+06
         0.43439E+06
        -0.29513E+07
        -0.65096E+06
        -0.17774E+07
         0.22372E+06
         0.19701E+07
         0.31886E+07
         0.25828E+07
         0.27731E+07
         0.21375E+07
         0.10409E+07
         0.39756E+05
        -0.78642E+06
        -0.14092E+07
        -0.38903E+06
        -0.19694E+07
        -0.31813E+07
        -0.27757E+07
        -0.23479E+07
        -0.12921E+07
         0.35974E+06
         0.33263E+06
        -0.22671E+06
        -0.11545E+07
        -0.16367E+07
        -0.10991E+07
        -0.21318E+06
         0.92026E+06
         0.35395E+06
         0.52407E+06
         0.56706E+06
         0.30409E+06
         0.68517E+06
        -0.55890E+06
        -0.10710E+07
         0.12133E+07
        -0.13151E+07
        -0.12033E+07
        -0.15820E+06
        -0.19169E+06
        -0.34366E+07
        -0.11268E+07
        -0.45179E+06
         0.22149E+05
         0.64040E+06
        -0.22994E+06
        -0.31407E+06
        -0.13924E+07
        -0.75661E+06
        -0.20833E+07
        -0.97322E+06
        -0.15267E+07
        -0.48281E+06
        -0.44465E+07
        -0.24851E+07
        -0.16809E+07
        -0.14783E+07
        -0.39971E+06
        -0.70006E+06
         0.48034E+06
         0.10208E+07
        -0.10997E+07
        -0.76709E+06
        -0.42287E+06
        -0.15443E+07
        -0.10547E+07
        -0.70548E+06
        -0.96452E+06
        -0.16790E+07
        -0.15303E+07
        -0.17883E+07
        -0.12976E+07
        -0.66718E+06
        -0.41913E+06
        -0.47749E+06
         0.37599E+06
         0.82306E+06
         0.23659E+06
         0.42494E+06
        -0.29721E+07
        -0.67007E+06
        -0.17937E+07
         0.20940E+06
         0.19502E+07
         0.31561E+07
         0.25456E+07
         0.27375E+07
         0.21066E+07
         0.10337E+07
        -0.16512E+05
        -0.87489E+06
        -0.14459E+07
        -0.40938E+06
        -0.19877E+07
        -0.31977E+07
        -0.27958E+07
        -0.23709E+07
        -0.13188E+07
         0.32942E+06
         0.31232E+06
        -0.24577E+06
        -0.11761E+07
        -0.16528E+07
        -0.11239E+07
        -0.24112E+06
         0.93757E+06
         0.37102E+06
         0.54088E+06
         0.58100E+06
         0.32663E+06
         0.70180E+06
        -0.54490E+06
        -0.10486E+07
         0.12227E+07
        -0.13187E+07
        -0.11842E+07
        -0.13694E+06
        -0.17359E+06
        -0.34116E+07
        -0.11007E+07
        -0.43574E+06
         0.31509E+05
         0.65237E+06
        -0.21011E+06
        -0.28660E+06
        -0.13721E+07
        -0.73692E+06
        -0.20651E+07
        -0.95677E+06
        -0.15228E+07
        -0.46721E+06
        -0.44506E+07
        -0.24703E+07
        -0.16091E+07
        -0.14082E+07
        -0.38562E+06
        -0.68493E+06
         0.49477E+06
         0.10347E+07
        -0.10748E+07
        -0.74542E+06
        -0.40371E+06
        -0.15430E+07
        -0.10298E+07
        -0.62314E+06
        -0.92025E+06
        -0.16560E+07
        -0.15183E+07
        -0.17681E+07
        -0.12747E+07
        -0.64064E+06
        -0.39751E+06
        -0.46020E+06
         0.39365E+06
         0.84276E+06
         0.25784E+06
         0.44163E+06
        -0.29214E+07
        -0.62024E+06
        -0.17427E+07
         0.24498E+06
         0.19730E+07
         0.31823E+07
         0.25818E+07
         0.27742E+07
         0.21471E+07
         0.11125E+07
        -0.34746E+05
        -0.94608E+06
        -0.14432E+07
        -0.38147E+06
        -0.19643E+07
        -0.31781E+07
        -0.27714E+07
        -0.23303E+07
        -0.12689E+07
         0.37598E+06
         0.35262E+06
        -0.20428E+06
        -0.11292E+07
        -0.16094E+07
        -0.10888E+07
        -0.20438E+06
         0.87242E+06
         0.30792E+06
         0.48032E+06
         0.52901E+06
         0.24927E+06
         0.63201E+06
        -0.60551E+06
        -0.11237E+07
         0.11562E+07
        -0.14124E+07
        -0.12566E+07
        -0.23856E+06
        -0.26770E+06
        -0.34921E+07
        -0.12039E+07
        -0.49943E+06
        -0.31997E+05
         0.60422E+06
        -0.27654E+06
        -0.34041E+06
        -0.14597E+07
        -0.82282E+06
        -0.21499E+07
        -0.10153E+07
        -0.16081E+07
        -0.52030E+06
        -0.45488E+07
        -0.25354E+07
        -0.16429E+07
        -0.14561E+07
        -0.44766E+06
        -0.74015E+06
         0.44144E+06
         0.97901E+06
        -0.11677E+07
        -0.82328E+06
        -0.48748E+06
        -0.16620E+07
        -0.11229E+07
        -0.67788E+06
        -0.10070E+07
        -0.17496E+07
        -0.16121E+07
        -0.18497E+07
        -0.13593E+07
        -0.73978E+06
        -0.48061E+06
        -0.53452E+06
         0.32332E+06
         0.76463E+06
         0.16362E+06
         0.36196E+06
        -0.30978E+07
        -0.79134E+06
        -0.19207E+07
         0.63691E+05
         0.17924E+07
         0.30082E+07
         0.24048E+07
         0.25842E+07
         0.19690E+07
         0.95028E+06
        -0.26079E+06
        -0.11920E+07
        -0.16173E+07
        -0.52592E+06
        -0.21159E+07
        -0.33356E+07
        -0.29340E+07
        -0.25122E+07
        -0.14558E+07
         0.19671E+06
         0.18648E+06
        -0.36337E+06
        -0.12919E+07
        -0.17767E+07
        -0.12496E+07
        -0.36411E+06
         0.90952E+06
         0.31219E+06
         0.49163E+06
         0.54996E+06
         0.27601E+06
         0.65559E+06
        -0.59930E+06
        -0.10764E+07
         0.12004E+07
        -0.13443E+07
        -0.12364E+07
        -0.23674E+06
        -0.29189E+06
        -0.34361E+07
        -0.11569E+07
        -0.45105E+06
         0.91460E+04
         0.63197E+06
        -0.24062E+06
        -0.30705E+06
        -0.14196E+07
        -0.79324E+06
        -0.20890E+07
        -0.97163E+06
        -0.15353E+07
        -0.48163E+06
        -0.44648E+07
        -0.24581E+07
        -0.15837E+07
        -0.13853E+07
        -0.41085E+06
        -0.71587E+06
         0.45907E+06
         0.97144E+06
        -0.11540E+07
        -0.82888E+06
        -0.51110E+06
        -0.16075E+07
        -0.10575E+07
        -0.62096E+06
        -0.96783E+06
        -0.16970E+07
        -0.15560E+07
        -0.17937E+07
        -0.13280E+07
        -0.72448E+06
        -0.46788E+06
        -0.50305E+06
         0.34709E+06
         0.76598E+06
         0.16984E+06
         0.36379E+06
        -0.30299E+07
        -0.70303E+06
        -0.18982E+07
         0.24570E+05
         0.17113E+07
         0.29587E+07
         0.24858E+07
         0.26673E+07
         0.20353E+07
         0.98965E+06
        -0.24977E+06
        -0.11583E+07
        -0.15515E+07
        -0.49332E+06
        -0.20472E+07
        -0.32374E+07
        -0.28501E+07
        -0.24480E+07
        -0.14280E+07
         0.19347E+06
         0.22350E+06
        -0.31050E+06
        -0.12079E+07
        -0.16748E+07
        -0.11694E+07
        -0.28107E+06
         0.25618E+09
         0.25117E+09
         0.24771E+09
         0.21305E+09
         0.30696E+09
         0.27581E+09
         0.25093E+09
         0.29074E+09
         0.23907E+09
         0.29068E+09
         0.29312E+09
         0.38903E+09
         0.34337E+09
         0.31724E+09
         0.40079E+09
         0.23650E+09
         0.23342E+09
         0.18319E+09
         0.25241E+09
         0.24229E+09
         0.31509E+09
         0.31683E+09
         0.29976E+09
         0.22906E+09
         0.27845E+09
         0.19844E+09
         0.31271E+09
         0.25630E+09
         0.27424E+09
         0.28978E+09
         0.23424E+09
         0.22330E+09
         0.21338E+09
         0.22089E+09
         0.34785E+09
         0.29748E+09
         0.30587E+09
         0.37602E+09
         0.35671E+09
         0.34928E+09
         0.36744E+09
         0.34431E+09
         0.32634E+09
         0.28779E+09
         0.29795E+09
         0.35219E+09
         0.30818E+09
         0.28192E+09
         0.26892E+09
         0.28558E+09
         0.33133E+09
         0.29117E+09
         0.64391E+09
         0.63090E+09
         0.64271E+09
         0.62254E+09
         0.64271E+09
         0.67466E+09
         0.67748E+09
         0.66984E+09
         0.67499E+09
         0.69361E+09
         0.67192E+09
         0.63296E+09
         0.56095E+09
         0.52943E+09
         0.53733E+09
         0.54999E+09
         0.55747E+09
         0.60785E+09
         0.65155E+09
         0.65476E+09
         0.60026E+09
         0.57880E+09
         0.59940E+09
         0.59255E+09
         0.58823E+09
         0.58945E+09
         0.29732E+10
         0.31144E+10
         0.30694E+10
         0.28002E+10
         0.34489E+10
         0.32389E+10
         0.33697E+10
         0.33964E+10
         0.29071E+10
         0.33946E+10
         0.37010E+10
         0.41481E+10
         0.37599E+10
         0.38086E+10
         0.42932E+10
         0.28485E+10
         0.30618E+10
         0.26712E+10
         0.31624E+10
         0.33275E+10
         0.34430E+10
         0.35184E+10
         0.33048E+10
         0.30412E+10
         0.34341E+10
         0.29343E+10
         0.37948E+10
         0.37305E+10
         0.37474E+10
         0.35558E+10
         0.28792E+10
         0.30279E+10
         0.28225E+10
         0.29521E+10
         0.37765E+10
         0.34647E+10
         0.34762E+10
         0.41571E+10
         0.40505E+10
         0.40019E+10
         0.40724E+10
         0.38670E+10
         0.36567E+10
         0.32262E+10
         0.33596E+10
         0.37751E+10
         0.34907E+10
         0.32820E+10
         0.32168E+10
         0.33355E+10
         0.36217E+10
         0.33453E+10
         0.59902E+10
         0.58356E+10
         0.59577E+10
         0.57706E+10
         0.59428E+10
         0.62487E+10
         0.63502E+10
         0.63373E+10
         0.63825E+10
         0.65285E+10
         0.63386E+10
         0.59575E+10
         0.53395E+10
         0.50457E+10
         0.50589E+10
         0.51235E+10
         0.51733E+10
         0.56114E+10
         0.60155E+10
         0.60399E+10
         0.55889E+10
         0.54157E+10
         0.55950E+10
         0.55548E+10
         0.54911E+10
         0.54757E+10
  
SCALARS                      stress_yy  double 1
LOOKUP_TABLE default
         0.77207E+12
         0.76175E+12
         0.76830E+12
         0.78003E+12
        -0.15290E+03
        -0.17145E+03
        -0.16417E+03
        -0.14914E+03
         0.76139E+12
         0.76489E+12
        -0.15418E+03
        -0.14921E+03
         0.74680E+12
         0.74624E+12
        -0.18320E+03
        -0.17225E+03
         0.77831E+12
         0.74705E+12
        -0.13536E+03
        -0.15014E+03
         0.73555E+12
         0.72661E+12
         0.74083E+12
        -0.18157E+03
        -0.15857E+03
        -0.16374E+03
         0.72696E+12
         0.71390E+12
        -0.17419E+03
        -0.14690E+03
         0.77774E+12
         0.76415E+12
         0.79091E+12
        -0.14865E+03
        -0.13819E+03
        -0.13436E+03
         0.76988E+12
         0.75255E+12
        -0.15726E+03
        -0.14350E+03
         0.76302E+12
         0.74965E+12
        -0.13592E+03
        -0.12033E+03
         0.77433E+12
         0.77935E+12
        -0.14895E+03
        -0.16643E+03
         0.73891E+12
        -0.14551E+03
         0.77837E+12
        -0.17098E+03
         0.72320E+12
        -0.15366E+03
         0.71909E+12
        -0.14739E+03
         0.71916E+12
         0.73374E+12
        -0.15018E+03
        -0.14626E+03
         0.77747E+12
         0.77224E+12
        -0.15059E+03
        -0.17024E+03
         0.78073E+12
        -0.14531E+03
         0.77452E+12
        -0.15859E+03
         0.75817E+12
         0.75654E+12
        -0.15266E+03
        -0.15996E+03
         0.75284E+12
        -0.16130E+03
         0.70926E+12
        -0.12744E+03
         0.70697E+12
        -0.12370E+03
         0.70811E+12
        -0.13043E+03
         0.71442E+12
         0.72099E+12
        -0.12427E+03
        -0.12955E+03
         0.73421E+12
        -0.12066E+03
         0.77407E+12
        -0.15823E+03
         0.76786E+12
        -0.16195E+03
         0.76276E+12
         0.75996E+12
        -0.15552E+03
        -0.15734E+03
         0.76341E+12
        -0.14291E+03
         0.76586E+12
        -0.14087E+03
         0.76365E+12
        -0.15080E+03
         0.76286E+12
         0.76511E+12
        -0.14788E+03
        -0.15222E+03
         0.75055E+12
         0.75646E+12
        -0.11482E+03
        -0.10799E+03
         0.74943E+12
        -0.10964E+03
         0.75625E+12
        -0.10512E+03
         0.74952E+12
        -0.10366E+03
         0.73462E+12
        -0.97957E+02
         0.72016E+12
        -0.87024E+02
         0.71149E+12
        -0.78361E+02
         0.71060E+12
        -0.77816E+02
         0.71088E+12
        -0.84387E+02
         0.72028E+12
        -0.88689E+02
         0.73783E+12
        -0.80982E+02
         0.75708E+12
        -0.72997E+02
         0.76835E+12
        -0.72914E+02
         0.77947E+12
        -0.81499E+02
         0.78681E+12
        -0.92928E+02
         0.78654E+12
        -0.99833E+02
         0.76870E+12
        -0.10782E+03
         0.75625E+12
        -0.11551E+03
         0.75197E+12
        -0.10582E+03
         0.75865E+12
        -0.92830E+02
         0.76213E+12
        -0.92543E+02
         0.75629E+12
        -0.10125E+03
         0.75638E+12
        -0.10794E+03
         0.76078E+12
        -0.10244E+03
         0.76652E+12
        -0.99033E+02
        -0.32031E+11
        -0.31905E+11
        -0.31923E+11
        -0.32078E+11
        -0.31764E+11
        -0.31938E+11
        -0.31717E+11
        -0.31838E+11
        -0.32056E+11
        -0.31928E+11
        -0.31526E+11
        -0.31459E+11
        -0.31633E+11
        -0.31644E+11
        -0.31534E+11
        -0.32072E+11
        -0.32045E+11
        -0.32117E+11
        -0.31890E+11
        -0.31937E+11
        -0.31869E+11
        -0.31914E+11
        -0.31828E+11
        -0.31851E+11
        -0.31933E+11
        -0.31927E+11
        -0.31783E+11
        -0.31797E+11
        -0.31675E+11
        -0.31854E+11
        -0.32059E+11
        -0.31903E+11
        -0.32058E+11
        -0.31959E+11
        -0.31412E+11
        -0.31653E+11
        -0.31736E+11
        -0.31634E+11
        -0.31617E+11
        -0.31394E+11
        -0.31220E+11
        -0.31626E+11
        -0.31872E+11
        -0.31843E+11
        -0.31729E+11
        -0.31422E+11
        -0.31698E+11
        -0.31880E+11
        -0.31869E+11
        -0.31728E+11
        -0.31516E+11
        -0.31780E+11
        -0.30753E+11
        -0.31109E+11
        -0.31052E+11
        -0.31132E+11
        -0.31112E+11
        -0.30924E+11
        -0.30721E+11
        -0.30653E+11
        -0.30682E+11
        -0.30661E+11
        -0.30570E+11
        -0.31094E+11
        -0.31273E+11
        -0.31339E+11
        -0.31448E+11
        -0.31528E+11
        -0.31524E+11
        -0.31386E+11
        -0.30876E+11
        -0.31005E+11
        -0.31183E+11
        -0.31181E+11
        -0.31151E+11
        -0.30978E+11
        -0.31229E+11
        -0.31317E+11
         0.37243E+06
        -0.23808E+06
        -0.24611E+05
         0.10574E+07
         0.42395E+06
         0.12507E+07
        -0.55927E+06
        -0.15179E+07
         0.79774E+06
        -0.15884E+07
        -0.16968E+07
        -0.11281E+07
        -0.27248E+06
        -0.25947E+07
        -0.18892E+07
         0.19634E+06
         0.65996E+06
         0.82927E+06
        -0.57292E+06
         0.99027E+05
        -0.24293E+06
         0.42956E+06
        -0.64816E+06
        -0.28105E+06
        -0.16958E+07
        -0.17748E+06
        -0.34705E+07
        -0.22855E+07
        -0.12045E+07
        -0.14813E+07
         0.46231E+05
        -0.66297E+05
         0.73763E+06
         0.12110E+07
         0.61110E+05
        -0.55093E+05
         0.13222E+05
        -0.18825E+07
        -0.18784E+07
        -0.13259E+07
        -0.17416E+06
        -0.28094E+06
        -0.19749E+06
        -0.74133E+06
        -0.83059E+06
        -0.12855E+07
        -0.58008E+06
        -0.91238E+05
        -0.17732E+06
         0.15688E+06
         0.61051E+06
         0.14372E+07
        -0.15102E+07
         0.67516E+06
        -0.10917E+07
         0.34218E+06
         0.13812E+07
         0.20564E+07
         0.13673E+07
         0.17427E+07
         0.12141E+07
         0.45382E+06
         0.81561E+06
         0.87430E+06
         0.21273E+06
         0.11095E+07
        -0.41131E+06
        -0.16119E+07
        -0.17277E+07
        -0.19388E+07
        -0.20735E+07
        -0.78706E+06
        -0.63024E+06
        -0.11328E+07
        -0.17774E+07
        -0.12306E+07
         0.15589E+06
         0.10599E+07
         0.30297E+06
        -0.30506E+06
        -0.90118E+05
         0.10039E+07
         0.34033E+06
         0.11762E+07
        -0.62106E+06
        -0.15994E+07
         0.72835E+06
        -0.16774E+07
        -0.17745E+07
        -0.12371E+07
        -0.36641E+06
        -0.26784E+07
        -0.19986E+07
         0.12417E+06
         0.59237E+06
         0.78002E+06
        -0.64824E+06
         0.30944E+05
        -0.33680E+06
         0.33856E+06
        -0.74403E+06
        -0.35089E+06
        -0.17877E+07
        -0.24074E+06
        -0.35517E+07
        -0.23545E+07
        -0.12774E+07
        -0.15757E+07
        -0.21618E+05
        -0.12687E+06
         0.68028E+06
         0.11589E+07
        -0.33914E+05
        -0.13466E+06
        -0.68841E+05
        -0.19920E+07
        -0.19798E+07
        -0.14248E+07
        -0.28187E+06
        -0.38568E+06
        -0.29742E+06
        -0.83327E+06
        -0.91698E+06
        -0.13819E+07
        -0.66629E+06
        -0.17069E+06
        -0.24805E+06
         0.84192E+05
         0.52266E+06
         0.13591E+07
        -0.16869E+07
         0.50264E+06
        -0.12617E+07
         0.17960E+06
         0.12092E+07
         0.18649E+07
         0.11762E+07
         0.15494E+07
         0.10185E+07
         0.25391E+06
         0.61675E+06
         0.69034E+06
         0.59222E+05
         0.96608E+06
        -0.56153E+06
        -0.17724E+07
        -0.18919E+07
        -0.21102E+07
        -0.22457E+07
        -0.96895E+06
        -0.80201E+06
        -0.12879E+07
        -0.19329E+07
        -0.13895E+07
        -0.46345E+04
         0.89652E+06
         0.31941E+06
        -0.29190E+06
        -0.76270E+05
         0.10179E+07
         0.36167E+06
         0.11957E+07
        -0.60926E+06
        -0.15829E+07
         0.73950E+06
        -0.16764E+07
        -0.17596E+07
        -0.12161E+07
        -0.34839E+06
        -0.26566E+07
        -0.19728E+07
         0.10981E+06
         0.58874E+06
         0.79348E+06
        -0.66710E+06
         0.18350E+05
        -0.35264E+06
         0.33260E+06
        -0.80692E+06
        -0.40124E+06
        -0.18289E+07
        -0.28492E+06
        -0.35359E+07
        -0.23638E+07
        -0.13062E+07
        -0.16421E+07
        -0.21188E+05
        -0.14042E+06
         0.69328E+06
         0.11761E+07
        -0.90412E+04
        -0.11486E+06
        -0.50740E+05
        -0.19737E+07
        -0.19644E+07
        -0.14194E+07
        -0.28472E+06
        -0.42369E+06
        -0.35131E+06
        -0.89494E+06
        -0.93194E+06
        -0.13687E+07
        -0.65079E+06
        -0.15222E+06
        -0.22823E+06
         0.10707E+06
         0.54754E+06
         0.13811E+07
        -0.16342E+07
         0.54982E+06
        -0.12095E+07
         0.21988E+06
         0.12390E+07
         0.18948E+07
         0.12142E+07
         0.15877E+07
         0.10570E+07
         0.29391E+06
         0.64034E+06
         0.68940E+06
         0.61711E+05
         0.99243E+06
        -0.54400E+06
        -0.18050E+07
        -0.19274E+07
        -0.21011E+07
        -0.21985E+07
        -0.91419E+06
        -0.75318E+06
        -0.12385E+07
        -0.18775E+07
        -0.13426E+07
         0.33547E+05
         0.93343E+06
         0.30963E+06
        -0.29758E+06
        -0.81812E+05
         0.10092E+07
         0.35339E+06
         0.11889E+07
        -0.61526E+06
        -0.15949E+07
         0.71918E+06
        -0.17161E+07
        -0.17683E+07
        -0.12273E+07
        -0.35581E+06
        -0.26657E+07
        -0.19871E+07
         0.52434E+05
         0.54877E+06
         0.78476E+06
        -0.73303E+06
        -0.38861E+05
        -0.42397E+06
         0.26971E+06
        -0.95329E+06
        -0.51389E+06
        -0.19374E+07
        -0.38590E+06
        -0.35581E+07
        -0.24198E+07
        -0.13958E+07
        -0.17993E+07
        -0.53914E+05
        -0.19482E+06
         0.68284E+06
         0.11677E+07
        -0.21232E+05
        -0.12305E+06
        -0.57350E+05
        -0.19944E+07
        -0.19899E+07
        -0.14645E+07
        -0.34586E+06
        -0.54229E+06
        -0.49714E+06
        -0.10401E+07
        -0.10036E+07
        -0.14076E+07
        -0.67862E+06
        -0.16662E+06
        -0.23994E+06
         0.93645E+05
         0.53427E+06
         0.13726E+07
        -0.16588E+07
         0.53276E+06
        -0.12365E+07
         0.19642E+06
         0.12231E+07
         0.18767E+07
         0.11839E+07
         0.15548E+07
         0.10250E+07
         0.25520E+06
         0.57908E+06
         0.59040E+06
        -0.31334E+05
         0.94825E+06
        -0.59357E+06
        -0.19416E+07
        -0.20722E+07
        -0.21689E+07
        -0.22308E+07
        -0.94481E+06
        -0.77663E+06
        -0.12662E+07
        -0.19065E+07
        -0.13620E+07
         0.18899E+05
         0.91891E+06
         0.29174E+06
        -0.30910E+06
        -0.91403E+05
         0.10002E+07
         0.34392E+06
         0.11796E+07
        -0.62415E+06
        -0.16137E+07
         0.69489E+06
        -0.17574E+07
        -0.17775E+07
        -0.12342E+07
        -0.36410E+06
        -0.26758E+07
        -0.19944E+07
         0.13692E+05
         0.51704E+06
         0.77669E+06
        -0.77661E+06
        -0.79924E+05
        -0.47004E+06
         0.22453E+06
        -0.10433E+07
        -0.58354E+06
        -0.20164E+07
        -0.45024E+06
        -0.35775E+07
        -0.24602E+07
        -0.14571E+07
        -0.19041E+07
        -0.88059E+05
        -0.23413E+06
         0.66423E+06
         0.11559E+07
        -0.33828E+05
        -0.13348E+06
        -0.67259E+05
        -0.20100E+07
        -0.20112E+07
        -0.14987E+07
        -0.38909E+06
        -0.62197E+06
        -0.59281E+06
        -0.11326E+07
        -0.10511E+07
        -0.14334E+07
        -0.70335E+06
        -0.18999E+06
        -0.26061E+06
         0.73606E+05
         0.51358E+06
         0.13586E+07
        -0.16809E+07
         0.51786E+06
        -0.12596E+07
         0.17817E+06
         0.12156E+07
         0.18714E+07
         0.11710E+07
         0.15332E+07
         0.99785E+06
         0.23124E+06
         0.54178E+06
         0.52187E+06
        -0.94768E+05
         0.91409E+06
        -0.62856E+06
        -0.20301E+07
        -0.21741E+07
        -0.22175E+07
        -0.22456E+07
        -0.97263E+06
        -0.80768E+06
        -0.12979E+07
        -0.19438E+07
        -0.13936E+07
        -0.55276E+03
         0.90442E+06
         0.24826E+06
        -0.33117E+06
        -0.10090E+06
         0.10073E+07
         0.35474E+06
         0.11930E+07
        -0.63047E+06
        -0.16455E+07
         0.66095E+06
        -0.18121E+07
        -0.17717E+07
        -0.12097E+07
        -0.35461E+06
        -0.26713E+07
        -0.19646E+07
         0.20969E+05
         0.50948E+06
         0.79048E+06
        -0.76825E+06
        -0.73407E+05
        -0.45720E+06
         0.24033E+06
        -0.10413E+07
        -0.58464E+06
        -0.20517E+07
        -0.45863E+06
        -0.35821E+07
        -0.24650E+07
        -0.14525E+07
        -0.19088E+07
        -0.12894E+06
        -0.25456E+06
         0.63435E+06
         0.11530E+07
        -0.22840E+05
        -0.13261E+06
        -0.69150E+05
        -0.19914E+07
        -0.19956E+07
        -0.14806E+07
        -0.36840E+06
        -0.60926E+06
        -0.58270E+06
        -0.11390E+07
        -0.10576E+07
        -0.14378E+07
        -0.72482E+06
        -0.23758E+06
        -0.31183E+06
         0.46221E+05
         0.50676E+06
         0.13652E+07
        -0.16375E+07
         0.56253E+06
        -0.12233E+07
         0.20258E+06
         0.12412E+07
         0.19064E+07
         0.12106E+07
         0.15712E+07
         0.10412E+07
         0.28872E+06
         0.59204E+06
         0.55209E+06
        -0.61277E+05
         0.94893E+06
        -0.59484E+06
        -0.20033E+07
        -0.21549E+07
        -0.21982E+07
        -0.22223E+07
        -0.95646E+06
        -0.81131E+06
        -0.13200E+07
        -0.19585E+07
        -0.13861E+07
         0.21373E+05
         0.93584E+06
         0.18196E+06
        -0.37016E+06
        -0.12356E+06
         0.10017E+07
         0.34537E+06
         0.11918E+07
        -0.65565E+06
        -0.17060E+07
         0.60390E+06
        -0.18916E+07
        -0.17910E+07
        -0.12189E+07
        -0.36976E+06
        -0.26975E+07
        -0.19721E+07
         0.94516E+04
         0.48324E+06
         0.78813E+06
        -0.77628E+06
        -0.82561E+05
        -0.46402E+06
         0.23584E+06
        -0.10485E+07
        -0.59283E+06
        -0.21005E+07
        -0.47433E+06
        -0.36151E+07
        -0.24859E+07
        -0.14580E+07
        -0.19222E+07
        -0.18632E+06
        -0.28835E+06
         0.58977E+06
         0.11371E+07
        -0.37611E+05
        -0.14942E+06
        -0.88551E+05
        -0.20077E+07
        -0.20112E+07
        -0.14888E+07
        -0.37237E+06
        -0.61088E+06
        -0.58372E+06
        -0.11536E+07
        -0.10841E+07
        -0.14742E+07
        -0.77414E+06
        -0.30946E+06
        -0.38513E+06
        -0.19009E+04
         0.47919E+06
         0.13557E+07
        -0.16556E+07
         0.54838E+06
        -0.12344E+07
         0.19026E+06
         0.12233E+07
         0.18851E+07
         0.11930E+07
         0.15563E+07
         0.10259E+07
         0.27733E+06
         0.58296E+06
         0.54097E+06
        -0.63226E+05
         0.94614E+06
        -0.60223E+06
        -0.20076E+07
        -0.21638E+07
        -0.22290E+07
        -0.22680E+07
        -0.10066E+07
        -0.86788E+06
        -0.13898E+07
        -0.20198E+07
        -0.14183E+07
         0.41462E+04
         0.92241E+06
         0.16268E+06
        -0.38455E+06
        -0.13295E+06
         0.99422E+06
         0.33533E+06
         0.11828E+07
        -0.66837E+06
        -0.17277E+07
         0.58682E+06
        -0.19171E+07
        -0.18051E+07
        -0.12319E+07
        -0.38467E+06
        -0.27114E+07
        -0.19842E+07
        -0.91069E+03
         0.47241E+06
         0.78189E+06
        -0.78369E+06
        -0.89623E+05
        -0.47448E+06
         0.22537E+06
        -0.10579E+07
        -0.59904E+06
        -0.21196E+07
        -0.48294E+06
        -0.36292E+07
        -0.24971E+07
        -0.14684E+07
        -0.19350E+07
        -0.20478E+06
        -0.30134E+06
         0.57411E+06
         0.11282E+07
        -0.50082E+05
        -0.15864E+06
        -0.10043E+06
        -0.20281E+07
        -0.20292E+07
        -0.15061E+07
        -0.39071E+06
        -0.62501E+06
        -0.59294E+06
        -0.11667E+07
        -0.11002E+07
        -0.14913E+07
        -0.79072E+06
        -0.32724E+06
        -0.40312E+06
        -0.18319E+05
         0.46214E+06
         0.13439E+07
        -0.16804E+07
         0.52390E+06
        -0.12511E+07
         0.17323E+06
         0.12025E+07
         0.18671E+07
         0.11745E+07
         0.15307E+07
         0.99185E+06
         0.24161E+06
         0.55061E+06
         0.52623E+06
        -0.74851E+05
         0.92127E+06
        -0.62826E+06
        -0.20325E+07
        -0.21964E+07
        -0.22601E+07
        -0.22940E+07
        -0.10276E+07
        -0.88520E+06
        -0.14131E+07
        -0.20507E+07
        -0.14467E+07
        -0.19757E+05
         0.89879E+06
         0.17505E+06
        -0.37463E+06
        -0.12597E+06
         0.99621E+06
         0.34531E+06
         0.11849E+07
        -0.65998E+06
        -0.17141E+07
         0.59722E+06
        -0.19049E+07
        -0.17968E+07
        -0.12185E+07
        -0.37497E+06
        -0.26952E+07
        -0.19641E+07
         0.12910E+05
         0.48209E+06
         0.78830E+06
        -0.77117E+06
        -0.79310E+05
        -0.46137E+06
         0.23801E+06
        -0.10443E+07
        -0.58723E+06
        -0.21105E+07
        -0.47191E+06
        -0.36094E+07
        -0.24846E+07
        -0.14579E+07
        -0.19247E+07
        -0.19333E+06
        -0.29291E+06
         0.57903E+06
         0.11312E+07
        -0.35820E+05
        -0.14854E+06
        -0.91389E+05
        -0.20145E+07
        -0.20188E+07
        -0.14963E+07
        -0.37864E+06
        -0.61148E+06
        -0.57932E+06
        -0.11550E+07
        -0.10906E+07
        -0.14807E+07
        -0.78056E+06
        -0.31467E+06
        -0.39087E+06
        -0.84587E+04
         0.46940E+06
         0.13467E+07
        -0.16433E+07
         0.56020E+06
        -0.12297E+07
         0.18214E+06
         0.12206E+07
         0.18955E+07
         0.12061E+07
         0.15533E+07
         0.10004E+07
         0.25486E+06
         0.57447E+06
         0.56001E+06
        -0.45248E+05
         0.94040E+06
        -0.61015E+06
        -0.20117E+07
        -0.21755E+07
        -0.22340E+07
        -0.22692E+07
        -0.99834E+06
        -0.85516E+06
        -0.13863E+07
        -0.20284E+07
        -0.14265E+07
         0.49186E+03
         0.92075E+06
         0.17197E+06
        -0.37536E+06
        -0.12795E+06
         0.99113E+06
         0.34288E+06
         0.11799E+07
        -0.66164E+06
        -0.17209E+07
         0.58853E+06
        -0.19163E+07
        -0.18034E+07
        -0.12263E+07
        -0.37721E+06
        -0.27017E+07
        -0.19768E+07
         0.65616E+04
         0.47494E+06
         0.78161E+06
        -0.77737E+06
        -0.84701E+05
        -0.46699E+06
         0.23131E+06
        -0.10492E+07
        -0.59121E+06
        -0.21180E+07
        -0.47505E+06
        -0.36140E+07
        -0.24861E+07
        -0.14599E+07
        -0.19312E+07
        -0.19880E+06
        -0.29645E+06
         0.56965E+06
         0.11246E+07
        -0.40351E+05
        -0.15281E+06
        -0.94235E+05
        -0.20323E+07
        -0.20292E+07
        -0.15051E+07
        -0.38770E+06
        -0.61685E+06
        -0.58720E+06
        -0.11591E+07
        -0.10948E+07
        -0.14863E+07
        -0.78849E+06
        -0.32275E+06
        -0.39779E+06
        -0.14628E+05
         0.46271E+06
         0.13399E+07
        -0.16539E+07
         0.55165E+06
        -0.12472E+07
         0.16738E+06
         0.12184E+07
         0.18851E+07
         0.11821E+07
         0.15265E+07
         0.98451E+06
         0.23109E+06
         0.54854E+06
         0.54700E+06
        -0.60528E+05
         0.93196E+06
        -0.61800E+06
        -0.20192E+07
        -0.21771E+07
        -0.22394E+07
        -0.22767E+07
        -0.10181E+07
        -0.87979E+06
        -0.14052E+07
        -0.20381E+07
        -0.14310E+07
        -0.10120E+05
         0.90575E+06
         0.16316E+06
        -0.38264E+06
        -0.13338E+06
         0.98809E+06
         0.33571E+06
         0.11765E+07
        -0.66693E+06
        -0.17303E+07
         0.58059E+06
        -0.19276E+07
        -0.18106E+07
        -0.12368E+07
        -0.38395E+06
        -0.27065E+07
        -0.19897E+07
        -0.23511E+04
         0.46919E+06
         0.77784E+06
        -0.78486E+06
        -0.88655E+05
        -0.47411E+06
         0.22451E+06
        -0.10566E+07
        -0.59760E+06
        -0.21254E+07
        -0.48163E+06
        -0.36174E+07
        -0.24891E+07
        -0.14623E+07
        -0.19363E+07
        -0.20685E+06
        -0.30267E+06
         0.56350E+06
         0.11234E+07
        -0.51347E+05
        -0.16009E+06
        -0.10068E+06
        -0.20495E+07
        -0.20408E+07
        -0.15129E+07
        -0.39301E+06
        -0.62141E+06
        -0.59440E+06
        -0.11664E+07
        -0.11017E+07
        -0.14937E+07
        -0.79592E+06
        -0.32970E+06
        -0.40440E+06
        -0.19985E+05
         0.45637E+06
         0.13369E+07
        -0.16753E+07
         0.53372E+06
        -0.12606E+07
         0.16289E+06
         0.12125E+07
         0.18642E+07
         0.11518E+07
         0.15023E+07
         0.96806E+06
         0.21399E+06
         0.53794E+06
         0.53414E+06
        -0.78880E+05
         0.91943E+06
        -0.63109E+06
        -0.20346E+07
        -0.21875E+07
        -0.22514E+07
        -0.22915E+07
        -0.10344E+07
        -0.89852E+06
        -0.14246E+07
        -0.20521E+07
        -0.14439E+07
        -0.26396E+05
         0.88864E+06
         0.16907E+06
        -0.37946E+06
        -0.13089E+06
         0.99191E+06
         0.34232E+06
         0.11825E+07
        -0.66154E+06
        -0.17212E+07
         0.58516E+06
        -0.19238E+07
        -0.18028E+07
        -0.12276E+07
        -0.38095E+06
        -0.26915E+07
        -0.19711E+07
         0.54598E+04
         0.47283E+06
         0.78422E+06
        -0.77751E+06
        -0.80312E+05
        -0.46372E+06
         0.23580E+06
        -0.10474E+07
        -0.59024E+06
        -0.21225E+07
        -0.47438E+06
        -0.36047E+07
        -0.24812E+07
        -0.14507E+07
        -0.19249E+07
        -0.19771E+06
        -0.29674E+06
         0.56983E+06
         0.11309E+07
        -0.42526E+05
        -0.15371E+06
        -0.96947E+05
        -0.20386E+07
        -0.20304E+07
        -0.14984E+07
        -0.37951E+06
        -0.61108E+06
        -0.58346E+06
        -0.11595E+07
        -0.10961E+07
        -0.14879E+07
        -0.78988E+06
        -0.32206E+06
        -0.39624E+06
        -0.11522E+05
         0.46397E+06
         0.13448E+07
        -0.16482E+07
         0.56296E+06
        -0.12332E+07
         0.17639E+06
         0.12080E+07
         0.18657E+07
         0.11737E+07
         0.15266E+07
         0.98426E+06
         0.23866E+06
         0.56139E+06
         0.54518E+06
        -0.59088E+05
         0.93948E+06
        -0.61278E+06
        -0.20206E+07
        -0.21783E+07
        -0.22396E+07
        -0.22803E+07
        -0.10167E+07
        -0.87784E+06
        -0.14047E+07
        -0.20349E+07
        -0.14290E+07
        -0.44384E+04
         0.91436E+06
         0.16503E+06
        -0.38527E+06
        -0.13617E+06
         0.98618E+06
         0.33500E+06
         0.11755E+07
        -0.66815E+06
        -0.17298E+07
         0.57870E+06
        -0.19371E+07
        -0.18128E+07
        -0.12406E+07
        -0.39467E+06
        -0.27001E+07
        -0.19806E+07
        -0.17083E+04
         0.46549E+06
         0.77708E+06
        -0.78660E+06
        -0.86763E+05
        -0.47626E+06
         0.22357E+06
        -0.10600E+07
        -0.59766E+06
        -0.21349E+07
        -0.48007E+06
        -0.36169E+07
        -0.24919E+07
        -0.14583E+07
        -0.19330E+07
        -0.20518E+06
        -0.30257E+06
         0.55888E+06
         0.11249E+07
        -0.53027E+05
        -0.16218E+06
        -0.10748E+06
        -0.20573E+07
        -0.20485E+07
        -0.15134E+07
        -0.39666E+06
        -0.62657E+06
        -0.59568E+06
        -0.11738E+07
        -0.11085E+07
        -0.14987E+07
        -0.80032E+06
        -0.33305E+06
        -0.40484E+06
        -0.17610E+05
         0.45550E+06
         0.13370E+07
        -0.16693E+07
         0.54459E+06
        -0.12543E+07
         0.15229E+06
         0.11798E+07
         0.18390E+07
         0.11574E+07
         0.15056E+07
         0.95646E+06
         0.21119E+06
         0.52793E+06
         0.51204E+06
        -0.81026E+05
         0.91668E+06
        -0.63234E+06
        -0.20431E+07
        -0.22133E+07
        -0.22708E+07
        -0.22959E+07
        -0.10383E+07
        -0.90015E+06
        -0.14162E+07
        -0.20428E+07
        -0.14450E+07
        -0.26472E+05
         0.89249E+06
         0.16441E+06
        -0.38711E+06
        -0.13785E+06
         0.98420E+06
         0.33377E+06
         0.11732E+07
        -0.66944E+06
        -0.17316E+07
         0.57868E+06
        -0.19398E+07
        -0.18152E+07
        -0.12423E+07
        -0.39681E+06
        -0.26982E+07
        -0.19807E+07
        -0.29501E+04
         0.46540E+06
         0.77571E+06
        -0.78788E+06
        -0.86870E+05
        -0.47925E+06
         0.22163E+06
        -0.10629E+07
        -0.59883E+06
        -0.21384E+07
        -0.48119E+06
        -0.36145E+07
        -0.24935E+07
        -0.14595E+07
        -0.19356E+07
        -0.20895E+06
        -0.30450E+06
         0.55332E+06
         0.11236E+07
        -0.55461E+05
        -0.16501E+06
        -0.11070E+06
        -0.20666E+07
        -0.20592E+07
        -0.15195E+07
        -0.39881E+06
        -0.62782E+06
        -0.59743E+06
        -0.11767E+07
        -0.11112E+07
        -0.15014E+07
        -0.80396E+06
        -0.33728E+06
        -0.40803E+06
        -0.18529E+05
         0.45393E+06
         0.13351E+07
        -0.16698E+07
         0.54491E+06
        -0.12602E+07
         0.14300E+06
         0.11792E+07
         0.18386E+07
         0.11509E+07
         0.14882E+07
         0.93637E+06
         0.20017E+06
         0.52684E+06
         0.50869E+06
        -0.86538E+05
         0.90778E+06
        -0.64253E+06
        -0.20505E+07
        -0.22184E+07
        -0.22751E+07
        -0.23004E+07
        -0.10460E+07
        -0.91006E+06
        -0.14225E+07
        -0.20436E+07
        -0.14469E+07
        -0.36178E+05
         0.88377E+06
         0.18283E+06
        -0.36833E+06
        -0.12250E+06
         0.99463E+06
         0.35399E+06
         0.11875E+07
        -0.65119E+06
        -0.17111E+07
         0.59120E+06
        -0.19253E+07
        -0.17952E+07
        -0.12135E+07
        -0.37202E+06
        -0.26733E+07
        -0.19527E+07
         0.13758E+05
         0.47879E+06
         0.78749E+06
        -0.77121E+06
        -0.70199E+05
        -0.45573E+06
         0.24405E+06
        -0.10402E+07
        -0.58322E+06
        -0.21216E+07
        -0.46595E+06
        -0.35893E+07
        -0.24720E+07
        -0.14378E+07
        -0.19137E+07
        -0.19098E+06
        -0.28897E+06
         0.56411E+06
         0.11336E+07
        -0.31893E+05
        -0.14609E+06
        -0.90698E+05
        -0.20492E+07
        -0.20378E+07
        -0.14958E+07
        -0.37606E+06
        -0.60460E+06
        -0.57698E+06
        -0.11541E+07
        -0.10887E+07
        -0.14778E+07
        -0.78380E+06
        -0.31806E+06
        -0.39181E+06
        -0.36107E+04
         0.46976E+06
         0.13489E+07
        -0.16205E+07
         0.59382E+06
        -0.12191E+07
         0.17286E+06
         0.12155E+07
         0.18849E+07
         0.11897E+07
         0.15177E+07
         0.96934E+06
         0.23633E+06
         0.55945E+06
         0.54681E+06
        -0.56294E+05
         0.94137E+06
        -0.60417E+06
        -0.20106E+07
        -0.21737E+07
        -0.22267E+07
        -0.22588E+07
        -0.10025E+07
        -0.87309E+06
        -0.13950E+07
        -0.20133E+07
        -0.14104E+07
         0.33429E+04
         0.92376E+06
         0.17529E+06
        -0.37353E+06
        -0.12740E+06
         0.98761E+06
         0.34491E+06
         0.11804E+07
        -0.65712E+06
        -0.17219E+07
         0.58214E+06
        -0.19413E+07
        -0.18050E+07
        -0.12235E+07
        -0.37806E+06
        -0.26826E+07
        -0.19659E+07
         0.44847E+04
         0.46960E+06
         0.78170E+06
        -0.78307E+06
        -0.78238E+05
        -0.46426E+06
         0.23288E+06
        -0.10481E+07
        -0.59224E+06
        -0.21356E+07
        -0.47430E+06
        -0.36002E+07
        -0.24794E+07
        -0.14386E+07
        -0.19198E+07
        -0.19632E+06
        -0.29568E+06
         0.55598E+06
         0.11263E+07
        -0.45427E+05
        -0.15377E+06
        -0.95866E+05
        -0.20703E+07
        -0.20527E+07
        -0.15024E+07
        -0.38696E+06
        -0.61658E+06
        -0.59106E+06
        -0.11649E+07
        -0.10996E+07
        -0.14880E+07
        -0.79254E+06
        -0.32416E+06
        -0.39897E+06
        -0.12964E+05
         0.45963E+06
         0.13409E+07
        -0.16517E+07
         0.56736E+06
        -0.12435E+07
         0.16012E+06
         0.12111E+07
         0.18730E+07
         0.11635E+07
         0.14861E+07
         0.93854E+06
         0.20898E+06
         0.52720E+06
         0.50979E+06
        -0.82408E+05
         0.92834E+06
        -0.61023E+06
        -0.20146E+07
        -0.21866E+07
        -0.22488E+07
        -0.22752E+07
        -0.10218E+07
        -0.89099E+06
        -0.14150E+07
        -0.20348E+07
        -0.14238E+07
        -0.91031E+04
         0.90309E+06
         0.16259E+06
        -0.38704E+06
        -0.14066E+06
         0.97829E+06
         0.33065E+06
         0.11672E+07
        -0.66692E+06
        -0.17345E+07
         0.56930E+06
        -0.19678E+07
        -0.18167E+07
        -0.12397E+07
        -0.39146E+06
        -0.26920E+07
        -0.19824E+07
        -0.69352E+04
         0.45578E+06
         0.77496E+06
        -0.79287E+06
        -0.81850E+05
        -0.47469E+06
         0.21983E+06
        -0.10575E+07
        -0.59994E+06
        -0.21587E+07
        -0.48248E+06
        -0.36252E+07
        -0.24913E+07
        -0.14133E+07
        -0.19045E+07
        -0.20631E+06
        -0.30536E+06
         0.54791E+06
         0.11213E+07
        -0.60667E+05
        -0.16634E+06
        -0.10820E+06
        -0.21012E+07
        -0.20673E+07
        -0.14805E+07
        -0.38817E+06
        -0.62957E+06
        -0.60985E+06
        -0.11766E+07
        -0.11132E+07
        -0.15041E+07
        -0.80748E+06
        -0.33519E+06
        -0.40729E+06
        -0.20385E+05
         0.45064E+06
         0.13311E+07
        -0.16725E+07
         0.54809E+06
        -0.12601E+07
         0.14578E+06
         0.11910E+07
         0.18405E+07
         0.11264E+07
         0.14509E+07
         0.90751E+06
         0.20181E+06
         0.47091E+06
         0.42120E+06
        -0.11911E+06
         0.90790E+06
        -0.62844E+06
        -0.20311E+07
        -0.22071E+07
        -0.22720E+07
        -0.23021E+07
        -0.10521E+07
        -0.91151E+06
        -0.14342E+07
        -0.20568E+07
        -0.14397E+07
        -0.33785E+05
         0.87546E+06
         0.18014E+06
        -0.36977E+06
        -0.12398E+06
         0.99103E+06
         0.35215E+06
         0.11827E+07
        -0.65087E+06
        -0.17142E+07
         0.57778E+06
        -0.19742E+07
        -0.17988E+07
        -0.12182E+07
        -0.37307E+06
        -0.26685E+07
        -0.19574E+07
         0.99580E+04
         0.46481E+06
         0.78603E+06
        -0.77352E+06
        -0.54807E+05
        -0.45519E+06
         0.23941E+06
        -0.10393E+07
        -0.58312E+06
        -0.21565E+07
        -0.46595E+06
        -0.36294E+07
        -0.24779E+07
        -0.13368E+07
        -0.18350E+07
        -0.19091E+06
        -0.28959E+06
         0.55839E+06
         0.11345E+07
        -0.35416E+05
        -0.14524E+06
        -0.89313E+05
        -0.21003E+07
        -0.20427E+07
        -0.13977E+07
        -0.34418E+06
        -0.60605E+06
        -0.59797E+06
        -0.11572E+07
        -0.10913E+07
        -0.14779E+07
        -0.78645E+06
        -0.31756E+06
        -0.38951E+06
        -0.25100E+03
         0.47175E+06
         0.13474E+07
        -0.16219E+07
         0.59777E+06
        -0.12094E+07
         0.18135E+06
         0.12137E+07
         0.18669E+07
         0.11628E+07
         0.14878E+07
         0.94784E+06
         0.28057E+06
         0.45263E+06
         0.34990E+06
        -0.11645E+06
         0.93574E+06
        -0.60503E+06
        -0.20116E+07
        -0.21831E+07
        -0.22316E+07
        -0.22524E+07
        -0.10055E+07
        -0.87140E+06
        -0.13928E+07
        -0.20102E+07
        -0.13962E+07
         0.15034E+04
         0.91252E+06
         0.11523E+06
        -0.43267E+06
        -0.18467E+06
         0.93783E+06
         0.27375E+06
         0.11119E+07
        -0.70942E+06
        -0.17915E+07
         0.51028E+06
        -0.20706E+07
        -0.18725E+07
        -0.13196E+07
        -0.46692E+06
        -0.27505E+07
        -0.20617E+07
        -0.52896E+05
         0.40093E+06
         0.73697E+06
        -0.84046E+06
        -0.10910E+06
        -0.54344E+06
         0.15339E+06
        -0.11242E+07
        -0.64127E+06
        -0.22434E+07
        -0.51812E+06
        -0.37278E+07
        -0.25445E+07
        -0.13658E+07
        -0.18834E+07
        -0.25163E+06
        -0.34417E+06
         0.50111E+06
         0.10781E+07
        -0.12800E+06
        -0.22367E+06
        -0.17334E+06
        -0.22196E+07
        -0.21359E+07
        -0.14519E+07
        -0.43126E+06
        -0.69924E+06
        -0.69177E+06
        -0.12397E+07
        -0.11768E+07
        -0.15773E+07
        -0.87017E+06
        -0.39154E+06
        -0.45973E+06
        -0.77942E+05
         0.37738E+06
         0.12674E+07
        -0.17982E+07
         0.42653E+06
        -0.13877E+07
         0.57648E+02
         0.10328E+07
         0.16929E+07
         0.98595E+06
         0.12980E+07
         0.76959E+06
         0.11830E+06
         0.22651E+06
         0.10384E+06
        -0.29058E+06
         0.79121E+06
        -0.75649E+06
        -0.21692E+07
        -0.23461E+07
        -0.24137E+07
        -0.24395E+07
        -0.11847E+07
        -0.10377E+07
        -0.15520E+07
        -0.21732E+07
        -0.15634E+07
        -0.15910E+06
         0.75311E+06
         0.15256E+06
        -0.42818E+06
        -0.17350E+06
         0.95757E+06
         0.29945E+06
         0.11344E+07
        -0.70121E+06
        -0.17464E+07
         0.55350E+06
        -0.20053E+07
        -0.18535E+07
        -0.13175E+07
        -0.49084E+06
        -0.26960E+07
        -0.20158E+07
        -0.36836E+04
         0.44168E+06
         0.76383E+06
        -0.80505E+06
        -0.76212E+05
        -0.50409E+06
         0.18286E+06
        -0.10633E+07
        -0.59727E+06
        -0.21723E+07
        -0.47855E+06
        -0.36439E+07
        -0.24685E+07
        -0.13018E+07
        -0.18131E+07
        -0.21351E+06
        -0.31927E+06
         0.51481E+06
         0.10698E+07
        -0.11391E+06
        -0.22981E+06
        -0.19722E+06
        -0.21655E+07
        -0.20707E+07
        -0.13945E+07
        -0.39241E+06
        -0.64613E+06
        -0.63583E+06
        -0.11845E+07
        -0.11464E+07
        -0.15623E+07
        -0.85802E+06
        -0.35974E+06
        -0.43584E+06
        -0.76153E+05
         0.38345E+06
         0.12689E+07
        -0.17303E+07
         0.51469E+06
        -0.13655E+07
        -0.39069E+05
         0.95158E+06
         0.16435E+07
         0.10670E+07
         0.13814E+07
         0.83576E+06
         0.15764E+06
         0.23745E+06
         0.13744E+06
        -0.22473E+06
         0.82373E+06
        -0.68772E+06
        -0.20710E+07
        -0.22627E+07
        -0.23497E+07
        -0.24118E+07
        -0.11879E+07
        -0.10009E+07
        -0.14993E+07
        -0.20895E+07
        -0.14613E+07
        -0.78658E+05
         0.83646E+06
         0.25547E+09
         0.25054E+09
         0.24715E+09
         0.21337E+09
         0.30698E+09
         0.27622E+09
         0.25086E+09
         0.29012E+09
         0.23850E+09
         0.29007E+09
         0.29267E+09
         0.38800E+09
         0.34318E+09
         0.31785E+09
         0.39996E+09
         0.23690E+09
         0.23374E+09
         0.18331E+09
         0.25196E+09
         0.24247E+09
         0.31596E+09
         0.31776E+09
         0.30074E+09
         0.22933E+09
         0.27791E+09
         0.19845E+09
         0.31339E+09
         0.25629E+09
         0.27443E+09
         0.28942E+09
         0.23441E+09
         0.22359E+09
         0.21342E+09
         0.22096E+09
         0.34882E+09
         0.29801E+09
         0.30616E+09
         0.37549E+09
         0.35577E+09
         0.34857E+09
         0.36798E+09
         0.34531E+09
         0.32721E+09
         0.28837E+09
         0.29811E+09
         0.35140E+09
         0.30783E+09
         0.28205E+09
         0.26826E+09
         0.28485E+09
         0.33153E+09
         0.29198E+09
         0.64520E+09
         0.63210E+09
         0.64323E+09
         0.62248E+09
         0.64196E+09
         0.67336E+09
         0.67608E+09
         0.66857E+09
         0.67380E+09
         0.69279E+09
         0.67240E+09
         0.63424E+09
         0.56226E+09
         0.53073E+09
         0.53867E+09
         0.55114E+09
         0.55805E+09
         0.60794E+09
         0.65058E+09
         0.65339E+09
         0.59905E+09
         0.57763E+09
         0.59853E+09
         0.59276E+09
         0.58931E+09
         0.59056E+09
         0.29731E+10
         0.31144E+10
         0.30694E+10
         0.28002E+10
         0.34489E+10
         0.32389E+10
         0.33697E+10
         0.33962E+10
         0.29070E+10
         0.33944E+10
         0.37009E+10
         0.41477E+10
         0.37599E+10
         0.38087E+10
         0.42928E+10
         0.28486E+10
         0.30619E+10
         0.26712E+10
         0.31624E+10
         0.33275E+10
         0.34433E+10
         0.35187E+10
         0.33051E+10
         0.30412E+10
         0.34341E+10
         0.29343E+10
         0.37949E+10
         0.37305E+10
         0.37474E+10
         0.35557E+10
         0.28792E+10
         0.30279E+10
         0.28225E+10
         0.29521E+10
         0.37767E+10
         0.34647E+10
         0.34762E+10
         0.41569E+10
         0.40503E+10
         0.40018E+10
         0.40726E+10
         0.38673E+10
         0.36570E+10
         0.32264E+10
         0.33596E+10
         0.37749E+10
         0.34906E+10
         0.32820E+10
         0.32167E+10
         0.33353E+10
         0.36218E+10
         0.33454E+10
         0.59911E+10
         0.58364E+10
         0.59581E+10
         0.57705E+10
         0.59422E+10
         0.62477E+10
         0.63492E+10
         0.63365E+10
         0.63817E+10
         0.65280E+10
         0.63389E+10
         0.59584E+10
         0.53403E+10
         0.50465E+10
         0.50598E+10
         0.51243E+10
         0.51737E+10
         0.56115E+10
         0.60148E+10
         0.60389E+10
         0.55881E+10
         0.54149E+10
         0.55944E+10
         0.55550E+10
         0.54918E+10
         0.54764E+10
  
SCALARS                      stress_zz  double 1
LOOKUP_TABLE default
         0.77265E+12
         0.76233E+12
         0.76888E+12
         0.78061E+12
        -0.35677E+03
        -0.40006E+03
        -0.38307E+03
        -0.34800E+03
         0.76197E+12
         0.76547E+12
        -0.35975E+03
        -0.34815E+03
         0.74738E+12
         0.74682E+12
        -0.42746E+03
        -0.40192E+03
         0.77889E+12
         0.74763E+12
        -0.31585E+03
        -0.35033E+03
         0.73613E+12
         0.72719E+12
         0.74141E+12
        -0.42366E+03
        -0.36999E+03
        -0.38206E+03
         0.72754E+12
         0.71448E+12
        -0.40645E+03
        -0.34277E+03
         0.77833E+12
         0.76474E+12
         0.79149E+12
        -0.34684E+03
        -0.32244E+03
        -0.31350E+03
         0.77047E+12
         0.75314E+12
        -0.36694E+03
        -0.33484E+03
         0.76361E+12
         0.75023E+12
        -0.31714E+03
        -0.28076E+03
         0.77492E+12
         0.77993E+12
        -0.34755E+03
        -0.38833E+03
         0.73949E+12
        -0.33952E+03
         0.77895E+12
        -0.39895E+03
         0.72377E+12
        -0.35855E+03
         0.71967E+12
        -0.34392E+03
         0.71973E+12
         0.73432E+12
        -0.35041E+03
        -0.34127E+03
         0.77805E+12
         0.77283E+12
        -0.35138E+03
        -0.39723E+03
         0.78131E+12
        -0.33905E+03
         0.77511E+12
        -0.37003E+03
         0.75875E+12
         0.75712E+12
        -0.35620E+03
        -0.37323E+03
         0.75342E+12
        -0.37636E+03
         0.70983E+12
        -0.29735E+03
         0.70754E+12
        -0.28862E+03
         0.70868E+12
        -0.30433E+03
         0.71500E+12
         0.72157E+12
        -0.28995E+03
        -0.30229E+03
         0.73479E+12
        -0.28155E+03
         0.77465E+12
        -0.36921E+03
         0.76844E+12
        -0.37788E+03
         0.76334E+12
         0.76054E+12
        -0.36289E+03
        -0.36712E+03
         0.76399E+12
        -0.33345E+03
         0.76645E+12
        -0.32869E+03
         0.76423E+12
        -0.35187E+03
         0.76345E+12
         0.76569E+12
        -0.34506E+03
        -0.35519E+03
         0.75113E+12
         0.75704E+12
        -0.26791E+03
        -0.25198E+03
         0.75001E+12
        -0.25582E+03
         0.75683E+12
        -0.24528E+03
         0.75010E+12
        -0.24187E+03
         0.73520E+12
        -0.22857E+03
         0.72073E+12
        -0.20306E+03
         0.71207E+12
        -0.18284E+03
         0.71118E+12
        -0.18157E+03
         0.71146E+12
        -0.19690E+03
         0.72086E+12
        -0.20694E+03
         0.73841E+12
        -0.18896E+03
         0.75766E+12
        -0.17033E+03
         0.76893E+12
        -0.17013E+03
         0.78005E+12
        -0.19016E+03
         0.78739E+12
        -0.21683E+03
         0.78712E+12
        -0.23294E+03
         0.76928E+12
        -0.25158E+03
         0.75683E+12
        -0.26953E+03
         0.75255E+12
        -0.24691E+03
         0.75923E+12
        -0.21660E+03
         0.76271E+12
        -0.21593E+03
         0.75687E+12
        -0.23626E+03
         0.75696E+12
        -0.25187E+03
         0.76137E+12
        -0.23902E+03
         0.76710E+12
        -0.23108E+03
        -0.32063E+11
        -0.31772E+11
        -0.31814E+11
        -0.32173E+11
        -0.31446E+11
        -0.31849E+11
        -0.31339E+11
        -0.31618E+11
        -0.32122E+11
        -0.31825E+11
        -0.31104E+11
        -0.31038E+11
        -0.31212E+11
        -0.31223E+11
        -0.31113E+11
        -0.32158E+11
        -0.32097E+11
        -0.32261E+11
        -0.31737E+11
        -0.31846E+11
        -0.31689E+11
        -0.31794E+11
        -0.31596E+11
        -0.31649E+11
        -0.31837E+11
        -0.31824E+11
        -0.31491E+11
        -0.31523E+11
        -0.31254E+11
        -0.31654E+11
        -0.32128E+11
        -0.31767E+11
        -0.32126E+11
        -0.31898E+11
        -0.30991E+11
        -0.31231E+11
        -0.31382E+11
        -0.31212E+11
        -0.31195E+11
        -0.30973E+11
        -0.30798E+11
        -0.31205E+11
        -0.31696E+11
        -0.31630E+11
        -0.31366E+11
        -0.31000E+11
        -0.31293E+11
        -0.31716E+11
        -0.31689E+11
        -0.31364E+11
        -0.31094E+11
        -0.31484E+11
        -0.30331E+11
        -0.30688E+11
        -0.30632E+11
        -0.30712E+11
        -0.30691E+11
        -0.30504E+11
        -0.30300E+11
        -0.30231E+11
        -0.30261E+11
        -0.30240E+11
        -0.30149E+11
        -0.30674E+11
        -0.30852E+11
        -0.30918E+11
        -0.31027E+11
        -0.31107E+11
        -0.31104E+11
        -0.30966E+11
        -0.30454E+11
        -0.30584E+11
        -0.30762E+11
        -0.30760E+11
        -0.30730E+11
        -0.30557E+11
        -0.30809E+11
        -0.30897E+11
         0.26293E+07
         0.15930E+07
         0.18540E+07
         0.28423E+07
         0.21626E+07
         0.29744E+07
        -0.17588E+06
        -0.35060E+05
         0.31688E+07
        -0.19637E+06
        -0.13954E+07
         0.11129E+07
         0.15220E+07
        -0.29491E+07
         0.91024E+05
         0.14454E+07
         0.20237E+07
         0.22930E+07
         0.73408E+06
         0.62897E+06
         0.87244E+06
         0.16504E+07
         0.26428E+06
         0.89014E+05
        -0.88064E+06
        -0.48581E+05
        -0.44472E+07
        -0.52310E+07
        -0.24060E+07
        -0.57644E+06
         0.13306E+07
         0.42745E+06
         0.24865E+07
         0.36017E+07
         0.11308E+07
         0.99996E+06
         0.14279E+07
        -0.18126E+06
        -0.60068E+05
         0.45830E+06
         0.12077E+07
         0.75727E+06
         0.93622E+06
         0.30643E+06
         0.39598E+06
         0.65071E+06
         0.10588E+07
         0.12979E+07
         0.17677E+07
         0.23601E+07
         0.23335E+07
         0.29386E+07
        -0.17424E+06
         0.22049E+07
         0.70746E+06
         0.25468E+07
         0.40360E+07
         0.50645E+07
         0.43813E+07
         0.46803E+07
         0.40613E+07
         0.30789E+07
         0.27564E+07
         0.23834E+07
         0.15909E+07
         0.25437E+07
         0.92193E+06
        -0.22891E+06
        -0.28840E+05
         0.52167E+05
         0.46473E+06
         0.20550E+07
         0.20970E+07
         0.15221E+07
         0.69424E+06
         0.68778E+06
         0.17117E+07
         0.26595E+07
         0.25352E+07
         0.14849E+07
         0.17457E+07
         0.27334E+07
         0.20511E+07
         0.28631E+07
        -0.31563E+06
        -0.14330E+06
         0.30582E+07
        -0.31464E+06
        -0.15387E+07
         0.98392E+06
         0.14057E+07
        -0.30777E+07
        -0.36132E+05
         0.13372E+07
         0.18809E+07
         0.21765E+07
         0.60079E+06
         0.46778E+06
         0.75750E+06
         0.15373E+07
         0.14432E+06
        -0.60191E+05
        -0.10209E+07
        -0.19700E+06
        -0.45698E+07
        -0.53929E+07
        -0.25748E+07
        -0.72074E+06
         0.12223E+07
         0.28791E+06
         0.23759E+07
         0.34862E+07
         0.10109E+07
         0.88512E+06
         0.13180E+07
        -0.31284E+06
        -0.18762E+06
         0.33065E+06
         0.10779E+07
         0.62856E+06
         0.81375E+06
         0.18767E+06
         0.28112E+06
         0.53129E+06
         0.94080E+06
         0.11829E+07
         0.16577E+07
         0.22539E+07
         0.22219E+07
         0.28294E+07
        -0.36275E+06
         0.20213E+07
         0.52719E+06
         0.23741E+07
         0.38539E+07
         0.48625E+07
         0.41791E+07
         0.44746E+07
         0.38530E+07
         0.28667E+07
         0.25451E+07
         0.21879E+07
         0.14258E+07
         0.23890E+07
         0.76089E+06
        -0.40017E+06
        -0.20348E+06
        -0.12944E+06
         0.28189E+06
         0.18620E+07
         0.19137E+07
         0.13561E+07
         0.52846E+06
         0.51780E+06
         0.15403E+07
         0.24849E+07
         0.25574E+07
         0.15062E+07
         0.17689E+07
         0.27623E+07
         0.20803E+07
         0.28932E+07
        -0.28365E+06
        -0.11838E+06
         0.30764E+07
        -0.30839E+06
        -0.15096E+07
         0.10086E+07
         0.14279E+07
        -0.30494E+07
        -0.46577E+04
         0.13155E+07
         0.18734E+07
         0.22063E+07
         0.56818E+06
         0.43609E+06
         0.73851E+06
         0.15300E+07
         0.65639E+05
        -0.16787E+06
        -0.10789E+07
        -0.30101E+06
        -0.45450E+07
        -0.54151E+07
        -0.26410E+07
        -0.82114E+06
         0.12227E+07
         0.25611E+06
         0.24059E+07
         0.35236E+07
         0.10422E+07
         0.91401E+06
         0.13424E+07
        -0.28966E+06
        -0.16623E+06
         0.33819E+06
         0.10747E+07
         0.58185E+06
         0.74781E+06
         0.10817E+06
         0.26140E+06
         0.54770E+06
         0.96220E+06
         0.12089E+07
         0.16875E+07
         0.22866E+07
         0.22535E+07
         0.28604E+07
        -0.30673E+06
         0.20715E+07
         0.58274E+06
         0.24169E+07
         0.38855E+07
         0.48938E+07
         0.42191E+07
         0.45150E+07
         0.38940E+07
         0.29091E+07
         0.25700E+07
         0.21870E+07
         0.14285E+07
         0.24175E+07
         0.77968E+06
        -0.43480E+06
        -0.24102E+06
        -0.11971E+06
         0.33207E+06
         0.19200E+07
         0.19659E+07
         0.14090E+07
         0.58750E+06
         0.56747E+06
         0.15806E+07
         0.25239E+07
         0.25441E+07
         0.14972E+07
         0.17599E+07
         0.27449E+07
         0.20698E+07
         0.28838E+07
        -0.29307E+06
        -0.13219E+06
         0.30444E+07
        -0.35834E+06
        -0.15244E+07
         0.99524E+06
         0.14187E+07
        -0.30669E+07
        -0.20262E+05
         0.12295E+07
         0.17896E+07
         0.21844E+07
         0.45182E+06
         0.30018E+06
         0.65132E+06
         0.14518E+07
        -0.11744E+06
        -0.40869E+06
        -0.12456E+07
        -0.53790E+06
        -0.45780E+07
        -0.55461E+07
        -0.28494E+07
        -0.10636E+07
         0.11702E+07
         0.13037E+06
         0.23890E+07
         0.35045E+07
         0.10268E+07
         0.90240E+06
         0.13336E+07
        -0.31364E+06
        -0.19697E+06
         0.28050E+06
         0.10012E+07
         0.43612E+06
         0.56898E+06
        -0.79212E+05
         0.16635E+06
         0.49960E+06
         0.92427E+06
         0.11875E+07
         0.16686E+07
         0.22665E+07
         0.22367E+07
         0.28486E+07
        -0.33315E+06
         0.20534E+07
         0.55421E+06
         0.23920E+07
         0.38688E+07
         0.48746E+07
         0.41868E+07
         0.44799E+07
         0.38600E+07
         0.28679E+07
         0.25049E+07
         0.20818E+07
         0.13284E+07
         0.23699E+07
         0.72655E+06
        -0.58040E+06
        -0.39502E+06
        -0.19143E+06
         0.29782E+06
         0.18875E+07
         0.19409E+07
         0.13794E+07
         0.55663E+06
         0.54639E+06
         0.15647E+07
         0.25080E+07
         0.25198E+07
         0.14786E+07
         0.17443E+07
         0.27270E+07
         0.20577E+07
         0.28707E+07
        -0.30936E+06
        -0.15533E+06
         0.30061E+07
        -0.41040E+06
        -0.15401E+07
         0.98693E+06
         0.14083E+07
        -0.30860E+07
        -0.27606E+05
         0.11714E+07
         0.17233E+07
         0.21640E+07
         0.37538E+06
         0.20187E+06
         0.59519E+06
         0.13956E+07
        -0.22991E+06
        -0.55795E+06
        -0.13645E+07
        -0.68963E+06
        -0.46067E+07
        -0.56404E+07
        -0.29924E+07
        -0.12243E+07
         0.11155E+07
         0.39041E+05
         0.23557E+07
         0.34780E+07
         0.10109E+07
         0.88757E+06
         0.13204E+07
        -0.33139E+06
        -0.22228E+06
         0.23692E+06
         0.94948E+06
         0.33819E+06
         0.45170E+06
        -0.19823E+06
         0.10370E+06
         0.46788E+06
         0.89064E+06
         0.11533E+07
         0.16358E+07
         0.22368E+07
         0.22105E+07
         0.28293E+07
        -0.35694E+06
         0.20375E+07
         0.52992E+06
         0.23726E+07
         0.38609E+07
         0.48689E+07
         0.41730E+07
         0.44567E+07
         0.38311E+07
         0.28424E+07
         0.24652E+07
         0.20091E+07
         0.12602E+07
         0.23331E+07
         0.68905E+06
        -0.67471E+06
        -0.50310E+06
        -0.24268E+06
         0.28224E+06
         0.18579E+07
         0.19078E+07
         0.13455E+07
         0.51692E+06
         0.51226E+06
         0.15436E+07
         0.24922E+07
         0.24609E+07
         0.14430E+07
         0.17288E+07
         0.27419E+07
         0.20729E+07
         0.28918E+07
        -0.31991E+06
        -0.19609E+06
         0.29525E+07
        -0.48112E+06
        -0.15278E+07
         0.10157E+07
         0.14200E+07
        -0.30835E+07
         0.84609E+04
         0.11822E+07
         0.17081E+07
         0.21946E+07
         0.39142E+06
         0.21460E+06
         0.61148E+06
         0.14154E+07
        -0.22739E+06
        -0.56097E+06
        -0.14131E+07
        -0.71093E+06
        -0.46131E+07
        -0.56515E+07
        -0.29815E+07
        -0.12289E+07
         0.10501E+07
        -0.91398E+04
         0.22998E+07
         0.34712E+07
         0.10247E+07
         0.88909E+06
         0.13179E+07
        -0.30789E+06
        -0.20051E+06
         0.26108E+06
         0.97490E+06
         0.35378E+06
         0.46426E+06
        -0.20575E+06
         0.95678E+05
         0.46262E+06
         0.86154E+06
         0.10842E+07
         0.15557E+07
         0.21963E+07
         0.22018E+07
         0.28386E+07
        -0.31089E+06
         0.20851E+07
         0.56858E+06
         0.23985E+07
         0.38880E+07
         0.49056E+07
         0.42147E+07
         0.44969E+07
         0.38773E+07
         0.29034E+07
         0.25186E+07
         0.20413E+07
         0.12962E+07
         0.23707E+07
         0.72522E+06
        -0.64587E+06
        -0.48228E+06
        -0.22205E+06
         0.30700E+06
         0.18751E+07
         0.19040E+07
         0.13219E+07
         0.50127E+06
         0.52000E+06
         0.15667E+07
         0.25254E+07
         0.23712E+07
         0.13799E+07
         0.16916E+07
         0.27310E+07
         0.20609E+07
         0.28907E+07
        -0.37485E+06
        -0.27596E+06
         0.28622E+07
        -0.58601E+06
        -0.15618E+07
         0.10047E+07
         0.14013E+07
        -0.31265E+07
         0.92645E+03
         0.11649E+07
         0.16539E+07
         0.21875E+07
         0.37830E+06
         0.19080E+06
         0.60361E+06
         0.14099E+07
        -0.23625E+06
        -0.57909E+06
        -0.14834E+07
        -0.74932E+06
        -0.46624E+07
        -0.56999E+07
        -0.29944E+07
        -0.12472E+07
         0.95844E+06
        -0.88259E+05
         0.22143E+07
         0.34360E+07
         0.10061E+07
         0.86506E+06
         0.12920E+07
        -0.32652E+06
        -0.21859E+06
         0.25120E+06
         0.97057E+06
         0.35176E+06
         0.46315E+06
        -0.22388E+06
         0.61016E+05
         0.41775E+06
         0.79445E+06
         0.98046E+06
         0.14416E+07
         0.21256E+07
         0.21667E+07
         0.28255E+07
        -0.33029E+06
         0.20700E+07
         0.55704E+06
         0.23854E+07
         0.38691E+07
         0.48831E+07
         0.41959E+07
         0.44808E+07
         0.38610E+07
         0.28912E+07
         0.25089E+07
         0.20296E+07
         0.12941E+07
         0.23677E+07
         0.71732E+06
        -0.65027E+06
        -0.49139E+06
        -0.25449E+06
         0.25856E+06
         0.18218E+07
         0.18437E+07
         0.12472E+07
         0.43584E+06
         0.48524E+06
         0.15480E+07
         0.25107E+07
         0.23451E+07
         0.13566E+07
         0.16764E+07
         0.27163E+07
         0.20480E+07
         0.28780E+07
        -0.40182E+06
        -0.30333E+06
         0.28356E+07
        -0.61667E+06
        -0.15859E+07
         0.98922E+06
         0.13828E+07
        -0.31514E+07
        -0.12026E+05
         0.11494E+07
         0.16322E+07
         0.21713E+07
         0.36630E+06
         0.17195E+06
         0.59126E+06
         0.13969E+07
        -0.24791E+06
        -0.59296E+06
        -0.15061E+07
        -0.77120E+06
        -0.46831E+07
        -0.57257E+07
        -0.30185E+07
        -0.12644E+07
         0.92873E+06
        -0.11978E+06
         0.21868E+07
         0.34161E+07
         0.99035E+06
         0.85204E+06
         0.12762E+07
        -0.35010E+06
        -0.23960E+06
         0.22956E+06
         0.94890E+06
         0.33439E+06
         0.45198E+06
        -0.24008E+06
         0.40308E+05
         0.39677E+06
         0.77229E+06
         0.95471E+06
         0.14131E+07
         0.21011E+07
         0.21450E+07
         0.28091E+07
        -0.35689E+06
         0.20439E+07
         0.53939E+06
         0.23674E+07
         0.38472E+07
         0.48640E+07
         0.41762E+07
         0.44534E+07
         0.38247E+07
         0.28532E+07
         0.24745E+07
         0.20140E+07
         0.12816E+07
         0.23409E+07
         0.68942E+06
        -0.67667E+06
        -0.52570E+06
        -0.28722E+06
         0.23095E+06
         0.17995E+07
         0.18253E+07
         0.12223E+07
         0.40289E+06
         0.45450E+06
         0.15222E+07
         0.24852E+07
         0.23617E+07
         0.13724E+07
         0.16882E+07
         0.27209E+07
         0.20620E+07
         0.28821E+07
        -0.37999E+06
        -0.28271E+06
         0.28527E+07
        -0.59545E+06
        -0.15684E+07
         0.10049E+07
         0.13948E+07
        -0.31310E+07
         0.12695E+05
         0.11700E+07
         0.16533E+07
         0.21847E+07
         0.38971E+06
         0.19361E+06
         0.60790E+06
         0.14127E+07
        -0.23075E+06
        -0.56833E+06
        -0.14838E+07
        -0.74721E+06
        -0.46520E+07
        -0.56960E+07
        -0.29939E+07
        -0.12457E+07
         0.94651E+06
        -0.10207E+06
         0.22008E+07
         0.34225E+07
         0.10083E+07
         0.86694E+06
         0.12885E+07
        -0.33252E+06
        -0.22454E+06
         0.24299E+06
         0.96393E+06
         0.35099E+06
         0.46884E+06
        -0.22418E+06
         0.53773E+05
         0.41020E+06
         0.78676E+06
         0.97266E+06
         0.14315E+07
         0.21148E+07
         0.21543E+07
         0.28132E+07
        -0.31758E+06
         0.20826E+07
         0.56237E+06
         0.23768E+07
         0.38663E+07
         0.48937E+07
         0.42094E+07
         0.44773E+07
         0.38339E+07
         0.28672E+07
         0.24998E+07
         0.20500E+07
         0.13135E+07
         0.23616E+07
         0.70886E+06
        -0.65427E+06
        -0.50304E+06
        -0.25937E+06
         0.25738E+06
         0.18305E+07
         0.18574E+07
         0.12511E+07
         0.42674E+06
         0.47570E+06
         0.15434E+07
         0.25083E+07
         0.23575E+07
         0.13711E+07
         0.16853E+07
         0.27112E+07
         0.20593E+07
         0.28753E+07
        -0.38159E+06
        -0.28973E+06
         0.28395E+07
        -0.60662E+06
        -0.15784E+07
         0.99546E+06
         0.13920E+07
        -0.31448E+07
        -0.92641E+03
         0.11604E+07
         0.16393E+07
         0.21675E+07
         0.37985E+06
         0.17865E+06
         0.60151E+06
         0.14045E+07
        -0.23676E+06
        -0.57742E+06
        -0.14881E+07
        -0.75628E+06
        -0.46582E+07
        -0.56991E+07
        -0.29982E+07
        -0.12532E+07
         0.93745E+06
        -0.11189E+06
         0.21859E+07
         0.34078E+07
         0.10026E+07
         0.86108E+06
         0.12848E+07
        -0.35284E+06
        -0.23596E+06
         0.23231E+06
         0.95346E+06
         0.34438E+06
         0.45931E+06
        -0.22875E+06
         0.48940E+05
         0.40352E+06
         0.77646E+06
         0.96091E+06
         0.14201E+07
         0.21052E+07
         0.21458E+07
         0.28038E+07
        -0.32912E+06
         0.20735E+07
         0.54392E+06
         0.23612E+07
         0.38640E+07
         0.48827E+07
         0.41838E+07
         0.44486E+07
         0.38170E+07
         0.28419E+07
         0.24722E+07
         0.20362E+07
         0.12970E+07
         0.23525E+07
         0.70046E+06
        -0.66208E+06
        -0.50426E+06
        -0.26485E+06
         0.24944E+06
         0.18095E+07
         0.18312E+07
         0.12308E+07
         0.41637E+06
         0.47058E+06
         0.15318E+07
         0.24919E+07
         0.23456E+07
         0.13591E+07
         0.16766E+07
         0.27056E+07
         0.20503E+07
         0.28711E+07
        -0.39147E+06
        -0.30034E+06
         0.28275E+07
        -0.61774E+06
        -0.15897E+07
         0.98299E+06
         0.13836E+07
        -0.31560E+07
        -0.14864E+05
         0.11471E+07
         0.16284E+07
         0.21571E+07
         0.36768E+06
         0.16701E+06
         0.59327E+06
         0.13961E+07
        -0.24593E+06
        -0.59161E+06
        -0.14922E+07
        -0.77338E+06
        -0.46625E+07
        -0.57057E+07
        -0.30035E+07
        -0.12584E+07
         0.92429E+06
        -0.12784E+06
         0.21776E+07
         0.34050E+07
         0.98872E+06
         0.85085E+06
         0.12763E+07
        -0.37250E+06
        -0.24881E+06
         0.22305E+06
         0.94752E+06
         0.33877E+06
         0.45061E+06
        -0.23742E+06
         0.40339E+05
         0.39452E+06
         0.76686E+06
         0.95074E+06
         0.14093E+07
         0.20967E+07
         0.21377E+07
         0.27997E+07
        -0.35208E+06
         0.20544E+07
         0.52986E+06
         0.23564E+07
         0.38578E+07
         0.48604E+07
         0.41516E+07
         0.44226E+07
         0.37995E+07
         0.28237E+07
         0.24609E+07
         0.20227E+07
         0.12773E+07
         0.23391E+07
         0.68644E+06
        -0.67823E+06
        -0.51498E+06
        -0.27744E+06
         0.23384E+06
         0.17922E+07
         0.18113E+07
         0.12101E+07
         0.40143E+06
         0.45639E+06
         0.15141E+07
         0.24733E+07
         0.23535E+07
         0.13641E+07
         0.16810E+07
         0.27139E+07
         0.20598E+07
         0.28809E+07
        -0.37676E+06
        -0.28588E+06
         0.28353E+07
        -0.60817E+06
        -0.15731E+07
         0.99369E+06
         0.13873E+07
        -0.31375E+07
         0.80575E+04
         0.11587E+07
         0.16369E+07
         0.21704E+07
         0.38189E+06
         0.18413E+06
         0.60656E+06
         0.14102E+07
        -0.23432E+06
        -0.57644E+06
        -0.14801E+07
        -0.75817E+06
        -0.46424E+07
        -0.56867E+07
        -0.29761E+07
        -0.12381E+07
         0.93840E+06
        -0.11585E+06
         0.21944E+07
         0.34211E+07
         0.99983E+06
         0.86040E+06
         0.12814E+07
        -0.35831E+06
        -0.23384E+06
         0.24248E+06
         0.96426E+06
         0.35143E+06
         0.46418E+06
        -0.22767E+06
         0.48498E+05
         0.40200E+06
         0.77566E+06
         0.96164E+06
         0.14213E+07
         0.21084E+07
         0.21474E+07
         0.28110E+07
        -0.32337E+06
         0.20855E+07
         0.55908E+06
         0.23708E+07
         0.38531E+07
         0.48619E+07
         0.41746E+07
         0.44482E+07
         0.38167E+07
         0.28498E+07
         0.24857E+07
         0.20345E+07
         0.12986E+07
         0.23607E+07
         0.70609E+06
        -0.66309E+06
        -0.50481E+06
        -0.26470E+06
         0.24580E+06
         0.18108E+07
         0.18335E+07
         0.12315E+07
         0.41979E+06
         0.47197E+06
         0.15372E+07
         0.25004E+07
         0.23480E+07
         0.13545E+07
         0.16726E+07
         0.27029E+07
         0.20505E+07
         0.28712E+07
        -0.38977E+06
        -0.29543E+06
         0.28257E+07
        -0.62208E+06
        -0.15895E+07
         0.97818E+06
         0.13703E+07
        -0.31545E+07
        -0.17825E+04
         0.11479E+07
         0.16228E+07
         0.21521E+07
         0.36690E+06
         0.16672E+06
         0.59167E+06
         0.13950E+07
        -0.25002E+06
        -0.59284E+06
        -0.14922E+07
        -0.77317E+06
        -0.46600E+07
        -0.57113E+07
        -0.29934E+07
        -0.12482E+07
         0.92616E+06
        -0.13095E+06
         0.21764E+07
         0.34078E+07
         0.98659E+06
         0.84846E+06
         0.12674E+07
        -0.37974E+06
        -0.25495E+06
         0.22388E+06
         0.94404E+06
         0.33241E+06
         0.44933E+06
        -0.24542E+06
         0.32721E+05
         0.38888E+06
         0.76195E+06
         0.94567E+06
         0.14073E+07
         0.20989E+07
         0.21366E+07
         0.28003E+07
        -0.34606E+06
         0.20659E+07
         0.53685E+06
         0.23452E+07
         0.38233E+07
         0.48335E+07
         0.41571E+07
         0.44258E+07
         0.37872E+07
         0.28206E+07
         0.24501E+07
         0.19993E+07
         0.12750E+07
         0.23362E+07
         0.68515E+06
        -0.68694E+06
        -0.54167E+06
        -0.29759E+06
         0.22925E+06
         0.17880E+07
         0.18097E+07
         0.12192E+07
         0.41136E+06
         0.45445E+06
         0.15133E+07
         0.24767E+07
         0.23471E+07
         0.13514E+07
         0.16701E+07
         0.26995E+07
         0.20495E+07
         0.28685E+07
        -0.39035E+06
        -0.29576E+06
         0.28262E+07
        -0.62144E+06
        -0.15917E+07
         0.97608E+06
         0.13677E+07
        -0.31556E+07
        -0.81874E+03
         0.11460E+07
         0.16236E+07
         0.21474E+07
         0.36576E+06
         0.16415E+06
         0.58851E+06
         0.13927E+07
        -0.25346E+06
        -0.59588E+06
        -0.14903E+07
        -0.77751E+06
        -0.46556E+07
        -0.57147E+07
        -0.29958E+07
        -0.12495E+07
         0.91981E+06
        -0.13705E+06
         0.21692E+07
         0.34049E+07
         0.98352E+06
         0.84467E+06
         0.12632E+07
        -0.38985E+06
        -0.26666E+06
         0.21672E+06
         0.94191E+06
         0.33086E+06
         0.44733E+06
        -0.24835E+06
         0.29829E+05
         0.38579E+06
         0.75754E+06
         0.93944E+06
         0.14017E+07
         0.20969E+07
         0.21346E+07
         0.27978E+07
        -0.34675E+06
         0.20663E+07
         0.53080E+06
         0.23353E+07
         0.38227E+07
         0.48330E+07
         0.41500E+07
         0.44070E+07
         0.37658E+07
         0.28088E+07
         0.24489E+07
         0.19959E+07
         0.12690E+07
         0.23266E+07
         0.67424E+06
        -0.69457E+06
        -0.54666E+06
        -0.30190E+06
         0.22454E+06
         0.17797E+07
         0.17992E+07
         0.12125E+07
         0.41052E+06
         0.45209E+06
         0.15027E+07
         0.24671E+07
         0.23719E+07
         0.13816E+07
         0.16958E+07
         0.27211E+07
         0.20772E+07
         0.28910E+07
        -0.34619E+06
        -0.26581E+06
         0.28466E+07
        -0.59728E+06
        -0.15523E+07
         0.10099E+07
         0.13983E+07
        -0.31222E+07
         0.33221E+05
         0.11709E+07
         0.16523E+07
         0.21733E+07
         0.39648E+06
         0.20070E+06
         0.61793E+06
         0.14207E+07
        -0.22508E+06
        -0.56307E+06
        -0.14562E+07
        -0.74364E+06
        -0.46165E+07
        -0.56638E+07
        -0.29446E+07
        -0.12130E+07
         0.94790E+06
        -0.10291E+06
         0.21952E+07
         0.34264E+07
         0.10132E+07
         0.87238E+06
         0.12902E+07
        -0.36771E+06
        -0.23782E+06
         0.24800E+06
         0.96980E+06
         0.35935E+06
         0.47255E+06
        -0.21833E+06
         0.60424E+05
         0.41531E+06
         0.78569E+06
         0.96701E+06
         0.14263E+07
         0.21181E+07
         0.21547E+07
         0.28174E+07
        -0.29448E+06
         0.21183E+07
         0.57454E+06
         0.23670E+07
         0.38612E+07
         0.48817E+07
         0.41909E+07
         0.44382E+07
         0.38009E+07
         0.28471E+07
         0.24835E+07
         0.20365E+07
         0.13016E+07
         0.23629E+07
         0.71537E+06
        -0.65184E+06
        -0.49863E+06
        -0.25042E+06
         0.26876E+06
         0.18259E+07
         0.18387E+07
         0.12420E+07
         0.44286E+06
         0.49070E+06
         0.15445E+07
         0.25094E+07
         0.23617E+07
         0.13730E+07
         0.16880E+07
         0.27076E+07
         0.20656E+07
         0.28811E+07
        -0.35756E+06
        -0.27831E+06
         0.28329E+07
        -0.61488E+06
        -0.15683E+07
         0.99797E+06
         0.13908E+07
        -0.31402E+07
         0.18963E+05
         0.11570E+07
         0.16344E+07
         0.21582E+07
         0.37660E+06
         0.17964E+06
         0.60798E+06
         0.14069E+07
        -0.23474E+06
        -0.58286E+06
        -0.14711E+07
        -0.76483E+06
        -0.46322E+07
        -0.56805E+07
        -0.29457E+07
        -0.12198E+07
         0.93905E+06
        -0.12000E+06
         0.21828E+07
         0.34103E+07
         0.99615E+06
         0.86157E+06
         0.12834E+07
        -0.39201E+06
        -0.25486E+06
         0.24012E+06
         0.95712E+06
         0.34464E+06
         0.45543E+06
        -0.23154E+06
         0.46689E+05
         0.40297E+06
         0.77429E+06
         0.95808E+06
         0.14145E+07
         0.21038E+07
         0.21418E+07
         0.28063E+07
        -0.32793E+06
         0.20901E+07
         0.54886E+06
         0.23535E+07
         0.38565E+07
         0.48691E+07
         0.41629E+07
         0.44044E+07
         0.37681E+07
         0.28180E+07
         0.24492E+07
         0.19972E+07
         0.12735E+07
         0.23489E+07
         0.70890E+06
        -0.65593E+06
        -0.51204E+06
        -0.27364E+06
         0.25142E+06
         0.18053E+07
         0.18197E+07
         0.12206E+07
         0.41988E+06
         0.47608E+06
         0.15309E+07
         0.24870E+07
         0.23445E+07
         0.13510E+07
         0.16664E+07
         0.26894E+07
         0.20470E+07
         0.28620E+07
        -0.37771E+06
        -0.29325E+06
         0.28132E+07
        -0.64697E+06
        -0.15880E+07
         0.97867E+06
         0.13742E+07
        -0.31586E+07
         0.82233E+03
         0.11400E+07
         0.16072E+07
         0.21409E+07
         0.36036E+06
         0.16891E+06
         0.59568E+06
         0.13907E+07
        -0.24642E+06
        -0.59982E+06
        -0.15001E+07
        -0.78562E+06
        -0.46693E+07
        -0.57078E+07
        -0.28861E+07
        -0.11936E+07
         0.92284E+06
        -0.14396E+06
         0.21705E+07
         0.33991E+07
         0.97696E+06
         0.84368E+06
         0.12669E+07
        -0.42811E+06
        -0.27162E+06
         0.26901E+06
         0.95613E+06
         0.32869E+06
         0.43252E+06
        -0.24583E+06
         0.29194E+05
         0.38322E+06
         0.75440E+06
         0.94210E+06
         0.14010E+07
         0.20923E+07
         0.21304E+07
         0.27927E+07
        -0.35026E+06
         0.20696E+07
         0.53139E+06
         0.23383E+07
         0.38353E+07
         0.48347E+07
         0.41236E+07
         0.43667E+07
         0.37351E+07
         0.28103E+07
         0.23894E+07
         0.19032E+07
         0.12340E+07
         0.23269E+07
         0.68940E+06
        -0.67327E+06
        -0.53346E+06
        -0.29800E+06
         0.22293E+06
         0.17731E+07
         0.17979E+07
         0.12001E+07
         0.39647E+06
         0.45870E+06
         0.15043E+07
         0.24571E+07
         0.23681E+07
         0.13787E+07
         0.16943E+07
         0.27157E+07
         0.20765E+07
         0.28863E+07
        -0.33887E+06
        -0.26376E+06
         0.28273E+07
        -0.65137E+06
        -0.15525E+07
         0.10039E+07
         0.13969E+07
        -0.31271E+07
         0.31262E+05
         0.11651E+07
         0.16269E+07
         0.21651E+07
         0.39577E+06
         0.22983E+06
         0.62016E+06
         0.14151E+07
        -0.22358E+06
        -0.56444E+06
        -0.14893E+07
        -0.74872E+06
        -0.46751E+07
        -0.56760E+07
        -0.27067E+07
        -0.10836E+07
         0.94683E+06
        -0.10923E+06
         0.21960E+07
         0.34277E+07
         0.10088E+07
         0.87456E+06
         0.12924E+07
        -0.42580E+06
        -0.23870E+06
         0.37628E+06
         0.10096E+07
         0.35752E+06
         0.44724E+06
        -0.22007E+06
         0.59115E+05
         0.41603E+06
         0.78375E+06
         0.96733E+06
         0.14280E+07
         0.21211E+07
         0.21572E+07
         0.28160E+07
        -0.29645E+06
         0.21225E+07
         0.58535E+06
         0.23761E+07
         0.38593E+07
         0.48623E+07
         0.41618E+07
         0.44058E+07
         0.37781E+07
         0.28937E+07
         0.23699E+07
         0.18275E+07
         0.12369E+07
         0.23569E+07
         0.71451E+06
        -0.65228E+06
        -0.50749E+06
        -0.25490E+06
         0.27579E+06
         0.18225E+07
         0.18408E+07
         0.12444E+07
         0.44619E+06
         0.50483E+06
         0.15416E+07
         0.24963E+07
         0.22804E+07
         0.12770E+07
         0.15944E+07
         0.26096E+07
         0.19718E+07
         0.27801E+07
        -0.46999E+06
        -0.36636E+06
         0.27214E+07
        -0.77878E+06
        -0.16871E+07
         0.88406E+06
         0.12810E+07
        -0.32553E+07
        -0.89613E+05
         0.10715E+07
         0.14976E+07
         0.20491E+07
         0.27833E+06
         0.10100E+06
         0.51225E+06
         0.13081E+07
        -0.32964E+06
        -0.68914E+06
        -0.16188E+07
        -0.87212E+06
        -0.48241E+07
        -0.58307E+07
        -0.27734E+07
        -0.11565E+07
         0.85038E+06
        -0.23689E+06
         0.20835E+07
         0.33046E+07
         0.89216E+06
         0.76131E+06
         0.11798E+07
        -0.56845E+06
        -0.35473E+06
         0.30700E+06
         0.90512E+06
         0.24316E+06
         0.33232E+06
        -0.32596E+06
        -0.53993E+05
         0.29301E+06
         0.66970E+06
         0.86071E+06
         0.13181E+07
         0.20067E+07
         0.20370E+07
         0.27032E+07
        -0.48462E+06
         0.19402E+07
         0.39624E+06
         0.21835E+07
         0.36680E+07
         0.46786E+07
         0.39746E+07
         0.42037E+07
         0.35882E+07
         0.27214E+07
         0.21297E+07
         0.15661E+07
         0.10497E+07
         0.22010E+07
         0.55218E+06
        -0.82024E+06
        -0.68071E+06
        -0.44777E+06
         0.77078E+05
         0.16323E+07
         0.16633E+07
         0.10740E+07
         0.27226E+06
         0.32579E+06
         0.13700E+07
         0.23259E+07
         0.23308E+07
         0.12840E+07
         0.16132E+07
         0.26499E+07
         0.20069E+07
         0.28149E+07
        -0.44882E+06
        -0.30322E+06
         0.27903E+07
        -0.68526E+06
        -0.16495E+07
         0.88635E+06
         0.12514E+07
        -0.31771E+07
        -0.34679E+05
         0.11447E+07
         0.15821E+07
         0.21102E+07
         0.34222E+06
         0.17566E+06
         0.56114E+06
         0.13449E+07
        -0.25342E+06
        -0.59561E+06
        -0.14996E+07
        -0.78140E+06
        -0.46964E+07
        -0.56530E+07
        -0.26231E+07
        -0.10455E+07
         0.91031E+06
        -0.18099E+06
         0.21154E+07
         0.32865E+07
         0.90992E+06
         0.75272E+06
         0.11479E+07
        -0.50193E+06
        -0.27064E+06
         0.38142E+06
         0.95240E+06
         0.30826E+06
         0.40109E+06
        -0.25384E+06
        -0.12852E+05
         0.31189E+06
         0.68690E+06
         0.90636E+06
         0.13546E+07
         0.20086E+07
         0.20448E+07
         0.27054E+07
        -0.41242E+06
         0.20341E+07
         0.41989E+06
         0.21420E+07
         0.35820E+07
         0.46263E+07
         0.40602E+07
         0.42922E+07
         0.36587E+07
         0.27631E+07
         0.21413E+07
         0.16019E+07
         0.11205E+07
         0.22362E+07
         0.62592E+06
        -0.71524E+06
        -0.59143E+06
        -0.37970E+06
         0.10654E+06
         0.16288E+07
         0.17027E+07
         0.11305E+07
         0.36159E+06
         0.43450E+06
         0.14554E+07
         0.24145E+07
         0.34257E+09
         0.38699E+09
         0.38779E+09
         0.38135E+09
         0.40752E+09
         0.40352E+09
         0.45724E+09
         0.38889E+09
         0.36325E+09
         0.39094E+09
         0.47956E+09
         0.45868E+09
         0.42287E+09
         0.46055E+09
         0.46830E+09
         0.34479E+09
         0.41453E+09
         0.40554E+09
         0.41196E+09
         0.47436E+09
         0.38722E+09
         0.39392E+09
         0.37474E+09
         0.41687E+09
         0.41739E+09
         0.44187E+09
         0.45524E+09
         0.53761E+09
         0.50749E+09
         0.42925E+09
         0.35785E+09
         0.42126E+09
         0.38524E+09
         0.40799E+09
         0.43627E+09
         0.42007E+09
         0.40570E+09
         0.45195E+09
         0.44690E+09
         0.44520E+09
         0.44238E+09
         0.42196E+09
         0.40021E+09
         0.37073E+09
         0.39283E+09
         0.43463E+09
         0.41531E+09
         0.39703E+09
         0.40211E+09
         0.40705E+09
         0.41978E+09
         0.40415E+09
         0.68868E+09
         0.67383E+09
         0.68425E+09
         0.66280E+09
         0.68173E+09
         0.71290E+09
         0.71727E+09
         0.71340E+09
         0.71990E+09
         0.73729E+09
         0.71563E+09
         0.67506E+09
         0.60533E+09
         0.57334E+09
         0.57833E+09
         0.58930E+09
         0.59573E+09
         0.64612E+09
         0.69340E+09
         0.69563E+09
         0.64160E+09
         0.62058E+09
         0.64060E+09
         0.63492E+09
         0.62969E+09
         0.63128E+09
         0.32793E+10
         0.34416E+10
         0.33970E+10
         0.31294E+10
         0.37668E+10
         0.35650E+10
         0.37071E+10
         0.37131E+10
         0.32295E+10
         0.37123E+10
         0.40397E+10
         0.44448E+10
         0.40653E+10
         0.41428E+10
         0.45876E+10
         0.31654E+10
         0.33947E+10
         0.30030E+10
         0.34939E+10
         0.36659E+10
         0.37385E+10
         0.38197E+10
         0.36027E+10
         0.33745E+10
         0.37646E+10
         0.32696E+10
         0.41287E+10
         0.40738E+10
         0.40893E+10
         0.38872E+10
         0.32013E+10
         0.33618E+10
         0.31523E+10
         0.32844E+10
         0.40890E+10
         0.37912E+10
         0.37940E+10
         0.44613E+10
         0.43666E+10
         0.43213E+10
         0.43747E+10
         0.41710E+10
         0.39556E+10
         0.35313E+10
         0.36740E+10
         0.40834E+10
         0.38121E+10
         0.36048E+10
         0.35442E+10
         0.36608E+10
         0.39334E+10
         0.36677E+10
         0.62352E+10
         0.60736E+10
         0.61922E+10
         0.60007E+10
         0.61692E+10
         0.64731E+10
         0.65811E+10
         0.65817E+10
         0.66314E+10
         0.67732E+10
         0.65814E+10
         0.61929E+10
         0.55821E+10
         0.52861E+10
         0.52891E+10
         0.53477E+10
         0.53943E+10
         0.58336E+10
         0.62533E+10
         0.62746E+10
         0.58246E+10
         0.56528E+10
         0.58299E+10
         0.57923E+10
         0.57237E+10
         0.57094E+10
  
SCALARS                      stress_yz  double 1
LOOKUP_TABLE default
         0.36590E+06
        -0.12171E+06
        -0.31623E+06
        -0.16264E+06
        -0.78852E+01
        -0.21733E+01
        -0.97722E+01
        -0.74536E+01
        -0.11853E+07
         0.77958E+06
        -0.14543E+02
        -0.12803E+02
        -0.10398E+07
        -0.52872E+05
         0.10408E+02
        -0.66728E+00
         0.35747E+06
         0.13324E+07
         0.15312E+00
         0.15668E+01
        -0.69142E+06
        -0.26026E+07
        -0.27055E+07
         0.23858E+02
         0.41202E+02
         0.34440E+02
        -0.25653E+06
        -0.26386E+07
         0.17162E+02
         0.33293E+02
         0.40853E+06
         0.35611E+06
        -0.30246E+06
         0.88969E+01
         0.90822E+01
        -0.18856E+00
         0.12141E+07
         0.11700E+07
         0.16372E+02
         0.12738E+02
         0.11935E+07
         0.75974E+06
         0.12373E+02
         0.11307E+02
         0.10824E+07
         0.37317E+06
        -0.41044E+00
         0.63486E+01
         0.10051E+07
         0.29891E+01
         0.99051E+05
        -0.24209E+00
         0.59216E+05
         0.11562E+02
        -0.39244E+06
         0.67259E+01
        -0.12799E+07
         0.22727E+06
         0.18247E+00
        -0.37034E+00
         0.49543E+06
         0.18077E+07
        -0.24861E+01
        -0.92992E+01
         0.29916E+06
        -0.50183E+01
         0.12844E+07
        -0.61134E+01
        -0.10431E+07
        -0.55254E+06
        -0.75550E+00
         0.99753E+01
        -0.19319E+07
         0.21904E+02
        -0.33494E+07
         0.21209E+02
        -0.33802E+07
         0.16100E+02
        -0.27844E+07
         0.13494E+02
        -0.40837E+07
        -0.31342E+07
         0.86567E+01
        -0.19193E+01
        -0.43834E+06
        -0.21476E+00
         0.16916E+07
        -0.13453E+02
         0.39980E+07
        -0.23552E+02
         0.55868E+07
         0.34630E+07
        -0.34932E+02
        -0.28274E+02
         0.24356E+07
        -0.21948E+02
         0.21854E+07
        -0.22454E+02
         0.21266E+07
        -0.24143E+02
         0.35388E+07
         0.29409E+07
        -0.22452E+02
        -0.10758E+02
        -0.23740E+07
         0.89861E+06
         0.78945E+01
        -0.98104E+01
        -0.58363E+07
         0.26263E+02
        -0.83549E+07
         0.38416E+02
        -0.10229E+08
         0.47445E+02
        -0.11997E+08
         0.47061E+02
        -0.14124E+08
         0.37243E+02
        -0.14437E+08
         0.28821E+02
        -0.13594E+08
         0.26806E+02
        -0.12097E+08
         0.25504E+02
        -0.88220E+07
         0.16299E+02
        -0.59578E+07
         0.53813E+01
        -0.29888E+07
         0.34772E+01
         0.21499E+06
         0.52265E+01
         0.28517E+07
         0.26994E+01
         0.51158E+07
        -0.81635E+01
         0.79172E+07
        -0.23043E+02
         0.89086E+07
        -0.35982E+02
         0.97448E+07
        -0.47172E+02
         0.12449E+08
        -0.47131E+02
         0.12895E+08
        -0.41143E+02
         0.11916E+08
        -0.40098E+02
         0.96915E+07
        -0.40348E+02
         0.65890E+07
        -0.31906E+02
         0.46669E+07
        -0.18867E+02
         0.33561E+07
        -0.14588E+02
        -0.22893E+06
         0.46036E+06
         0.32889E+06
        -0.91558E+05
         0.98956E+06
         0.29267E+06
         0.13205E+06
         0.11781E+07
        -0.31189E+06
         0.68950E+06
        -0.14839E+07
        -0.63290E+07
        -0.43270E+07
        -0.50189E+06
        -0.63954E+07
         0.15751E+06
        -0.84000E+05
         0.15007E+06
        -0.20148E+06
         0.90103E+05
        -0.16530E+06
        -0.90758E+05
         0.59325E+06
        -0.43480E+05
         0.43751E+06
        -0.69719E+05
        -0.10305E+05
        -0.16889E+06
        -0.31519E+06
         0.72082E+06
         0.12385E+06
         0.25434E+06
         0.88409E+05
         0.18654E+05
        -0.21379E+06
        -0.11601E+07
        -0.21882E+07
        -0.56227E+07
        -0.51373E+07
        -0.43367E+07
        -0.40806E+07
        -0.10154E+07
         0.34691E+06
         0.11538E+07
         0.32499E+07
         0.61426E+07
         0.38756E+07
         0.11286E+07
         0.13180E+07
         0.28382E+07
         0.38447E+07
         0.12365E+07
        -0.33002E+07
         0.39710E+07
        -0.10752E+08
        -0.14859E+08
        -0.18940E+08
        -0.22476E+08
        -0.22588E+08
        -0.20447E+08
        -0.19458E+08
        -0.18389E+08
        -0.11878E+08
        -0.52218E+07
        -0.22992E+07
        -0.10139E+07
         0.15534E+07
         0.61428E+07
         0.11289E+08
         0.14723E+08
         0.17792E+08
         0.20407E+08
         0.19234E+08
         0.18183E+08
         0.16914E+08
         0.11758E+08
         0.68730E+07
         0.60363E+07
        -0.16830E+09
        -0.17128E+09
        -0.16751E+09
        -0.56901E+08
        -0.12316E+09
        -0.78264E+08
        -0.13271E+09
        -0.16155E+09
        -0.16438E+09
        -0.16062E+09
         0.16728E+09
         0.18469E+09
         0.14103E+09
         0.38665E+08
         0.17438E+09
         0.86086E+08
        -0.49758E+08
         0.53859E+08
         0.16319E+09
         0.46934E+08
         0.48302E+08
         0.36378E+08
        -0.21614E+08
         0.64801E+08
        -0.16328E+09
         0.72679E+08
         0.87628E+07
         0.33904E+08
        -0.54156E+08
        -0.15084E+09
         0.10763E+09
         0.51740E+08
         0.10511E+09
         0.10486E+09
        -0.13998E+08
         0.68869E+08
         0.10329E+09
         0.15990E+09
         0.17975E+09
         0.16932E+09
         0.89897E+08
        -0.24320E+08
        -0.49788E+08
        -0.78837E+08
        -0.11278E+09
        -0.17225E+09
        -0.14840E+09
        -0.11422E+09
        -0.17210E+09
        -0.17375E+09
        -0.11380E+09
        -0.12120E+08
         0.36609E+08
        -0.51256E+08
         0.11458E+09
         0.14906E+09
         0.18155E+09
         0.20427E+09
         0.20770E+09
         0.20176E+09
         0.19794E+09
         0.18415E+09
         0.11777E+09
         0.39301E+08
         0.18614E+08
         0.16700E+08
        -0.71016E+07
        -0.56601E+08
        -0.10964E+09
        -0.14088E+09
        -0.18993E+09
        -0.20556E+09
        -0.19853E+09
        -0.19673E+09
        -0.18502E+09
        -0.13298E+09
        -0.67308E+08
        -0.64223E+08
        -0.16828E+09
        -0.17128E+09
        -0.16750E+09
        -0.57240E+08
        -0.12323E+09
        -0.78368E+08
        -0.13287E+09
        -0.16168E+09
        -0.16440E+09
        -0.16078E+09
         0.16739E+09
         0.18468E+09
         0.14102E+09
         0.38751E+08
         0.17444E+09
         0.86027E+08
        -0.50076E+08
         0.53778E+08
         0.16321E+09
         0.46672E+08
         0.48418E+08
         0.36416E+08
        -0.21620E+08
         0.64772E+08
        -0.16335E+09
         0.72547E+08
         0.88633E+07
         0.34094E+08
        -0.53799E+08
        -0.15090E+09
         0.10755E+09
         0.51644E+08
         0.10552E+09
         0.10494E+09
        -0.13861E+08
         0.68933E+08
         0.10331E+09
         0.15992E+09
         0.17976E+09
         0.16930E+09
         0.89911E+08
        -0.24243E+08
        -0.49833E+08
        -0.78879E+08
        -0.11281E+09
        -0.17226E+09
        -0.14841E+09
        -0.11416E+09
        -0.17210E+09
        -0.17374E+09
        -0.11381E+09
        -0.11954E+08
         0.36587E+08
        -0.51270E+08
         0.11460E+09
         0.14906E+09
         0.18156E+09
         0.20426E+09
         0.20770E+09
         0.20175E+09
         0.19794E+09
         0.18415E+09
         0.11776E+09
         0.39318E+08
         0.18614E+08
         0.16735E+08
        -0.70430E+07
        -0.56619E+08
        -0.10967E+09
        -0.14089E+09
        -0.18993E+09
        -0.20556E+09
        -0.19853E+09
        -0.19674E+09
        -0.18503E+09
        -0.13296E+09
        -0.67268E+08
        -0.64170E+08
        -0.16827E+09
        -0.17127E+09
        -0.16750E+09
        -0.57582E+08
        -0.12329E+09
        -0.78473E+08
        -0.13304E+09
        -0.16180E+09
        -0.16443E+09
        -0.16093E+09
         0.16749E+09
         0.18466E+09
         0.14100E+09
         0.38833E+08
         0.17450E+09
         0.85966E+08
        -0.50395E+08
         0.53697E+08
         0.16323E+09
         0.46406E+08
         0.48534E+08
         0.36452E+08
        -0.21630E+08
         0.64735E+08
        -0.16342E+09
         0.72396E+08
         0.89709E+07
         0.34295E+08
        -0.53409E+08
        -0.15097E+09
         0.10747E+09
         0.51523E+08
         0.10592E+09
         0.10501E+09
        -0.13723E+08
         0.68996E+08
         0.10333E+09
         0.15994E+09
         0.17977E+09
         0.16928E+09
         0.89928E+08
        -0.24159E+08
        -0.49875E+08
        -0.78928E+08
        -0.11284E+09
        -0.17227E+09
        -0.14843E+09
        -0.11410E+09
        -0.17210E+09
        -0.17373E+09
        -0.11382E+09
        -0.11788E+08
         0.36565E+08
        -0.51284E+08
         0.11463E+09
         0.14906E+09
         0.18156E+09
         0.20426E+09
         0.20769E+09
         0.20174E+09
         0.19795E+09
         0.18415E+09
         0.11776E+09
         0.39336E+08
         0.18614E+08
         0.16770E+08
        -0.69841E+07
        -0.56637E+08
        -0.10969E+09
        -0.14089E+09
        -0.18994E+09
        -0.20556E+09
        -0.19854E+09
        -0.19674E+09
        -0.18504E+09
        -0.13295E+09
        -0.67229E+08
        -0.64116E+08
        -0.16826E+09
        -0.17126E+09
        -0.16749E+09
        -0.57925E+08
        -0.12336E+09
        -0.78579E+08
        -0.13322E+09
        -0.16193E+09
        -0.16446E+09
        -0.16109E+09
         0.16759E+09
         0.18465E+09
         0.14099E+09
         0.38920E+08
         0.17455E+09
         0.85901E+08
        -0.50715E+08
         0.53613E+08
         0.16325E+09
         0.46124E+08
         0.48652E+08
         0.36484E+08
        -0.21648E+08
         0.64677E+08
        -0.16348E+09
         0.72198E+08
         0.90825E+07
         0.34562E+08
        -0.52925E+08
        -0.15103E+09
         0.10737E+09
         0.51350E+08
         0.10633E+09
         0.10509E+09
        -0.13586E+08
         0.69059E+08
         0.10334E+09
         0.15996E+09
         0.17979E+09
         0.16926E+09
         0.89952E+08
        -0.24055E+08
        -0.49906E+08
        -0.78997E+08
        -0.11289E+09
        -0.17228E+09
        -0.14844E+09
        -0.11403E+09
        -0.17210E+09
        -0.17372E+09
        -0.11383E+09
        -0.11622E+08
         0.36543E+08
        -0.51298E+08
         0.11465E+09
         0.14906E+09
         0.18157E+09
         0.20425E+09
         0.20768E+09
         0.20173E+09
         0.19795E+09
         0.18415E+09
         0.11775E+09
         0.39358E+08
         0.18616E+08
         0.16805E+08
        -0.69247E+07
        -0.56656E+08
        -0.10972E+09
        -0.14090E+09
        -0.18995E+09
        -0.20556E+09
        -0.19854E+09
        -0.19674E+09
        -0.18505E+09
        -0.13293E+09
        -0.67190E+08
        -0.64062E+08
        -0.16824E+09
        -0.17126E+09
        -0.16748E+09
        -0.58264E+08
        -0.12343E+09
        -0.78684E+08
        -0.13338E+09
        -0.16206E+09
        -0.16449E+09
        -0.16125E+09
         0.16768E+09
         0.18464E+09
         0.14097E+09
         0.39008E+08
         0.17461E+09
         0.85831E+08
        -0.51035E+08
         0.53529E+08
         0.16328E+09
         0.45826E+08
         0.48770E+08
         0.36512E+08
        -0.21675E+08
         0.64596E+08
        -0.16353E+09
         0.71949E+08
         0.92072E+07
         0.34888E+08
        -0.52344E+08
        -0.15108E+09
         0.10727E+09
         0.51118E+08
         0.10674E+09
         0.10517E+09
        -0.13448E+08
         0.69123E+08
         0.10336E+09
         0.15997E+09
         0.17980E+09
         0.16924E+09
         0.89984E+08
        -0.23929E+08
        -0.49926E+08
        -0.79087E+08
        -0.11295E+09
        -0.17229E+09
        -0.14846E+09
        -0.11397E+09
        -0.17210E+09
        -0.17371E+09
        -0.11384E+09
        -0.11454E+08
         0.36521E+08
        -0.51312E+08
         0.11467E+09
         0.14906E+09
         0.18157E+09
         0.20424E+09
         0.20767E+09
         0.20171E+09
         0.19795E+09
         0.18415E+09
         0.11775E+09
         0.39383E+08
         0.18618E+08
         0.16838E+08
        -0.68650E+07
        -0.56675E+08
        -0.10976E+09
        -0.14092E+09
        -0.18995E+09
        -0.20555E+09
        -0.19855E+09
        -0.19675E+09
        -0.18506E+09
        -0.13292E+09
        -0.67150E+08
        -0.64009E+08
        -0.16823E+09
        -0.17125E+09
        -0.16748E+09
        -0.58609E+08
        -0.12349E+09
        -0.78789E+08
        -0.13353E+09
        -0.16218E+09
        -0.16452E+09
        -0.16141E+09
         0.16778E+09
         0.18463E+09
         0.14095E+09
         0.39102E+08
         0.17467E+09
         0.85763E+08
        -0.51362E+08
         0.53447E+08
         0.16330E+09
         0.45522E+08
         0.48887E+08
         0.36538E+08
        -0.21706E+08
         0.64506E+08
        -0.16358E+09
         0.71683E+08
         0.93414E+07
         0.35249E+08
        -0.51723E+08
        -0.15112E+09
         0.10716E+09
         0.50863E+08
         0.10715E+09
         0.10526E+09
        -0.13309E+08
         0.69188E+08
         0.10338E+09
         0.15999E+09
         0.17982E+09
         0.16922E+09
         0.90017E+08
        -0.23797E+08
        -0.49940E+08
        -0.79184E+08
        -0.11301E+09
        -0.17230E+09
        -0.14848E+09
        -0.11392E+09
        -0.17211E+09
        -0.17370E+09
        -0.11385E+09
        -0.11286E+08
         0.36498E+08
        -0.51326E+08
         0.11469E+09
         0.14906E+09
         0.18158E+09
         0.20424E+09
         0.20766E+09
         0.20170E+09
         0.19796E+09
         0.18415E+09
         0.11775E+09
         0.39410E+08
         0.18621E+08
         0.16872E+08
        -0.68055E+07
        -0.56695E+08
        -0.10979E+09
        -0.14093E+09
        -0.18996E+09
        -0.20555E+09
        -0.19855E+09
        -0.19675E+09
        -0.18507E+09
        -0.13290E+09
        -0.67111E+08
        -0.63955E+08
        -0.16822E+09
        -0.17124E+09
        -0.16748E+09
        -0.58961E+08
        -0.12356E+09
        -0.78894E+08
        -0.13364E+09
        -0.16230E+09
        -0.16456E+09
        -0.16155E+09
         0.16788E+09
         0.18462E+09
         0.14094E+09
         0.39218E+08
         0.17472E+09
         0.85697E+08
        -0.51701E+08
         0.53364E+08
         0.16332E+09
         0.45218E+08
         0.49005E+08
         0.36565E+08
        -0.21737E+08
         0.64416E+08
        -0.16363E+09
         0.71416E+08
         0.94997E+07
         0.35634E+08
        -0.51090E+08
        -0.15116E+09
         0.10705E+09
         0.50598E+08
         0.10757E+09
         0.10536E+09
        -0.13170E+08
         0.69253E+08
         0.10340E+09
         0.16001E+09
         0.17983E+09
         0.16921E+09
         0.90053E+08
        -0.23662E+08
        -0.49953E+08
        -0.79280E+08
        -0.11308E+09
        -0.17232E+09
        -0.14851E+09
        -0.11389E+09
        -0.17211E+09
        -0.17369E+09
        -0.11385E+09
        -0.11115E+08
         0.36476E+08
        -0.51340E+08
         0.11471E+09
         0.14906E+09
         0.18158E+09
         0.20423E+09
         0.20765E+09
         0.20169E+09
         0.19796E+09
         0.18414E+09
         0.11775E+09
         0.39437E+08
         0.18625E+08
         0.16905E+08
        -0.67458E+07
        -0.56715E+08
        -0.10983E+09
        -0.14094E+09
        -0.18997E+09
        -0.20555E+09
        -0.19856E+09
        -0.19675E+09
        -0.18508E+09
        -0.13288E+09
        -0.67071E+08
        -0.63901E+08
        -0.16821E+09
        -0.17123E+09
        -0.16748E+09
        -0.59320E+08
        -0.12362E+09
        -0.79000E+08
        -0.13351E+09
        -0.16242E+09
        -0.16459E+09
        -0.16170E+09
         0.16797E+09
         0.18461E+09
         0.14093E+09
         0.39340E+08
         0.17478E+09
         0.85633E+08
        -0.52047E+08
         0.53280E+08
         0.16335E+09
         0.44915E+08
         0.49123E+08
         0.36592E+08
        -0.21767E+08
         0.64330E+08
        -0.16368E+09
         0.71150E+08
         0.96641E+07
         0.36027E+08
        -0.50455E+08
        -0.15120E+09
         0.10695E+09
         0.50325E+08
         0.10800E+09
         0.10546E+09
        -0.13029E+08
         0.69320E+08
         0.10342E+09
         0.16003E+09
         0.17985E+09
         0.16919E+09
         0.90088E+08
        -0.23527E+08
        -0.49965E+08
        -0.79375E+08
        -0.11315E+09
        -0.17233E+09
        -0.14854E+09
        -0.11386E+09
        -0.17212E+09
        -0.17368E+09
        -0.11386E+09
        -0.10943E+08
         0.36453E+08
        -0.51354E+08
         0.11473E+09
         0.14906E+09
         0.18159E+09
         0.20422E+09
         0.20764E+09
         0.20168E+09
         0.19797E+09
         0.18414E+09
         0.11775E+09
         0.39463E+08
         0.18628E+08
         0.16939E+08
        -0.66861E+07
        -0.56735E+08
        -0.10986E+09
        -0.14095E+09
        -0.18997E+09
        -0.20555E+09
        -0.19857E+09
        -0.19676E+09
        -0.18509E+09
        -0.13287E+09
        -0.67031E+08
        -0.63847E+08
        -0.16820E+09
        -0.17122E+09
        -0.16748E+09
        -0.59677E+08
        -0.12369E+09
        -0.79106E+08
        -0.13326E+09
        -0.16253E+09
        -0.16462E+09
        -0.16184E+09
         0.16806E+09
         0.18460E+09
         0.14092E+09
         0.39467E+08
         0.17484E+09
         0.85570E+08
        -0.52392E+08
         0.53194E+08
         0.16337E+09
         0.44608E+08
         0.49241E+08
         0.36620E+08
        -0.21797E+08
         0.64242E+08
        -0.16374E+09
         0.70885E+08
         0.98325E+07
         0.36417E+08
        -0.49821E+08
        -0.15124E+09
         0.10684E+09
         0.50055E+08
         0.10843E+09
         0.10557E+09
        -0.12888E+08
         0.69384E+08
         0.10344E+09
         0.16006E+09
         0.17986E+09
         0.16917E+09
         0.90123E+08
        -0.23393E+08
        -0.49977E+08
        -0.79470E+08
        -0.11321E+09
        -0.17235E+09
        -0.14857E+09
        -0.11384E+09
        -0.17213E+09
        -0.17367E+09
        -0.11386E+09
        -0.10770E+08
         0.36431E+08
        -0.51368E+08
         0.11475E+09
         0.14906E+09
         0.18159E+09
         0.20421E+09
         0.20763E+09
         0.20166E+09
         0.19797E+09
         0.18414E+09
         0.11774E+09
         0.39489E+08
         0.18632E+08
         0.16974E+08
        -0.66265E+07
        -0.56754E+08
        -0.10990E+09
        -0.14097E+09
        -0.18998E+09
        -0.20555E+09
        -0.19857E+09
        -0.19676E+09
        -0.18510E+09
        -0.13285E+09
        -0.66992E+08
        -0.63793E+08
        -0.16818E+09
        -0.17121E+09
        -0.16748E+09
        -0.60030E+08
        -0.12375E+09
        -0.79210E+08
        -0.13300E+09
        -0.16265E+09
        -0.16465E+09
        -0.16198E+09
         0.16815E+09
         0.18459E+09
         0.14091E+09
         0.39588E+08
         0.17489E+09
         0.85507E+08
        -0.52737E+08
         0.53109E+08
         0.16339E+09
         0.44300E+08
         0.49358E+08
         0.36647E+08
        -0.21826E+08
         0.64154E+08
        -0.16379E+09
         0.70621E+08
         0.99962E+07
         0.36803E+08
        -0.49189E+08
        -0.15127E+09
         0.10674E+09
         0.49784E+08
         0.10886E+09
         0.10567E+09
        -0.12747E+08
         0.69451E+08
         0.10346E+09
         0.16008E+09
         0.17988E+09
         0.16916E+09
         0.90158E+08
        -0.23260E+08
        -0.49990E+08
        -0.79564E+08
        -0.11328E+09
        -0.17236E+09
        -0.14861E+09
        -0.11382E+09
        -0.17214E+09
        -0.17366E+09
        -0.11386E+09
        -0.10597E+08
         0.36409E+08
        -0.51381E+08
         0.11478E+09
         0.14906E+09
         0.18160E+09
         0.20421E+09
         0.20762E+09
         0.20165E+09
         0.19798E+09
         0.18414E+09
         0.11774E+09
         0.39516E+08
         0.18635E+08
         0.17008E+08
        -0.65671E+07
        -0.56774E+08
        -0.10993E+09
        -0.14098E+09
        -0.18998E+09
        -0.20554E+09
        -0.19858E+09
        -0.19676E+09
        -0.18511E+09
        -0.13283E+09
        -0.66953E+08
        -0.63739E+08
        -0.16817E+09
        -0.17120E+09
        -0.16748E+09
        -0.60382E+08
        -0.12382E+09
        -0.79315E+08
        -0.13274E+09
        -0.16276E+09
        -0.16468E+09
        -0.16211E+09
         0.16824E+09
         0.18458E+09
         0.14090E+09
         0.39713E+08
         0.17495E+09
         0.85444E+08
        -0.53081E+08
         0.53025E+08
         0.16341E+09
         0.43990E+08
         0.49476E+08
         0.36672E+08
        -0.21857E+08
         0.64067E+08
        -0.16384E+09
         0.70357E+08
         0.10163E+08
         0.37182E+08
        -0.48559E+08
        -0.15131E+09
         0.10664E+09
         0.49514E+08
         0.10929E+09
         0.10578E+09
        -0.12606E+08
         0.69517E+08
         0.10348E+09
         0.16010E+09
         0.17989E+09
         0.16914E+09
         0.90193E+08
        -0.23126E+08
        -0.50003E+08
        -0.79658E+08
        -0.11335E+09
        -0.17237E+09
        -0.14864E+09
        -0.11379E+09
        -0.17215E+09
        -0.17365E+09
        -0.11387E+09
        -0.10423E+08
         0.36386E+08
        -0.51395E+08
         0.11480E+09
         0.14906E+09
         0.18160E+09
         0.20420E+09
         0.20761E+09
         0.20164E+09
         0.19798E+09
         0.18414E+09
         0.11774E+09
         0.39542E+08
         0.18639E+08
         0.17042E+08
        -0.65075E+07
        -0.56794E+08
        -0.10997E+09
        -0.14099E+09
        -0.18999E+09
        -0.20554E+09
        -0.19859E+09
        -0.19677E+09
        -0.18512E+09
        -0.13282E+09
        -0.66914E+08
        -0.63685E+08
        -0.16816E+09
        -0.17119E+09
        -0.16748E+09
        -0.60736E+08
        -0.12388E+09
        -0.79420E+08
        -0.13249E+09
        -0.16288E+09
        -0.16471E+09
        -0.16225E+09
         0.16833E+09
         0.18457E+09
         0.14088E+09
         0.39839E+08
         0.17501E+09
         0.85382E+08
        -0.53424E+08
         0.52938E+08
         0.16343E+09
         0.43683E+08
         0.49594E+08
         0.36698E+08
        -0.21887E+08
         0.63981E+08
        -0.16389E+09
         0.70095E+08
         0.10325E+08
         0.37560E+08
        -0.47927E+08
        -0.15134E+09
         0.10653E+09
         0.49242E+08
         0.10972E+09
         0.10588E+09
        -0.12464E+08
         0.69583E+08
         0.10350E+09
         0.16012E+09
         0.17991E+09
         0.16912E+09
         0.90228E+08
        -0.22994E+08
        -0.50015E+08
        -0.79752E+08
        -0.11341E+09
        -0.17239E+09
        -0.14868E+09
        -0.11377E+09
        -0.17216E+09
        -0.17364E+09
        -0.11387E+09
        -0.10248E+08
         0.36363E+08
        -0.51408E+08
         0.11482E+09
         0.14906E+09
         0.18161E+09
         0.20419E+09
         0.20760E+09
         0.20163E+09
         0.19798E+09
         0.18414E+09
         0.11774E+09
         0.39568E+08
         0.18642E+08
         0.17076E+08
        -0.64477E+07
        -0.56814E+08
        -0.11001E+09
        -0.14100E+09
        -0.19000E+09
        -0.20554E+09
        -0.19859E+09
        -0.19677E+09
        -0.18512E+09
        -0.13280E+09
        -0.66875E+08
        -0.63631E+08
        -0.16815E+09
        -0.17117E+09
        -0.16748E+09
        -0.61091E+08
        -0.12395E+09
        -0.79526E+08
        -0.13223E+09
        -0.16299E+09
        -0.16475E+09
        -0.16239E+09
         0.16841E+09
         0.18456E+09
         0.14087E+09
         0.39961E+08
         0.17507E+09
         0.85319E+08
        -0.53765E+08
         0.52850E+08
         0.16346E+09
         0.43377E+08
         0.49711E+08
         0.36724E+08
        -0.21917E+08
         0.63894E+08
        -0.16394E+09
         0.69831E+08
         0.10493E+08
         0.37934E+08
        -0.47298E+08
        -0.15138E+09
         0.10643E+09
         0.48967E+08
         0.11015E+09
         0.10598E+09
        -0.12323E+08
         0.69649E+08
         0.10352E+09
         0.16014E+09
         0.17992E+09
         0.16910E+09
         0.90262E+08
        -0.22861E+08
        -0.50027E+08
        -0.79846E+08
        -0.11348E+09
        -0.17240E+09
        -0.14871E+09
        -0.11375E+09
        -0.17216E+09
        -0.17363E+09
        -0.11388E+09
        -0.10074E+08
         0.36341E+08
        -0.51421E+08
         0.11484E+09
         0.14906E+09
         0.18161E+09
         0.20419E+09
         0.20760E+09
         0.20162E+09
         0.19799E+09
         0.18414E+09
         0.11774E+09
         0.39594E+08
         0.18646E+08
         0.17111E+08
        -0.63880E+07
        -0.56833E+08
        -0.11004E+09
        -0.14102E+09
        -0.19000E+09
        -0.20554E+09
        -0.19860E+09
        -0.19678E+09
        -0.18513E+09
        -0.13278E+09
        -0.66836E+08
        -0.63577E+08
        -0.16814E+09
        -0.17116E+09
        -0.16748E+09
        -0.61444E+08
        -0.12401E+09
        -0.79632E+08
        -0.13198E+09
        -0.16310E+09
        -0.16478E+09
        -0.16252E+09
         0.16849E+09
         0.18455E+09
         0.14086E+09
         0.40087E+08
         0.17512E+09
         0.85256E+08
        -0.54106E+08
         0.52764E+08
         0.16348E+09
         0.43071E+08
         0.49829E+08
         0.36751E+08
        -0.21947E+08
         0.63808E+08
        -0.16399E+09
         0.69566E+08
         0.10655E+08
         0.38303E+08
        -0.46671E+08
        -0.15142E+09
         0.10632E+09
         0.48695E+08
         0.11058E+09
         0.10609E+09
        -0.12180E+08
         0.69714E+08
         0.10354E+09
         0.16017E+09
         0.17994E+09
         0.16909E+09
         0.90297E+08
        -0.22728E+08
        -0.50039E+08
        -0.79940E+08
        -0.11355E+09
        -0.17241E+09
        -0.14875E+09
        -0.11373E+09
        -0.17217E+09
        -0.17362E+09
        -0.11388E+09
        -0.99006E+07
         0.36318E+08
        -0.51435E+08
         0.11486E+09
         0.14906E+09
         0.18162E+09
         0.20418E+09
         0.20759E+09
         0.20160E+09
         0.19799E+09
         0.18414E+09
         0.11773E+09
         0.39621E+08
         0.18649E+08
         0.17145E+08
        -0.63287E+07
        -0.56853E+08
        -0.11008E+09
        -0.14103E+09
        -0.19001E+09
        -0.20554E+09
        -0.19861E+09
        -0.19678E+09
        -0.18514E+09
        -0.13277E+09
        -0.66797E+08
        -0.63522E+08
        -0.16812E+09
        -0.17115E+09
        -0.16748E+09
        -0.61794E+08
        -0.12407E+09
        -0.79737E+08
        -0.13173E+09
        -0.16321E+09
        -0.16481E+09
        -0.16266E+09
         0.16857E+09
         0.18454E+09
         0.14085E+09
         0.40208E+08
         0.17518E+09
         0.85194E+08
        -0.54447E+08
         0.52679E+08
         0.16350E+09
         0.42762E+08
         0.49946E+08
         0.36776E+08
        -0.21976E+08
         0.63724E+08
        -0.16405E+09
         0.69302E+08
         0.10821E+08
         0.38665E+08
        -0.46046E+08
        -0.15145E+09
         0.10622E+09
         0.48421E+08
         0.11101E+09
         0.10619E+09
        -0.12038E+08
         0.69780E+08
         0.10356E+09
         0.16019E+09
         0.17995E+09
         0.16907E+09
         0.90332E+08
        -0.22596E+08
        -0.50051E+08
        -0.80033E+08
        -0.11362E+09
        -0.17243E+09
        -0.14878E+09
        -0.11370E+09
        -0.17218E+09
        -0.17360E+09
        -0.11388E+09
        -0.97254E+07
         0.36295E+08
        -0.51448E+08
         0.11488E+09
         0.14906E+09
         0.18162E+09
         0.20417E+09
         0.20758E+09
         0.20159E+09
         0.19800E+09
         0.18413E+09
         0.11773E+09
         0.39647E+08
         0.18653E+08
         0.17179E+08
        -0.62692E+07
        -0.56872E+08
        -0.11011E+09
        -0.14104E+09
        -0.19002E+09
        -0.20553E+09
        -0.19862E+09
        -0.19678E+09
        -0.18515E+09
        -0.13275E+09
        -0.66758E+08
        -0.63468E+08
        -0.16811E+09
        -0.17114E+09
        -0.16747E+09
        -0.62143E+08
        -0.12414E+09
        -0.79841E+08
        -0.13148E+09
        -0.16333E+09
        -0.16484E+09
        -0.16279E+09
         0.16865E+09
         0.18453E+09
         0.14084E+09
         0.40335E+08
         0.17523E+09
         0.85132E+08
        -0.54788E+08
         0.52592E+08
         0.16352E+09
         0.42455E+08
         0.50064E+08
         0.36801E+08
        -0.22005E+08
         0.63641E+08
        -0.16410E+09
         0.69037E+08
         0.10982E+08
         0.39023E+08
        -0.45424E+08
        -0.15149E+09
         0.10612E+09
         0.48147E+08
         0.11144E+09
         0.10630E+09
        -0.11895E+08
         0.69845E+08
         0.10358E+09
         0.16021E+09
         0.17996E+09
         0.16905E+09
         0.90367E+08
        -0.22464E+08
        -0.50064E+08
        -0.80126E+08
        -0.11368E+09
        -0.17244E+09
        -0.14881E+09
        -0.11368E+09
        -0.17219E+09
        -0.17359E+09
        -0.11389E+09
        -0.95496E+07
         0.36272E+08
        -0.51461E+08
         0.11490E+09
         0.14906E+09
         0.18163E+09
         0.20417E+09
         0.20757E+09
         0.20158E+09
         0.19800E+09
         0.18413E+09
         0.11773E+09
         0.39673E+08
         0.18656E+08
         0.17213E+08
        -0.62096E+07
        -0.56891E+08
        -0.11015E+09
        -0.14105E+09
        -0.19002E+09
        -0.20553E+09
        -0.19862E+09
        -0.19679E+09
        -0.18516E+09
        -0.13273E+09
        -0.66720E+08
        -0.63414E+08
        -0.16810E+09
        -0.17113E+09
        -0.16747E+09
        -0.62492E+08
        -0.12420E+09
        -0.79946E+08
        -0.13123E+09
        -0.16344E+09
        -0.16487E+09
        -0.16292E+09
         0.16873E+09
         0.18452E+09
         0.14082E+09
         0.40456E+08
         0.17529E+09
         0.85070E+08
        -0.55129E+08
         0.52504E+08
         0.16354E+09
         0.42151E+08
         0.50181E+08
         0.36825E+08
        -0.22035E+08
         0.63556E+08
        -0.16415E+09
         0.68771E+08
         0.11148E+08
         0.39378E+08
        -0.44801E+08
        -0.15153E+09
         0.10601E+09
         0.47871E+08
         0.11187E+09
         0.10640E+09
        -0.11752E+08
         0.69911E+08
         0.10360E+09
         0.16024E+09
         0.17998E+09
         0.16903E+09
         0.90403E+08
        -0.22333E+08
        -0.50078E+08
        -0.80220E+08
        -0.11375E+09
        -0.17245E+09
        -0.14885E+09
        -0.11366E+09
        -0.17220E+09
        -0.17358E+09
        -0.11389E+09
        -0.93747E+07
         0.36249E+08
        -0.51474E+08
         0.11492E+09
         0.14907E+09
         0.18164E+09
         0.20416E+09
         0.20756E+09
         0.20157E+09
         0.19800E+09
         0.18413E+09
         0.11773E+09
         0.39699E+08
         0.18659E+08
         0.17246E+08
        -0.61504E+07
        -0.56911E+08
        -0.11018E+09
        -0.14107E+09
        -0.19003E+09
        -0.20553E+09
        -0.19863E+09
        -0.19679E+09
        -0.18517E+09
        -0.13272E+09
        -0.66682E+08
        -0.63359E+08
        -0.16809E+09
        -0.17112E+09
        -0.16747E+09
        -0.62842E+08
        -0.12427E+09
        -0.80051E+08
        -0.13099E+09
        -0.16355E+09
        -0.16491E+09
        -0.16306E+09
         0.16880E+09
         0.18451E+09
         0.14081E+09
         0.40583E+08
         0.17535E+09
         0.85008E+08
        -0.55474E+08
         0.52415E+08
         0.16356E+09
         0.41861E+08
         0.50298E+08
         0.36848E+08
        -0.22065E+08
         0.63471E+08
        -0.16420E+09
         0.68508E+08
         0.11313E+08
         0.39729E+08
        -0.44179E+08
        -0.15155E+09
         0.10591E+09
         0.47593E+08
         0.11230E+09
         0.10651E+09
        -0.11609E+08
         0.69977E+08
         0.10362E+09
         0.16027E+09
         0.17999E+09
         0.16901E+09
         0.90440E+08
        -0.22202E+08
        -0.50093E+08
        -0.80312E+08
        -0.11382E+09
        -0.17247E+09
        -0.14888E+09
        -0.11363E+09
        -0.17220E+09
        -0.17357E+09
        -0.11390E+09
        -0.91993E+07
         0.36226E+08
        -0.51487E+08
         0.11494E+09
         0.14907E+09
         0.18164E+09
         0.20415E+09
         0.20755E+09
         0.20155E+09
         0.19801E+09
         0.18413E+09
         0.11773E+09
         0.39725E+08
         0.18660E+08
         0.17280E+08
        -0.60912E+07
        -0.56930E+08
        -0.11022E+09
        -0.14108E+09
        -0.19004E+09
        -0.20553E+09
        -0.19864E+09
        -0.19680E+09
        -0.18518E+09
        -0.13270E+09
        -0.66645E+08
        -0.63304E+08
        -0.16808E+09
        -0.17110E+09
        -0.16747E+09
        -0.63190E+08
        -0.12433E+09
        -0.80156E+08
        -0.13074E+09
        -0.16366E+09
        -0.16494E+09
        -0.16319E+09
         0.16887E+09
         0.18450E+09
         0.14080E+09
         0.40710E+08
         0.17540E+09
         0.84946E+08
        -0.55825E+08
         0.52326E+08
         0.16358E+09
         0.41583E+08
         0.50415E+08
         0.36872E+08
        -0.22094E+08
         0.63388E+08
        -0.16426E+09
         0.68242E+08
         0.11485E+08
         0.40077E+08
        -0.43560E+08
        -0.15158E+09
         0.10580E+09
         0.47317E+08
         0.11273E+09
         0.10661E+09
        -0.11465E+08
         0.70043E+08
         0.10363E+09
         0.16029E+09
         0.18000E+09
         0.16899E+09
         0.90480E+08
        -0.22073E+08
        -0.50111E+08
        -0.80405E+08
        -0.11389E+09
        -0.17248E+09
        -0.14892E+09
        -0.11361E+09
        -0.17221E+09
        -0.17356E+09
        -0.11390E+09
        -0.90220E+07
         0.36203E+08
        -0.51499E+08
         0.11496E+09
         0.14907E+09
         0.18165E+09
         0.20415E+09
         0.20754E+09
         0.20154E+09
         0.19801E+09
         0.18413E+09
         0.11773E+09
         0.39750E+08
         0.18659E+08
         0.17314E+08
        -0.60318E+07
        -0.56949E+08
        -0.11025E+09
        -0.14109E+09
        -0.19004E+09
        -0.20553E+09
        -0.19864E+09
        -0.19680E+09
        -0.18519E+09
        -0.13268E+09
        -0.66607E+08
        -0.63250E+08
        -0.16806E+09
        -0.17109E+09
        -0.16747E+09
        -0.63535E+08
        -0.12440E+09
        -0.80260E+08
        -0.13050E+09
        -0.16377E+09
        -0.16498E+09
        -0.16333E+09
         0.16894E+09
         0.18449E+09
         0.14079E+09
         0.40834E+08
         0.17546E+09
         0.84885E+08
        -0.56175E+08
         0.52238E+08
         0.16361E+09
         0.41313E+08
         0.50533E+08
         0.36895E+08
        -0.22122E+08
         0.63309E+08
        -0.16432E+09
         0.67985E+08
         0.11654E+08
         0.40410E+08
        -0.42948E+08
        -0.15161E+09
         0.10570E+09
         0.47046E+08
         0.11316E+09
         0.10671E+09
        -0.11322E+08
         0.70106E+08
         0.10365E+09
         0.16032E+09
         0.18002E+09
         0.16897E+09
         0.90519E+08
        -0.21946E+08
        -0.50131E+08
        -0.80496E+08
        -0.11395E+09
        -0.17249E+09
        -0.14895E+09
        -0.11359E+09
        -0.17222E+09
        -0.17355E+09
        -0.11391E+09
        -0.88452E+07
         0.36179E+08
        -0.51513E+08
         0.11498E+09
         0.14907E+09
         0.18165E+09
         0.20414E+09
         0.20753E+09
         0.20153E+09
         0.19802E+09
         0.18412E+09
         0.11773E+09
         0.39774E+08
         0.18657E+08
         0.17347E+08
        -0.59723E+07
        -0.56968E+08
        -0.11029E+09
        -0.14111E+09
        -0.19005E+09
        -0.20553E+09
        -0.19865E+09
        -0.19680E+09
        -0.18520E+09
        -0.13267E+09
        -0.66570E+08
        -0.63195E+08
        -0.16179E+09
        -0.15353E+09
        -0.14902E+09
        -0.52994E+08
        -0.11821E+09
        -0.73351E+08
        -0.94442E+08
        -0.15592E+09
        -0.15110E+09
        -0.15515E+09
         0.13343E+09
         0.18052E+09
         0.13667E+09
         0.36399E+08
         0.17203E+09
         0.79617E+08
        -0.45167E+08
         0.48879E+08
         0.13939E+09
         0.32332E+08
         0.49458E+08
         0.35914E+08
        -0.21564E+08
         0.49378E+08
        -0.14688E+09
         0.64093E+08
         0.10509E+08
         0.35490E+08
        -0.30497E+08
        -0.13548E+09
         0.96840E+08
         0.35117E+08
         0.93205E+08
         0.83447E+08
        -0.10787E+08
         0.64634E+08
         0.98541E+08
         0.15617E+09
         0.17303E+09
         0.16141E+09
         0.88290E+08
        -0.21253E+08
        -0.48930E+08
        -0.77918E+08
        -0.10895E+09
        -0.16701E+09
        -0.14030E+09
        -0.10570E+09
        -0.15547E+09
        -0.15994E+09
        -0.10968E+09
        -0.81037E+07
         0.35916E+08
        -0.51229E+08
         0.11436E+09
         0.14829E+09
         0.18077E+09
         0.20318E+09
         0.20645E+09
         0.20023E+09
         0.19666E+09
         0.18296E+09
         0.11701E+09
         0.39567E+08
         0.18527E+08
         0.17264E+08
        -0.58836E+07
        -0.56699E+08
        -0.10980E+09
        -0.14046E+09
        -0.18894E+09
        -0.20438E+09
        -0.19749E+09
        -0.19561E+09
        -0.18414E+09
        -0.13186E+09
        -0.66167E+08
        -0.62788E+08
        -0.80550E+08
        -0.51501E+08
        -0.48594E+08
        -0.14564E+08
        -0.52539E+08
        -0.26324E+08
        -0.21424E+08
        -0.70209E+08
        -0.54988E+08
        -0.68626E+08
         0.33564E+08
         0.10799E+09
         0.73924E+08
         0.11788E+08
         0.10554E+09
         0.32692E+08
        -0.11650E+08
         0.10142E+08
         0.40255E+08
         0.65189E+07
         0.28797E+08
         0.19924E+08
        -0.12129E+08
         0.12168E+08
        -0.48539E+08
         0.12216E+08
         0.34447E+07
         0.59662E+07
        -0.61469E+07
        -0.44762E+08
         0.35287E+08
         0.82095E+07
         0.24985E+08
         0.20717E+08
        -0.53203E+07
         0.24106E+08
         0.44039E+08
         0.87864E+08
         0.84737E+08
         0.75143E+08
         0.50453E+08
        -0.11773E+08
        -0.28096E+08
        -0.40381E+08
        -0.50607E+08
        -0.87432E+08
        -0.58823E+08
        -0.41461E+08
        -0.53211E+08
        -0.59760E+08
        -0.54508E+08
        -0.32077E+07
         0.28673E+08
        -0.41693E+08
         0.94018E+08
         0.12303E+09
         0.15155E+09
         0.17160E+09
         0.17192E+09
         0.16084E+09
         0.15591E+09
         0.14715E+09
         0.94539E+08
         0.32518E+08
         0.14808E+08
         0.13859E+08
        -0.48223E+07
        -0.47489E+08
        -0.92680E+08
        -0.11862E+09
        -0.15372E+09
        -0.16772E+09
        -0.16099E+09
        -0.15857E+09
        -0.15050E+09
        -0.10707E+09
        -0.54437E+08
        -0.51472E+08
  
SCALARS                      stress_xz  double 1
LOOKUP_TABLE default
         0.60380E+05
        -0.42583E+06
        -0.14058E+07
         0.96571E+05
        -0.81616E+01
         0.28939E+01
         0.96765E+01
         0.19326E+01
        -0.39555E+07
        -0.26427E+07
         0.28943E+02
         0.26070E+02
         0.16866E+06
        -0.68819E+06
        -0.35697E+01
        -0.16722E+02
        -0.14120E+06
        -0.66043E+06
        -0.12079E+02
        -0.17990E+02
        -0.96788E+06
        -0.16309E+07
        -0.15444E+07
        -0.12013E+02
        -0.55393E+01
         0.96776E+01
        -0.17227E+07
        -0.13988E+07
        -0.22486E+02
        -0.17837E+02
         0.33037E+06
        -0.73389E+06
         0.70232E+05
         0.22894E+01
        -0.88471E+01
        -0.54505E+01
         0.98019E+06
         0.47245E+06
        -0.13135E+02
        -0.13985E+02
         0.19537E+07
         0.27682E+07
        -0.29629E+02
        -0.21850E+02
         0.20903E+07
         0.11132E+07
        -0.32538E+02
        -0.15661E+02
        -0.60003E+06
        -0.98305E+01
         0.14289E+07
        -0.27365E+01
        -0.62591E+06
        -0.19209E+02
         0.46757E+06
        -0.50812E+01
         0.20457E+07
         0.56121E+06
        -0.43528E+01
        -0.10521E+02
        -0.35277E+05
         0.97319E+06
         0.87060E+01
         0.59701E+01
        -0.25275E+06
        -0.87572E+00
        -0.84607E+06
         0.57600E+01
        -0.55665E+07
        -0.38145E+07
         0.36002E+02
         0.26111E+02
        -0.24533E+07
         0.19012E+02
         0.57822E+06
        -0.13152E+02
         0.18094E+07
        -0.25812E+01
         0.38360E+07
        -0.40046E+01
         0.50755E+07
         0.36041E+07
        -0.14676E+02
        -0.16785E+02
         0.31835E+07
        -0.18051E+02
         0.25348E+07
        -0.25989E+02
         0.15786E+07
        -0.16576E+02
         0.24850E+07
         0.18276E+07
        -0.70747E+01
         0.97019E+01
        -0.41779E+06
         0.11380E+02
        -0.11468E+07
         0.47783E+01
        -0.27536E+07
         0.11800E+02
        -0.40706E+07
        -0.27936E+07
         0.27207E+02
         0.28391E+02
        -0.99694E+07
        -0.11039E+08
         0.50273E+02
         0.49542E+02
        -0.98739E+07
         0.42948E+02
        -0.89990E+07
         0.32095E+02
        -0.64562E+07
         0.17638E+02
        -0.46910E+07
         0.18861E+01
        -0.17405E+07
        -0.67176E+01
         0.22425E+07
        -0.53745E+01
         0.53515E+07
        -0.52825E+01
         0.79515E+07
        -0.11912E+02
         0.10696E+08
        -0.22663E+02
         0.12997E+08
        -0.27045E+02
         0.13816E+08
        -0.25517E+02
         0.13160E+08
        -0.27748E+02
         0.12060E+08
        -0.36013E+02
         0.10846E+08
        -0.42467E+02
         0.95663E+07
        -0.39477E+02
         0.76075E+07
        -0.32083E+02
         0.44637E+07
        -0.15146E+02
         0.38266E+06
         0.28922E+01
        -0.24963E+07
         0.70218E+01
        -0.39070E+07
         0.11482E+02
        -0.58761E+07
         0.22471E+02
        -0.77474E+07
         0.36874E+02
        -0.10183E+08
         0.44301E+02
        -0.11699E+08
         0.45312E+02
        -0.70894E+05
        -0.14350E+06
        -0.13778E+06
        -0.24867E+06
        -0.31550E+07
        -0.67855E+06
        -0.43864E+06
         0.37393E+06
        -0.59489E+05
         0.15955E+06
        -0.36122E+06
        -0.15638E+07
        -0.32675E+07
         0.10453E+07
         0.12572E+07
         0.30139E+06
         0.15224E+06
        -0.19585E+06
         0.31356E+06
         0.19953E+06
         0.21797E+07
         0.15451E+07
         0.27156E+07
         0.73383E+06
        -0.13807E+06
         0.11090E+06
         0.10175E+07
         0.10695E+06
         0.16836E+07
         0.54819E+06
         0.21675E+06
        -0.80569E+05
        -0.10026E+06
         0.28093E+05
        -0.61792E+07
        -0.39388E+07
        -0.29975E+07
         0.24951E+07
         0.14212E+07
         0.30390E+07
         0.62518E+07
         0.58309E+07
         0.24018E+07
         0.21411E+07
         0.26197E+07
         0.23740E+07
        -0.42834E+06
        -0.72579E+06
        -0.22975E+06
        -0.14774E+07
        -0.45612E+07
        -0.27010E+07
        -0.18030E+08
        -0.18934E+08
        -0.16922E+08
        -0.14397E+08
        -0.10720E+08
        -0.54589E+07
         0.32384E+06
         0.38879E+07
         0.59241E+07
         0.10170E+08
         0.16577E+08
         0.20182E+08
         0.18494E+08
         0.17739E+08
         0.18741E+08
         0.18740E+08
         0.17023E+08
         0.14901E+08
         0.75440E+07
        -0.11926E+07
        -0.45850E+07
        -0.51112E+07
        -0.86547E+07
        -0.13818E+08
        -0.17931E+08
        -0.18848E+08
        -0.57147E+08
         0.18929E+08
        -0.38086E+08
        -0.15881E+09
         0.12877E+09
         0.15548E+09
         0.96866E+08
        -0.73633E+08
        -0.52495E+08
        -0.74000E+08
        -0.29448E+08
         0.27409E+08
         0.11622E+09
        -0.17004E+09
        -0.68640E+08
         0.15143E+09
         0.16079E+09
        -0.10919E+09
        -0.49397E+08
        -0.12904E+09
        -0.17676E+09
        -0.17869E+09
        -0.18071E+09
        -0.15526E+09
         0.54970E+08
         0.66608E+08
        -0.17356E+09
         0.47963E+08
        -0.12089E+09
        -0.84835E+08
         0.13497E+09
         0.15939E+09
        -0.13227E+09
        -0.13115E+09
         0.18091E+09
         0.16115E+09
         0.14521E+09
        -0.91841E+08
        -0.19600E+08
        -0.60742E+08
        -0.16128E+09
        -0.18163E+09
        -0.17646E+09
        -0.16174E+09
        -0.13838E+09
        -0.60532E+08
         0.96863E+08
         0.13310E+09
        -0.21092E+08
         0.21718E+08
         0.14072E+09
         0.17596E+09
         0.20174E+09
         0.19899E+09
         0.17159E+09
         0.14246E+09
         0.10032E+09
         0.43320E+08
        -0.11165E+08
        -0.40240E+08
        -0.54267E+08
        -0.93537E+08
        -0.16920E+09
        -0.20211E+09
        -0.20145E+09
        -0.20068E+09
        -0.20299E+09
        -0.19641E+09
        -0.17334E+09
        -0.15138E+09
        -0.79893E+08
         0.20268E+08
         0.49301E+08
         0.52354E+08
         0.87802E+08
         0.15518E+09
         0.19354E+09
         0.19441E+09
        -0.57215E+08
         0.18996E+08
        -0.38137E+08
        -0.15870E+09
         0.12870E+09
         0.15542E+09
         0.97482E+08
        -0.73381E+08
        -0.52467E+08
        -0.73739E+08
        -0.28853E+08
         0.27476E+08
         0.11625E+09
        -0.16999E+09
        -0.68538E+08
         0.15148E+09
         0.16071E+09
        -0.10889E+09
        -0.49345E+08
        -0.12882E+09
        -0.17672E+09
        -0.17868E+09
        -0.18071E+09
        -0.15527E+09
         0.54870E+08
         0.66719E+08
        -0.17356E+09
         0.47061E+08
        -0.12174E+09
        -0.84749E+08
         0.13505E+09
         0.15942E+09
        -0.13193E+09
        -0.13110E+09
         0.18092E+09
         0.16112E+09
         0.14520E+09
        -0.91856E+08
        -0.19747E+08
        -0.60855E+08
        -0.16128E+09
        -0.18165E+09
        -0.17644E+09
        -0.16172E+09
        -0.13835E+09
        -0.60503E+08
         0.96843E+08
         0.13315E+09
        -0.20966E+08
         0.21672E+08
         0.14070E+09
         0.17595E+09
         0.20173E+09
         0.19898E+09
         0.17157E+09
         0.14246E+09
         0.10030E+09
         0.43321E+08
        -0.11182E+08
        -0.40275E+08
        -0.54234E+08
        -0.93526E+08
        -0.16921E+09
        -0.20210E+09
        -0.20144E+09
        -0.20067E+09
        -0.20299E+09
        -0.19641E+09
        -0.17333E+09
        -0.15138E+09
        -0.79876E+08
         0.20279E+08
         0.49270E+08
         0.52336E+08
         0.87764E+08
         0.15518E+09
         0.19354E+09
         0.19442E+09
        -0.57282E+08
         0.19060E+08
        -0.38188E+08
        -0.15859E+09
         0.12863E+09
         0.15536E+09
         0.98101E+08
        -0.73129E+08
        -0.52435E+08
        -0.73477E+08
        -0.28258E+08
         0.27543E+08
         0.11628E+09
        -0.16995E+09
        -0.68437E+08
         0.15152E+09
         0.16063E+09
        -0.10858E+09
        -0.49293E+08
        -0.12860E+09
        -0.17669E+09
        -0.17868E+09
        -0.18071E+09
        -0.15528E+09
         0.54782E+08
         0.66840E+08
        -0.17355E+09
         0.46171E+08
        -0.12260E+09
        -0.84666E+08
         0.13512E+09
         0.15945E+09
        -0.13159E+09
        -0.13104E+09
         0.18094E+09
         0.16109E+09
         0.14518E+09
        -0.91871E+08
        -0.19893E+08
        -0.60969E+08
        -0.16128E+09
        -0.18167E+09
        -0.17643E+09
        -0.16169E+09
        -0.13832E+09
        -0.60475E+08
         0.96825E+08
         0.13320E+09
        -0.20836E+08
         0.21623E+08
         0.14068E+09
         0.17595E+09
         0.20173E+09
         0.19897E+09
         0.17156E+09
         0.14246E+09
         0.10028E+09
         0.43321E+08
        -0.11199E+08
        -0.40310E+08
        -0.54200E+08
        -0.93514E+08
        -0.16921E+09
        -0.20210E+09
        -0.20144E+09
        -0.20067E+09
        -0.20300E+09
        -0.19641E+09
        -0.17332E+09
        -0.15138E+09
        -0.79857E+08
         0.20289E+08
         0.49239E+08
         0.52319E+08
         0.87727E+08
         0.15518E+09
         0.19354E+09
         0.19443E+09
        -0.57350E+08
         0.19128E+08
        -0.38238E+08
        -0.15848E+09
         0.12856E+09
         0.15530E+09
         0.98712E+08
        -0.72877E+08
        -0.52398E+08
        -0.73210E+08
        -0.27665E+08
         0.27612E+08
         0.11631E+09
        -0.16990E+09
        -0.68336E+08
         0.15157E+09
         0.16055E+09
        -0.10827E+09
        -0.49242E+08
        -0.12837E+09
        -0.17666E+09
        -0.17867E+09
        -0.18071E+09
        -0.15531E+09
         0.54724E+08
         0.66988E+08
        -0.17355E+09
         0.45308E+08
        -0.12345E+09
        -0.84593E+08
         0.13521E+09
         0.15951E+09
        -0.13125E+09
        -0.13099E+09
         0.18095E+09
         0.16106E+09
         0.14517E+09
        -0.91885E+08
        -0.20037E+08
        -0.61077E+08
        -0.16128E+09
        -0.18169E+09
        -0.17643E+09
        -0.16166E+09
        -0.13829E+09
        -0.60444E+08
         0.96804E+08
         0.13325E+09
        -0.20705E+08
         0.21574E+08
         0.14066E+09
         0.17594E+09
         0.20173E+09
         0.19896E+09
         0.17155E+09
         0.14246E+09
         0.10027E+09
         0.43321E+08
        -0.11216E+08
        -0.40344E+08
        -0.54167E+08
        -0.93502E+08
        -0.16920E+09
        -0.20210E+09
        -0.20144E+09
        -0.20067E+09
        -0.20300E+09
        -0.19641E+09
        -0.17331E+09
        -0.15138E+09
        -0.79839E+08
         0.20299E+08
         0.49207E+08
         0.52302E+08
         0.87689E+08
         0.15517E+09
         0.19354E+09
         0.19443E+09
        -0.57417E+08
         0.19195E+08
        -0.38288E+08
        -0.15836E+09
         0.12849E+09
         0.15524E+09
         0.99331E+08
        -0.72625E+08
        -0.52354E+08
        -0.72937E+08
        -0.27070E+08
         0.27680E+08
         0.11634E+09
        -0.16986E+09
        -0.68234E+08
         0.15162E+09
         0.16048E+09
        -0.10797E+09
        -0.49184E+08
        -0.12814E+09
        -0.17663E+09
        -0.17866E+09
        -0.18070E+09
        -0.15534E+09
         0.54695E+08
         0.67157E+08
        -0.17355E+09
         0.44472E+08
        -0.12430E+09
        -0.84529E+08
         0.13531E+09
         0.15958E+09
        -0.13090E+09
        -0.13093E+09
         0.18097E+09
         0.16103E+09
         0.14515E+09
        -0.91898E+08
        -0.20179E+08
        -0.61183E+08
        -0.16128E+09
        -0.18171E+09
        -0.17643E+09
        -0.16162E+09
        -0.13824E+09
        -0.60406E+08
         0.96782E+08
         0.13331E+09
        -0.20574E+08
         0.21527E+08
         0.14065E+09
         0.17593E+09
         0.20172E+09
         0.19895E+09
         0.17153E+09
         0.14246E+09
         0.10025E+09
         0.43321E+08
        -0.11233E+08
        -0.40379E+08
        -0.54134E+08
        -0.93491E+08
        -0.16920E+09
        -0.20209E+09
        -0.20144E+09
        -0.20066E+09
        -0.20300E+09
        -0.19641E+09
        -0.17329E+09
        -0.15137E+09
        -0.79820E+08
         0.20310E+08
         0.49176E+08
         0.52284E+08
         0.87652E+08
         0.15517E+09
         0.19355E+09
         0.19444E+09
        -0.57482E+08
         0.19270E+08
        -0.38331E+08
        -0.15825E+09
         0.12842E+09
         0.15518E+09
         0.99950E+08
        -0.72374E+08
        -0.52308E+08
        -0.72669E+08
        -0.26472E+08
         0.27747E+08
         0.11636E+09
        -0.16981E+09
        -0.68133E+08
         0.15167E+09
         0.16039E+09
        -0.10766E+09
        -0.49126E+08
        -0.12792E+09
        -0.17660E+09
        -0.17866E+09
        -0.18070E+09
        -0.15538E+09
         0.54671E+08
         0.67332E+08
        -0.17354E+09
         0.43642E+08
        -0.12515E+09
        -0.84477E+08
         0.13541E+09
         0.15966E+09
        -0.13054E+09
        -0.13087E+09
         0.18099E+09
         0.16100E+09
         0.14514E+09
        -0.91910E+08
        -0.20320E+08
        -0.61286E+08
        -0.16127E+09
        -0.18174E+09
        -0.17643E+09
        -0.16158E+09
        -0.13818E+09
        -0.60371E+08
         0.96755E+08
         0.13335E+09
        -0.20437E+08
         0.21484E+08
         0.14063E+09
         0.17593E+09
         0.20172E+09
         0.19894E+09
         0.17152E+09
         0.14246E+09
         0.10024E+09
         0.43321E+08
        -0.11250E+08
        -0.40414E+08
        -0.54100E+08
        -0.93479E+08
        -0.16920E+09
        -0.20209E+09
        -0.20144E+09
        -0.20066E+09
        -0.20301E+09
        -0.19641E+09
        -0.17328E+09
        -0.15137E+09
        -0.79802E+08
         0.20319E+08
         0.49144E+08
         0.52266E+08
         0.87615E+08
         0.15517E+09
         0.19355E+09
         0.19445E+09
        -0.57541E+08
         0.19362E+08
        -0.38360E+08
        -0.15813E+09
         0.12834E+09
         0.15512E+09
         0.10058E+09
        -0.72128E+08
        -0.52263E+08
        -0.72414E+08
        -0.25868E+08
         0.27814E+08
         0.11639E+09
        -0.16976E+09
        -0.68029E+08
         0.15172E+09
         0.16031E+09
        -0.10735E+09
        -0.49072E+08
        -0.12770E+09
        -0.17657E+09
        -0.17865E+09
        -0.18070E+09
        -0.15541E+09
         0.54633E+08
         0.67486E+08
        -0.17354E+09
         0.42793E+08
        -0.12601E+09
        -0.84434E+08
         0.13550E+09
         0.15974E+09
        -0.13018E+09
        -0.13080E+09
         0.18100E+09
         0.16097E+09
         0.14512E+09
        -0.91920E+08
        -0.20461E+08
        -0.61393E+08
        -0.16126E+09
        -0.18177E+09
        -0.17643E+09
        -0.16153E+09
        -0.13813E+09
        -0.60336E+08
         0.96714E+08
         0.13338E+09
        -0.20283E+08
         0.21456E+08
         0.14062E+09
         0.17592E+09
         0.20172E+09
         0.19894E+09
         0.17150E+09
         0.14246E+09
         0.10022E+09
         0.43321E+08
        -0.11267E+08
        -0.40448E+08
        -0.54067E+08
        -0.93468E+08
        -0.16920E+09
        -0.20209E+09
        -0.20144E+09
        -0.20066E+09
        -0.20301E+09
        -0.19641E+09
        -0.17326E+09
        -0.15136E+09
        -0.79783E+08
         0.20327E+08
         0.49110E+08
         0.52248E+08
         0.87580E+08
         0.15516E+09
         0.19355E+09
         0.19445E+09
        -0.57598E+08
         0.19460E+08
        -0.38383E+08
        -0.15801E+09
         0.12828E+09
         0.15506E+09
         0.10105E+09
        -0.71886E+08
        -0.52219E+08
        -0.72168E+08
        -0.25260E+08
         0.27881E+08
         0.11641E+09
        -0.16971E+09
        -0.67927E+08
         0.15177E+09
         0.16022E+09
        -0.10704E+09
        -0.49015E+08
        -0.12750E+09
        -0.17654E+09
        -0.17865E+09
        -0.18070E+09
        -0.15545E+09
         0.54587E+08
         0.67630E+08
        -0.17353E+09
         0.41938E+08
        -0.12689E+09
        -0.84396E+08
         0.13560E+09
         0.15982E+09
        -0.12981E+09
        -0.13072E+09
         0.18102E+09
         0.16094E+09
         0.14510E+09
        -0.91929E+08
        -0.20602E+08
        -0.61498E+08
        -0.16126E+09
        -0.18179E+09
        -0.17643E+09
        -0.16149E+09
        -0.13807E+09
        -0.60305E+08
         0.96666E+08
         0.13340E+09
        -0.20121E+08
         0.21435E+08
         0.14061E+09
         0.17591E+09
         0.20171E+09
         0.19893E+09
         0.17149E+09
         0.14246E+09
         0.10021E+09
         0.43321E+08
        -0.11283E+08
        -0.40483E+08
        -0.54034E+08
        -0.93457E+08
        -0.16919E+09
        -0.20208E+09
        -0.20144E+09
        -0.20065E+09
        -0.20302E+09
        -0.19641E+09
        -0.17325E+09
        -0.15136E+09
        -0.79765E+08
         0.20335E+08
         0.49076E+08
         0.52230E+08
         0.87545E+08
         0.15516E+09
         0.19355E+09
         0.19446E+09
        -0.57655E+08
         0.19559E+08
        -0.38406E+08
        -0.15788E+09
         0.12821E+09
         0.15500E+09
         0.10142E+09
        -0.71643E+08
        -0.52175E+08
        -0.71924E+08
        -0.24656E+08
         0.27948E+08
         0.11644E+09
        -0.16965E+09
        -0.67823E+08
         0.15181E+09
         0.16013E+09
        -0.10673E+09
        -0.48958E+08
        -0.12729E+09
        -0.17651E+09
        -0.17864E+09
        -0.18069E+09
        -0.15548E+09
         0.54542E+08
         0.67773E+08
        -0.17352E+09
         0.41085E+08
        -0.12776E+09
        -0.84357E+08
         0.13569E+09
         0.15990E+09
        -0.12943E+09
        -0.13064E+09
         0.18104E+09
         0.16091E+09
         0.14509E+09
        -0.91937E+08
        -0.20742E+08
        -0.61602E+08
        -0.16125E+09
        -0.18182E+09
        -0.17643E+09
        -0.16145E+09
        -0.13802E+09
        -0.60273E+08
         0.96621E+08
         0.13343E+09
        -0.19958E+08
         0.21415E+08
         0.14060E+09
         0.17591E+09
         0.20171E+09
         0.19892E+09
         0.17147E+09
         0.14246E+09
         0.10019E+09
         0.43321E+08
        -0.11300E+08
        -0.40517E+08
        -0.54000E+08
        -0.93446E+08
        -0.16919E+09
        -0.20208E+09
        -0.20144E+09
        -0.20065E+09
        -0.20302E+09
        -0.19641E+09
        -0.17323E+09
        -0.15135E+09
        -0.79746E+08
         0.20342E+08
         0.49041E+08
         0.52212E+08
         0.87510E+08
         0.15516E+09
         0.19356E+09
         0.19447E+09
        -0.57712E+08
         0.19659E+08
        -0.38428E+08
        -0.15776E+09
         0.12814E+09
         0.15494E+09
         0.10179E+09
        -0.71401E+08
        -0.52131E+08
        -0.71681E+08
        -0.24051E+08
         0.28015E+08
         0.11646E+09
        -0.16960E+09
        -0.67721E+08
         0.15186E+09
         0.16004E+09
        -0.10642E+09
        -0.48901E+08
        -0.12708E+09
        -0.17648E+09
        -0.17863E+09
        -0.18069E+09
        -0.15552E+09
         0.54498E+08
         0.67916E+08
        -0.17352E+09
         0.40236E+08
        -0.12863E+09
        -0.84318E+08
         0.13578E+09
         0.15998E+09
        -0.12905E+09
        -0.13057E+09
         0.18105E+09
         0.16088E+09
         0.14507E+09
        -0.91945E+08
        -0.20882E+08
        -0.61708E+08
        -0.16124E+09
        -0.18184E+09
        -0.17643E+09
        -0.16140E+09
        -0.13797E+09
        -0.60240E+08
         0.96573E+08
         0.13345E+09
        -0.19796E+08
         0.21392E+08
         0.14059E+09
         0.17590E+09
         0.20171E+09
         0.19891E+09
         0.17146E+09
         0.14246E+09
         0.10017E+09
         0.43321E+08
        -0.11317E+08
        -0.40551E+08
        -0.53967E+08
        -0.93436E+08
        -0.16919E+09
        -0.20207E+09
        -0.20143E+09
        -0.20065E+09
        -0.20303E+09
        -0.19641E+09
        -0.17322E+09
        -0.15134E+09
        -0.79728E+08
         0.20350E+08
         0.49007E+08
         0.52194E+08
         0.87475E+08
         0.15516E+09
         0.19356E+09
         0.19448E+09
        -0.57768E+08
         0.19759E+08
        -0.38452E+08
        -0.15764E+09
         0.12807E+09
         0.15488E+09
         0.10215E+09
        -0.71159E+08
        -0.52087E+08
        -0.71440E+08
        -0.23445E+08
         0.28083E+08
         0.11648E+09
        -0.16954E+09
        -0.67617E+08
         0.15191E+09
         0.15994E+09
        -0.10611E+09
        -0.48849E+08
        -0.12687E+09
        -0.17645E+09
        -0.17863E+09
        -0.18069E+09
        -0.15555E+09
         0.54453E+08
         0.68057E+08
        -0.17351E+09
         0.39387E+08
        -0.12950E+09
        -0.84278E+08
         0.13587E+09
         0.16006E+09
        -0.12867E+09
        -0.13049E+09
         0.18107E+09
         0.16085E+09
         0.14506E+09
        -0.91953E+08
        -0.21022E+08
        -0.61813E+08
        -0.16124E+09
        -0.18187E+09
        -0.17643E+09
        -0.16136E+09
        -0.13791E+09
        -0.60209E+08
         0.96525E+08
         0.13347E+09
        -0.19632E+08
         0.21370E+08
         0.14058E+09
         0.17590E+09
         0.20171E+09
         0.19890E+09
         0.17144E+09
         0.14246E+09
         0.10016E+09
         0.43322E+08
        -0.11333E+08
        -0.40586E+08
        -0.53934E+08
        -0.93424E+08
        -0.16919E+09
        -0.20207E+09
        -0.20143E+09
        -0.20064E+09
        -0.20303E+09
        -0.19641E+09
        -0.17321E+09
        -0.15134E+09
        -0.79710E+08
         0.20357E+08
         0.48972E+08
         0.52176E+08
         0.87440E+08
         0.15516E+09
         0.19356E+09
         0.19448E+09
        -0.57825E+08
         0.19857E+08
        -0.38473E+08
        -0.15751E+09
         0.12800E+09
         0.15482E+09
         0.10251E+09
        -0.70917E+08
        -0.52043E+08
        -0.71200E+08
        -0.22840E+08
         0.28150E+08
         0.11651E+09
        -0.16949E+09
        -0.67515E+08
         0.15196E+09
         0.15985E+09
        -0.10580E+09
        -0.48793E+08
        -0.12666E+09
        -0.17642E+09
        -0.17862E+09
        -0.18069E+09
        -0.15559E+09
         0.54408E+08
         0.68203E+08
        -0.17350E+09
         0.38542E+08
        -0.13036E+09
        -0.84242E+08
         0.13597E+09
         0.16014E+09
        -0.12829E+09
        -0.13041E+09
         0.18109E+09
         0.16082E+09
         0.14504E+09
        -0.91960E+08
        -0.21162E+08
        -0.61919E+08
        -0.16123E+09
        -0.18189E+09
        -0.17643E+09
        -0.16132E+09
        -0.13786E+09
        -0.60178E+08
         0.96479E+08
         0.13349E+09
        -0.19468E+08
         0.21351E+08
         0.14056E+09
         0.17589E+09
         0.20170E+09
         0.19889E+09
         0.17143E+09
         0.14246E+09
         0.10014E+09
         0.43322E+08
        -0.11350E+08
        -0.40620E+08
        -0.53900E+08
        -0.93414E+08
        -0.16918E+09
        -0.20207E+09
        -0.20143E+09
        -0.20064E+09
        -0.20304E+09
        -0.19642E+09
        -0.17319E+09
        -0.15133E+09
        -0.79691E+08
         0.20364E+08
         0.48937E+08
         0.52158E+08
         0.87406E+08
         0.15516E+09
         0.19356E+09
         0.19449E+09
        -0.57882E+08
         0.19958E+08
        -0.38495E+08
        -0.15739E+09
         0.12793E+09
         0.15476E+09
         0.10287E+09
        -0.70676E+08
        -0.51998E+08
        -0.70960E+08
        -0.22238E+08
         0.28217E+08
         0.11653E+09
        -0.16944E+09
        -0.67412E+08
         0.15200E+09
         0.15976E+09
        -0.10549E+09
        -0.48739E+08
        -0.12645E+09
        -0.17639E+09
        -0.17862E+09
        -0.18069E+09
        -0.15562E+09
         0.54361E+08
         0.68345E+08
        -0.17350E+09
         0.37695E+08
        -0.13123E+09
        -0.84203E+08
         0.13606E+09
         0.16022E+09
        -0.12791E+09
        -0.13034E+09
         0.18110E+09
         0.16079E+09
         0.14502E+09
        -0.91967E+08
        -0.21301E+08
        -0.62023E+08
        -0.16122E+09
        -0.18192E+09
        -0.17643E+09
        -0.16128E+09
        -0.13781E+09
        -0.60145E+08
         0.96431E+08
         0.13351E+09
        -0.19302E+08
         0.21328E+08
         0.14055E+09
         0.17588E+09
         0.20170E+09
         0.19889E+09
         0.17142E+09
         0.14246E+09
         0.10012E+09
         0.43322E+08
        -0.11367E+08
        -0.40654E+08
        -0.53867E+08
        -0.93403E+08
        -0.16918E+09
        -0.20206E+09
        -0.20143E+09
        -0.20064E+09
        -0.20304E+09
        -0.19642E+09
        -0.17318E+09
        -0.15133E+09
        -0.79673E+08
         0.20372E+08
         0.48903E+08
         0.52140E+08
         0.87371E+08
         0.15515E+09
         0.19356E+09
         0.19450E+09
        -0.57939E+08
         0.20056E+08
        -0.38516E+08
        -0.15726E+09
         0.12786E+09
         0.15470E+09
         0.10321E+09
        -0.70435E+08
        -0.51953E+08
        -0.70721E+08
        -0.21636E+08
         0.28284E+08
         0.11656E+09
        -0.16938E+09
        -0.67309E+08
         0.15205E+09
         0.15967E+09
        -0.10518E+09
        -0.48689E+08
        -0.12625E+09
        -0.17636E+09
        -0.17861E+09
        -0.18068E+09
        -0.15566E+09
         0.54316E+08
         0.68487E+08
        -0.17349E+09
         0.36854E+08
        -0.13210E+09
        -0.84164E+08
         0.13615E+09
         0.16030E+09
        -0.12752E+09
        -0.13026E+09
         0.18112E+09
         0.16076E+09
         0.14501E+09
        -0.91972E+08
        -0.21440E+08
        -0.62130E+08
        -0.16122E+09
        -0.18194E+09
        -0.17643E+09
        -0.16123E+09
        -0.13775E+09
        -0.60113E+08
         0.96383E+08
         0.13354E+09
        -0.19137E+08
         0.21306E+08
         0.14054E+09
         0.17587E+09
         0.20170E+09
         0.19888E+09
         0.17140E+09
         0.14246E+09
         0.10011E+09
         0.43322E+08
        -0.11383E+08
        -0.40688E+08
        -0.53833E+08
        -0.93393E+08
        -0.16918E+09
        -0.20206E+09
        -0.20143E+09
        -0.20063E+09
        -0.20305E+09
        -0.19642E+09
        -0.17316E+09
        -0.15132E+09
        -0.79654E+08
         0.20379E+08
         0.48868E+08
         0.52123E+08
         0.87336E+08
         0.15515E+09
         0.19357E+09
         0.19450E+09
        -0.57997E+08
         0.20154E+08
        -0.38537E+08
        -0.15713E+09
         0.12779E+09
         0.15464E+09
         0.10356E+09
        -0.70194E+08
        -0.51909E+08
        -0.70485E+08
        -0.21035E+08
         0.28352E+08
         0.11658E+09
        -0.16933E+09
        -0.67205E+08
         0.15210E+09
         0.15957E+09
        -0.10487E+09
        -0.48633E+08
        -0.12604E+09
        -0.17633E+09
        -0.17861E+09
        -0.18068E+09
        -0.15569E+09
         0.54269E+08
         0.68629E+08
        -0.17348E+09
         0.36012E+08
        -0.13296E+09
        -0.84125E+08
         0.13625E+09
         0.16038E+09
        -0.12713E+09
        -0.13018E+09
         0.18113E+09
         0.16073E+09
         0.14499E+09
        -0.91977E+08
        -0.21578E+08
        -0.62235E+08
        -0.16121E+09
        -0.18197E+09
        -0.17643E+09
        -0.16119E+09
        -0.13770E+09
        -0.60082E+08
         0.96336E+08
         0.13356E+09
        -0.18968E+08
         0.21286E+08
         0.14053E+09
         0.17587E+09
         0.20169E+09
         0.19887E+09
         0.17139E+09
         0.14246E+09
         0.10009E+09
         0.43322E+08
        -0.11400E+08
        -0.40722E+08
        -0.53800E+08
        -0.93382E+08
        -0.16918E+09
        -0.20206E+09
        -0.20143E+09
        -0.20063E+09
        -0.20305E+09
        -0.19642E+09
        -0.17315E+09
        -0.15132E+09
        -0.79636E+08
         0.20386E+08
         0.48833E+08
         0.52105E+08
         0.87301E+08
         0.15515E+09
         0.19357E+09
         0.19451E+09
        -0.58054E+08
         0.20254E+08
        -0.38559E+08
        -0.15701E+09
         0.12772E+09
         0.15458E+09
         0.10391E+09
        -0.69954E+08
        -0.51864E+08
        -0.70249E+08
        -0.20435E+08
         0.28419E+08
         0.11660E+09
        -0.16927E+09
        -0.67103E+08
         0.15214E+09
         0.15948E+09
        -0.10457E+09
        -0.48579E+08
        -0.12583E+09
        -0.17630E+09
        -0.17860E+09
        -0.18068E+09
        -0.15572E+09
         0.54221E+08
         0.68771E+08
        -0.17347E+09
         0.35171E+08
        -0.13383E+09
        -0.84085E+08
         0.13634E+09
         0.16046E+09
        -0.12673E+09
        -0.13010E+09
         0.18115E+09
         0.16070E+09
         0.14498E+09
        -0.91981E+08
        -0.21717E+08
        -0.62341E+08
        -0.16120E+09
        -0.18199E+09
        -0.17643E+09
        -0.16115E+09
        -0.13765E+09
        -0.60049E+08
         0.96288E+08
         0.13358E+09
        -0.18801E+08
         0.21263E+08
         0.14052E+09
         0.17586E+09
         0.20169E+09
         0.19886E+09
         0.17137E+09
         0.14246E+09
         0.10008E+09
         0.43322E+08
        -0.11416E+08
        -0.40755E+08
        -0.53766E+08
        -0.93372E+08
        -0.16917E+09
        -0.20205E+09
        -0.20143E+09
        -0.20063E+09
        -0.20306E+09
        -0.19642E+09
        -0.17313E+09
        -0.15131E+09
        -0.79617E+08
         0.20393E+08
         0.48799E+08
         0.52087E+08
         0.87266E+08
         0.15515E+09
         0.19357E+09
         0.19452E+09
        -0.58111E+08
         0.20353E+08
        -0.38581E+08
        -0.15688E+09
         0.12765E+09
         0.15452E+09
         0.10425E+09
        -0.69714E+08
        -0.51817E+08
        -0.70012E+08
        -0.19834E+08
         0.28487E+08
         0.11663E+09
        -0.16922E+09
        -0.66999E+08
         0.15219E+09
         0.15938E+09
        -0.10426E+09
        -0.48526E+08
        -0.12562E+09
        -0.17627E+09
        -0.17860E+09
        -0.18068E+09
        -0.15576E+09
         0.54171E+08
         0.68913E+08
        -0.17347E+09
         0.34323E+08
        -0.13469E+09
        -0.84048E+08
         0.13643E+09
         0.16054E+09
        -0.12634E+09
        -0.13003E+09
         0.18117E+09
         0.16067E+09
         0.14496E+09
        -0.91984E+08
        -0.21857E+08
        -0.62448E+08
        -0.16120E+09
        -0.18202E+09
        -0.17643E+09
        -0.16111E+09
        -0.13759E+09
        -0.60018E+08
         0.96241E+08
         0.13360E+09
        -0.18634E+08
         0.21241E+08
         0.14051E+09
         0.17585E+09
         0.20169E+09
         0.19885E+09
         0.17136E+09
         0.14246E+09
         0.10006E+09
         0.43323E+08
        -0.11432E+08
        -0.40789E+08
        -0.53733E+08
        -0.93362E+08
        -0.16917E+09
        -0.20205E+09
        -0.20143E+09
        -0.20062E+09
        -0.20306E+09
        -0.19642E+09
        -0.17312E+09
        -0.15130E+09
        -0.79599E+08
         0.20400E+08
         0.48764E+08
         0.52069E+08
         0.87232E+08
         0.15515E+09
         0.19357E+09
         0.19453E+09
        -0.58169E+08
         0.20452E+08
        -0.38601E+08
        -0.15675E+09
         0.12758E+09
         0.15446E+09
         0.10459E+09
        -0.69475E+08
        -0.51766E+08
        -0.69768E+08
        -0.19235E+08
         0.28554E+08
         0.11665E+09
        -0.16917E+09
        -0.66895E+08
         0.15223E+09
         0.15929E+09
        -0.10396E+09
        -0.48479E+08
        -0.12542E+09
        -0.17624E+09
        -0.17859E+09
        -0.18068E+09
        -0.15579E+09
         0.54114E+08
         0.69059E+08
        -0.17346E+09
         0.33453E+08
        -0.13555E+09
        -0.84019E+08
         0.13652E+09
         0.16062E+09
        -0.12594E+09
        -0.12995E+09
         0.18118E+09
         0.16064E+09
         0.14494E+09
        -0.91984E+08
        -0.22002E+08
        -0.62555E+08
        -0.16119E+09
        -0.18204E+09
        -0.17643E+09
        -0.16107E+09
        -0.13754E+09
        -0.59985E+08
         0.96195E+08
         0.13362E+09
        -0.18468E+08
         0.21218E+08
         0.14049E+09
         0.17584E+09
         0.20169E+09
         0.19885E+09
         0.17134E+09
         0.14246E+09
         0.10004E+09
         0.43323E+08
        -0.11448E+08
        -0.40823E+08
        -0.53700E+08
        -0.93352E+08
        -0.16917E+09
        -0.20205E+09
        -0.20143E+09
        -0.20062E+09
        -0.20307E+09
        -0.19642E+09
        -0.17310E+09
        -0.15130E+09
        -0.79580E+08
         0.20407E+08
         0.48730E+08
         0.52051E+08
         0.87197E+08
         0.15514E+09
         0.19357E+09
         0.19453E+09
        -0.58226E+08
         0.20550E+08
        -0.38621E+08
        -0.15662E+09
         0.12751E+09
         0.15440E+09
         0.10493E+09
        -0.69236E+08
        -0.51712E+08
        -0.69518E+08
        -0.18638E+08
         0.28622E+08
         0.11667E+09
        -0.16911E+09
        -0.66790E+08
         0.15228E+09
         0.15919E+09
        -0.10365E+09
        -0.48426E+08
        -0.12521E+09
        -0.17621E+09
        -0.17859E+09
        -0.18067E+09
        -0.15583E+09
         0.54048E+08
         0.69200E+08
        -0.17345E+09
         0.32557E+08
        -0.13641E+09
        -0.83993E+08
         0.13661E+09
         0.16069E+09
        -0.12554E+09
        -0.12987E+09
         0.18120E+09
         0.16061E+09
         0.14493E+09
        -0.91980E+08
        -0.22151E+08
        -0.62664E+08
        -0.16118E+09
        -0.18207E+09
        -0.17643E+09
        -0.16102E+09
        -0.13748E+09
        -0.59953E+08
         0.96146E+08
         0.13365E+09
        -0.18299E+08
         0.21197E+08
         0.14048E+09
         0.17584E+09
         0.20168E+09
         0.19884E+09
         0.17133E+09
         0.14246E+09
         0.10003E+09
         0.43323E+08
        -0.11464E+08
        -0.40856E+08
        -0.53668E+08
        -0.93342E+08
        -0.16916E+09
        -0.20204E+09
        -0.20143E+09
        -0.20062E+09
        -0.20307E+09
        -0.19642E+09
        -0.17309E+09
        -0.15129E+09
        -0.79561E+08
         0.20414E+08
         0.48695E+08
         0.52034E+08
         0.87163E+08
         0.15514E+09
         0.19358E+09
         0.19454E+09
        -0.58283E+08
         0.20648E+08
        -0.38642E+08
        -0.15650E+09
         0.12744E+09
         0.15434E+09
         0.10526E+09
        -0.68998E+08
        -0.51655E+08
        -0.69268E+08
        -0.18045E+08
         0.28688E+08
         0.11670E+09
        -0.16906E+09
        -0.66686E+08
         0.15233E+09
         0.15909E+09
        -0.10335E+09
        -0.48373E+08
        -0.12501E+09
        -0.17617E+09
        -0.17858E+09
        -0.18067E+09
        -0.15586E+09
         0.53980E+08
         0.69340E+08
        -0.17344E+09
         0.31657E+08
        -0.13726E+09
        -0.83968E+08
         0.13670E+09
         0.16077E+09
        -0.12514E+09
        -0.12980E+09
         0.18121E+09
         0.16058E+09
         0.14491E+09
        -0.91974E+08
        -0.22302E+08
        -0.62771E+08
        -0.16117E+09
        -0.18209E+09
        -0.17642E+09
        -0.16098E+09
        -0.13743E+09
        -0.59922E+08
         0.96101E+08
         0.13367E+09
        -0.18131E+08
         0.21173E+08
         0.14047E+09
         0.17583E+09
         0.20168E+09
         0.19883E+09
         0.17132E+09
         0.14246E+09
         0.10001E+09
         0.43323E+08
        -0.11480E+08
        -0.40888E+08
        -0.53636E+08
        -0.93332E+08
        -0.16916E+09
        -0.20204E+09
        -0.20143E+09
        -0.20061E+09
        -0.20308E+09
        -0.19642E+09
        -0.17307E+09
        -0.15129E+09
        -0.79543E+08
         0.20422E+08
         0.48661E+08
         0.52016E+08
         0.87128E+08
         0.15514E+09
         0.19358E+09
         0.19455E+09
        -0.56162E+08
         0.18597E+08
        -0.34399E+08
        -0.12974E+09
         0.12095E+09
         0.14081E+09
         0.76491E+08
        -0.65453E+08
        -0.47246E+08
        -0.65541E+08
        -0.13840E+08
         0.28122E+08
         0.11331E+09
        -0.15023E+09
        -0.65272E+08
         0.14298E+09
         0.12709E+09
        -0.96592E+08
        -0.41150E+08
        -0.98219E+08
        -0.17201E+09
        -0.17372E+09
        -0.17601E+09
        -0.12164E+09
         0.48170E+08
         0.65648E+08
        -0.15438E+09
         0.26896E+08
        -0.99168E+08
        -0.74981E+08
         0.12541E+09
         0.12051E+09
        -0.10240E+09
        -0.10134E+09
         0.17462E+09
         0.14794E+09
         0.13775E+09
        -0.89583E+08
        -0.21566E+08
        -0.60058E+08
        -0.15713E+09
        -0.17715E+09
        -0.17208E+09
        -0.15567E+09
        -0.13130E+09
        -0.57986E+08
         0.90483E+08
         0.12449E+09
        -0.16236E+08
         0.19491E+08
         0.13524E+09
         0.16433E+09
         0.20037E+09
         0.19765E+09
         0.17036E+09
         0.14171E+09
         0.99507E+08
         0.43114E+08
        -0.11439E+08
        -0.40650E+08
        -0.53235E+08
        -0.92728E+08
        -0.16811E+09
        -0.20091E+09
        -0.20010E+09
        -0.19930E+09
        -0.20196E+09
        -0.19545E+09
        -0.17225E+09
        -0.15058E+09
        -0.79059E+08
         0.20320E+08
         0.48351E+08
         0.51685E+08
         0.86599E+08
         0.15421E+09
         0.19251E+09
         0.19345E+09
        -0.27976E+08
         0.62578E+07
        -0.11218E+08
        -0.35478E+08
         0.53697E+08
         0.50451E+08
         0.17392E+08
        -0.29418E+08
        -0.17174E+08
        -0.28944E+08
        -0.34306E+07
         0.16827E+08
         0.61285E+08
        -0.48565E+08
        -0.40008E+08
         0.58723E+08
         0.32599E+08
        -0.20038E+08
        -0.11878E+08
        -0.19843E+08
        -0.99969E+08
        -0.96319E+08
        -0.99037E+08
        -0.29977E+08
         0.15895E+08
         0.12525E+08
        -0.50124E+08
         0.44328E+07
        -0.20167E+08
        -0.24751E+08
         0.45725E+08
         0.28199E+08
        -0.27316E+08
        -0.25135E+08
         0.87265E+08
         0.55152E+08
         0.61563E+08
        -0.50424E+08
        -0.10598E+08
        -0.27985E+08
        -0.89778E+08
        -0.98307E+08
        -0.98717E+08
        -0.80648E+08
        -0.60977E+08
        -0.30350E+08
         0.37929E+08
         0.48887E+08
        -0.55256E+07
         0.72790E+07
         0.67194E+08
         0.66005E+08
         0.16008E+09
         0.16078E+09
         0.14004E+09
         0.11757E+09
         0.83415E+08
         0.36403E+08
        -0.95404E+07
        -0.32663E+08
        -0.42184E+08
        -0.74566E+08
        -0.13582E+09
        -0.16511E+09
        -0.16001E+09
        -0.15981E+09
        -0.16661E+09
        -0.16370E+09
        -0.14537E+09
        -0.12716E+09
        -0.64309E+08
         0.16686E+08
         0.39409E+08
         0.41890E+08
         0.70768E+08
         0.12524E+09
         0.15844E+09
         0.15867E+09
  
SCALARS                      stress_xy  double 1
LOOKUP_TABLE default
        -0.71329E+00
        -0.16741E+01
        -0.14354E+02
         0.50690E+00
        -0.10672E-08
         0.10429E-09
         0.15681E-08
         0.23886E-09
        -0.15144E+03
         0.66536E+02
         0.69799E-08
         0.55350E-08
         0.56680E+01
        -0.11761E+01
         0.61608E-09
        -0.18504E-09
         0.16291E+01
         0.28441E+02
         0.30671E-10
         0.46739E-09
        -0.21640E+02
        -0.13731E+03
        -0.13509E+03
         0.47525E-08
         0.37847E-08
        -0.55269E-08
        -0.14296E+02
        -0.11947E+03
         0.63992E-08
         0.98478E-08
        -0.43564E+01
         0.84406E+01
         0.68524E+00
        -0.33776E-09
         0.13324E-08
        -0.17042E-10
        -0.38426E+02
        -0.17862E+02
         0.35660E-08
         0.29541E-08
        -0.75313E+02
        -0.67967E+02
         0.60791E-08
         0.40969E-08
        -0.73039E+02
        -0.13408E+02
        -0.22145E-09
         0.16487E-08
         0.19499E+02
         0.48727E-09
        -0.45683E+01
        -0.10986E-10
         0.11992E+01
         0.36829E-08
         0.59380E+01
         0.56673E-09
         0.84731E+02
        -0.41248E+01
         0.13171E-10
        -0.64614E-10
         0.56412E+00
        -0.56797E+02
         0.35892E-09
         0.92063E-09
         0.24403E+01
        -0.72873E-10
         0.35080E+02
         0.58393E-09
        -0.18758E+03
        -0.68093E+02
         0.45104E-09
        -0.43192E-08
        -0.15315E+03
        -0.69059E-08
         0.62698E+02
         0.46255E-08
         0.19803E+03
         0.68913E-09
         0.34580E+03
         0.89613E-09
         0.67085E+03
         0.36552E+03
         0.21068E-08
        -0.53421E-09
         0.45127E+02
        -0.64285E-10
        -0.13842E+03
        -0.57980E-08
        -0.20380E+03
        -0.64739E-08
        -0.44840E+03
        -0.20445E+03
        -0.40981E-08
         0.45488E-08
         0.32865E+02
         0.41419E-08
         0.80937E+02
         0.17792E-08
         0.18913E+03
         0.47241E-08
         0.46525E+03
         0.26533E+03
         0.10130E-07
         0.50647E-08
        -0.76481E+03
         0.32046E+03
        -0.65813E-08
         0.80596E-08
        -0.18623E+04
        -0.18704E-07
        -0.24289E+04
        -0.20446E-07
        -0.21342E+04
        -0.13877E-07
        -0.18198E+04
        -0.14719E-08
        -0.79541E+03
         0.41487E-08
         0.10479E+04
         0.25687E-08
         0.23549E+04
         0.23482E-08
         0.31135E+04
         0.50381E-08
         0.30531E+04
         0.61256E-08
         0.25036E+04
         0.24134E-08
         0.13340E+04
         0.14714E-08
        -0.91349E+02
         0.24049E-08
        -0.11099E+04
         0.16121E-08
        -0.17902E+04
        -0.57488E-08
        -0.24435E+04
        -0.15085E-07
        -0.21883E+04
        -0.19143E-07
        -0.14052E+04
        -0.11848E-07
        -0.15393E+03
         0.22604E-08
         0.10398E+04
         0.47907E-08
         0.15036E+04
         0.76348E-08
         0.18398E+04
         0.15035E-07
         0.16492E+04
         0.19509E-07
         0.15350E+04
         0.13860E-07
         0.12678E+04
         0.10962E-07
        -0.41352E+02
         0.11908E+02
         0.11864E+02
        -0.75184E+01
         0.13773E+03
         0.76501E+02
         0.20753E+01
        -0.33104E+02
        -0.12202E+02
        -0.32166E+02
        -0.17365E+02
        -0.32190E+03
        -0.45446E+03
         0.16849E+02
         0.26031E+03
        -0.18721E+02
         0.13487E+02
         0.44953E+01
         0.88683E+01
        -0.67159E+01
         0.37760E+02
         0.30483E+02
        -0.11071E+03
         0.27398E+01
         0.20311E+02
         0.22532E+01
         0.51726E+00
         0.97468E+00
         0.16997E+02
        -0.34696E+02
        -0.16041E+02
         0.35667E+01
         0.54905E+01
        -0.42222E+00
        -0.43080E+02
        -0.14671E+03
        -0.25345E+03
         0.45092E+03
         0.23507E+03
         0.43013E+03
         0.83859E+03
         0.19044E+03
        -0.90571E+02
        -0.19483E+03
        -0.31929E+03
        -0.47526E+03
         0.55397E+02
         0.10027E+03
         0.31703E+02
         0.15682E+03
         0.56868E+03
         0.16181E+03
        -0.19761E+04
         0.24799E+04
        -0.60101E+04
        -0.70522E+04
        -0.66964E+04
        -0.40638E+04
         0.24301E+03
         0.26432E+04
         0.38314E+04
         0.62175E+04
         0.65520E+04
         0.34774E+04
         0.13951E+04
         0.58855E+03
        -0.94780E+03
        -0.37292E+04
        -0.62280E+04
        -0.71636E+04
        -0.44494E+04
         0.80480E+03
         0.29024E+04
         0.30589E+04
         0.48228E+04
         0.53760E+04
         0.40499E+04
         0.37265E+04
        -0.29225E+06
         0.83176E+05
        -0.15899E+06
        -0.17625E+06
         0.48554E+06
         0.33660E+06
         0.21317E+06
        -0.36021E+06
        -0.22399E+06
        -0.35513E+06
         0.10731E+06
        -0.16472E+06
        -0.52533E+06
         0.18380E+06
         0.39010E+06
        -0.36218E+06
         0.14926E+06
         0.97520E+05
         0.18486E+06
         0.10043E+06
         0.27435E+06
         0.20784E+06
        -0.12458E+06
         0.18595E+06
         0.22974E+06
        -0.80277E+05
         0.41612E+05
        -0.26965E+05
        -0.10856E+06
        -0.33988E+06
        -0.37838E+06
        -0.13965E+06
         0.27844E+06
         0.24427E+06
         0.80442E+05
        -0.31891E+06
        -0.45933E+06
         0.47444E+06
         0.11132E+06
         0.32201E+06
         0.46883E+06
        -0.14196E+06
        -0.28247E+06
        -0.39940E+06
        -0.48017E+06
        -0.33380E+06
         0.43267E+06
         0.43853E+06
        -0.97783E+05
         0.10796E+06
         0.50673E+06
         0.63073E+05
        -0.24383E+06
         0.33677E+06
        -0.64936E+06
        -0.70132E+06
        -0.60172E+06
        -0.29247E+06
         0.76631E+05
         0.26810E+06
         0.35465E+06
         0.56893E+06
         0.65812E+06
         0.26231E+06
         0.12368E+06
         0.11050E+06
        -0.47561E+05
        -0.36695E+06
        -0.62747E+06
        -0.70447E+06
        -0.50111E+06
         0.13762E+06
         0.32308E+06
         0.33988E+06
         0.53627E+06
         0.68113E+06
         0.43005E+06
         0.41217E+06
        -0.29262E+06
         0.83473E+05
        -0.15924E+06
        -0.17737E+06
         0.48549E+06
         0.33685E+06
         0.21479E+06
        -0.35934E+06
        -0.22409E+06
        -0.35447E+06
         0.10521E+06
        -0.16511E+06
        -0.52541E+06
         0.18401E+06
         0.38966E+06
        -0.36214E+06
         0.15050E+06
         0.97105E+05
         0.18476E+06
         0.99698E+05
         0.27496E+06
         0.20804E+06
        -0.12462E+06
         0.18587E+06
         0.22990E+06
        -0.80265E+05
         0.42095E+05
        -0.26606E+05
        -0.10861E+06
        -0.33994E+06
        -0.37848E+06
        -0.13937E+06
         0.27844E+06
         0.24455E+06
         0.79665E+05
        -0.31911E+06
        -0.45933E+06
         0.47461E+06
         0.11219E+06
         0.32263E+06
         0.46893E+06
        -0.14153E+06
        -0.28271E+06
        -0.39956E+06
        -0.48018E+06
        -0.33366E+06
         0.43262E+06
         0.43845E+06
        -0.97144E+05
         0.10768E+06
         0.50668E+06
         0.62181E+05
        -0.24367E+06
         0.33685E+06
        -0.64943E+06
        -0.70133E+06
        -0.60164E+06
        -0.29246E+06
         0.76743E+05
         0.26832E+06
         0.35444E+06
         0.56886E+06
         0.65808E+06
         0.26242E+06
         0.12368E+06
         0.11073E+06
        -0.47169E+05
        -0.36706E+06
        -0.62757E+06
        -0.70450E+06
        -0.50102E+06
         0.13769E+06
         0.32288E+06
         0.33977E+06
         0.53607E+06
         0.68103E+06
         0.42980E+06
         0.41184E+06
        -0.29299E+06
         0.83765E+05
        -0.15950E+06
        -0.17851E+06
         0.48544E+06
         0.33710E+06
         0.21643E+06
        -0.35846E+06
        -0.22417E+06
        -0.35380E+06
         0.10310E+06
        -0.16551E+06
        -0.52549E+06
         0.18420E+06
         0.38922E+06
        -0.36210E+06
         0.15174E+06
         0.96686E+05
         0.18465E+06
         0.98961E+05
         0.27558E+06
         0.20823E+06
        -0.12467E+06
         0.18578E+06
         0.23009E+06
        -0.80242E+05
         0.42611E+05
        -0.26257E+05
        -0.10858E+06
        -0.34001E+06
        -0.37858E+06
        -0.13904E+06
         0.27842E+06
         0.24483E+06
         0.78883E+05
        -0.31933E+06
        -0.45934E+06
         0.47478E+06
         0.11306E+06
         0.32325E+06
         0.46904E+06
        -0.14106E+06
        -0.28294E+06
        -0.39975E+06
        -0.48020E+06
        -0.33352E+06
         0.43258E+06
         0.43838E+06
        -0.96485E+05
         0.10738E+06
         0.50663E+06
         0.61290E+05
        -0.24352E+06
         0.33693E+06
        -0.64950E+06
        -0.70133E+06
        -0.60156E+06
        -0.29245E+06
         0.76856E+05
         0.26853E+06
         0.35423E+06
         0.56878E+06
         0.65805E+06
         0.26253E+06
         0.12368E+06
         0.11096E+06
        -0.46776E+05
        -0.36718E+06
        -0.62768E+06
        -0.70453E+06
        -0.50092E+06
         0.13775E+06
         0.32269E+06
         0.33966E+06
         0.53587E+06
         0.68094E+06
         0.42955E+06
         0.41151E+06
        -0.29336E+06
         0.84068E+05
        -0.15974E+06
        -0.17965E+06
         0.48539E+06
         0.33736E+06
         0.21806E+06
        -0.35757E+06
        -0.22422E+06
        -0.35310E+06
         0.10100E+06
        -0.16591E+06
        -0.52557E+06
         0.18440E+06
         0.38878E+06
        -0.36205E+06
         0.15300E+06
         0.96263E+05
         0.18456E+06
         0.98184E+05
         0.27620E+06
         0.20841E+06
        -0.12477E+06
         0.18562E+06
         0.23039E+06
        -0.80200E+05
         0.43144E+05
        -0.25966E+05
        -0.10834E+06
        -0.34007E+06
        -0.37866E+06
        -0.13858E+06
         0.27839E+06
         0.24510E+06
         0.78107E+05
        -0.31953E+06
        -0.45934E+06
         0.47494E+06
         0.11392E+06
         0.32385E+06
         0.46917E+06
        -0.14047E+06
        -0.28311E+06
        -0.40003E+06
        -0.48025E+06
        -0.33337E+06
         0.43253E+06
         0.43830E+06
        -0.95824E+05
         0.10709E+06
         0.50658E+06
         0.60400E+05
        -0.24337E+06
         0.33700E+06
        -0.64956E+06
        -0.70133E+06
        -0.60148E+06
        -0.29244E+06
         0.76970E+05
         0.26875E+06
         0.35402E+06
         0.56871E+06
         0.65802E+06
         0.26267E+06
         0.12369E+06
         0.11118E+06
        -0.46379E+05
        -0.36730E+06
        -0.62781E+06
        -0.70456E+06
        -0.50082E+06
         0.13782E+06
         0.32249E+06
         0.33955E+06
         0.53567E+06
         0.68084E+06
         0.42930E+06
         0.41118E+06
        -0.29372E+06
         0.84371E+05
        -0.15999E+06
        -0.18078E+06
         0.48535E+06
         0.33760E+06
         0.21970E+06
        -0.35668E+06
        -0.22425E+06
        -0.35235E+06
         0.98881E+05
        -0.16631E+06
        -0.52566E+06
         0.18462E+06
         0.38834E+06
        -0.36201E+06
         0.15428E+06
         0.95839E+05
         0.18444E+06
         0.97374E+05
         0.27682E+06
         0.20856E+06
        -0.12493E+06
         0.18541E+06
         0.23077E+06
        -0.80125E+05
         0.43740E+05
        -0.25728E+05
        -0.10789E+06
        -0.34013E+06
        -0.37874E+06
        -0.13799E+06
         0.27835E+06
         0.24538E+06
         0.77324E+05
        -0.31973E+06
        -0.45935E+06
         0.47511E+06
         0.11476E+06
         0.32445E+06
         0.46935E+06
        -0.13976E+06
        -0.28322E+06
        -0.40039E+06
        -0.48033E+06
        -0.33319E+06
         0.43250E+06
         0.43824E+06
        -0.95165E+05
         0.10680E+06
         0.50653E+06
         0.59503E+05
        -0.24322E+06
         0.33708E+06
        -0.64963E+06
        -0.70133E+06
        -0.60140E+06
        -0.29243E+06
         0.77082E+05
         0.26896E+06
         0.35380E+06
         0.56864E+06
         0.65800E+06
         0.26284E+06
         0.12370E+06
         0.11140E+06
        -0.45981E+05
        -0.36743E+06
        -0.62796E+06
        -0.70460E+06
        -0.50072E+06
         0.13789E+06
         0.32230E+06
         0.33944E+06
         0.53547E+06
         0.68075E+06
         0.42905E+06
         0.41085E+06
        -0.29407E+06
         0.84701E+05
        -0.16021E+06
        -0.18192E+06
         0.48530E+06
         0.33785E+06
         0.22131E+06
        -0.35579E+06
        -0.22427E+06
        -0.35162E+06
         0.96761E+05
        -0.16670E+06
        -0.52574E+06
         0.18485E+06
         0.38790E+06
        -0.36196E+06
         0.15559E+06
         0.95419E+05
         0.18433E+06
         0.96563E+05
         0.27745E+06
         0.20870E+06
        -0.12511E+06
         0.18517E+06
         0.23116E+06
        -0.80037E+05
         0.44380E+05
        -0.25509E+05
        -0.10734E+06
        -0.34021E+06
        -0.37881E+06
        -0.13733E+06
         0.27830E+06
         0.24567E+06
         0.76536E+05
        -0.31995E+06
        -0.45936E+06
         0.47527E+06
         0.11561E+06
         0.32504E+06
         0.46952E+06
        -0.13902E+06
        -0.28330E+06
        -0.40079E+06
        -0.48043E+06
        -0.33303E+06
         0.43245E+06
         0.43819E+06
        -0.94482E+05
         0.10653E+06
         0.50648E+06
         0.58602E+05
        -0.24306E+06
         0.33716E+06
        -0.64970E+06
        -0.70133E+06
        -0.60132E+06
        -0.29242E+06
         0.77193E+05
         0.26917E+06
         0.35359E+06
         0.56856E+06
         0.65798E+06
         0.26301E+06
         0.12372E+06
         0.11162E+06
        -0.45583E+05
        -0.36756E+06
        -0.62811E+06
        -0.70464E+06
        -0.50062E+06
         0.13795E+06
         0.32210E+06
         0.33933E+06
         0.53528E+06
         0.68065E+06
         0.42880E+06
         0.41052E+06
        -0.29440E+06
         0.85104E+05
        -0.16038E+06
        -0.18308E+06
         0.48525E+06
         0.33810E+06
         0.22290E+06
        -0.35489E+06
        -0.22430E+06
        -0.35091E+06
         0.94623E+05
        -0.16710E+06
        -0.52582E+06
         0.18519E+06
         0.38746E+06
        -0.36193E+06
         0.15692E+06
         0.94996E+05
         0.18422E+06
         0.95755E+05
         0.27807E+06
         0.20885E+06
        -0.12528E+06
         0.18493E+06
         0.23148E+06
        -0.79920E+05
         0.45135E+05
        -0.25285E+05
        -0.10676E+06
        -0.34032E+06
        -0.37886E+06
        -0.13662E+06
         0.27825E+06
         0.24595E+06
         0.75746E+05
        -0.32017E+06
        -0.45938E+06
         0.47542E+06
         0.11645E+06
         0.32564E+06
         0.46971E+06
        -0.13826E+06
        -0.28338E+06
        -0.40118E+06
        -0.48053E+06
        -0.33287E+06
         0.43237E+06
         0.43818E+06
        -0.93726E+05
         0.10635E+06
         0.50643E+06
         0.57688E+05
        -0.24291E+06
         0.33723E+06
        -0.64976E+06
        -0.70133E+06
        -0.60124E+06
        -0.29241E+06
         0.77305E+05
         0.26939E+06
         0.35338E+06
         0.56849E+06
         0.65796E+06
         0.26318E+06
         0.12374E+06
         0.11184E+06
        -0.45184E+05
        -0.36769E+06
        -0.62826E+06
        -0.70468E+06
        -0.50053E+06
         0.13801E+06
         0.32189E+06
         0.33922E+06
         0.53509E+06
         0.68056E+06
         0.42855E+06
         0.41019E+06
        -0.29470E+06
         0.85528E+05
        -0.16052E+06
        -0.18426E+06
         0.48520E+06
         0.33835E+06
         0.22410E+06
        -0.35400E+06
        -0.22433E+06
        -0.35023E+06
         0.92475E+05
        -0.16749E+06
        -0.52591E+06
         0.18555E+06
         0.38701E+06
        -0.36191E+06
         0.15826E+06
         0.94570E+05
         0.18411E+06
         0.94961E+05
         0.27870E+06
         0.20900E+06
        -0.12546E+06
         0.18470E+06
         0.23176E+06
        -0.79793E+05
         0.45920E+05
        -0.25054E+05
        -0.10616E+06
        -0.34043E+06
        -0.37892E+06
        -0.13588E+06
         0.27818E+06
         0.24624E+06
         0.74949E+05
        -0.32041E+06
        -0.45941E+06
         0.47557E+06
         0.11729E+06
         0.32623E+06
         0.46989E+06
        -0.13749E+06
        -0.28346E+06
        -0.40157E+06
        -0.48064E+06
        -0.33272E+06
         0.43228E+06
         0.43818E+06
        -0.92940E+05
         0.10619E+06
         0.50638E+06
         0.56771E+05
        -0.24276E+06
         0.33731E+06
        -0.64983E+06
        -0.70133E+06
        -0.60116E+06
        -0.29240E+06
         0.77416E+05
         0.26960E+06
         0.35317E+06
         0.56842E+06
         0.65794E+06
         0.26336E+06
         0.12377E+06
         0.11207E+06
        -0.44785E+05
        -0.36782E+06
        -0.62841E+06
        -0.70472E+06
        -0.50043E+06
         0.13806E+06
         0.32167E+06
         0.33911E+06
         0.53490E+06
         0.68046E+06
         0.42831E+06
         0.40986E+06
        -0.29501E+06
         0.85958E+05
        -0.16065E+06
        -0.18544E+06
         0.48515E+06
         0.33860E+06
         0.22506E+06
        -0.35311E+06
        -0.22437E+06
        -0.34955E+06
         0.90332E+05
        -0.16788E+06
        -0.52599E+06
         0.18593E+06
         0.38656E+06
        -0.36188E+06
         0.15961E+06
         0.94145E+05
         0.18400E+06
         0.94157E+05
         0.27932E+06
         0.20915E+06
        -0.12563E+06
         0.18448E+06
         0.23203E+06
        -0.79664E+05
         0.46723E+05
        -0.24810E+05
        -0.10555E+06
        -0.34055E+06
        -0.37896E+06
        -0.13515E+06
         0.27811E+06
         0.24653E+06
         0.74147E+05
        -0.32063E+06
        -0.45943E+06
         0.47572E+06
         0.11813E+06
         0.32683E+06
         0.47008E+06
        -0.13673E+06
        -0.28353E+06
        -0.40196E+06
        -0.48075E+06
        -0.33258E+06
         0.43220E+06
         0.43818E+06
        -0.92152E+05
         0.10604E+06
         0.50633E+06
         0.55849E+05
        -0.24261E+06
         0.33739E+06
        -0.64989E+06
        -0.70133E+06
        -0.60108E+06
        -0.29239E+06
         0.77527E+05
         0.26981E+06
         0.35296E+06
         0.56835E+06
         0.65792E+06
         0.26353E+06
         0.12379E+06
         0.11230E+06
        -0.44387E+05
        -0.36795E+06
        -0.62856E+06
        -0.70476E+06
        -0.50033E+06
         0.13811E+06
         0.32146E+06
         0.33900E+06
         0.53471E+06
         0.68036E+06
         0.42806E+06
         0.40952E+06
        -0.29532E+06
         0.86392E+05
        -0.16079E+06
        -0.18660E+06
         0.48510E+06
         0.33885E+06
         0.22603E+06
        -0.35222E+06
        -0.22440E+06
        -0.34886E+06
         0.88184E+05
        -0.16828E+06
        -0.52608E+06
         0.18629E+06
         0.38611E+06
        -0.36186E+06
         0.16095E+06
         0.93723E+05
         0.18388E+06
         0.93356E+05
         0.27994E+06
         0.20930E+06
        -0.12580E+06
         0.18425E+06
         0.23231E+06
        -0.79535E+05
         0.47504E+05
        -0.24555E+05
        -0.10492E+06
        -0.34067E+06
        -0.37901E+06
        -0.13441E+06
         0.27802E+06
         0.24682E+06
         0.73349E+05
        -0.32086E+06
        -0.45946E+06
         0.47587E+06
         0.11897E+06
         0.32742E+06
         0.47026E+06
        -0.13598E+06
        -0.28361E+06
        -0.40235E+06
        -0.48085E+06
        -0.33243E+06
         0.43211E+06
         0.43819E+06
        -0.91370E+05
         0.10588E+06
         0.50627E+06
         0.54929E+05
        -0.24245E+06
         0.33746E+06
        -0.64996E+06
        -0.70133E+06
        -0.60100E+06
        -0.29238E+06
         0.77638E+05
         0.27003E+06
         0.35275E+06
         0.56828E+06
         0.65790E+06
         0.26370E+06
         0.12381E+06
         0.11252E+06
        -0.43991E+05
        -0.36808E+06
        -0.62871E+06
        -0.70479E+06
        -0.50023E+06
         0.13816E+06
         0.32124E+06
         0.33889E+06
         0.53452E+06
         0.68026E+06
         0.42781E+06
         0.40919E+06
        -0.29562E+06
         0.86822E+05
        -0.16093E+06
        -0.18776E+06
         0.48505E+06
         0.33909E+06
         0.22699E+06
        -0.35132E+06
        -0.22443E+06
        -0.34818E+06
         0.86029E+05
        -0.16867E+06
        -0.52616E+06
         0.18666E+06
         0.38566E+06
        -0.36183E+06
         0.16230E+06
         0.93304E+05
         0.18379E+06
         0.92547E+05
         0.28056E+06
         0.20944E+06
        -0.12597E+06
         0.18403E+06
         0.23258E+06
        -0.79403E+05
         0.48299E+05
        -0.24285E+05
        -0.10428E+06
        -0.34078E+06
        -0.37905E+06
        -0.13367E+06
         0.27792E+06
         0.24710E+06
         0.72546E+05
        -0.32109E+06
        -0.45949E+06
         0.47602E+06
         0.11981E+06
         0.32801E+06
         0.47044E+06
        -0.13522E+06
        -0.28369E+06
        -0.40273E+06
        -0.48096E+06
        -0.33229E+06
         0.43202E+06
         0.43819E+06
        -0.90578E+05
         0.10572E+06
         0.50623E+06
         0.54003E+05
        -0.24230E+06
         0.33753E+06
        -0.65002E+06
        -0.70133E+06
        -0.60092E+06
        -0.29237E+06
         0.77747E+05
         0.27024E+06
         0.35254E+06
         0.56821E+06
         0.65788E+06
         0.26387E+06
         0.12384E+06
         0.11274E+06
        -0.43592E+05
        -0.36821E+06
        -0.62886E+06
        -0.70483E+06
        -0.50013E+06
         0.13820E+06
         0.32102E+06
         0.33878E+06
         0.53434E+06
         0.68017E+06
         0.42756E+06
         0.40885E+06
        -0.29593E+06
         0.87251E+05
        -0.16106E+06
        -0.18893E+06
         0.48500E+06
         0.33934E+06
         0.22794E+06
        -0.35043E+06
        -0.22446E+06
        -0.34750E+06
         0.83877E+05
        -0.16907E+06
        -0.52624E+06
         0.18703E+06
         0.38521E+06
        -0.36181E+06
         0.16365E+06
         0.92879E+05
         0.18368E+06
         0.91753E+05
         0.28119E+06
         0.20958E+06
        -0.12615E+06
         0.18381E+06
         0.23284E+06
        -0.79277E+05
         0.49075E+05
        -0.24005E+05
        -0.10360E+06
        -0.34090E+06
        -0.37910E+06
        -0.13293E+06
         0.27781E+06
         0.24739E+06
         0.71739E+05
        -0.32132E+06
        -0.45951E+06
         0.47616E+06
         0.12065E+06
         0.32861E+06
         0.47063E+06
        -0.13447E+06
        -0.28376E+06
        -0.40312E+06
        -0.48107E+06
        -0.33214E+06
         0.43193E+06
         0.43820E+06
        -0.89783E+05
         0.10557E+06
         0.50618E+06
         0.53077E+05
        -0.24214E+06
         0.33761E+06
        -0.65009E+06
        -0.70133E+06
        -0.60084E+06
        -0.29236E+06
         0.77857E+05
         0.27045E+06
         0.35233E+06
         0.56814E+06
         0.65785E+06
         0.26404E+06
         0.12386E+06
         0.11297E+06
        -0.43193E+05
        -0.36834E+06
        -0.62901E+06
        -0.70487E+06
        -0.50003E+06
         0.13825E+06
         0.32081E+06
         0.33867E+06
         0.53415E+06
         0.68007E+06
         0.42732E+06
         0.40852E+06
        -0.29624E+06
         0.87685E+05
        -0.16119E+06
        -0.19009E+06
         0.48495E+06
         0.33958E+06
         0.22888E+06
        -0.34952E+06
        -0.22449E+06
        -0.34681E+06
         0.81728E+05
        -0.16946E+06
        -0.52633E+06
         0.18738E+06
         0.38476E+06
        -0.36178E+06
         0.16499E+06
         0.92453E+05
         0.18357E+06
         0.90959E+05
         0.28181E+06
         0.20972E+06
        -0.12632E+06
         0.18359E+06
         0.23310E+06
        -0.79142E+05
         0.49874E+05
        -0.23711E+05
        -0.10293E+06
        -0.34101E+06
        -0.37914E+06
        -0.13217E+06
         0.27768E+06
         0.24768E+06
         0.70934E+05
        -0.32155E+06
        -0.45954E+06
         0.47630E+06
         0.12148E+06
         0.32920E+06
         0.47081E+06
        -0.13372E+06
        -0.28383E+06
        -0.40350E+06
        -0.48117E+06
        -0.33199E+06
         0.43184E+06
         0.43820E+06
        -0.88984E+05
         0.10541E+06
         0.50612E+06
         0.52152E+05
        -0.24199E+06
         0.33768E+06
        -0.65015E+06
        -0.70133E+06
        -0.60076E+06
        -0.29235E+06
         0.77969E+05
         0.27066E+06
         0.35212E+06
         0.56807E+06
         0.65783E+06
         0.26421E+06
         0.12388E+06
         0.11319E+06
        -0.42794E+05
        -0.36847E+06
        -0.62916E+06
        -0.70491E+06
        -0.49993E+06
         0.13830E+06
         0.32059E+06
         0.33856E+06
         0.53396E+06
         0.67997E+06
         0.42707E+06
         0.40819E+06
        -0.29655E+06
         0.88110E+05
        -0.16132E+06
        -0.19125E+06
         0.48490E+06
         0.33983E+06
         0.22982E+06
        -0.34863E+06
        -0.22452E+06
        -0.34612E+06
         0.79579E+05
        -0.16985E+06
        -0.52641E+06
         0.18775E+06
         0.38431E+06
        -0.36175E+06
         0.16633E+06
         0.92033E+05
         0.18348E+06
         0.90171E+05
         0.28243E+06
         0.20986E+06
        -0.12649E+06
         0.18337E+06
         0.23335E+06
        -0.79005E+05
         0.50651E+05
        -0.23407E+05
        -0.10223E+06
        -0.34112E+06
        -0.37918E+06
        -0.13143E+06
         0.27755E+06
         0.24796E+06
         0.70124E+05
        -0.32177E+06
        -0.45956E+06
         0.47644E+06
         0.12232E+06
         0.32980E+06
         0.47099E+06
        -0.13297E+06
        -0.28391E+06
        -0.40388E+06
        -0.48128E+06
        -0.33185E+06
         0.43175E+06
         0.43821E+06
        -0.88187E+05
         0.10525E+06
         0.50608E+06
         0.51231E+05
        -0.24183E+06
         0.33775E+06
        -0.65021E+06
        -0.70133E+06
        -0.60068E+06
        -0.29234E+06
         0.78079E+05
         0.27087E+06
         0.35190E+06
         0.56800E+06
         0.65781E+06
         0.26438E+06
         0.12390E+06
         0.11342E+06
        -0.42397E+05
        -0.36860E+06
        -0.62931E+06
        -0.70495E+06
        -0.49983E+06
         0.13835E+06
         0.32037E+06
         0.33846E+06
         0.53377E+06
         0.67988E+06
         0.42683E+06
         0.40785E+06
        -0.29686E+06
         0.88534E+05
        -0.16145E+06
        -0.19241E+06
         0.48485E+06
         0.34007E+06
         0.23075E+06
        -0.34772E+06
        -0.22454E+06
        -0.34544E+06
         0.77428E+05
        -0.17025E+06
        -0.52649E+06
         0.18809E+06
         0.38386E+06
        -0.36172E+06
         0.16767E+06
         0.91615E+05
         0.18337E+06
         0.89375E+05
         0.28305E+06
         0.21000E+06
        -0.12666E+06
         0.18316E+06
         0.23360E+06
        -0.78868E+05
         0.51442E+05
        -0.23089E+05
        -0.10153E+06
        -0.34123E+06
        -0.37922E+06
        -0.13068E+06
         0.27740E+06
         0.24825E+06
         0.69317E+05
        -0.32200E+06
        -0.45958E+06
         0.47657E+06
         0.12315E+06
         0.33039E+06
         0.47117E+06
        -0.13222E+06
        -0.28399E+06
        -0.40427E+06
        -0.48139E+06
        -0.33171E+06
         0.43166E+06
         0.43822E+06
        -0.87375E+05
         0.10510E+06
         0.50603E+06
         0.50302E+05
        -0.24167E+06
         0.33783E+06
        -0.65028E+06
        -0.70133E+06
        -0.60060E+06
        -0.29233E+06
         0.78188E+05
         0.27107E+06
         0.35169E+06
         0.56793E+06
         0.65779E+06
         0.26455E+06
         0.12393E+06
         0.11364E+06
        -0.42000E+05
        -0.36873E+06
        -0.62946E+06
        -0.70498E+06
        -0.49973E+06
         0.13839E+06
         0.32016E+06
         0.33835E+06
         0.53359E+06
         0.67978E+06
         0.42659E+06
         0.40752E+06
        -0.29716E+06
         0.88968E+05
        -0.16158E+06
        -0.19356E+06
         0.48480E+06
         0.34031E+06
         0.23167E+06
        -0.34682E+06
        -0.22457E+06
        -0.34475E+06
         0.75274E+05
        -0.17065E+06
        -0.52658E+06
         0.18846E+06
         0.38340E+06
        -0.36170E+06
         0.16902E+06
         0.91198E+05
         0.18326E+06
         0.88588E+05
         0.28367E+06
         0.21014E+06
        -0.12683E+06
         0.18295E+06
         0.23384E+06
        -0.78730E+05
         0.52211E+05
        -0.22759E+05
        -0.10080E+06
        -0.34134E+06
        -0.37926E+06
        -0.12993E+06
         0.27725E+06
         0.24854E+06
         0.68502E+05
        -0.32223E+06
        -0.45961E+06
         0.47671E+06
         0.12398E+06
         0.33098E+06
         0.47136E+06
        -0.13147E+06
        -0.28406E+06
        -0.40464E+06
        -0.48149E+06
        -0.33155E+06
         0.43157E+06
         0.43822E+06
        -0.86571E+05
         0.10494E+06
         0.50597E+06
         0.49370E+05
        -0.24152E+06
         0.33790E+06
        -0.65034E+06
        -0.70133E+06
        -0.60052E+06
        -0.29232E+06
         0.78296E+05
         0.27128E+06
         0.35148E+06
         0.56786E+06
         0.65777E+06
         0.26472E+06
         0.12395E+06
         0.11386E+06
        -0.41602E+05
        -0.36886E+06
        -0.62961E+06
        -0.70502E+06
        -0.49963E+06
         0.13844E+06
         0.31994E+06
         0.33824E+06
         0.53340E+06
         0.67968E+06
         0.42635E+06
         0.40718E+06
        -0.29747E+06
         0.89396E+05
        -0.16171E+06
        -0.19471E+06
         0.48475E+06
         0.34055E+06
         0.23259E+06
        -0.34591E+06
        -0.22459E+06
        -0.34405E+06
         0.73119E+05
        -0.17104E+06
        -0.52666E+06
         0.18880E+06
         0.38295E+06
        -0.36167E+06
         0.17037E+06
         0.90779E+05
         0.18316E+06
         0.87806E+05
         0.28429E+06
         0.21027E+06
        -0.12700E+06
         0.18274E+06
         0.23407E+06
        -0.78587E+05
         0.53001E+05
        -0.22411E+05
        -0.10006E+06
        -0.34144E+06
        -0.37930E+06
        -0.12918E+06
         0.27708E+06
         0.24883E+06
         0.67687E+05
        -0.32246E+06
        -0.45963E+06
         0.47684E+06
         0.12482E+06
         0.33158E+06
         0.47154E+06
        -0.13072E+06
        -0.28415E+06
        -0.40503E+06
        -0.48160E+06
        -0.33141E+06
         0.43148E+06
         0.43823E+06
        -0.85769E+05
         0.10478E+06
         0.50592E+06
         0.48444E+05
        -0.24136E+06
         0.33797E+06
        -0.65040E+06
        -0.70133E+06
        -0.60044E+06
        -0.29231E+06
         0.78402E+05
         0.27149E+06
         0.35127E+06
         0.56779E+06
         0.65775E+06
         0.26489E+06
         0.12396E+06
         0.11408E+06
        -0.41206E+05
        -0.36898E+06
        -0.62976E+06
        -0.70506E+06
        -0.49953E+06
         0.13849E+06
         0.31972E+06
         0.33813E+06
         0.53321E+06
         0.67959E+06
         0.42611E+06
         0.40684E+06
        -0.29778E+06
         0.89822E+05
        -0.16184E+06
        -0.19586E+06
         0.48469E+06
         0.34079E+06
         0.23349E+06
        -0.34500E+06
        -0.22459E+06
        -0.34332E+06
         0.70963E+05
        -0.17144E+06
        -0.52674E+06
         0.18916E+06
         0.38249E+06
        -0.36164E+06
         0.17173E+06
         0.90359E+05
         0.18308E+06
         0.87062E+05
         0.28490E+06
         0.21040E+06
        -0.12717E+06
         0.18252E+06
         0.23426E+06
        -0.78454E+05
         0.53786E+05
        -0.22038E+05
        -0.99302E+05
        -0.34157E+06
        -0.37933E+06
        -0.12842E+06
         0.27690E+06
         0.24911E+06
         0.66873E+05
        -0.32269E+06
        -0.45966E+06
         0.47695E+06
         0.12569E+06
         0.33218E+06
         0.47173E+06
        -0.12998E+06
        -0.28424E+06
        -0.40540E+06
        -0.48171E+06
        -0.33126E+06
         0.43139E+06
         0.43823E+06
        -0.84968E+05
         0.10462E+06
         0.50588E+06
         0.47516E+05
        -0.24120E+06
         0.33804E+06
        -0.65046E+06
        -0.70133E+06
        -0.60036E+06
        -0.29231E+06
         0.78510E+05
         0.27170E+06
         0.35106E+06
         0.56772E+06
         0.65774E+06
         0.26506E+06
         0.12397E+06
         0.11430E+06
        -0.40811E+05
        -0.36911E+06
        -0.62991E+06
        -0.70510E+06
        -0.49943E+06
         0.13853E+06
         0.31951E+06
         0.33802E+06
         0.53302E+06
         0.67949E+06
         0.42587E+06
         0.40651E+06
        -0.29809E+06
         0.90246E+05
        -0.16197E+06
        -0.19700E+06
         0.48464E+06
         0.34103E+06
         0.23440E+06
        -0.34409E+06
        -0.22458E+06
        -0.34256E+06
         0.68812E+05
        -0.17183E+06
        -0.52682E+06
         0.18952E+06
         0.38202E+06
        -0.36161E+06
         0.17311E+06
         0.89939E+05
         0.18298E+06
         0.86341E+05
         0.28552E+06
         0.21052E+06
        -0.12734E+06
         0.18231E+06
         0.23442E+06
        -0.78308E+05
         0.54606E+05
        -0.21636E+05
        -0.98533E+05
        -0.34168E+06
        -0.37937E+06
        -0.12767E+06
         0.27670E+06
         0.24940E+06
         0.66052E+05
        -0.32291E+06
        -0.45968E+06
         0.47706E+06
         0.12658E+06
         0.33278E+06
         0.47192E+06
        -0.12924E+06
        -0.28434E+06
        -0.40578E+06
        -0.48181E+06
        -0.33112E+06
         0.43130E+06
         0.43824E+06
        -0.84156E+05
         0.10446E+06
         0.50582E+06
         0.46579E+05
        -0.24104E+06
         0.33811E+06
        -0.65053E+06
        -0.70133E+06
        -0.60028E+06
        -0.29230E+06
         0.78616E+05
         0.27190E+06
         0.35086E+06
         0.56765E+06
         0.65773E+06
         0.26522E+06
         0.12396E+06
         0.11452E+06
        -0.40413E+05
        -0.36924E+06
        -0.63006E+06
        -0.70513E+06
        -0.49933E+06
         0.13858E+06
         0.31929E+06
         0.33791E+06
         0.53284E+06
         0.67939E+06
         0.42563E+06
         0.40617E+06
        -0.29839E+06
         0.90672E+05
        -0.16210E+06
        -0.19814E+06
         0.48459E+06
         0.34127E+06
         0.23529E+06
        -0.34319E+06
        -0.22455E+06
        -0.34179E+06
         0.66674E+05
        -0.17222E+06
        -0.52690E+06
         0.18986E+06
         0.38156E+06
        -0.36159E+06
         0.17449E+06
         0.89524E+05
         0.18287E+06
         0.85642E+05
         0.28614E+06
         0.21065E+06
        -0.12750E+06
         0.18211E+06
         0.23456E+06
        -0.78172E+05
         0.55405E+05
        -0.21213E+05
        -0.97757E+05
        -0.34180E+06
        -0.37941E+06
        -0.12693E+06
         0.27650E+06
         0.24969E+06
         0.65239E+05
        -0.32313E+06
        -0.45970E+06
         0.47716E+06
         0.12748E+06
         0.33337E+06
         0.47211E+06
        -0.12852E+06
        -0.28445E+06
        -0.40615E+06
        -0.48191E+06
        -0.33097E+06
         0.43121E+06
         0.43824E+06
        -0.83352E+05
         0.10429E+06
         0.50578E+06
         0.45646E+05
        -0.24088E+06
         0.33818E+06
        -0.65059E+06
        -0.70133E+06
        -0.60020E+06
        -0.29228E+06
         0.78722E+05
         0.27210E+06
         0.35066E+06
         0.56758E+06
         0.65772E+06
         0.26538E+06
         0.12395E+06
         0.11474E+06
        -0.40016E+05
        -0.36936E+06
        -0.63021E+06
        -0.70517E+06
        -0.49923E+06
         0.13863E+06
         0.31908E+06
         0.33780E+06
         0.53265E+06
         0.67930E+06
         0.42539E+06
         0.40583E+06
        -0.27962E+06
         0.77372E+05
        -0.13662E+06
        -0.15783E+06
         0.44250E+06
         0.29529E+06
         0.16214E+06
        -0.31401E+06
        -0.19630E+06
        -0.31164E+06
         0.46906E+05
        -0.16554E+06
        -0.49863E+06
         0.15747E+06
         0.36687E+06
        -0.32669E+06
         0.13296E+06
         0.83816E+05
         0.14609E+06
         0.65435E+05
         0.27432E+06
         0.20028E+06
        -0.12157E+06
         0.13515E+06
         0.19721E+06
        -0.74122E+05
         0.46605E+05
        -0.18078E+05
        -0.66671E+05
        -0.28656E+06
        -0.33264E+06
        -0.91230E+05
         0.21670E+06
         0.18688E+06
         0.60238E+05
        -0.28231E+06
        -0.42048E+06
         0.45407E+06
         0.11925E+06
         0.30723E+06
         0.45024E+06
        -0.12153E+06
        -0.27170E+06
        -0.38270E+06
        -0.44483E+06
        -0.31148E+06
         0.38860E+06
         0.38921E+06
        -0.70518E+05
         0.91116E+05
         0.47187E+06
         0.39908E+05
        -0.23776E+06
         0.33456E+06
        -0.64394E+06
        -0.69448E+06
        -0.59466E+06
        -0.28970E+06
         0.78088E+05
         0.26897E+06
         0.34592E+06
         0.56077E+06
         0.65012E+06
         0.26271E+06
         0.12237E+06
         0.11353E+06
        -0.39233E+05
        -0.36605E+06
        -0.62484E+06
        -0.69913E+06
        -0.49368E+06
         0.13727E+06
         0.31543E+06
         0.33386E+06
         0.52677E+06
         0.67159E+06
         0.42077E+06
         0.40123E+06
        -0.74495E+05
         0.10655E+05
        -0.18020E+05
        -0.17062E+05
         0.93380E+05
         0.43928E+05
         0.12328E+05
        -0.68357E+05
        -0.31203E+05
        -0.65738E+05
         0.38127E+04
        -0.60246E+05
        -0.15009E+06
         0.18962E+05
         0.14003E+06
        -0.63424E+05
         0.12553E+05
         0.67065E+04
         0.15811E+05
         0.42791E+04
         0.95313E+05
         0.63543E+05
        -0.39754E+05
         0.12056E+05
         0.25533E+05
        -0.50548E+04
         0.57188E+04
        -0.87576E+03
        -0.41052E+04
        -0.36676E+05
        -0.53305E+05
        -0.76510E+04
         0.22539E+05
         0.17205E+05
         0.15380E+05
        -0.44004E+05
        -0.89744E+05
         0.14688E+06
         0.29764E+05
         0.69689E+05
         0.15015E+06
        -0.38350E+05
        -0.91870E+05
        -0.10775E+06
        -0.10212E+06
        -0.87909E+05
         0.73854E+05
         0.67054E+05
        -0.97244E+04
         0.14392E+05
         0.12129E+06
         0.70057E+04
        -0.15252E+06
         0.22272E+06
        -0.43749E+06
        -0.48056E+06
        -0.42005E+06
        -0.20760E+06
         0.54510E+05
         0.17460E+06
         0.21858E+06
         0.36471E+06
         0.42676E+06
         0.17839E+06
         0.78688E+05
         0.73535E+05
        -0.26677E+05
        -0.25814E+06
        -0.44744E+06
        -0.50107E+06
        -0.32848E+06
         0.92994E+05
         0.21076E+06
         0.22062E+06
         0.35379E+06
         0.44545E+06
         0.28648E+06
         0.27128E+06
  
SCALARS                      strain_xx  double 1
LOOKUP_TABLE default
         0.29809E-05
         0.14076E-03
         0.15856E-02
         0.79310E-05
        -0.36725E-19
        -0.46172E-20
        -0.51624E-19
        -0.20591E-20
         0.12120E-01
         0.55075E-02
        -0.46186E-18
        -0.37472E-18
         0.20438E-04
         0.33931E-03
        -0.70255E-20
        -0.15417E-18
         0.16812E-04
         0.31381E-03
        -0.80442E-19
        -0.17843E-18
         0.63406E-03
         0.17148E-02
         0.16605E-02
        -0.79560E-19
        -0.16917E-19
        -0.51636E-19
         0.19170E-02
         0.11753E-02
        -0.27877E-18
        -0.17542E-18
         0.91785E-04
         0.42320E-03
         0.44221E-05
        -0.28897E-20
        -0.43154E-19
        -0.16379E-19
         0.77699E-03
         0.16527E-03
        -0.95123E-19
        -0.10784E-18
         0.29819E-02
         0.55884E-02
        -0.48400E-18
        -0.26322E-18
         0.36125E-02
         0.10503E-02
        -0.58370E-18
        -0.13523E-18
         0.24812E-03
        -0.53281E-19
         0.17223E-02
        -0.41285E-20
         0.24789E-03
        -0.20343E-18
         0.13522E-03
        -0.14235E-19
         0.25892E-02
         0.21111E-03
        -0.10446E-19
        -0.61033E-19
         0.10451E-05
         0.77499E-03
        -0.41789E-19
        -0.19651E-19
         0.54514E-04
        -0.42281E-21
         0.59245E-03
        -0.18292E-19
         0.23606E-01
         0.10995E-01
        -0.71462E-18
        -0.37590E-18
         0.44626E-02
        -0.19929E-18
         0.19561E-03
        -0.95367E-19
         0.18905E-02
        -0.36735E-20
         0.85521E-02
        -0.88419E-20
         0.15517E-01
         0.81182E-02
        -0.11875E-18
        -0.15533E-18
         0.68096E-02
        -0.17965E-18
         0.53052E-02
        -0.37239E-18
         0.19944E-02
        -0.15149E-18
         0.48153E-02
         0.25687E-02
        -0.27595E-19
        -0.51896E-19
         0.13663E-03
        -0.71402E-19
         0.10423E-02
        -0.12588E-19
         0.59417E-02
        -0.76765E-19
         0.12929E-01
         0.61602E-02
        -0.40812E-18
        -0.44440E-18
         0.72723E-01
         0.91890E-01
        -0.13934E-17
        -0.13532E-17
         0.70896E-01
        -0.10170E-17
         0.60975E-01
        -0.56794E-18
         0.30319E-01
        -0.17152E-18
         0.14794E-01
        -0.19613E-20
         0.18820E-02
        -0.24880E-19
         0.29764E-02
        -0.15926E-19
         0.16866E-01
        -0.15385E-19
         0.37294E-01
        -0.78238E-19
         0.71126E-01
        -0.28319E-18
         0.11548E+00
        -0.40326E-18
         0.14424E+00
        -0.35900E-18
         0.13855E+00
        -0.42451E-18
         0.12297E+00
        -0.71505E-18
         0.10308E+00
        -0.99430E-18
         0.80065E-01
        -0.85923E-18
         0.46415E-01
        -0.56751E-18
         0.15011E-01
        -0.12648E-18
         0.10785E-03
        -0.46118E-20
         0.47481E-02
        -0.27184E-19
         0.11841E-01
        -0.72688E-19
         0.26013E-01
        -0.27840E-18
         0.45259E-01
        -0.74963E-18
         0.79931E-01
        -0.10821E-17
         0.10855E+00
        -0.11320E-17
        -0.23054E-05
        -0.61612E-06
        -0.84968E-06
        -0.35059E-05
        -0.50743E-04
        -0.30948E-04
        -0.68846E-06
        -0.15054E-05
        -0.41052E-06
        -0.12812E-05
        -0.37134E-06
        -0.69309E-05
        -0.30632E-04
        -0.31360E-05
        -0.45037E-05
        -0.62048E-05
        -0.43559E-05
        -0.94427E-06
        -0.22275E-05
        -0.25911E-05
        -0.76875E-04
        -0.87593E-04
        -0.70775E-04
        -0.68511E-05
        -0.11114E-05
        -0.61674E-06
        -0.62650E-05
        -0.78892E-07
        -0.81536E-05
        -0.39295E-05
        -0.49382E-05
        -0.18688E-06
        -0.10964E-05
        -0.11336E-06
        -0.10784E-03
        -0.44565E-04
        -0.36793E-04
        -0.17864E-04
        -0.57883E-05
        -0.26047E-04
        -0.10889E-03
        -0.97508E-04
        -0.97456E-04
        -0.52488E-04
        -0.26671E-04
        -0.15930E-04
        -0.57376E-06
        -0.10212E-04
        -0.85289E-06
        -0.84399E-05
        -0.59195E-04
        -0.42975E-04
        -0.87886E-03
        -0.99547E-03
        -0.79218E-03
        -0.57703E-03
        -0.31963E-03
        -0.81830E-04
        -0.28359E-06
        -0.40623E-04
        -0.94493E-04
        -0.27818E-03
        -0.73381E-03
        -0.11308E-02
        -0.96070E-03
        -0.88769E-03
        -0.99930E-03
        -0.10054E-02
        -0.82977E-03
        -0.62976E-03
        -0.15535E-03
        -0.39222E-05
        -0.58704E-04
        -0.72905E-04
        -0.20858E-03
        -0.52483E-03
        -0.90059E-03
        -0.10018E-02
        -0.15318E-04
        -0.64547E-06
        -0.23394E-05
        -0.19834E-04
        -0.83453E-04
        -0.60945E-04
        -0.51732E-05
        -0.24653E-04
        -0.52049E-05
        -0.22282E-04
        -0.90934E-06
        -0.12105E-04
        -0.13100E-03
        -0.77040E-04
        -0.82656E-04
        -0.59122E-04
        -0.18323E-04
        -0.65732E-05
        -0.29770E-05
        -0.91812E-05
        -0.32324E-03
        -0.29359E-03
        -0.28588E-03
        -0.16725E-04
        -0.53954E-05
        -0.24461E-05
        -0.71938E-04
        -0.12683E-05
        -0.80574E-05
        -0.14984E-04
        -0.34898E-04
        -0.14612E-04
        -0.14680E-04
        -0.10935E-04
        -0.26542E-03
        -0.80852E-04
        -0.10638E-03
        -0.10165E-03
        -0.28494E-05
        -0.23952E-04
        -0.32328E-03
        -0.34207E-03
        -0.32683E-03
        -0.17087E-03
        -0.10133E-03
        -0.34691E-04
        -0.40520E-04
        -0.56474E-04
        -0.98681E-06
        -0.14306E-05
        -0.15031E-03
        -0.11663E-03
        -0.46384E-02
        -0.47105E-02
        -0.37957E-02
        -0.25822E-02
        -0.14376E-02
        -0.30495E-03
        -0.18798E-04
        -0.19736E-03
        -0.34250E-03
        -0.11508E-02
        -0.36308E-02
        -0.50530E-02
        -0.35535E-02
        -0.32164E-02
        -0.39037E-02
        -0.41403E-02
        -0.34491E-02
        -0.30859E-02
        -0.80112E-03
        -0.54119E-04
        -0.26474E-03
        -0.27174E-03
        -0.85894E-03
        -0.25750E-02
        -0.42187E-02
        -0.41922E-02
        -0.15376E-04
        -0.65027E-06
        -0.23483E-05
        -0.19860E-04
        -0.83292E-04
        -0.60832E-04
        -0.52392E-05
        -0.24528E-04
        -0.52163E-05
        -0.22247E-04
        -0.87290E-06
        -0.12164E-04
        -0.13116E-03
        -0.76660E-04
        -0.82568E-04
        -0.59244E-04
        -0.18404E-04
        -0.65369E-05
        -0.29740E-05
        -0.91489E-05
        -0.32318E-03
        -0.29352E-03
        -0.28585E-03
        -0.16726E-04
        -0.54198E-05
        -0.24543E-05
        -0.71981E-04
        -0.12210E-05
        -0.81711E-05
        -0.15003E-04
        -0.34999E-04
        -0.14608E-04
        -0.14558E-04
        -0.10945E-04
        -0.26569E-03
        -0.80778E-04
        -0.10632E-03
        -0.10198E-03
        -0.29042E-05
        -0.24103E-04
        -0.32369E-03
        -0.34247E-03
        -0.32687E-03
        -0.17082E-03
        -0.10126E-03
        -0.34655E-04
        -0.40504E-04
        -0.56512E-04
        -0.97245E-06
        -0.14208E-05
        -0.15011E-03
        -0.11629E-03
        -0.46352E-02
        -0.47081E-02
        -0.37951E-02
        -0.25822E-02
        -0.14367E-02
        -0.30476E-03
        -0.18841E-04
        -0.19761E-03
        -0.34192E-03
        -0.11499E-02
        -0.36297E-02
        -0.50532E-02
        -0.35528E-02
        -0.32160E-02
        -0.39047E-02
        -0.41421E-02
        -0.34503E-02
        -0.30871E-02
        -0.80068E-03
        -0.54169E-04
        -0.26435E-03
        -0.27152E-03
        -0.85767E-03
        -0.25718E-02
        -0.42145E-02
        -0.41884E-02
        -0.15434E-04
        -0.65501E-06
        -0.23571E-05
        -0.19887E-04
        -0.83127E-04
        -0.60723E-04
        -0.53060E-05
        -0.24404E-04
        -0.52270E-05
        -0.22209E-04
        -0.83728E-06
        -0.12223E-04
        -0.13132E-03
        -0.76283E-04
        -0.82480E-04
        -0.59371E-04
        -0.18486E-04
        -0.65003E-05
        -0.29711E-05
        -0.91178E-05
        -0.32312E-03
        -0.29346E-03
        -0.28581E-03
        -0.16728E-04
        -0.54458E-05
        -0.24631E-05
        -0.72023E-04
        -0.11753E-05
        -0.82863E-05
        -0.15022E-04
        -0.35104E-04
        -0.14606E-04
        -0.14436E-04
        -0.10954E-04
        -0.26596E-03
        -0.80709E-04
        -0.10625E-03
        -0.10230E-03
        -0.29596E-05
        -0.24256E-04
        -0.32410E-03
        -0.34287E-03
        -0.32691E-03
        -0.17078E-03
        -0.10119E-03
        -0.34621E-04
        -0.40490E-04
        -0.56549E-04
        -0.95785E-06
        -0.14108E-05
        -0.14992E-03
        -0.11595E-03
        -0.46320E-02
        -0.47057E-02
        -0.37944E-02
        -0.25823E-02
        -0.14359E-02
        -0.30458E-03
        -0.18884E-04
        -0.19785E-03
        -0.34135E-03
        -0.11490E-02
        -0.36286E-02
        -0.50534E-02
        -0.35522E-02
        -0.32157E-02
        -0.39058E-02
        -0.41439E-02
        -0.34515E-02
        -0.30883E-02
        -0.80023E-03
        -0.54218E-04
        -0.26397E-03
        -0.27131E-03
        -0.85641E-03
        -0.25687E-02
        -0.42103E-02
        -0.41847E-02
        -0.15492E-04
        -0.65994E-06
        -0.23657E-05
        -0.19913E-04
        -0.82963E-04
        -0.60610E-04
        -0.53723E-05
        -0.24279E-04
        -0.52365E-05
        -0.22165E-04
        -0.80249E-06
        -0.12283E-04
        -0.13148E-03
        -0.75906E-04
        -0.82392E-04
        -0.59508E-04
        -0.18572E-04
        -0.64637E-05
        -0.29685E-05
        -0.90854E-05
        -0.32308E-03
        -0.29341E-03
        -0.28581E-03
        -0.16730E-04
        -0.54769E-05
        -0.24740E-05
        -0.72058E-04
        -0.11317E-05
        -0.84018E-05
        -0.15039E-04
        -0.35217E-04
        -0.14609E-04
        -0.14313E-04
        -0.10964E-04
        -0.26622E-03
        -0.80636E-04
        -0.10618E-03
        -0.10263E-03
        -0.30153E-05
        -0.24408E-04
        -0.32452E-03
        -0.34330E-03
        -0.32700E-03
        -0.17074E-03
        -0.10111E-03
        -0.34584E-04
        -0.40478E-04
        -0.56588E-04
        -0.94332E-06
        -0.14008E-05
        -0.14973E-03
        -0.11560E-03
        -0.46289E-02
        -0.47032E-02
        -0.37937E-02
        -0.25823E-02
        -0.14350E-02
        -0.30439E-03
        -0.18928E-04
        -0.19810E-03
        -0.34077E-03
        -0.11481E-02
        -0.36275E-02
        -0.50537E-02
        -0.35517E-02
        -0.32154E-02
        -0.39069E-02
        -0.41461E-02
        -0.34529E-02
        -0.30895E-02
        -0.79978E-03
        -0.54268E-04
        -0.26358E-03
        -0.27110E-03
        -0.85515E-03
        -0.25655E-02
        -0.42061E-02
        -0.41810E-02
        -0.15550E-04
        -0.66488E-06
        -0.23745E-05
        -0.19939E-04
        -0.82803E-04
        -0.60498E-04
        -0.54399E-05
        -0.24154E-04
        -0.52446E-05
        -0.22115E-04
        -0.76837E-06
        -0.12343E-04
        -0.13164E-03
        -0.75530E-04
        -0.82303E-04
        -0.59656E-04
        -0.18662E-04
        -0.64270E-05
        -0.29653E-05
        -0.90526E-05
        -0.32307E-03
        -0.29338E-03
        -0.28584E-03
        -0.16732E-04
        -0.55130E-05
        -0.24866E-05
        -0.72087E-04
        -0.10904E-05
        -0.85178E-05
        -0.15056E-04
        -0.35338E-04
        -0.14616E-04
        -0.14191E-04
        -0.10974E-04
        -0.26649E-03
        -0.80563E-04
        -0.10611E-03
        -0.10295E-03
        -0.30713E-05
        -0.24563E-04
        -0.32496E-03
        -0.34376E-03
        -0.32713E-03
        -0.17072E-03
        -0.10103E-03
        -0.34544E-04
        -0.40469E-04
        -0.56631E-04
        -0.92901E-06
        -0.13909E-05
        -0.14954E-03
        -0.11526E-03
        -0.46257E-02
        -0.47008E-02
        -0.37930E-02
        -0.25823E-02
        -0.14341E-02
        -0.30421E-03
        -0.18970E-04
        -0.19834E-03
        -0.34020E-03
        -0.11472E-02
        -0.36264E-02
        -0.50541E-02
        -0.35514E-02
        -0.32151E-02
        -0.39081E-02
        -0.41485E-02
        -0.34544E-02
        -0.30907E-02
        -0.79934E-03
        -0.54317E-04
        -0.26319E-03
        -0.27088E-03
        -0.85389E-03
        -0.25624E-02
        -0.42019E-02
        -0.41772E-02
        -0.15606E-04
        -0.67025E-06
        -0.23823E-05
        -0.19964E-04
        -0.82641E-04
        -0.60387E-04
        -0.55079E-05
        -0.24027E-04
        -0.52524E-05
        -0.22063E-04
        -0.73496E-06
        -0.12402E-04
        -0.13180E-03
        -0.75154E-04
        -0.82213E-04
        -0.59806E-04
        -0.18752E-04
        -0.63904E-05
        -0.29619E-05
        -0.90215E-05
        -0.32306E-03
        -0.29336E-03
        -0.28588E-03
        -0.16735E-04
        -0.55490E-05
        -0.24995E-05
        -0.72114E-04
        -0.10501E-05
        -0.86354E-05
        -0.15075E-04
        -0.35459E-04
        -0.14623E-04
        -0.14068E-04
        -0.10983E-04
        -0.26677E-03
        -0.80499E-04
        -0.10605E-03
        -0.10328E-03
        -0.31279E-05
        -0.24718E-04
        -0.32540E-03
        -0.34424E-03
        -0.32728E-03
        -0.17071E-03
        -0.10095E-03
        -0.34509E-04
        -0.40457E-04
        -0.56671E-04
        -0.91438E-06
        -0.13819E-05
        -0.14936E-03
        -0.11493E-03
        -0.46225E-02
        -0.46984E-02
        -0.37923E-02
        -0.25823E-02
        -0.14332E-02
        -0.30403E-03
        -0.19012E-04
        -0.19858E-03
        -0.33962E-03
        -0.11463E-02
        -0.36252E-02
        -0.50545E-02
        -0.35511E-02
        -0.32149E-02
        -0.39094E-02
        -0.41511E-02
        -0.34560E-02
        -0.30919E-02
        -0.79889E-03
        -0.54361E-04
        -0.26280E-03
        -0.27067E-03
        -0.85264E-03
        -0.25592E-02
        -0.41978E-02
        -0.41735E-02
        -0.15657E-04
        -0.67674E-06
        -0.23884E-05
        -0.19989E-04
        -0.82484E-04
        -0.60278E-04
        -0.55776E-05
        -0.23897E-04
        -0.52606E-05
        -0.22014E-04
        -0.70214E-06
        -0.12463E-04
        -0.13196E-03
        -0.74778E-04
        -0.82122E-04
        -0.59957E-04
        -0.18839E-04
        -0.63536E-05
        -0.29592E-05
        -0.89910E-05
        -0.32305E-03
        -0.29334E-03
        -0.28594E-03
        -0.16739E-04
        -0.55810E-05
        -0.25110E-05
        -0.72145E-04
        -0.10096E-05
        -0.87548E-05
        -0.15098E-04
        -0.35572E-04
        -0.14624E-04
        -0.13943E-04
        -0.10989E-04
        -0.26704E-03
        -0.80439E-04
        -0.10599E-03
        -0.10360E-03
        -0.31854E-05
        -0.24876E-04
        -0.32585E-03
        -0.34472E-03
        -0.32743E-03
        -0.17070E-03
        -0.10089E-03
        -0.34478E-04
        -0.40439E-04
        -0.56709E-04
        -0.89865E-06
        -0.13750E-05
        -0.14920E-03
        -0.11459E-03
        -0.46193E-02
        -0.46960E-02
        -0.37916E-02
        -0.25824E-02
        -0.14323E-02
        -0.30384E-03
        -0.19054E-04
        -0.19883E-03
        -0.33905E-03
        -0.11454E-02
        -0.36240E-02
        -0.50549E-02
        -0.35508E-02
        -0.32147E-02
        -0.39106E-02
        -0.41536E-02
        -0.34575E-02
        -0.30930E-02
        -0.79843E-03
        -0.54398E-04
        -0.26240E-03
        -0.27046E-03
        -0.85142E-03
        -0.25561E-02
        -0.41936E-02
        -0.41698E-02
        -0.15706E-04
        -0.68360E-06
        -0.23936E-05
        -0.20013E-04
        -0.82332E-04
        -0.60166E-04
        -0.56486E-05
        -0.23767E-04
        -0.52692E-05
        -0.21967E-04
        -0.66999E-06
        -0.12523E-04
        -0.13213E-03
        -0.74403E-04
        -0.82030E-04
        -0.60107E-04
        -0.18924E-04
        -0.63167E-05
        -0.29561E-05
        -0.89624E-05
        -0.32304E-03
        -0.29333E-03
        -0.28598E-03
        -0.16742E-04
        -0.56109E-05
        -0.25217E-05
        -0.72177E-04
        -0.96965E-06
        -0.88768E-05
        -0.15122E-04
        -0.35683E-04
        -0.14622E-04
        -0.13817E-04
        -0.10994E-04
        -0.26734E-03
        -0.80387E-04
        -0.10594E-03
        -0.10393E-03
        -0.32435E-05
        -0.25035E-04
        -0.32630E-03
        -0.34521E-03
        -0.32759E-03
        -0.17070E-03
        -0.10083E-03
        -0.34453E-04
        -0.40418E-04
        -0.56745E-04
        -0.88255E-06
        -0.13690E-05
        -0.14904E-03
        -0.11427E-03
        -0.46161E-02
        -0.46936E-02
        -0.37909E-02
        -0.25824E-02
        -0.14314E-02
        -0.30366E-03
        -0.19096E-04
        -0.19907E-03
        -0.33848E-03
        -0.11445E-02
        -0.36228E-02
        -0.50553E-02
        -0.35506E-02
        -0.32145E-02
        -0.39119E-02
        -0.41561E-02
        -0.34591E-02
        -0.30940E-02
        -0.79796E-03
        -0.54433E-04
        -0.26199E-03
        -0.27025E-03
        -0.85021E-03
        -0.25530E-02
        -0.41895E-02
        -0.41660E-02
        -0.15756E-04
        -0.69057E-06
        -0.23986E-05
        -0.20037E-04
        -0.82176E-04
        -0.60054E-04
        -0.57195E-05
        -0.23637E-04
        -0.52779E-05
        -0.21920E-04
        -0.63871E-06
        -0.12583E-04
        -0.13229E-03
        -0.74031E-04
        -0.81939E-04
        -0.60257E-04
        -0.19010E-04
        -0.62801E-05
        -0.29529E-05
        -0.89328E-05
        -0.32303E-03
        -0.29331E-03
        -0.28604E-03
        -0.16747E-04
        -0.56408E-05
        -0.25324E-05
        -0.72210E-04
        -0.93059E-06
        -0.89994E-05
        -0.15146E-04
        -0.35795E-04
        -0.14620E-04
        -0.13692E-04
        -0.11000E-04
        -0.26763E-03
        -0.80330E-04
        -0.10589E-03
        -0.10425E-03
        -0.33023E-05
        -0.25193E-04
        -0.32675E-03
        -0.34569E-03
        -0.32775E-03
        -0.17070E-03
        -0.10077E-03
        -0.34427E-04
        -0.40397E-04
        -0.56780E-04
        -0.86659E-06
        -0.13633E-05
        -0.14889E-03
        -0.11394E-03
        -0.46130E-02
        -0.46912E-02
        -0.37902E-02
        -0.25824E-02
        -0.14305E-02
        -0.30347E-03
        -0.19138E-04
        -0.19931E-03
        -0.33791E-03
        -0.11435E-02
        -0.36216E-02
        -0.50557E-02
        -0.35503E-02
        -0.32143E-02
        -0.39131E-02
        -0.41587E-02
        -0.34607E-02
        -0.30951E-02
        -0.79749E-03
        -0.54468E-04
        -0.26157E-03
        -0.27004E-03
        -0.84900E-03
        -0.25500E-02
        -0.41853E-02
        -0.41623E-02
        -0.15805E-04
        -0.69765E-06
        -0.24037E-05
        -0.20062E-04
        -0.82022E-04
        -0.59943E-04
        -0.57914E-05
        -0.23507E-04
        -0.52866E-05
        -0.21874E-04
        -0.60816E-06
        -0.12643E-04
        -0.13246E-03
        -0.73661E-04
        -0.81848E-04
        -0.60407E-04
        -0.19096E-04
        -0.62440E-05
        -0.29497E-05
        -0.89041E-05
        -0.32303E-03
        -0.29329E-03
        -0.28608E-03
        -0.16751E-04
        -0.56709E-05
        -0.25431E-05
        -0.72243E-04
        -0.89256E-06
        -0.91224E-05
        -0.15170E-04
        -0.35906E-04
        -0.14618E-04
        -0.13568E-04
        -0.11005E-04
        -0.26791E-03
        -0.80279E-04
        -0.10584E-03
        -0.10457E-03
        -0.33617E-05
        -0.25354E-04
        -0.32721E-03
        -0.34618E-03
        -0.32791E-03
        -0.17070E-03
        -0.10071E-03
        -0.34399E-04
        -0.40376E-04
        -0.56817E-04
        -0.85090E-06
        -0.13571E-05
        -0.14873E-03
        -0.11361E-03
        -0.46098E-02
        -0.46888E-02
        -0.37895E-02
        -0.25824E-02
        -0.14297E-02
        -0.30328E-03
        -0.19180E-04
        -0.19955E-03
        -0.33734E-03
        -0.11426E-02
        -0.36205E-02
        -0.50561E-02
        -0.35500E-02
        -0.32141E-02
        -0.39144E-02
        -0.41612E-02
        -0.34623E-02
        -0.30962E-02
        -0.79703E-03
        -0.54501E-04
        -0.26116E-03
        -0.26983E-03
        -0.84779E-03
        -0.25469E-02
        -0.41812E-02
        -0.41586E-02
        -0.15854E-04
        -0.70470E-06
        -0.24091E-05
        -0.20086E-04
        -0.81871E-04
        -0.59834E-04
        -0.58630E-05
        -0.23378E-04
        -0.52953E-05
        -0.21828E-04
        -0.57832E-06
        -0.12705E-04
        -0.13263E-03
        -0.73292E-04
        -0.81755E-04
        -0.60556E-04
        -0.19181E-04
        -0.62080E-05
        -0.29471E-05
        -0.88742E-05
        -0.32301E-03
        -0.29327E-03
        -0.28613E-03
        -0.16756E-04
        -0.57007E-05
        -0.25537E-05
        -0.72279E-04
        -0.85529E-06
        -0.92461E-05
        -0.15193E-04
        -0.36016E-04
        -0.14616E-04
        -0.13444E-04
        -0.11010E-04
        -0.26821E-03
        -0.80223E-04
        -0.10579E-03
        -0.10490E-03
        -0.34217E-05
        -0.25513E-04
        -0.32766E-03
        -0.34666E-03
        -0.32807E-03
        -0.17069E-03
        -0.10065E-03
        -0.34374E-04
        -0.40355E-04
        -0.56853E-04
        -0.83520E-06
        -0.13511E-05
        -0.14858E-03
        -0.11328E-03
        -0.46066E-02
        -0.46864E-02
        -0.37887E-02
        -0.25824E-02
        -0.14288E-02
        -0.30310E-03
        -0.19221E-04
        -0.19979E-03
        -0.33677E-03
        -0.11417E-02
        -0.36193E-02
        -0.50565E-02
        -0.35497E-02
        -0.32138E-02
        -0.39157E-02
        -0.41638E-02
        -0.34638E-02
        -0.30972E-02
        -0.79656E-03
        -0.54534E-04
        -0.26075E-03
        -0.26962E-03
        -0.84658E-03
        -0.25438E-02
        -0.41771E-02
        -0.41549E-02
        -0.15903E-04
        -0.71177E-06
        -0.24140E-05
        -0.20110E-04
        -0.81716E-04
        -0.59723E-04
        -0.59355E-05
        -0.23249E-04
        -0.53039E-05
        -0.21782E-04
        -0.54930E-06
        -0.12766E-04
        -0.13279E-03
        -0.72925E-04
        -0.81663E-04
        -0.60706E-04
        -0.19267E-04
        -0.61718E-05
        -0.29441E-05
        -0.88456E-05
        -0.32300E-03
        -0.29325E-03
        -0.28619E-03
        -0.16761E-04
        -0.57304E-05
        -0.25647E-05
        -0.72312E-04
        -0.81898E-06
        -0.93695E-05
        -0.15218E-04
        -0.36128E-04
        -0.14614E-04
        -0.13320E-04
        -0.11016E-04
        -0.26851E-03
        -0.80169E-04
        -0.10574E-03
        -0.10522E-03
        -0.34824E-05
        -0.25676E-04
        -0.32811E-03
        -0.34714E-03
        -0.32822E-03
        -0.17069E-03
        -0.10059E-03
        -0.34349E-04
        -0.40334E-04
        -0.56890E-04
        -0.81963E-06
        -0.13454E-05
        -0.14843E-03
        -0.11296E-03
        -0.46034E-02
        -0.46840E-02
        -0.37880E-02
        -0.25824E-02
        -0.14279E-02
        -0.30292E-03
        -0.19262E-04
        -0.20003E-03
        -0.33620E-03
        -0.11408E-02
        -0.36181E-02
        -0.50569E-02
        -0.35494E-02
        -0.32136E-02
        -0.39169E-02
        -0.41663E-02
        -0.34654E-02
        -0.30983E-02
        -0.79610E-03
        -0.54568E-04
        -0.26034E-03
        -0.26942E-03
        -0.84537E-03
        -0.25407E-02
        -0.41729E-02
        -0.41512E-02
        -0.15953E-04
        -0.71895E-06
        -0.24190E-05
        -0.20133E-04
        -0.81563E-04
        -0.59612E-04
        -0.60082E-05
        -0.23120E-04
        -0.53122E-05
        -0.21735E-04
        -0.52111E-06
        -0.12827E-04
        -0.13296E-03
        -0.72558E-04
        -0.81570E-04
        -0.60856E-04
        -0.19353E-04
        -0.61356E-05
        -0.29412E-05
        -0.88163E-05
        -0.32299E-03
        -0.29324E-03
        -0.28623E-03
        -0.16766E-04
        -0.57598E-05
        -0.25753E-05
        -0.72345E-04
        -0.78338E-06
        -0.94947E-05
        -0.15241E-04
        -0.36240E-04
        -0.14611E-04
        -0.13197E-04
        -0.11021E-04
        -0.26879E-03
        -0.80119E-04
        -0.10569E-03
        -0.10554E-03
        -0.35438E-05
        -0.25837E-04
        -0.32857E-03
        -0.34762E-03
        -0.32838E-03
        -0.17070E-03
        -0.10054E-03
        -0.34320E-04
        -0.40313E-04
        -0.56926E-04
        -0.80413E-06
        -0.13394E-05
        -0.14827E-03
        -0.11263E-03
        -0.46002E-02
        -0.46817E-02
        -0.37873E-02
        -0.25824E-02
        -0.14270E-02
        -0.30273E-03
        -0.19304E-04
        -0.20027E-03
        -0.33563E-03
        -0.11399E-02
        -0.36169E-02
        -0.50573E-02
        -0.35491E-02
        -0.32134E-02
        -0.39182E-02
        -0.41689E-02
        -0.34670E-02
        -0.30994E-02
        -0.79563E-03
        -0.54601E-04
        -0.25993E-03
        -0.26921E-03
        -0.84416E-03
        -0.25376E-02
        -0.41688E-02
        -0.41475E-02
        -0.16003E-04
        -0.72605E-06
        -0.24240E-05
        -0.20157E-04
        -0.81413E-04
        -0.59501E-04
        -0.60806E-05
        -0.22992E-04
        -0.53207E-05
        -0.21688E-04
        -0.49371E-06
        -0.12888E-04
        -0.13313E-03
        -0.72193E-04
        -0.81477E-04
        -0.61006E-04
        -0.19439E-04
        -0.60998E-05
        -0.29388E-05
        -0.87878E-05
        -0.32298E-03
        -0.29322E-03
        -0.28628E-03
        -0.16771E-04
        -0.57892E-05
        -0.25860E-05
        -0.72376E-04
        -0.74879E-06
        -0.96206E-05
        -0.15265E-04
        -0.36351E-04
        -0.14609E-04
        -0.13074E-04
        -0.11026E-04
        -0.26909E-03
        -0.80065E-04
        -0.10564E-03
        -0.10586E-03
        -0.36057E-05
        -0.26001E-04
        -0.32902E-03
        -0.34811E-03
        -0.32854E-03
        -0.17070E-03
        -0.10048E-03
        -0.34295E-04
        -0.40291E-04
        -0.56962E-04
        -0.78883E-06
        -0.13334E-05
        -0.14812E-03
        -0.11230E-03
        -0.45970E-02
        -0.46793E-02
        -0.37865E-02
        -0.25824E-02
        -0.14261E-02
        -0.30254E-03
        -0.19346E-04
        -0.20050E-03
        -0.33505E-03
        -0.11390E-02
        -0.36157E-02
        -0.50577E-02
        -0.35488E-02
        -0.32132E-02
        -0.39195E-02
        -0.41714E-02
        -0.34686E-02
        -0.31005E-02
        -0.79517E-03
        -0.54632E-04
        -0.25952E-03
        -0.26901E-03
        -0.84295E-03
        -0.25345E-02
        -0.41647E-02
        -0.41438E-02
        -0.16053E-04
        -0.73314E-06
        -0.24290E-05
        -0.20181E-04
        -0.81260E-04
        -0.59390E-04
        -0.61541E-05
        -0.22864E-04
        -0.53292E-05
        -0.21641E-04
        -0.46706E-06
        -0.12950E-04
        -0.13329E-03
        -0.71829E-04
        -0.81382E-04
        -0.61155E-04
        -0.19525E-04
        -0.60642E-05
        -0.29358E-05
        -0.87584E-05
        -0.32297E-03
        -0.29320E-03
        -0.28633E-03
        -0.16776E-04
        -0.58186E-05
        -0.25968E-05
        -0.72409E-04
        -0.71499E-06
        -0.97472E-05
        -0.15288E-04
        -0.36462E-04
        -0.14607E-04
        -0.12951E-04
        -0.11031E-04
        -0.26938E-03
        -0.80015E-04
        -0.10559E-03
        -0.10618E-03
        -0.36683E-05
        -0.26164E-04
        -0.32947E-03
        -0.34859E-03
        -0.32870E-03
        -0.17070E-03
        -0.10042E-03
        -0.34270E-04
        -0.40270E-04
        -0.56998E-04
        -0.77343E-06
        -0.13276E-05
        -0.14796E-03
        -0.11198E-03
        -0.45938E-02
        -0.46769E-02
        -0.37858E-02
        -0.25824E-02
        -0.14252E-02
        -0.30235E-03
        -0.19386E-04
        -0.20073E-03
        -0.33449E-03
        -0.11381E-02
        -0.36146E-02
        -0.50582E-02
        -0.35486E-02
        -0.32130E-02
        -0.39207E-02
        -0.41740E-02
        -0.34701E-02
        -0.31015E-02
        -0.79470E-03
        -0.54664E-04
        -0.25911E-03
        -0.26880E-03
        -0.84175E-03
        -0.25315E-02
        -0.41606E-02
        -0.41401E-02
        -0.16103E-04
        -0.74044E-06
        -0.24340E-05
        -0.20204E-04
        -0.81106E-04
        -0.59283E-04
        -0.62275E-05
        -0.22736E-04
        -0.53377E-05
        -0.21595E-04
        -0.44114E-06
        -0.13012E-04
        -0.13346E-03
        -0.71467E-04
        -0.81287E-04
        -0.61306E-04
        -0.19612E-04
        -0.60289E-05
        -0.29329E-05
        -0.87299E-05
        -0.32296E-03
        -0.29318E-03
        -0.28638E-03
        -0.16781E-04
        -0.58476E-05
        -0.26076E-05
        -0.72441E-04
        -0.68199E-06
        -0.98744E-05
        -0.15311E-04
        -0.36574E-04
        -0.14605E-04
        -0.12830E-04
        -0.11037E-04
        -0.26968E-03
        -0.79961E-04
        -0.10554E-03
        -0.10650E-03
        -0.37317E-05
        -0.26327E-04
        -0.32992E-03
        -0.34907E-03
        -0.32885E-03
        -0.17069E-03
        -0.10036E-03
        -0.34242E-04
        -0.40249E-04
        -0.57034E-04
        -0.75836E-06
        -0.13217E-05
        -0.14781E-03
        -0.11165E-03
        -0.45906E-02
        -0.46745E-02
        -0.37851E-02
        -0.25824E-02
        -0.14244E-02
        -0.30216E-03
        -0.19426E-04
        -0.20096E-03
        -0.33392E-03
        -0.11372E-02
        -0.36134E-02
        -0.50586E-02
        -0.35483E-02
        -0.32128E-02
        -0.39220E-02
        -0.41765E-02
        -0.34717E-02
        -0.31026E-02
        -0.79424E-03
        -0.54696E-04
        -0.25870E-03
        -0.26860E-03
        -0.84055E-03
        -0.25284E-02
        -0.41565E-02
        -0.41364E-02
        -0.16153E-04
        -0.74767E-06
        -0.24391E-05
        -0.20228E-04
        -0.80958E-04
        -0.59172E-04
        -0.63017E-05
        -0.22609E-04
        -0.53458E-05
        -0.21546E-04
        -0.41597E-06
        -0.13074E-04
        -0.13363E-03
        -0.71105E-04
        -0.81191E-04
        -0.61457E-04
        -0.19698E-04
        -0.59938E-05
        -0.29302E-05
        -0.87006E-05
        -0.32295E-03
        -0.29316E-03
        -0.28643E-03
        -0.16786E-04
        -0.58760E-05
        -0.26183E-05
        -0.72470E-04
        -0.64948E-06
        -0.10001E-04
        -0.15334E-04
        -0.36686E-04
        -0.14603E-04
        -0.12709E-04
        -0.11043E-04
        -0.26998E-03
        -0.79907E-04
        -0.10549E-03
        -0.10682E-03
        -0.37962E-05
        -0.26492E-04
        -0.33036E-03
        -0.34954E-03
        -0.32900E-03
        -0.17069E-03
        -0.10030E-03
        -0.34217E-04
        -0.40228E-04
        -0.57072E-04
        -0.74348E-06
        -0.13157E-05
        -0.14765E-03
        -0.11133E-03
        -0.45875E-02
        -0.46722E-02
        -0.37843E-02
        -0.25824E-02
        -0.14235E-02
        -0.30198E-03
        -0.19465E-04
        -0.20120E-03
        -0.33336E-03
        -0.11363E-02
        -0.36122E-02
        -0.50591E-02
        -0.35480E-02
        -0.32126E-02
        -0.39232E-02
        -0.41791E-02
        -0.34733E-02
        -0.31036E-02
        -0.79377E-03
        -0.54728E-04
        -0.25829E-03
        -0.26839E-03
        -0.83934E-03
        -0.25253E-02
        -0.41524E-02
        -0.41327E-02
        -0.16203E-04
        -0.75491E-06
        -0.24440E-05
        -0.20251E-04
        -0.80806E-04
        -0.59062E-04
        -0.63758E-05
        -0.22482E-04
        -0.53532E-05
        -0.21493E-04
        -0.39158E-06
        -0.13136E-04
        -0.13379E-03
        -0.70742E-04
        -0.81093E-04
        -0.61607E-04
        -0.19784E-04
        -0.59584E-05
        -0.29282E-05
        -0.86727E-05
        -0.32294E-03
        -0.29314E-03
        -0.28649E-03
        -0.16791E-04
        -0.59027E-05
        -0.26294E-05
        -0.72486E-04
        -0.61697E-06
        -0.10130E-04
        -0.15359E-04
        -0.36799E-04
        -0.14600E-04
        -0.12588E-04
        -0.11048E-04
        -0.27027E-03
        -0.79858E-04
        -0.10544E-03
        -0.10713E-03
        -0.38632E-05
        -0.26655E-04
        -0.33077E-03
        -0.34998E-03
        -0.32913E-03
        -0.17069E-03
        -0.10024E-03
        -0.34189E-04
        -0.40207E-04
        -0.57109E-04
        -0.72879E-06
        -0.13098E-05
        -0.14750E-03
        -0.11100E-03
        -0.45843E-02
        -0.46698E-02
        -0.37836E-02
        -0.25824E-02
        -0.14226E-02
        -0.30180E-03
        -0.19505E-04
        -0.20143E-03
        -0.33280E-03
        -0.11353E-02
        -0.36110E-02
        -0.50599E-02
        -0.35479E-02
        -0.32124E-02
        -0.39244E-02
        -0.41816E-02
        -0.34749E-02
        -0.31047E-02
        -0.79331E-03
        -0.54760E-04
        -0.25788E-03
        -0.26818E-03
        -0.83814E-03
        -0.25222E-02
        -0.41483E-02
        -0.41290E-02
        -0.16253E-04
        -0.76215E-06
        -0.24489E-05
        -0.20274E-04
        -0.80653E-04
        -0.58951E-04
        -0.64506E-05
        -0.22355E-04
        -0.53598E-05
        -0.21434E-04
        -0.36799E-06
        -0.13198E-04
        -0.13396E-03
        -0.70377E-04
        -0.80992E-04
        -0.61757E-04
        -0.19870E-04
        -0.59233E-05
        -0.29256E-05
        -0.86440E-05
        -0.32293E-03
        -0.29310E-03
        -0.28654E-03
        -0.16796E-04
        -0.59272E-05
        -0.26401E-05
        -0.72492E-04
        -0.58436E-06
        -0.10259E-04
        -0.15382E-04
        -0.36911E-04
        -0.14598E-04
        -0.12468E-04
        -0.11053E-04
        -0.27057E-03
        -0.79805E-04
        -0.10539E-03
        -0.10744E-03
        -0.39326E-05
        -0.26819E-04
        -0.33115E-03
        -0.35038E-03
        -0.32925E-03
        -0.17069E-03
        -0.10019E-03
        -0.34164E-04
        -0.40186E-04
        -0.57145E-04
        -0.71408E-06
        -0.13040E-05
        -0.14734E-03
        -0.11067E-03
        -0.45811E-02
        -0.46675E-02
        -0.37829E-02
        -0.25824E-02
        -0.14217E-02
        -0.30161E-03
        -0.19545E-04
        -0.20166E-03
        -0.33225E-03
        -0.11343E-02
        -0.36098E-02
        -0.50609E-02
        -0.35480E-02
        -0.32122E-02
        -0.39257E-02
        -0.41841E-02
        -0.34764E-02
        -0.31057E-02
        -0.79284E-03
        -0.54791E-04
        -0.25748E-03
        -0.26797E-03
        -0.83694E-03
        -0.25192E-02
        -0.41442E-02
        -0.41254E-02
        -0.16303E-04
        -0.76948E-06
        -0.24539E-05
        -0.20298E-04
        -0.80505E-04
        -0.58845E-04
        -0.65250E-05
        -0.22229E-04
        -0.53660E-05
        -0.21374E-04
        -0.34529E-06
        -0.13260E-04
        -0.13412E-03
        -0.70014E-04
        -0.80892E-04
        -0.61907E-04
        -0.19956E-04
        -0.58886E-05
        -0.29227E-05
        -0.86161E-05
        -0.32292E-03
        -0.29308E-03
        -0.28658E-03
        -0.16801E-04
        -0.59511E-05
        -0.26509E-05
        -0.72496E-04
        -0.55252E-06
        -0.10388E-04
        -0.15405E-04
        -0.37024E-04
        -0.14595E-04
        -0.12349E-04
        -0.11059E-04
        -0.27087E-03
        -0.79756E-04
        -0.10534E-03
        -0.10774E-03
        -0.40034E-05
        -0.26980E-04
        -0.33150E-03
        -0.35076E-03
        -0.32936E-03
        -0.17069E-03
        -0.10012E-03
        -0.34139E-04
        -0.40167E-04
        -0.57185E-04
        -0.69967E-06
        -0.12979E-05
        -0.14719E-03
        -0.11035E-03
        -0.45779E-02
        -0.46651E-02
        -0.37822E-02
        -0.25824E-02
        -0.14208E-02
        -0.30142E-03
        -0.19584E-04
        -0.20188E-03
        -0.33170E-03
        -0.11334E-02
        -0.36085E-02
        -0.50620E-02
        -0.35480E-02
        -0.32120E-02
        -0.39270E-02
        -0.41867E-02
        -0.34780E-02
        -0.31068E-02
        -0.79238E-03
        -0.54825E-04
        -0.25707E-03
        -0.26776E-03
        -0.83575E-03
        -0.25161E-02
        -0.41401E-02
        -0.41217E-02
        -0.16506E-04
        -0.78268E-06
        -0.24828E-05
        -0.20507E-04
        -0.81111E-04
        -0.59292E-04
        -0.66546E-05
        -0.22332E-04
        -0.54214E-05
        -0.21532E-04
        -0.32935E-06
        -0.13438E-04
        -0.13555E-03
        -0.70379E-04
        -0.81630E-04
        -0.62621E-04
        -0.20226E-04
        -0.59105E-05
        -0.29462E-05
        -0.86665E-05
        -0.32587E-03
        -0.29580E-03
        -0.28921E-03
        -0.16961E-04
        -0.60303E-05
        -0.26851E-05
        -0.73235E-04
        -0.52875E-06
        -0.10610E-04
        -0.15576E-04
        -0.37475E-04
        -0.14727E-04
        -0.12355E-04
        -0.11170E-04
        -0.27375E-03
        -0.80464E-04
        -0.10628E-03
        -0.10912E-03
        -0.41090E-05
        -0.27396E-04
        -0.33515E-03
        -0.35458E-03
        -0.33263E-03
        -0.17223E-03
        -0.10099E-03
        -0.34430E-04
        -0.40531E-04
        -0.57770E-04
        -0.69348E-06
        -0.13041E-05
        -0.14845E-03
        -0.11109E-03
        -0.46261E-02
        -0.47139E-02
        -0.38236E-02
        -0.26106E-02
        -0.14358E-02
        -0.30461E-03
        -0.19862E-04
        -0.20439E-03
        -0.33505E-03
        -0.11458E-02
        -0.36496E-02
        -0.51197E-02
        -0.35851E-02
        -0.32443E-02
        -0.39674E-02
        -0.42308E-02
        -0.35143E-02
        -0.31406E-02
        -0.80078E-03
        -0.55499E-04
        -0.25950E-03
        -0.27036E-03
        -0.84359E-03
        -0.25401E-02
        -0.41798E-02
        -0.41614E-02
        -0.37253E-04
        -0.17916E-05
        -0.55841E-05
        -0.46390E-04
        -0.16987E-03
        -0.12642E-03
        -0.15168E-04
        -0.49840E-04
        -0.12154E-04
        -0.47892E-04
        -0.70209E-06
        -0.27289E-04
        -0.28296E-03
        -0.15278E-03
        -0.16745E-03
        -0.14147E-03
        -0.45504E-04
        -0.13309E-04
        -0.64812E-05
        -0.19167E-04
        -0.67809E-03
        -0.63170E-03
        -0.60476E-03
        -0.37886E-04
        -0.13688E-04
        -0.61025E-05
        -0.16181E-03
        -0.11595E-05
        -0.24408E-04
        -0.35282E-04
        -0.84754E-04
        -0.33125E-04
        -0.27819E-04
        -0.25291E-04
        -0.55364E-03
        -0.17159E-03
        -0.22687E-03
        -0.23435E-03
        -0.91314E-05
        -0.60966E-04
        -0.72423E-03
        -0.77673E-03
        -0.72673E-03
        -0.36518E-03
        -0.21284E-03
        -0.68619E-04
        -0.84899E-04
        -0.12416E-03
        -0.14843E-05
        -0.27967E-05
        -0.30404E-03
        -0.23553E-03
        -0.74395E-02
        -0.75491E-02
        -0.61335E-02
        -0.42081E-02
        -0.23125E-02
        -0.49359E-03
        -0.33042E-04
        -0.34490E-03
        -0.56259E-03
        -0.19039E-02
        -0.60753E-02
        -0.84766E-02
        -0.60480E-02
        -0.54989E-02
        -0.65546E-02
        -0.68345E-02
        -0.56438E-02
        -0.49997E-02
        -0.12751E-02
        -0.88749E-04
        -0.42195E-03
        -0.44311E-03
        -0.13738E-02
        -0.41649E-02
        -0.68093E-02
        -0.67301E-02
  
SCALARS                      strain_yy  double 1
LOOKUP_TABLE default
         0.10947E-03
         0.11499E-04
         0.80232E-04
         0.22495E-04
        -0.34281E-19
        -0.26042E-20
        -0.52651E-19
        -0.30630E-19
         0.10883E-02
         0.47926E-03
        -0.11661E-18
        -0.90378E-19
         0.77683E-03
         0.20028E-05
        -0.59722E-19
        -0.24549E-21
         0.10776E-03
         0.12773E-02
        -0.12927E-22
        -0.13534E-20
         0.32357E-03
         0.43672E-02
         0.50957E-02
        -0.31382E-18
        -0.93598E-18
        -0.65394E-18
         0.42511E-04
         0.41823E-02
        -0.16238E-18
        -0.61113E-18
         0.14035E-03
         0.99647E-04
         0.82015E-04
        -0.43641E-19
        -0.45478E-19
        -0.19602E-22
         0.11921E-02
         0.10136E-02
        -0.14778E-18
        -0.89457E-19
         0.11128E-02
         0.42093E-03
        -0.84404E-19
        -0.70491E-19
         0.96868E-03
         0.11803E-03
        -0.92878E-22
        -0.22221E-19
         0.69619E-03
        -0.49260E-20
         0.82756E-05
        -0.32314E-22
         0.22188E-05
        -0.73705E-19
         0.95256E-04
        -0.24941E-19
         0.10135E-02
         0.34621E-04
        -0.18357E-22
        -0.75619E-22
         0.20612E-03
         0.26740E-02
        -0.34077E-20
        -0.47678E-19
         0.76373E-04
        -0.13884E-19
         0.13652E-02
        -0.20606E-19
         0.82897E-03
         0.23070E-03
        -0.31470E-21
        -0.54862E-19
         0.27673E-02
        -0.26453E-18
         0.65633E-02
        -0.24800E-18
         0.65974E-02
        -0.14291E-18
         0.45060E-02
        -0.10040E-18
         0.10045E-01
         0.61394E-02
        -0.41316E-19
        -0.20310E-20
         0.12910E-03
        -0.25429E-22
         0.23625E-02
        -0.99790E-19
         0.12792E-01
        -0.30582E-18
         0.24338E-01
         0.92226E-02
        -0.67277E-18
        -0.44076E-18
         0.46433E-02
        -0.26559E-18
         0.37849E-02
        -0.27798E-18
         0.35439E-02
        -0.32137E-18
         0.97716E-02
         0.68270E-02
        -0.27792E-18
        -0.63808E-19
         0.41239E-02
         0.60892E-03
        -0.34361E-19
        -0.53063E-19
         0.24770E-01
        -0.38029E-18
         0.52559E-01
        -0.81368E-18
         0.76111E-01
        -0.12411E-17
         0.96762E-01
        -0.12211E-17
         0.12392E+00
        -0.76472E-18
         0.12337E+00
        -0.45798E-18
         0.10884E+00
        -0.39619E-18
         0.86313E-01
        -0.35863E-18
         0.48387E-01
        -0.14647E-18
         0.24265E-01
        -0.15966E-19
         0.67496E-02
        -0.66663E-20
         0.36980E-04
        -0.15061E-19
         0.68754E-02
        -0.40175E-20
         0.22932E-01
        -0.36743E-19
         0.54839E-01
        -0.29274E-18
         0.63648E-01
        -0.71382E-18
         0.71542E-01
        -0.12268E-17
         0.11416E+00
        -0.12247E-17
         0.12670E+00
        -0.93329E-18
         0.11015E+00
        -0.88648E-18
         0.70762E-01
        -0.89754E-18
         0.32736E-01
        -0.56125E-18
         0.16790E-01
        -0.19626E-18
         0.89335E-02
        -0.11733E-18
        -0.24039E-04
        -0.63406E-05
        -0.48417E-05
        -0.47526E-06
        -0.49919E-05
        -0.57574E-05
        -0.62391E-07
        -0.14944E-04
        -0.11285E-04
        -0.23926E-04
        -0.62671E-05
        -0.11353E-03
        -0.53717E-04
        -0.72299E-06
        -0.11654E-03
        -0.16948E-05
        -0.13261E-05
        -0.55443E-06
        -0.91968E-06
        -0.52839E-06
        -0.44212E-06
        -0.30221E-06
        -0.33777E-05
        -0.24052E-07
        -0.11159E-04
        -0.24373E-06
        -0.64258E-09
        -0.19675E-06
        -0.28577E-06
        -0.67941E-05
        -0.16122E-05
        -0.18623E-05
        -0.85251E-06
        -0.49978E-07
        -0.12909E-06
        -0.38657E-05
        -0.19608E-04
        -0.90720E-04
        -0.75630E-04
        -0.53040E-04
        -0.46391E-04
        -0.29567E-05
        -0.20331E-05
        -0.15241E-04
        -0.41046E-04
        -0.10665E-03
        -0.46972E-04
        -0.24692E-04
        -0.28067E-04
        -0.31148E-04
        -0.42060E-04
        -0.90070E-05
        -0.29444E-04
        -0.43787E-04
        -0.31985E-03
        -0.61463E-03
        -0.99776E-03
        -0.13872E-02
        -0.13797E-02
        -0.11236E-02
        -0.10194E-02
        -0.90943E-03
        -0.37675E-03
        -0.75702E-04
        -0.14849E-04
        -0.29002E-05
        -0.68652E-05
        -0.10803E-03
        -0.36491E-03
        -0.61480E-03
        -0.86409E-03
        -0.11483E-02
        -0.10330E-02
        -0.92264E-03
        -0.79669E-03
        -0.37999E-03
        -0.13232E-03
        -0.10275E-03
        -0.13285E-03
        -0.52848E-04
        -0.45254E-04
        -0.25460E-05
        -0.76340E-04
        -0.15442E-04
        -0.97099E-05
        -0.11867E-03
        -0.51034E-04
        -0.10497E-03
        -0.29343E-04
        -0.54960E-03
        -0.19290E-03
        -0.39835E-05
        -0.53349E-03
        -0.19106E-04
        -0.17547E-05
        -0.15994E-05
        -0.32492E-04
        -0.12145E-05
        -0.24138E-04
        -0.12168E-04
        -0.40897E-05
        -0.29135E-05
        -0.47602E-04
        -0.29123E-05
        -0.18338E-06
        -0.63373E-06
        -0.16170E-05
        -0.47368E-04
        -0.22192E-04
        -0.15398E-05
        -0.92711E-05
        -0.69896E-05
        -0.15891E-05
        -0.14766E-04
        -0.53828E-04
        -0.30814E-03
        -0.23963E-03
        -0.18611E-03
        -0.10044E-03
        -0.61329E-05
        -0.26020E-04
        -0.40598E-04
        -0.67316E-04
        -0.28090E-03
        -0.95110E-04
        -0.41592E-04
        -0.65699E-04
        -0.91562E-04
        -0.98303E-04
        -0.55341E-06
        -0.15275E-03
        -0.31255E-03
        -0.16926E-02
        -0.28268E-02
        -0.47087E-02
        -0.67803E-02
        -0.65054E-02
        -0.49615E-02
        -0.45567E-02
        -0.44605E-02
        -0.17589E-02
        -0.19107E-03
        -0.30339E-04
        -0.22276E-04
        -0.47782E-05
        -0.34384E-03
        -0.13800E-02
        -0.26729E-02
        -0.45274E-02
        -0.55667E-02
        -0.42928E-02
        -0.38371E-02
        -0.38140E-02
        -0.18908E-02
        -0.51026E-03
        -0.45748E-03
        -0.13302E-03
        -0.52866E-04
        -0.45299E-04
        -0.25835E-05
        -0.76357E-04
        -0.15466E-04
        -0.97343E-05
        -0.11907E-03
        -0.51217E-04
        -0.10576E-03
        -0.29378E-04
        -0.54951E-03
        -0.19300E-03
        -0.39837E-05
        -0.53486E-03
        -0.19109E-04
        -0.17868E-05
        -0.15946E-05
        -0.32536E-04
        -0.12010E-05
        -0.24258E-04
        -0.12191E-04
        -0.40916E-05
        -0.29108E-05
        -0.48035E-04
        -0.29017E-05
        -0.18773E-06
        -0.64084E-06
        -0.15957E-05
        -0.47569E-04
        -0.22199E-04
        -0.15331E-05
        -0.93122E-05
        -0.70125E-05
        -0.15594E-05
        -0.14785E-04
        -0.53823E-04
        -0.30909E-03
        -0.24066E-03
        -0.18654E-03
        -0.10060E-03
        -0.60999E-05
        -0.26073E-04
        -0.40640E-04
        -0.67321E-04
        -0.28090E-03
        -0.95130E-04
        -0.41542E-04
        -0.65523E-04
        -0.91317E-04
        -0.98218E-04
        -0.53678E-06
        -0.15247E-03
        -0.31259E-03
        -0.16932E-02
        -0.28269E-02
        -0.47076E-02
        -0.67757E-02
        -0.65000E-02
        -0.49585E-02
        -0.45548E-02
        -0.44580E-02
        -0.17582E-02
        -0.19125E-03
        -0.30334E-04
        -0.22367E-04
        -0.47006E-05
        -0.34421E-03
        -0.13812E-02
        -0.26741E-02
        -0.45272E-02
        -0.55660E-02
        -0.42922E-02
        -0.38367E-02
        -0.38120E-02
        -0.18882E-02
        -0.50914E-03
        -0.45628E-03
        -0.13318E-03
        -0.52887E-04
        -0.45345E-04
        -0.26217E-05
        -0.76375E-04
        -0.15492E-04
        -0.97587E-05
        -0.11947E-03
        -0.51402E-04
        -0.10654E-03
        -0.29413E-04
        -0.54941E-03
        -0.19309E-03
        -0.39829E-05
        -0.53621E-03
        -0.19111E-04
        -0.18195E-05
        -0.15897E-05
        -0.32581E-04
        -0.11873E-05
        -0.24379E-04
        -0.12214E-04
        -0.40947E-05
        -0.29072E-05
        -0.48464E-04
        -0.28897E-05
        -0.19243E-06
        -0.64843E-06
        -0.15727E-05
        -0.47763E-04
        -0.22206E-04
        -0.15250E-05
        -0.93536E-05
        -0.70350E-05
        -0.15298E-05
        -0.14806E-04
        -0.53816E-04
        -0.31005E-03
        -0.24170E-03
        -0.18697E-03
        -0.10076E-03
        -0.60636E-05
        -0.26123E-04
        -0.40692E-04
        -0.67337E-04
        -0.28092E-03
        -0.95147E-04
        -0.41490E-04
        -0.65350E-04
        -0.91071E-04
        -0.98137E-04
        -0.52047E-06
        -0.15218E-03
        -0.31262E-03
        -0.16939E-02
        -0.28269E-02
        -0.47065E-02
        -0.67711E-02
        -0.64945E-02
        -0.49556E-02
        -0.45529E-02
        -0.44556E-02
        -0.17575E-02
        -0.19144E-03
        -0.30331E-04
        -0.22459E-04
        -0.46233E-05
        -0.34458E-03
        -0.13825E-02
        -0.26754E-02
        -0.45270E-02
        -0.55653E-02
        -0.42916E-02
        -0.38364E-02
        -0.38101E-02
        -0.18855E-02
        -0.50802E-03
        -0.45508E-03
        -0.13335E-03
        -0.52906E-04
        -0.45391E-04
        -0.26603E-05
        -0.76392E-04
        -0.15517E-04
        -0.97845E-05
        -0.11987E-03
        -0.51588E-04
        -0.10732E-03
        -0.29448E-04
        -0.54932E-03
        -0.19320E-03
        -0.39831E-05
        -0.53758E-03
        -0.19114E-04
        -0.18530E-05
        -0.15848E-05
        -0.32629E-04
        -0.11729E-05
        -0.24503E-04
        -0.12235E-04
        -0.41018E-05
        -0.29015E-05
        -0.48881E-04
        -0.28739E-05
        -0.19735E-06
        -0.65856E-06
        -0.15443E-05
        -0.47939E-04
        -0.22209E-04
        -0.15140E-05
        -0.93947E-05
        -0.70579E-05
        -0.15006E-05
        -0.14825E-04
        -0.53809E-04
        -0.31101E-03
        -0.24277E-03
        -0.18744E-03
        -0.10095E-03
        -0.60176E-05
        -0.26165E-04
        -0.40772E-04
        -0.67377E-04
        -0.28095E-03
        -0.95180E-04
        -0.41440E-04
        -0.65176E-04
        -0.90826E-04
        -0.98049E-04
        -0.50444E-06
        -0.15190E-03
        -0.31266E-03
        -0.16945E-02
        -0.28269E-02
        -0.47053E-02
        -0.67665E-02
        -0.64891E-02
        -0.49526E-02
        -0.45510E-02
        -0.44531E-02
        -0.17568E-02
        -0.19167E-03
        -0.30332E-04
        -0.22550E-04
        -0.45461E-05
        -0.34499E-03
        -0.13840E-02
        -0.26768E-02
        -0.45269E-02
        -0.55646E-02
        -0.42910E-02
        -0.38361E-02
        -0.38082E-02
        -0.18828E-02
        -0.50691E-03
        -0.45388E-03
        -0.13351E-03
        -0.52926E-04
        -0.45436E-04
        -0.26990E-05
        -0.76411E-04
        -0.15541E-04
        -0.98085E-05
        -0.12027E-03
        -0.51774E-04
        -0.10809E-03
        -0.29483E-04
        -0.54923E-03
        -0.19329E-03
        -0.39835E-05
        -0.53896E-03
        -0.19118E-04
        -0.18874E-05
        -0.15798E-05
        -0.32679E-04
        -0.11578E-05
        -0.24629E-04
        -0.12253E-04
        -0.41126E-05
        -0.28933E-05
        -0.49284E-04
        -0.28541E-05
        -0.20290E-06
        -0.67106E-06
        -0.15106E-05
        -0.48096E-04
        -0.22210E-04
        -0.14998E-05
        -0.94358E-05
        -0.70808E-05
        -0.14715E-05
        -0.14844E-04
        -0.53804E-04
        -0.31198E-03
        -0.24385E-03
        -0.18794E-03
        -0.10116E-03
        -0.59614E-05
        -0.26196E-04
        -0.40881E-04
        -0.67443E-04
        -0.28102E-03
        -0.95222E-04
        -0.41396E-04
        -0.65006E-04
        -0.90578E-04
        -0.97967E-04
        -0.48857E-06
        -0.15161E-03
        -0.31269E-03
        -0.16951E-02
        -0.28270E-02
        -0.47042E-02
        -0.67619E-02
        -0.64836E-02
        -0.49496E-02
        -0.45491E-02
        -0.44506E-02
        -0.17562E-02
        -0.19193E-03
        -0.30338E-04
        -0.22639E-04
        -0.44693E-05
        -0.34543E-03
        -0.13857E-02
        -0.26785E-02
        -0.45268E-02
        -0.55639E-02
        -0.42904E-02
        -0.38358E-02
        -0.38062E-02
        -0.18801E-02
        -0.50580E-03
        -0.45268E-03
        -0.13367E-03
        -0.52938E-04
        -0.45481E-04
        -0.27384E-05
        -0.76428E-04
        -0.15566E-04
        -0.98302E-05
        -0.12065E-03
        -0.51961E-04
        -0.10884E-03
        -0.29523E-04
        -0.54914E-03
        -0.19340E-03
        -0.39849E-05
        -0.54032E-03
        -0.19122E-04
        -0.19229E-05
        -0.15750E-05
        -0.32729E-04
        -0.11425E-05
        -0.24755E-04
        -0.12270E-04
        -0.41250E-05
        -0.28844E-05
        -0.49678E-04
        -0.28331E-05
        -0.20895E-06
        -0.68502E-06
        -0.14749E-05
        -0.48246E-04
        -0.22207E-04
        -0.14840E-05
        -0.94780E-05
        -0.71048E-05
        -0.14425E-05
        -0.14866E-04
        -0.53803E-04
        -0.31295E-03
        -0.24495E-03
        -0.18845E-03
        -0.10138E-03
        -0.59022E-05
        -0.26223E-04
        -0.41000E-04
        -0.67526E-04
        -0.28111E-03
        -0.95272E-04
        -0.41359E-04
        -0.64844E-04
        -0.90338E-04
        -0.97884E-04
        -0.47297E-06
        -0.15133E-03
        -0.31273E-03
        -0.16957E-02
        -0.28270E-02
        -0.47030E-02
        -0.67573E-02
        -0.64781E-02
        -0.49466E-02
        -0.45472E-02
        -0.44481E-02
        -0.17557E-02
        -0.19222E-03
        -0.30346E-04
        -0.22728E-04
        -0.43933E-05
        -0.34588E-03
        -0.13875E-02
        -0.26801E-02
        -0.45267E-02
        -0.55632E-02
        -0.42898E-02
        -0.38355E-02
        -0.38043E-02
        -0.18774E-02
        -0.50469E-03
        -0.45149E-03
        -0.13381E-03
        -0.52935E-04
        -0.45525E-04
        -0.27792E-05
        -0.76448E-04
        -0.15592E-04
        -0.98471E-05
        -0.12100E-03
        -0.52153E-04
        -0.10957E-03
        -0.29572E-04
        -0.54909E-03
        -0.19353E-03
        -0.39911E-05
        -0.54171E-03
        -0.19129E-04
        -0.19596E-05
        -0.15701E-05
        -0.32780E-04
        -0.11273E-05
        -0.24883E-04
        -0.12289E-04
        -0.41376E-05
        -0.28757E-05
        -0.50066E-04
        -0.28119E-05
        -0.21620E-06
        -0.70003E-06
        -0.14391E-05
        -0.48392E-04
        -0.22203E-04
        -0.14672E-05
        -0.95216E-05
        -0.71300E-05
        -0.14137E-05
        -0.14888E-04
        -0.53806E-04
        -0.31395E-03
        -0.24606E-03
        -0.18896E-03
        -0.10161E-03
        -0.58419E-05
        -0.26249E-04
        -0.41119E-04
        -0.67615E-04
        -0.28122E-03
        -0.95349E-04
        -0.41345E-04
        -0.64709E-04
        -0.90108E-04
        -0.97801E-04
        -0.45742E-06
        -0.15104E-03
        -0.31276E-03
        -0.16963E-02
        -0.28271E-02
        -0.47019E-02
        -0.67527E-02
        -0.64725E-02
        -0.49436E-02
        -0.45453E-02
        -0.44456E-02
        -0.17551E-02
        -0.19250E-03
        -0.30355E-04
        -0.22818E-04
        -0.43178E-05
        -0.34633E-03
        -0.13892E-02
        -0.26818E-02
        -0.45265E-02
        -0.55625E-02
        -0.42894E-02
        -0.38353E-02
        -0.38023E-02
        -0.18747E-02
        -0.50358E-03
        -0.45029E-03
        -0.13395E-03
        -0.52928E-04
        -0.45569E-04
        -0.28208E-05
        -0.76468E-04
        -0.15617E-04
        -0.98603E-05
        -0.12132E-03
        -0.52347E-04
        -0.11027E-03
        -0.29625E-04
        -0.54903E-03
        -0.19365E-03
        -0.39982E-05
        -0.54310E-03
        -0.19136E-04
        -0.19971E-05
        -0.15651E-05
        -0.32830E-04
        -0.11122E-05
        -0.25011E-04
        -0.12307E-04
        -0.41499E-05
        -0.28673E-05
        -0.50450E-04
        -0.27910E-05
        -0.22386E-06
        -0.71559E-06
        -0.14035E-05
        -0.48536E-04
        -0.22199E-04
        -0.14498E-05
        -0.95659E-05
        -0.71562E-05
        -0.13850E-05
        -0.14913E-04
        -0.53814E-04
        -0.31495E-03
        -0.24718E-03
        -0.18948E-03
        -0.10184E-03
        -0.57820E-05
        -0.26275E-04
        -0.41239E-04
        -0.67707E-04
        -0.28135E-03
        -0.95437E-04
        -0.41339E-04
        -0.64585E-04
        -0.89882E-04
        -0.97721E-04
        -0.44215E-06
        -0.15076E-03
        -0.31280E-03
        -0.16969E-02
        -0.28271E-02
        -0.47008E-02
        -0.67481E-02
        -0.64670E-02
        -0.49406E-02
        -0.45434E-02
        -0.44431E-02
        -0.17545E-02
        -0.19278E-03
        -0.30363E-04
        -0.22910E-04
        -0.42428E-05
        -0.34678E-03
        -0.13910E-02
        -0.26834E-02
        -0.45262E-02
        -0.55618E-02
        -0.42890E-02
        -0.38352E-02
        -0.38003E-02
        -0.18720E-02
        -0.50248E-03
        -0.44910E-03
        -0.13409E-03
        -0.52922E-04
        -0.45613E-04
        -0.28628E-05
        -0.76488E-04
        -0.15641E-04
        -0.98738E-05
        -0.12165E-03
        -0.52541E-04
        -0.11098E-03
        -0.29675E-04
        -0.54898E-03
        -0.19378E-03
        -0.40064E-05
        -0.54451E-03
        -0.19144E-04
        -0.20351E-05
        -0.15601E-05
        -0.32881E-04
        -0.10971E-05
        -0.25139E-04
        -0.12325E-04
        -0.41623E-05
        -0.28589E-05
        -0.50835E-04
        -0.27703E-05
        -0.23185E-06
        -0.73115E-06
        -0.13685E-05
        -0.48681E-04
        -0.22193E-04
        -0.14326E-05
        -0.96103E-05
        -0.71821E-05
        -0.13564E-05
        -0.14936E-04
        -0.53820E-04
        -0.31596E-03
        -0.24830E-03
        -0.19000E-03
        -0.10207E-03
        -0.57227E-05
        -0.26300E-04
        -0.41360E-04
        -0.67802E-04
        -0.28148E-03
        -0.95520E-04
        -0.41333E-04
        -0.64462E-04
        -0.89659E-04
        -0.97645E-04
        -0.42706E-06
        -0.15047E-03
        -0.31283E-03
        -0.16975E-02
        -0.28272E-02
        -0.46996E-02
        -0.67435E-02
        -0.64614E-02
        -0.49376E-02
        -0.45416E-02
        -0.44405E-02
        -0.17540E-02
        -0.19307E-03
        -0.30373E-04
        -0.23003E-04
        -0.41687E-05
        -0.34723E-03
        -0.13928E-02
        -0.26850E-02
        -0.45260E-02
        -0.55610E-02
        -0.42886E-02
        -0.38350E-02
        -0.37983E-02
        -0.18693E-02
        -0.50137E-03
        -0.44791E-03
        -0.13422E-03
        -0.52913E-04
        -0.45656E-04
        -0.29048E-05
        -0.76506E-04
        -0.15666E-04
        -0.98871E-05
        -0.12198E-03
        -0.52736E-04
        -0.11169E-03
        -0.29729E-04
        -0.54892E-03
        -0.19392E-03
        -0.40135E-05
        -0.54590E-03
        -0.19151E-04
        -0.20737E-05
        -0.15551E-05
        -0.32931E-04
        -0.10820E-05
        -0.25267E-04
        -0.12343E-04
        -0.41742E-05
        -0.28506E-05
        -0.51222E-04
        -0.27497E-05
        -0.23976E-06
        -0.74671E-06
        -0.13340E-05
        -0.48827E-04
        -0.22188E-04
        -0.14155E-05
        -0.96543E-05
        -0.72083E-05
        -0.13281E-05
        -0.14961E-04
        -0.53829E-04
        -0.31697E-03
        -0.24943E-03
        -0.19052E-03
        -0.10230E-03
        -0.56638E-05
        -0.26327E-04
        -0.41480E-04
        -0.67894E-04
        -0.28161E-03
        -0.95609E-04
        -0.41331E-04
        -0.64338E-04
        -0.89431E-04
        -0.97562E-04
        -0.41230E-06
        -0.15019E-03
        -0.31286E-03
        -0.16981E-02
        -0.28272E-02
        -0.46985E-02
        -0.67389E-02
        -0.64559E-02
        -0.49345E-02
        -0.45397E-02
        -0.44380E-02
        -0.17534E-02
        -0.19334E-03
        -0.30383E-04
        -0.23095E-04
        -0.40954E-05
        -0.34768E-03
        -0.13945E-02
        -0.26866E-02
        -0.45257E-02
        -0.55603E-02
        -0.42882E-02
        -0.38348E-02
        -0.37963E-02
        -0.18667E-02
        -0.50028E-03
        -0.44672E-03
        -0.13436E-03
        -0.52904E-04
        -0.45699E-04
        -0.29471E-05
        -0.76526E-04
        -0.15691E-04
        -0.99018E-05
        -0.12231E-03
        -0.52932E-04
        -0.11240E-03
        -0.29782E-04
        -0.54887E-03
        -0.19404E-03
        -0.40213E-05
        -0.54731E-03
        -0.19158E-04
        -0.21127E-05
        -0.15502E-05
        -0.32981E-04
        -0.10669E-05
        -0.25395E-04
        -0.12361E-04
        -0.41867E-05
        -0.28424E-05
        -0.51608E-04
        -0.27292E-05
        -0.24795E-06
        -0.76221E-06
        -0.13000E-05
        -0.48972E-04
        -0.22184E-04
        -0.13986E-05
        -0.96987E-05
        -0.72344E-05
        -0.13000E-05
        -0.14984E-04
        -0.53837E-04
        -0.31799E-03
        -0.25056E-03
        -0.19103E-03
        -0.10253E-03
        -0.56053E-05
        -0.26352E-04
        -0.41598E-04
        -0.67987E-04
        -0.28173E-03
        -0.95699E-04
        -0.41325E-04
        -0.64216E-04
        -0.89207E-04
        -0.97486E-04
        -0.39775E-06
        -0.14990E-03
        -0.31289E-03
        -0.16986E-02
        -0.28272E-02
        -0.46973E-02
        -0.67342E-02
        -0.64503E-02
        -0.49315E-02
        -0.45378E-02
        -0.44354E-02
        -0.17528E-02
        -0.19362E-03
        -0.30392E-04
        -0.23187E-04
        -0.40225E-05
        -0.34814E-03
        -0.13963E-02
        -0.26882E-02
        -0.45254E-02
        -0.55596E-02
        -0.42878E-02
        -0.38347E-02
        -0.37943E-02
        -0.18640E-02
        -0.49919E-03
        -0.44553E-03
        -0.13450E-03
        -0.52896E-04
        -0.45743E-04
        -0.29900E-05
        -0.76545E-04
        -0.15716E-04
        -0.99150E-05
        -0.12263E-03
        -0.53129E-04
        -0.11311E-03
        -0.29835E-04
        -0.54881E-03
        -0.19417E-03
        -0.40290E-05
        -0.54871E-03
        -0.19166E-04
        -0.21521E-05
        -0.15451E-05
        -0.33031E-04
        -0.10521E-05
        -0.25524E-04
        -0.12378E-04
        -0.41991E-05
        -0.28343E-05
        -0.51996E-04
        -0.27089E-05
        -0.25609E-06
        -0.77778E-06
        -0.12664E-05
        -0.49117E-04
        -0.22178E-04
        -0.13817E-05
        -0.97430E-05
        -0.72610E-05
        -0.12721E-05
        -0.15008E-04
        -0.53843E-04
        -0.31901E-03
        -0.25169E-03
        -0.19154E-03
        -0.10276E-03
        -0.55476E-05
        -0.26377E-04
        -0.41718E-04
        -0.68080E-04
        -0.28187E-03
        -0.95783E-04
        -0.41323E-04
        -0.64094E-04
        -0.88984E-04
        -0.97408E-04
        -0.38349E-06
        -0.14962E-03
        -0.31292E-03
        -0.16992E-02
        -0.28273E-02
        -0.46962E-02
        -0.67296E-02
        -0.64447E-02
        -0.49285E-02
        -0.45360E-02
        -0.44329E-02
        -0.17522E-02
        -0.19390E-03
        -0.30402E-04
        -0.23279E-04
        -0.39500E-05
        -0.34859E-03
        -0.13981E-02
        -0.26898E-02
        -0.45252E-02
        -0.55588E-02
        -0.42874E-02
        -0.38345E-02
        -0.37922E-02
        -0.18613E-02
        -0.49811E-03
        -0.44434E-03
        -0.13463E-03
        -0.52888E-04
        -0.45787E-04
        -0.30335E-05
        -0.76565E-04
        -0.15741E-04
        -0.99284E-05
        -0.12296E-03
        -0.53326E-04
        -0.11382E-03
        -0.29888E-04
        -0.54875E-03
        -0.19431E-03
        -0.40358E-05
        -0.55012E-03
        -0.19173E-04
        -0.21919E-05
        -0.15400E-05
        -0.33081E-04
        -0.10374E-05
        -0.25654E-04
        -0.12396E-04
        -0.42113E-05
        -0.28262E-05
        -0.52385E-04
        -0.26885E-05
        -0.26460E-06
        -0.79334E-06
        -0.12334E-05
        -0.49261E-04
        -0.22173E-04
        -0.13648E-05
        -0.97872E-05
        -0.72872E-05
        -0.12444E-05
        -0.15033E-04
        -0.53851E-04
        -0.32003E-03
        -0.25283E-03
        -0.19206E-03
        -0.10299E-03
        -0.54896E-05
        -0.26403E-04
        -0.41840E-04
        -0.68176E-04
        -0.28198E-03
        -0.95873E-04
        -0.41319E-04
        -0.63973E-04
        -0.88761E-04
        -0.97325E-04
        -0.36952E-06
        -0.14933E-03
        -0.31295E-03
        -0.16998E-02
        -0.28273E-02
        -0.46951E-02
        -0.67250E-02
        -0.64392E-02
        -0.49255E-02
        -0.45341E-02
        -0.44303E-02
        -0.17517E-02
        -0.19419E-03
        -0.30411E-04
        -0.23371E-04
        -0.38783E-05
        -0.34903E-03
        -0.13999E-02
        -0.26914E-02
        -0.45250E-02
        -0.55581E-02
        -0.42870E-02
        -0.38343E-02
        -0.37902E-02
        -0.18586E-02
        -0.49703E-03
        -0.44316E-03
        -0.13476E-03
        -0.52881E-04
        -0.45830E-04
        -0.30771E-05
        -0.76585E-04
        -0.15766E-04
        -0.99435E-05
        -0.12329E-03
        -0.53523E-04
        -0.11453E-03
        -0.29942E-04
        -0.54870E-03
        -0.19443E-03
        -0.40436E-05
        -0.55153E-03
        -0.19180E-04
        -0.22322E-05
        -0.15350E-05
        -0.33131E-04
        -0.10228E-05
        -0.25783E-04
        -0.12413E-04
        -0.42237E-05
        -0.28182E-05
        -0.52775E-04
        -0.26681E-05
        -0.27302E-06
        -0.80885E-06
        -0.12009E-05
        -0.49406E-04
        -0.22168E-04
        -0.13481E-05
        -0.98317E-05
        -0.73138E-05
        -0.12170E-05
        -0.15057E-04
        -0.53856E-04
        -0.32106E-03
        -0.25397E-03
        -0.19257E-03
        -0.10322E-03
        -0.54320E-05
        -0.26428E-04
        -0.41960E-04
        -0.68270E-04
        -0.28211E-03
        -0.95964E-04
        -0.41314E-04
        -0.63849E-04
        -0.88538E-04
        -0.97249E-04
        -0.35589E-06
        -0.14904E-03
        -0.31298E-03
        -0.17004E-02
        -0.28274E-02
        -0.46940E-02
        -0.67204E-02
        -0.64335E-02
        -0.49224E-02
        -0.45322E-02
        -0.44276E-02
        -0.17511E-02
        -0.19447E-03
        -0.30420E-04
        -0.23464E-04
        -0.38076E-05
        -0.34948E-03
        -0.14016E-02
        -0.26930E-02
        -0.45247E-02
        -0.55574E-02
        -0.42866E-02
        -0.38341E-02
        -0.37882E-02
        -0.18559E-02
        -0.49595E-03
        -0.44197E-03
        -0.13490E-03
        -0.52873E-04
        -0.45874E-04
        -0.31210E-05
        -0.76604E-04
        -0.15790E-04
        -0.99571E-05
        -0.12361E-03
        -0.53722E-04
        -0.11525E-03
        -0.29995E-04
        -0.54865E-03
        -0.19456E-03
        -0.40502E-05
        -0.55295E-03
        -0.19188E-04
        -0.22731E-05
        -0.15300E-05
        -0.33182E-04
        -0.10082E-05
        -0.25913E-04
        -0.12431E-04
        -0.42358E-05
        -0.28104E-05
        -0.53167E-04
        -0.26479E-05
        -0.28172E-06
        -0.82422E-06
        -0.11690E-05
        -0.49551E-04
        -0.22162E-04
        -0.13314E-05
        -0.98762E-05
        -0.73404E-05
        -0.11899E-05
        -0.15082E-04
        -0.53864E-04
        -0.32209E-03
        -0.25511E-03
        -0.19308E-03
        -0.10345E-03
        -0.53748E-05
        -0.26454E-04
        -0.42080E-04
        -0.68364E-04
        -0.28224E-03
        -0.96048E-04
        -0.41312E-04
        -0.63727E-04
        -0.88313E-04
        -0.97172E-04
        -0.34243E-06
        -0.14876E-03
        -0.31300E-03
        -0.17009E-02
        -0.28274E-02
        -0.46928E-02
        -0.67157E-02
        -0.64279E-02
        -0.49194E-02
        -0.45304E-02
        -0.44250E-02
        -0.17505E-02
        -0.19475E-03
        -0.30429E-04
        -0.23557E-04
        -0.37374E-05
        -0.34993E-03
        -0.14034E-02
        -0.26946E-02
        -0.45245E-02
        -0.55567E-02
        -0.42862E-02
        -0.38340E-02
        -0.37862E-02
        -0.18533E-02
        -0.49488E-03
        -0.44079E-03
        -0.13503E-03
        -0.52863E-04
        -0.45917E-04
        -0.31651E-05
        -0.76623E-04
        -0.15815E-04
        -0.99711E-05
        -0.12394E-03
        -0.53921E-04
        -0.11596E-03
        -0.30049E-04
        -0.54860E-03
        -0.19470E-03
        -0.40577E-05
        -0.55435E-03
        -0.19195E-04
        -0.23146E-05
        -0.15250E-05
        -0.33232E-04
        -0.99374E-06
        -0.26044E-04
        -0.12447E-04
        -0.42480E-05
        -0.28026E-05
        -0.53560E-04
        -0.26277E-05
        -0.29032E-06
        -0.83956E-06
        -0.11376E-05
        -0.49697E-04
        -0.22157E-04
        -0.13149E-05
        -0.99205E-05
        -0.73673E-05
        -0.11628E-05
        -0.15105E-04
        -0.53871E-04
        -0.32313E-03
        -0.25626E-03
        -0.19359E-03
        -0.10368E-03
        -0.53180E-05
        -0.26480E-04
        -0.42198E-04
        -0.68460E-04
        -0.28237E-03
        -0.96138E-04
        -0.41307E-04
        -0.63606E-04
        -0.88091E-04
        -0.97091E-04
        -0.32923E-06
        -0.14847E-03
        -0.31303E-03
        -0.17015E-02
        -0.28275E-02
        -0.46917E-02
        -0.67111E-02
        -0.64223E-02
        -0.49164E-02
        -0.45285E-02
        -0.44224E-02
        -0.17499E-02
        -0.19503E-03
        -0.30438E-04
        -0.23649E-04
        -0.36677E-05
        -0.35038E-03
        -0.14052E-02
        -0.26962E-02
        -0.45243E-02
        -0.55559E-02
        -0.42858E-02
        -0.38338E-02
        -0.37841E-02
        -0.18506E-02
        -0.49381E-03
        -0.43961E-03
        -0.13516E-03
        -0.52855E-04
        -0.45960E-04
        -0.32096E-05
        -0.76643E-04
        -0.15840E-04
        -0.99856E-05
        -0.12426E-03
        -0.54122E-04
        -0.11668E-03
        -0.30103E-04
        -0.54854E-03
        -0.19483E-03
        -0.40641E-05
        -0.55577E-03
        -0.19203E-04
        -0.23567E-05
        -0.15199E-05
        -0.33282E-04
        -0.97957E-06
        -0.26174E-04
        -0.12463E-04
        -0.42603E-05
        -0.27948E-05
        -0.53954E-04
        -0.26075E-05
        -0.29929E-06
        -0.85486E-06
        -0.11066E-05
        -0.49839E-04
        -0.22151E-04
        -0.12985E-05
        -0.99650E-05
        -0.73941E-05
        -0.11360E-05
        -0.15129E-04
        -0.53876E-04
        -0.32417E-03
        -0.25740E-03
        -0.19410E-03
        -0.10390E-03
        -0.52620E-05
        -0.26507E-04
        -0.42320E-04
        -0.68555E-04
        -0.28250E-03
        -0.96228E-04
        -0.41305E-04
        -0.63486E-04
        -0.87868E-04
        -0.97013E-04
        -0.31639E-06
        -0.14818E-03
        -0.31305E-03
        -0.17020E-02
        -0.28275E-02
        -0.46906E-02
        -0.67064E-02
        -0.64166E-02
        -0.49133E-02
        -0.45267E-02
        -0.44197E-02
        -0.17494E-02
        -0.19531E-03
        -0.30444E-04
        -0.23741E-04
        -0.35990E-05
        -0.35083E-03
        -0.14070E-02
        -0.26978E-02
        -0.45240E-02
        -0.55552E-02
        -0.42854E-02
        -0.38336E-02
        -0.37821E-02
        -0.18479E-02
        -0.49275E-03
        -0.43843E-03
        -0.13529E-03
        -0.52847E-04
        -0.46004E-04
        -0.32547E-05
        -0.76662E-04
        -0.15864E-04
        -0.99996E-05
        -0.12458E-03
        -0.54325E-04
        -0.11740E-03
        -0.30156E-04
        -0.54849E-03
        -0.19495E-03
        -0.40713E-05
        -0.55718E-03
        -0.19210E-04
        -0.23996E-05
        -0.15148E-05
        -0.33333E-04
        -0.96614E-06
        -0.26304E-04
        -0.12479E-04
        -0.42727E-05
        -0.27869E-05
        -0.54350E-04
        -0.25876E-05
        -0.30831E-06
        -0.87020E-06
        -0.10761E-05
        -0.49972E-04
        -0.22146E-04
        -0.12819E-05
        -0.10009E-04
        -0.74211E-05
        -0.11096E-05
        -0.15155E-04
        -0.53884E-04
        -0.32522E-03
        -0.25855E-03
        -0.19458E-03
        -0.10413E-03
        -0.52057E-05
        -0.26534E-04
        -0.42440E-04
        -0.68650E-04
        -0.28263E-03
        -0.96313E-04
        -0.41301E-04
        -0.63363E-04
        -0.87646E-04
        -0.96939E-04
        -0.30379E-06
        -0.14790E-03
        -0.31308E-03
        -0.17026E-02
        -0.28275E-02
        -0.46894E-02
        -0.67018E-02
        -0.64110E-02
        -0.49103E-02
        -0.45248E-02
        -0.44169E-02
        -0.17489E-02
        -0.19560E-03
        -0.30447E-04
        -0.23832E-04
        -0.35311E-05
        -0.35127E-03
        -0.14087E-02
        -0.26995E-02
        -0.45238E-02
        -0.55545E-02
        -0.42850E-02
        -0.38335E-02
        -0.37800E-02
        -0.18453E-02
        -0.49170E-03
        -0.43725E-03
        -0.13543E-03
        -0.52839E-04
        -0.46047E-04
        -0.33001E-05
        -0.76681E-04
        -0.15889E-04
        -0.10013E-04
        -0.12491E-03
        -0.54529E-04
        -0.11812E-03
        -0.30210E-04
        -0.54844E-03
        -0.19509E-03
        -0.40785E-05
        -0.55860E-03
        -0.19217E-04
        -0.24436E-05
        -0.15096E-05
        -0.33383E-04
        -0.95336E-06
        -0.26436E-04
        -0.12494E-04
        -0.42850E-05
        -0.27793E-05
        -0.54747E-04
        -0.25675E-05
        -0.31786E-06
        -0.88550E-06
        -0.10461E-05
        -0.50098E-04
        -0.22140E-04
        -0.12657E-05
        -0.10054E-04
        -0.74480E-05
        -0.10832E-05
        -0.15178E-04
        -0.53890E-04
        -0.32629E-03
        -0.25969E-03
        -0.19505E-03
        -0.10435E-03
        -0.51497E-05
        -0.26563E-04
        -0.42560E-04
        -0.68747E-04
        -0.28276E-03
        -0.96404E-04
        -0.41297E-04
        -0.63243E-04
        -0.87422E-04
        -0.96857E-04
        -0.29136E-06
        -0.14761E-03
        -0.31310E-03
        -0.17031E-02
        -0.28276E-02
        -0.46883E-02
        -0.66971E-02
        -0.64053E-02
        -0.49073E-02
        -0.45228E-02
        -0.44139E-02
        -0.17485E-02
        -0.19589E-03
        -0.30445E-04
        -0.23924E-04
        -0.34635E-05
        -0.35172E-03
        -0.14105E-02
        -0.27011E-02
        -0.45236E-02
        -0.55537E-02
        -0.42846E-02
        -0.38333E-02
        -0.37779E-02
        -0.18426E-02
        -0.49065E-03
        -0.43608E-03
        -0.13556E-03
        -0.52831E-04
        -0.46094E-04
        -0.33455E-05
        -0.76704E-04
        -0.15914E-04
        -0.10029E-04
        -0.12523E-03
        -0.54736E-04
        -0.11884E-03
        -0.30263E-04
        -0.54839E-03
        -0.19522E-03
        -0.40848E-05
        -0.56002E-03
        -0.19225E-04
        -0.24883E-05
        -0.15045E-05
        -0.33434E-04
        -0.94101E-06
        -0.26568E-04
        -0.12509E-04
        -0.42966E-05
        -0.27722E-05
        -0.55146E-04
        -0.25483E-05
        -0.32730E-06
        -0.90029E-06
        -0.10169E-05
        -0.50222E-04
        -0.22135E-04
        -0.12499E-05
        -0.10098E-04
        -0.74756E-05
        -0.10574E-05
        -0.15202E-04
        -0.53894E-04
        -0.32737E-03
        -0.26083E-03
        -0.19549E-03
        -0.10457E-03
        -0.50952E-05
        -0.26594E-04
        -0.42679E-04
        -0.68839E-04
        -0.28289E-03
        -0.96492E-04
        -0.41294E-04
        -0.63123E-04
        -0.87201E-04
        -0.96783E-04
        -0.27927E-06
        -0.14732E-03
        -0.31313E-03
        -0.17037E-02
        -0.28276E-02
        -0.46872E-02
        -0.66925E-02
        -0.63997E-02
        -0.49043E-02
        -0.45209E-02
        -0.44109E-02
        -0.17480E-02
        -0.19617E-03
        -0.30438E-04
        -0.24016E-04
        -0.33965E-05
        -0.35216E-03
        -0.14123E-02
        -0.27027E-02
        -0.45234E-02
        -0.55530E-02
        -0.42842E-02
        -0.38331E-02
        -0.37759E-02
        -0.18400E-02
        -0.48961E-03
        -0.43491E-03
        -0.13698E-03
        -0.53346E-04
        -0.46596E-04
        -0.34215E-05
        -0.77477E-04
        -0.16089E-04
        -0.10144E-04
        -0.12674E-03
        -0.55448E-04
        -0.12066E-03
        -0.30612E-04
        -0.55374E-03
        -0.19721E-03
        -0.41314E-05
        -0.56705E-03
        -0.19417E-04
        -0.25547E-05
        -0.15135E-05
        -0.33803E-04
        -0.93909E-06
        -0.26941E-04
        -0.12643E-04
        -0.43412E-05
        -0.27951E-05
        -0.56067E-04
        -0.25594E-05
        -0.33938E-06
        -0.92065E-06
        -0.10035E-05
        -0.50848E-04
        -0.22347E-04
        -0.12506E-05
        -0.10236E-04
        -0.75735E-05
        -0.10446E-05
        -0.15359E-04
        -0.54392E-04
        -0.33165E-03
        -0.26451E-03
        -0.19788E-03
        -0.10581E-03
        -0.51037E-05
        -0.26895E-04
        -0.43150E-04
        -0.69532E-04
        -0.28562E-03
        -0.97444E-04
        -0.41651E-04
        -0.63587E-04
        -0.87811E-04
        -0.97637E-04
        -0.27015E-06
        -0.14863E-03
        -0.31668E-03
        -0.17231E-02
        -0.28585E-02
        -0.47383E-02
        -0.67653E-02
        -0.64692E-02
        -0.49589E-02
        -0.45722E-02
        -0.44608E-02
        -0.17681E-02
        -0.19857E-03
        -0.30735E-04
        -0.24343E-04
        -0.33671E-05
        -0.35603E-03
        -0.14280E-02
        -0.27327E-02
        -0.45737E-02
        -0.56146E-02
        -0.43293E-02
        -0.38727E-02
        -0.38140E-02
        -0.18570E-02
        -0.49379E-03
        -0.43837E-03
        -0.30884E-03
        -0.12135E-03
        -0.10479E-03
        -0.78180E-05
        -0.16262E-03
        -0.34415E-04
        -0.23017E-04
        -0.28388E-03
        -0.12459E-03
        -0.26922E-03
        -0.67204E-04
        -0.11238E-02
        -0.41170E-03
        -0.90010E-05
        -0.11652E-02
        -0.43844E-04
        -0.58120E-05
        -0.34094E-05
        -0.74439E-04
        -0.20686E-05
        -0.56267E-04
        -0.27029E-04
        -0.90701E-05
        -0.62428E-05
        -0.12764E-03
        -0.58057E-05
        -0.76421E-06
        -0.21006E-05
        -0.22675E-05
        -0.11539E-03
        -0.50475E-04
        -0.28075E-05
        -0.23272E-04
        -0.17181E-04
        -0.20578E-05
        -0.32780E-04
        -0.11609E-03
        -0.71158E-03
        -0.58377E-03
        -0.43957E-03
        -0.22872E-03
        -0.11139E-04
        -0.58870E-04
        -0.91554E-04
        -0.14660E-03
        -0.56945E-03
        -0.20420E-03
        -0.89299E-04
        -0.13765E-03
        -0.18851E-03
        -0.20007E-03
        -0.55628E-06
        -0.23866E-03
        -0.50763E-03
        -0.27644E-02
        -0.46074E-02
        -0.76333E-02
        -0.10969E-01
        -0.10729E-01
        -0.83634E-02
        -0.76846E-02
        -0.74146E-02
        -0.29433E-02
        -0.32880E-03
        -0.51797E-04
        -0.41355E-04
        -0.54912E-05
        -0.57519E-03
        -0.22939E-02
        -0.43507E-02
        -0.72856E-02
        -0.89656E-02
        -0.70415E-02
        -0.63494E-02
        -0.62131E-02
        -0.30442E-02
        -0.80387E-03
        -0.70821E-03
  
SCALARS                      strain_zz  double 1
LOOKUP_TABLE default
         0.11851E+02
         0.11692E+02
         0.11791E+02
         0.11973E+02
        -0.33891E-08
        -0.38003E-08
        -0.36390E-08
        -0.33058E-08
         0.11674E+02
         0.11734E+02
        -0.34175E-08
        -0.33072E-08
         0.11462E+02
         0.11454E+02
        -0.40607E-08
        -0.38180E-08
         0.11946E+02
         0.11465E+02
        -0.30004E-08
        -0.33279E-08
         0.11289E+02
         0.11147E+02
         0.11364E+02
        -0.40246E-08
        -0.35147E-08
        -0.36294E-08
         0.11156E+02
         0.10953E+02
        -0.38610E-08
        -0.32561E-08
         0.11937E+02
         0.11729E+02
         0.12140E+02
        -0.32948E-08
        -0.30630E-08
        -0.29781E-08
         0.11815E+02
         0.11550E+02
        -0.34858E-08
        -0.31808E-08
         0.11708E+02
         0.11501E+02
        -0.30127E-08
        -0.26671E-08
         0.11881E+02
         0.11961E+02
        -0.33015E-08
        -0.36889E-08
         0.11341E+02
        -0.32253E-08
         0.11946E+02
        -0.37899E-08
         0.11100E+02
        -0.34060E-08
         0.11037E+02
        -0.32671E-08
         0.11035E+02
         0.11262E+02
        -0.33287E-08
        -0.32418E-08
         0.11933E+02
         0.11850E+02
        -0.33379E-08
        -0.37734E-08
         0.11983E+02
        -0.32208E-08
         0.11886E+02
        -0.35151E-08
         0.11613E+02
         0.11601E+02
        -0.33837E-08
        -0.35455E-08
         0.11548E+02
        -0.35752E-08
         0.10880E+02
        -0.28247E-08
         0.10843E+02
        -0.27418E-08
         0.10856E+02
        -0.28909E-08
         0.10940E+02
         0.11053E+02
        -0.27544E-08
        -0.28716E-08
         0.11263E+02
        -0.26745E-08
         0.11874E+02
        -0.35073E-08
         0.11771E+02
        -0.35896E-08
         0.11679E+02
         0.11653E+02
        -0.34472E-08
        -0.34874E-08
         0.11713E+02
        -0.31676E-08
         0.11751E+02
        -0.31224E-08
         0.11712E+02
        -0.33426E-08
         0.11687E+02
         0.11731E+02
        -0.32779E-08
        -0.33741E-08
         0.11444E+02
         0.11518E+02
        -0.25450E-08
        -0.23937E-08
         0.11408E+02
        -0.24301E-08
         0.11494E+02
        -0.23301E-08
         0.11398E+02
        -0.22976E-08
         0.11164E+02
        -0.21713E-08
         0.10928E+02
        -0.19289E-08
         0.10795E+02
        -0.17369E-08
         0.10782E+02
        -0.17248E-08
         0.10788E+02
        -0.18705E-08
         0.10936E+02
        -0.19658E-08
         0.11185E+02
        -0.17950E-08
         0.11470E+02
        -0.16180E-08
         0.11655E+02
        -0.16162E-08
         0.11834E+02
        -0.18065E-08
         0.11951E+02
        -0.20598E-08
         0.11938E+02
        -0.22128E-08
         0.11689E+02
        -0.23899E-08
         0.11521E+02
        -0.25604E-08
         0.11428E+02
        -0.23455E-08
         0.11513E+02
        -0.20576E-08
         0.11576E+02
        -0.20513E-08
         0.11512E+02
        -0.22443E-08
         0.11532E+02
        -0.23926E-08
         0.11581E+02
        -0.22706E-08
         0.11648E+02
        -0.21951E-08
        -0.49166E+00
        -0.48890E+00
        -0.48930E+00
        -0.49273E+00
        -0.48574E+00
        -0.48960E+00
        -0.48477E+00
        -0.48743E+00
        -0.49224E+00
        -0.48939E+00
        -0.48161E+00
        -0.48048E+00
        -0.48318E+00
        -0.48343E+00
        -0.48163E+00
        -0.49258E+00
        -0.49200E+00
        -0.49358E+00
        -0.48857E+00
        -0.48961E+00
        -0.48804E+00
        -0.48903E+00
        -0.48715E+00
        -0.48773E+00
        -0.48952E+00
        -0.48941E+00
        -0.48622E+00
        -0.48653E+00
        -0.48390E+00
        -0.48777E+00
        -0.49230E+00
        -0.48886E+00
        -0.49228E+00
        -0.49011E+00
        -0.47976E+00
        -0.48352E+00
        -0.48513E+00
        -0.48316E+00
        -0.48293E+00
        -0.47952E+00
        -0.47676E+00
        -0.48306E+00
        -0.48808E+00
        -0.48749E+00
        -0.48496E+00
        -0.47989E+00
        -0.48429E+00
        -0.48834E+00
        -0.48808E+00
        -0.48497E+00
        -0.48136E+00
        -0.48611E+00
        -0.46885E+00
        -0.47419E+00
        -0.47324E+00
        -0.47439E+00
        -0.47395E+00
        -0.47092E+00
        -0.46789E+00
        -0.46705E+00
        -0.46756E+00
        -0.46716E+00
        -0.46584E+00
        -0.47379E+00
        -0.47676E+00
        -0.47786E+00
        -0.47942E+00
        -0.48054E+00
        -0.48040E+00
        -0.47824E+00
        -0.47062E+00
        -0.47247E+00
        -0.47527E+00
        -0.47533E+00
        -0.47486E+00
        -0.47231E+00
        -0.47604E+00
        -0.47732E+00
         0.16932E-03
         0.63008E-04
         0.60217E-04
         0.45543E-04
         0.17497E-03
         0.10184E-03
         0.89600E-05
         0.13082E-03
         0.83830E-04
         0.11311E-03
         0.87774E-05
         0.56141E-03
         0.32995E-03
         0.35473E-04
         0.60157E-03
         0.85425E-04
         0.34950E-04
         0.27620E-04
         0.36200E-04
         0.13400E-04
         0.34460E-03
         0.31359E-03
         0.27944E-03
         0.15336E-04
         0.34240E-04
         0.33660E-05
         0.96646E-05
        -0.48334E-04
        -0.15946E-04
         0.46363E-04
         0.63485E-04
         0.15692E-04
         0.43556E-04
         0.48172E-04
         0.26814E-03
         0.97049E-04
         0.16602E-03
         0.39244E-03
         0.22812E-03
         0.20284E-03
         0.42515E-03
         0.34388E-03
         0.35091E-03
         0.20226E-03
         0.16116E-03
         0.31003E-03
         0.13706E-03
         0.10308E-03
         0.77933E-04
         0.11102E-03
         0.26568E-03
         0.14226E-03
         0.47682E-02
         0.50350E-02
         0.54780E-02
         0.54259E-02
         0.61850E-02
         0.71389E-02
         0.65679E-02
         0.52073E-02
         0.49386E-02
         0.56359E-02
         0.54097E-02
         0.52586E-02
         0.35874E-02
         0.32563E-02
         0.39021E-02
         0.44605E-02
         0.48082E-02
         0.57387E-02
         0.53147E-02
         0.56304E-02
         0.45681E-02
         0.41111E-02
         0.46628E-02
         0.44557E-02
         0.47337E-02
         0.46684E-02
         0.16835E-03
         0.61794E-04
         0.59047E-04
         0.44507E-04
         0.17341E-03
         0.10043E-03
         0.76970E-05
         0.12972E-03
         0.82754E-04
         0.11236E-03
         0.72560E-05
         0.55960E-03
         0.32864E-03
         0.33587E-04
         0.60108E-03
         0.84253E-04
         0.33640E-04
         0.26484E-04
         0.34791E-04
         0.11836E-04
         0.34311E-03
         0.31203E-03
         0.27781E-03
         0.13857E-04
         0.33051E-04
         0.19543E-05
         0.82542E-05
        -0.49899E-04
        -0.17483E-04
         0.44885E-04
         0.62341E-04
         0.14347E-04
         0.42341E-04
         0.47084E-04
         0.26679E-03
         0.95596E-04
         0.16455E-03
         0.39192E-03
         0.22751E-03
         0.20176E-03
         0.42395E-03
         0.34251E-03
         0.34935E-03
         0.20070E-03
         0.15963E-03
         0.30840E-03
         0.13558E-03
         0.10167E-03
         0.76455E-04
         0.10947E-03
         0.26393E-03
         0.14054E-03
         0.47619E-02
         0.50299E-02
         0.54753E-02
         0.54234E-02
         0.61803E-02
         0.71311E-02
         0.65595E-02
         0.52015E-02
         0.49330E-02
         0.56294E-02
         0.54048E-02
         0.52560E-02
         0.35842E-02
         0.32537E-02
         0.39006E-02
         0.44601E-02
         0.48080E-02
         0.57385E-02
         0.53114E-02
         0.56269E-02
         0.45644E-02
         0.41081E-02
         0.46571E-02
         0.44473E-02
         0.47259E-02
         0.46609E-02
         0.16886E-03
         0.62063E-04
         0.59362E-04
         0.44868E-04
         0.17363E-03
         0.10070E-03
         0.80660E-05
         0.13031E-03
         0.83160E-04
         0.11316E-03
         0.75638E-05
         0.55990E-03
         0.32920E-03
         0.33582E-04
         0.60278E-03
         0.84121E-04
         0.33680E-04
         0.26738E-04
         0.34476E-04
         0.11503E-04
         0.34293E-03
         0.31190E-03
         0.27673E-03
         0.12789E-04
         0.32798E-04
         0.96396E-06
         0.85892E-05
        -0.50138E-04
        -0.18046E-04
         0.43912E-04
         0.62453E-04
         0.14033E-04
         0.42565E-04
         0.47486E-04
         0.26744E-03
         0.95900E-04
         0.16478E-03
         0.39351E-03
         0.22888E-03
         0.20243E-03
         0.42448E-03
         0.34225E-03
         0.34856E-03
         0.19968E-03
         0.15932E-03
         0.30860E-03
         0.13585E-03
         0.10197E-03
         0.76621E-04
         0.10962E-03
         0.26408E-03
         0.14057E-03
         0.47593E-02
         0.50283E-02
         0.54761E-02
         0.54241E-02
         0.61787E-02
         0.71268E-02
         0.65547E-02
         0.51993E-02
         0.49311E-02
         0.56267E-02
         0.54033E-02
         0.52564E-02
         0.35836E-02
         0.32539E-02
         0.39019E-02
         0.44619E-02
         0.48100E-02
         0.57411E-02
         0.53115E-02
         0.56271E-02
         0.45642E-02
         0.41083E-02
         0.46548E-02
         0.44422E-02
         0.47212E-02
         0.46565E-02
         0.16891E-03
         0.61982E-04
         0.59314E-04
         0.44760E-04
         0.17335E-03
         0.10050E-03
         0.80423E-05
         0.13040E-03
         0.82988E-04
         0.11325E-03
         0.74074E-05
         0.55969E-03
         0.32934E-03
         0.33029E-04
         0.60385E-03
         0.83230E-04
         0.32962E-04
         0.26500E-04
         0.33255E-04
         0.10179E-04
         0.34184E-03
         0.31083E-03
         0.27431E-03
         0.10399E-04
         0.31292E-04
        -0.12898E-05
         0.82325E-05
        -0.51406E-04
        -0.19963E-04
         0.41262E-04
         0.61960E-04
         0.12823E-04
         0.42310E-04
         0.47337E-04
         0.26746E-03
         0.95707E-04
         0.16459E-03
         0.39446E-03
         0.22958E-03
         0.20230E-03
         0.42409E-03
         0.34067E-03
         0.34628E-03
         0.19728E-03
         0.15806E-03
         0.30795E-03
         0.13539E-03
         0.10170E-03
         0.76215E-04
         0.10912E-03
         0.26358E-03
         0.14006E-03
         0.47555E-02
         0.50256E-02
         0.54756E-02
         0.54238E-02
         0.61765E-02
         0.71218E-02
         0.65488E-02
         0.51961E-02
         0.49281E-02
         0.56227E-02
         0.54006E-02
         0.52554E-02
         0.35817E-02
         0.32530E-02
         0.39021E-02
         0.44623E-02
         0.48106E-02
         0.57427E-02
         0.53104E-02
         0.56260E-02
         0.45628E-02
         0.41074E-02
         0.46511E-02
         0.44361E-02
         0.47157E-02
         0.46514E-02
         0.16883E-03
         0.61794E-04
         0.59191E-04
         0.44646E-04
         0.17306E-03
         0.10026E-03
         0.79530E-05
         0.13037E-03
         0.82742E-04
         0.11330E-03
         0.72416E-05
         0.55954E-03
         0.32945E-03
         0.32459E-04
         0.60502E-03
         0.82683E-04
         0.32423E-04
         0.26276E-04
         0.32467E-04
         0.92108E-05
         0.34119E-03
         0.31007E-03
         0.27285E-03
         0.89154E-05
         0.30323E-04
        -0.27364E-05
         0.79224E-05
        -0.52323E-04
        -0.21263E-04
         0.39547E-04
         0.61445E-04
         0.11943E-04
         0.41887E-04
         0.47116E-04
         0.26749E-03
         0.95474E-04
         0.16435E-03
         0.39551E-03
         0.23037E-03
         0.20237E-03
         0.42403E-03
         0.33976E-03
         0.34486E-03
         0.19582E-03
         0.15725E-03
         0.30755E-03
         0.13500E-03
         0.10128E-03
         0.75649E-04
         0.10850E-03
         0.26297E-03
         0.13947E-03
         0.47516E-02
         0.50230E-02
         0.54752E-02
         0.54236E-02
         0.61743E-02
         0.71169E-02
         0.65431E-02
         0.51930E-02
         0.49252E-02
         0.56189E-02
         0.53982E-02
         0.52550E-02
         0.35804E-02
         0.32523E-02
         0.39027E-02
         0.44638E-02
         0.48123E-02
         0.57447E-02
         0.53097E-02
         0.56249E-02
         0.45613E-02
         0.41064E-02
         0.46474E-02
         0.44298E-02
         0.47101E-02
         0.46462E-02
         0.16829E-03
         0.61403E-04
         0.59067E-04
         0.44865E-04
         0.17311E-03
         0.10042E-03
         0.79169E-05
         0.13010E-03
         0.82321E-04
         0.11309E-03
         0.73780E-05
         0.55991E-03
         0.32987E-03
         0.32149E-04
         0.60679E-03
         0.82963E-04
         0.32394E-04
         0.26537E-04
         0.32684E-04
         0.92986E-05
         0.34153E-03
         0.31033E-03
         0.27294E-03
         0.88806E-05
         0.30153E-04
        -0.29445E-05
         0.78764E-05
        -0.52446E-04
        -0.21101E-04
         0.39648E-04
         0.60803E-04
         0.11474E-04
         0.41234E-04
         0.47087E-04
         0.26792E-03
         0.95451E-04
         0.16426E-03
         0.39712E-03
         0.23180E-03
         0.20335E-03
         0.42504E-03
         0.34038E-03
         0.34521E-03
         0.19583E-03
         0.15716E-03
         0.30754E-03
         0.13467E-03
         0.10044E-03
         0.74538E-04
         0.10777E-03
         0.26259E-03
         0.13923E-03
         0.47488E-02
         0.50213E-02
         0.54757E-02
         0.54240E-02
         0.61727E-02
         0.71127E-02
         0.65383E-02
         0.51908E-02
         0.49234E-02
         0.56165E-02
         0.53973E-02
         0.52562E-02
         0.35807E-02
         0.32527E-02
         0.39044E-02
         0.44672E-02
         0.48159E-02
         0.57478E-02
         0.53094E-02
         0.56245E-02
         0.45603E-02
         0.41055E-02
         0.46440E-02
         0.44241E-02
         0.47051E-02
         0.46418E-02
         0.16735E-03
         0.60684E-04
         0.58696E-04
         0.44823E-04
         0.17282E-03
         0.10033E-03
         0.74568E-05
         0.12931E-03
         0.81480E-04
         0.11243E-03
         0.70291E-05
         0.55977E-03
         0.32991E-03
         0.31300E-04
         0.60798E-03
         0.82909E-04
         0.31972E-04
         0.26440E-04
         0.32586E-04
         0.90399E-05
         0.34155E-03
         0.31026E-03
         0.27289E-03
         0.86974E-05
         0.29722E-04
        -0.33161E-05
         0.73252E-05
        -0.52924E-04
        -0.21164E-04
         0.39589E-04
         0.59850E-04
         0.10705E-04
         0.40278E-04
         0.46779E-04
         0.26792E-03
         0.95122E-04
         0.16388E-03
         0.39818E-03
         0.23272E-03
         0.20388E-03
         0.42566E-03
         0.34077E-03
         0.34537E-03
         0.19570E-03
         0.15673E-03
         0.30702E-03
         0.13389E-03
         0.99192E-04
         0.73053E-04
         0.10667E-03
         0.26188E-03
         0.13872E-03
         0.47451E-02
         0.50187E-02
         0.54754E-02
         0.54239E-02
         0.61704E-02
         0.71075E-02
         0.65325E-02
         0.51878E-02
         0.49207E-02
         0.56129E-02
         0.53954E-02
         0.52567E-02
         0.35804E-02
         0.32526E-02
         0.39055E-02
         0.44701E-02
         0.48191E-02
         0.57501E-02
         0.53080E-02
         0.56230E-02
         0.45586E-02
         0.41040E-02
         0.46398E-02
         0.44178E-02
         0.46996E-02
         0.46366E-02
         0.16721E-03
         0.60417E-04
         0.58572E-04
         0.44743E-04
         0.17252E-03
         0.10009E-03
         0.72628E-05
         0.12915E-03
         0.81376E-04
         0.11269E-03
         0.67902E-05
         0.55956E-03
         0.32995E-03
         0.30669E-04
         0.60910E-03
         0.82877E-04
         0.31874E-04
         0.26256E-04
         0.32499E-04
         0.88297E-05
         0.34150E-03
         0.31008E-03
         0.27279E-03
         0.85560E-05
         0.29833E-04
        -0.35311E-05
         0.71138E-05
        -0.53187E-04
        -0.21331E-04
         0.39542E-04
         0.59609E-04
         0.10388E-04
         0.39916E-04
         0.46621E-04
         0.26798E-03
         0.94937E-04
         0.16363E-03
         0.39918E-03
         0.23360E-03
         0.20427E-03
         0.42604E-03
         0.34096E-03
         0.34540E-03
         0.19560E-03
         0.15650E-03
         0.30684E-03
         0.13368E-03
         0.98906E-04
         0.72583E-04
         0.10614E-03
         0.26136E-03
         0.13818E-03
         0.47412E-02
         0.50160E-02
         0.54750E-02
         0.54237E-02
         0.61680E-02
         0.71025E-02
         0.65267E-02
         0.51847E-02
         0.49178E-02
         0.56088E-02
         0.53931E-02
         0.52571E-02
         0.35799E-02
         0.32521E-02
         0.39063E-02
         0.44727E-02
         0.48219E-02
         0.57523E-02
         0.53069E-02
         0.56220E-02
         0.45575E-02
         0.41033E-02
         0.46361E-02
         0.44115E-02
         0.46939E-02
         0.46313E-02
         0.16760E-03
         0.60598E-04
         0.58753E-04
         0.44858E-04
         0.17257E-03
         0.10005E-03
         0.75342E-05
         0.12961E-03
         0.81778E-04
         0.11360E-03
         0.69918E-05
         0.55978E-03
         0.33041E-03
         0.30583E-04
         0.61075E-03
         0.83277E-04
         0.32206E-04
         0.26353E-04
         0.32796E-04
         0.90034E-05
         0.34184E-03
         0.31030E-03
         0.27309E-03
         0.87971E-05
         0.30463E-04
        -0.33105E-05
         0.75178E-05
        -0.52922E-04
        -0.21035E-04
         0.39916E-04
         0.59917E-04
         0.10542E-04
         0.39977E-04
         0.46719E-04
         0.26848E-03
         0.95084E-04
         0.16375E-03
         0.40074E-03
         0.23497E-03
         0.20511E-03
         0.42692E-03
         0.34161E-03
         0.34582E-03
         0.19593E-03
         0.15671E-03
         0.30713E-03
         0.13392E-03
         0.99155E-04
         0.72663E-04
         0.10608E-03
         0.26126E-03
         0.13788E-03
         0.47384E-02
         0.50142E-02
         0.54752E-02
         0.54239E-02
         0.61663E-02
         0.70981E-02
         0.65217E-02
         0.51823E-02
         0.49154E-02
         0.56056E-02
         0.53918E-02
         0.52584E-02
         0.35801E-02
         0.32522E-02
         0.39077E-02
         0.44760E-02
         0.48256E-02
         0.57554E-02
         0.53066E-02
         0.56217E-02
         0.45572E-02
         0.41033E-02
         0.46332E-02
         0.44061E-02
         0.46890E-02
         0.46268E-02
         0.16773E-03
         0.60582E-04
         0.58766E-04
         0.44829E-04
         0.17240E-03
         0.99882E-04
         0.75836E-05
         0.12971E-03
         0.81830E-04
         0.11410E-03
         0.69035E-05
         0.55965E-03
         0.33067E-03
         0.30090E-04
         0.61186E-03
         0.83315E-04
         0.32186E-04
         0.26161E-04
         0.32732E-04
         0.88300E-05
         0.34187E-03
         0.31018E-03
         0.27306E-03
         0.87041E-05
         0.30789E-04
        -0.34037E-05
         0.74804E-05
        -0.52967E-04
        -0.21012E-04
         0.39984E-04
         0.59913E-04
         0.10433E-04
         0.39745E-04
         0.46611E-04
         0.26866E-03
         0.94987E-04
         0.16366E-03
         0.40179E-03
         0.23599E-03
         0.20564E-03
         0.42746E-03
         0.34194E-03
         0.34587E-03
         0.19599E-03
         0.15668E-03
         0.30713E-03
         0.13386E-03
         0.99045E-04
         0.72394E-04
         0.10574E-03
         0.26090E-03
         0.13742E-03
         0.47347E-02
         0.50117E-02
         0.54748E-02
         0.54237E-02
         0.61643E-02
         0.70931E-02
         0.65158E-02
         0.51791E-02
         0.49128E-02
         0.56018E-02
         0.53896E-02
         0.52589E-02
         0.35796E-02
         0.32520E-02
         0.39088E-02
         0.44789E-02
         0.48289E-02
         0.57580E-02
         0.53057E-02
         0.56207E-02
         0.45560E-02
         0.41027E-02
         0.46298E-02
         0.44002E-02
         0.46836E-02
         0.46217E-02
         0.16776E-03
         0.60443E-04
         0.58716E-04
         0.44841E-04
         0.17215E-03
         0.99748E-04
         0.75550E-05
         0.12977E-03
         0.81896E-04
         0.11461E-03
         0.68021E-05
         0.55948E-03
         0.33085E-03
         0.29630E-04
         0.61298E-03
         0.83309E-04
         0.32197E-04
         0.26033E-04
         0.32643E-04
         0.86874E-05
         0.34188E-03
         0.31007E-03
         0.27300E-03
         0.85608E-05
         0.31117E-04
        -0.35732E-05
         0.74672E-05
        -0.53046E-04
        -0.20999E-04
         0.40078E-04
         0.59863E-04
         0.10265E-04
         0.39580E-04
         0.46619E-04
         0.26874E-03
         0.94831E-04
         0.16351E-03
         0.40286E-03
         0.23700E-03
         0.20618E-03
         0.42805E-03
         0.34229E-03
         0.34593E-03
         0.19599E-03
         0.15660E-03
         0.30712E-03
         0.13380E-03
         0.98950E-04
         0.72132E-04
         0.10541E-03
         0.26057E-03
         0.13703E-03
         0.47309E-02
         0.50090E-02
         0.54744E-02
         0.54237E-02
         0.61621E-02
         0.70880E-02
         0.65098E-02
         0.51759E-02
         0.49101E-02
         0.55981E-02
         0.53877E-02
         0.52593E-02
         0.35790E-02
         0.32517E-02
         0.39098E-02
         0.44817E-02
         0.48321E-02
         0.57605E-02
         0.53048E-02
         0.56197E-02
         0.45548E-02
         0.41020E-02
         0.46264E-02
         0.43942E-02
         0.46782E-02
         0.46165E-02
         0.16805E-03
         0.60499E-04
         0.58813E-04
         0.44995E-04
         0.17214E-03
         0.99779E-04
         0.77605E-05
         0.13015E-03
         0.82193E-04
         0.11537E-03
         0.69984E-05
         0.55964E-03
         0.33119E-03
         0.29526E-04
         0.61459E-03
         0.83601E-04
         0.32405E-04
         0.26130E-04
         0.32841E-04
         0.88189E-05
         0.34217E-03
         0.31026E-03
         0.27322E-03
         0.87087E-05
         0.31635E-04
        -0.34353E-05
         0.77419E-05
        -0.52880E-04
        -0.20675E-04
         0.40472E-04
         0.60128E-04
         0.10365E-04
         0.39671E-04
         0.46814E-04
         0.26915E-03
         0.94918E-04
         0.16353E-03
         0.40438E-03
         0.23838E-03
         0.20711E-03
         0.42896E-03
         0.34288E-03
         0.34630E-03
         0.19624E-03
         0.15674E-03
         0.30732E-03
         0.13397E-03
         0.99118E-04
         0.72140E-04
         0.10532E-03
         0.26046E-03
         0.13683E-03
         0.47278E-02
         0.50071E-02
         0.54747E-02
         0.54239E-02
         0.61600E-02
         0.70832E-02
         0.65046E-02
         0.51735E-02
         0.49079E-02
         0.55950E-02
         0.53863E-02
         0.52602E-02
         0.35791E-02
         0.32519E-02
         0.39113E-02
         0.44849E-02
         0.48356E-02
         0.57633E-02
         0.53043E-02
         0.56193E-02
         0.45544E-02
         0.41019E-02
         0.46234E-02
         0.43887E-02
         0.46733E-02
         0.46120E-02
         0.16816E-03
         0.60389E-04
         0.58766E-04
         0.44953E-04
         0.17189E-03
         0.99577E-04
         0.77019E-05
         0.13022E-03
         0.82288E-04
         0.11584E-03
         0.68443E-05
         0.55943E-03
         0.33126E-03
         0.28998E-04
         0.61578E-03
         0.83625E-04
         0.32384E-04
         0.25927E-04
         0.32721E-04
         0.86221E-05
         0.34209E-03
         0.31006E-03
         0.27307E-03
         0.85438E-05
         0.31872E-04
        -0.35848E-05
         0.75692E-05
        -0.53128E-04
        -0.20773E-04
         0.40508E-04
         0.60089E-04
         0.10205E-04
         0.39408E-04
         0.46719E-04
         0.26923E-03
         0.94748E-04
         0.16331E-03
         0.40542E-03
         0.23929E-03
         0.20753E-03
         0.42937E-03
         0.34305E-03
         0.34628E-03
         0.19613E-03
         0.15658E-03
         0.30723E-03
         0.13387E-03
         0.98953E-04
         0.71843E-04
         0.10498E-03
         0.26008E-03
         0.13636E-03
         0.47240E-02
         0.50045E-02
         0.54742E-02
         0.54236E-02
         0.61576E-02
         0.70780E-02
         0.64988E-02
         0.51704E-02
         0.49050E-02
         0.55910E-02
         0.53840E-02
         0.52604E-02
         0.35784E-02
         0.32514E-02
         0.39121E-02
         0.44875E-02
         0.48384E-02
         0.57655E-02
         0.53033E-02
         0.56183E-02
         0.45532E-02
         0.41014E-02
         0.46201E-02
         0.43827E-02
         0.46678E-02
         0.46068E-02
         0.16833E-03
         0.60353E-04
         0.58785E-04
         0.44989E-04
         0.17174E-03
         0.99459E-04
         0.77629E-05
         0.13041E-03
         0.82501E-04
         0.11650E-03
         0.68422E-05
         0.55941E-03
         0.33152E-03
         0.28662E-04
         0.61709E-03
         0.83755E-04
         0.32515E-04
         0.25852E-04
         0.32752E-04
         0.85670E-05
         0.34217E-03
         0.31002E-03
         0.27309E-03
         0.85112E-05
         0.32273E-04
        -0.36329E-05
         0.76564E-05
        -0.53174E-04
        -0.20729E-04
         0.40647E-04
         0.60117E-04
         0.10132E-04
         0.39256E-04
         0.46727E-04
         0.26946E-03
         0.94672E-04
         0.16321E-03
         0.40663E-03
         0.24032E-03
         0.20811E-03
         0.43002E-03
         0.34345E-03
         0.34644E-03
         0.19621E-03
         0.15657E-03
         0.30730E-03
         0.13388E-03
         0.98907E-04
         0.71642E-04
         0.10473E-03
         0.25983E-03
         0.13599E-03
         0.47206E-02
         0.50022E-02
         0.54740E-02
         0.54235E-02
         0.61556E-02
         0.70732E-02
         0.64932E-02
         0.51673E-02
         0.49023E-02
         0.55873E-02
         0.53822E-02
         0.52610E-02
         0.35781E-02
         0.32511E-02
         0.39132E-02
         0.44904E-02
         0.48417E-02
         0.57681E-02
         0.53026E-02
         0.56175E-02
         0.45522E-02
         0.41009E-02
         0.46168E-02
         0.43769E-02
         0.46624E-02
         0.46017E-02
         0.16883E-03
         0.60698E-04
         0.59123E-04
         0.45280E-04
         0.17196E-03
         0.99640E-04
         0.82520E-05
         0.13098E-03
         0.82945E-04
         0.11745E-03
         0.72819E-05
         0.55989E-03
         0.33222E-03
         0.28737E-04
         0.61889E-03
         0.84206E-04
         0.32927E-04
         0.26069E-04
         0.33130E-04
         0.88827E-05
         0.34269E-03
         0.31040E-03
         0.27352E-03
         0.88338E-05
         0.33050E-04
        -0.33180E-05
         0.81548E-05
        -0.52704E-04
        -0.20175E-04
         0.41229E-04
         0.60544E-04
         0.10443E-04
         0.39441E-04
         0.46974E-04
         0.27011E-03
         0.94985E-04
         0.16351E-03
         0.40827E-03
         0.24189E-03
         0.20918E-03
         0.43108E-03
         0.34425E-03
         0.34696E-03
         0.19671E-03
         0.15700E-03
         0.30780E-03
         0.13430E-03
         0.99278E-04
         0.71795E-04
         0.10476E-03
         0.25986E-03
         0.13589E-03
         0.47179E-02
         0.50006E-02
         0.54745E-02
         0.54240E-02
         0.61542E-02
         0.70691E-02
         0.64882E-02
         0.51649E-02
         0.49004E-02
         0.55843E-02
         0.53810E-02
         0.52623E-02
         0.35783E-02
         0.32515E-02
         0.39150E-02
         0.44941E-02
         0.48458E-02
         0.57716E-02
         0.53025E-02
         0.56175E-02
         0.45520E-02
         0.41009E-02
         0.46141E-02
         0.43717E-02
         0.46579E-02
         0.45975E-02
         0.16888E-03
         0.60596E-04
         0.59081E-04
         0.45212E-04
         0.17168E-03
         0.99439E-04
         0.82102E-05
         0.13102E-03
         0.82995E-04
         0.11788E-03
         0.71335E-05
         0.55973E-03
         0.33242E-03
         0.28203E-04
         0.61999E-03
         0.84194E-04
         0.32871E-04
         0.25897E-04
         0.32957E-04
         0.86519E-05
         0.34267E-03
         0.31021E-03
         0.27346E-03
         0.86357E-05
         0.33259E-04
        -0.35260E-05
         0.80046E-05
        -0.52875E-04
        -0.20117E-04
         0.41305E-04
         0.60543E-04
         0.10265E-04
         0.39238E-04
         0.46853E-04
         0.27016E-03
         0.94824E-04
         0.16338E-03
         0.40929E-03
         0.24286E-03
         0.20974E-03
         0.43159E-03
         0.34447E-03
         0.34691E-03
         0.19665E-03
         0.15686E-03
         0.30773E-03
         0.13422E-03
         0.99199E-04
         0.71526E-04
         0.10436E-03
         0.25946E-03
         0.13541E-03
         0.47139E-02
         0.49978E-02
         0.54739E-02
         0.54239E-02
         0.61521E-02
         0.70641E-02
         0.64822E-02
         0.51616E-02
         0.48975E-02
         0.55804E-02
         0.53788E-02
         0.52624E-02
         0.35776E-02
         0.32512E-02
         0.39161E-02
         0.44970E-02
         0.48489E-02
         0.57739E-02
         0.53015E-02
         0.56165E-02
         0.45509E-02
         0.41002E-02
         0.46105E-02
         0.43658E-02
         0.46525E-02
         0.45923E-02
         0.16885E-03
         0.60344E-04
         0.58885E-04
         0.45099E-04
         0.17132E-03
         0.99126E-04
         0.80851E-05
         0.13102E-03
         0.82976E-04
         0.11812E-03
         0.69482E-05
         0.55947E-03
         0.33250E-03
         0.27664E-04
         0.62106E-03
         0.84144E-04
         0.32721E-04
         0.25704E-04
         0.32824E-04
         0.85190E-05
         0.34262E-03
         0.30999E-03
         0.27336E-03
         0.84661E-05
         0.33305E-04
        -0.37303E-05
         0.75975E-05
        -0.53146E-04
        -0.19482E-04
         0.41764E-04
         0.60458E-04
         0.10022E-04
         0.39036E-04
         0.46780E-04
         0.27018E-03
         0.94577E-04
         0.16313E-03
         0.41015E-03
         0.24384E-03
         0.21078E-03
         0.43224E-03
         0.34468E-03
         0.34677E-03
         0.19659E-03
         0.15667E-03
         0.30757E-03
         0.13404E-03
         0.99039E-04
         0.71236E-04
         0.10399E-03
         0.25907E-03
         0.13491E-03
         0.47101E-02
         0.49952E-02
         0.54735E-02
         0.54237E-02
         0.61497E-02
         0.70587E-02
         0.64759E-02
         0.51583E-02
         0.48945E-02
         0.55766E-02
         0.53762E-02
         0.52618E-02
         0.35768E-02
         0.32508E-02
         0.39169E-02
         0.44997E-02
         0.48519E-02
         0.57762E-02
         0.53004E-02
         0.56153E-02
         0.45498E-02
         0.40995E-02
         0.46069E-02
         0.43598E-02
         0.46469E-02
         0.45870E-02
         0.16933E-03
         0.60660E-04
         0.59247E-04
         0.45438E-04
         0.17156E-03
         0.99329E-04
         0.85255E-05
         0.13158E-03
         0.83349E-04
         0.11871E-03
         0.73484E-05
         0.55983E-03
         0.33309E-03
         0.27717E-04
         0.62279E-03
         0.84599E-04
         0.33044E-04
         0.25906E-04
         0.33254E-04
         0.90681E-05
         0.34307E-03
         0.31031E-03
         0.27374E-03
         0.88138E-05
         0.33815E-04
        -0.33860E-05
         0.75515E-05
        -0.52856E-04
        -0.17708E-04
         0.43199E-04
         0.60838E-04
         0.10339E-04
         0.39217E-04
         0.47098E-04
         0.27086E-03
         0.94930E-04
         0.16341E-03
         0.41154E-03
         0.24547E-03
         0.21282E-03
         0.43360E-03
         0.34544E-03
         0.34713E-03
         0.19704E-03
         0.15709E-03
         0.30811E-03
         0.13447E-03
         0.99379E-04
         0.71417E-04
         0.10411E-03
         0.25920E-03
         0.13486E-03
         0.47074E-02
         0.49937E-02
         0.54741E-02
         0.54243E-02
         0.61480E-02
         0.70543E-02
         0.64709E-02
         0.51561E-02
         0.48927E-02
         0.55741E-02
         0.53742E-02
         0.52618E-02
         0.35767E-02
         0.32511E-02
         0.39185E-02
         0.45030E-02
         0.48557E-02
         0.57795E-02
         0.53005E-02
         0.56153E-02
         0.45496E-02
         0.40998E-02
         0.46044E-02
         0.43547E-02
         0.46423E-02
         0.45827E-02
         0.16840E-03
         0.59495E-04
         0.58164E-04
         0.44425E-04
         0.17009E-03
         0.97981E-04
         0.73341E-05
         0.13048E-03
         0.82333E-04
         0.11775E-03
         0.59423E-05
         0.55819E-03
         0.33184E-03
         0.25873E-04
         0.62243E-03
         0.83629E-04
         0.31861E-04
         0.24775E-04
         0.32019E-04
         0.78146E-05
         0.34174E-03
         0.30887E-03
         0.27239E-03
         0.75770E-05
         0.32694E-04
        -0.45649E-05
         0.57989E-05
        -0.54339E-04
        -0.18271E-04
         0.42482E-04
         0.59823E-04
         0.91054E-05
         0.38000E-04
         0.45927E-04
         0.26959E-03
         0.93522E-04
         0.16194E-03
         0.41097E-03
         0.24514E-03
         0.21254E-03
         0.43277E-03
         0.34424E-03
         0.34573E-03
         0.19578E-03
         0.15568E-03
         0.30657E-03
         0.13311E-03
         0.98108E-04
         0.70002E-04
         0.10250E-03
         0.25738E-03
         0.13313E-03
         0.47012E-02
         0.49886E-02
         0.54711E-02
         0.54215E-02
         0.61432E-02
         0.70467E-02
         0.64625E-02
         0.51503E-02
         0.48875E-02
         0.55676E-02
         0.53689E-02
         0.52592E-02
         0.35740E-02
         0.32487E-02
         0.39173E-02
         0.45035E-02
         0.48565E-02
         0.57793E-02
         0.52969E-02
         0.56118E-02
         0.45462E-02
         0.40969E-02
         0.45985E-02
         0.43464E-02
         0.46346E-02
         0.45753E-02
         0.16922E-03
         0.59575E-04
         0.58426E-04
         0.44909E-04
         0.17042E-03
         0.98313E-04
         0.76058E-05
         0.13147E-03
         0.83345E-04
         0.11957E-03
         0.63665E-05
         0.55823E-03
         0.33174E-03
         0.26481E-04
         0.62450E-03
         0.84661E-04
         0.32843E-04
         0.25327E-04
         0.32759E-04
         0.84952E-05
         0.34252E-03
         0.30934E-03
         0.27346E-03
         0.85018E-05
         0.34462E-04
        -0.37092E-05
         0.73240E-05
        -0.52663E-04
        -0.16772E-04
         0.43919E-04
         0.60621E-04
         0.96247E-05
         0.38250E-04
         0.45787E-04
         0.27010E-03
         0.93393E-04
         0.16148E-03
         0.41324E-03
         0.24744E-03
         0.21412E-03
         0.43399E-03
         0.34545E-03
         0.34679E-03
         0.19684E-03
         0.15624E-03
         0.30693E-03
         0.13339E-03
         0.98701E-04
         0.70298E-04
         0.10230E-03
         0.25726E-03
         0.13282E-03
         0.46988E-02
         0.49877E-02
         0.54713E-02
         0.54209E-02
         0.61400E-02
         0.70411E-02
         0.64582E-02
         0.51489E-02
         0.48860E-02
         0.55643E-02
         0.53674E-02
         0.52612E-02
         0.35751E-02
         0.32492E-02
         0.39196E-02
         0.45080E-02
         0.48611E-02
         0.57829E-02
         0.52966E-02
         0.56111E-02
         0.45460E-02
         0.40973E-02
         0.45966E-02
         0.43423E-02
         0.46308E-02
         0.45718E-02
         0.45229E-02
         0.46000E-02
         0.45639E-02
         0.41558E-02
         0.53835E-02
         0.49631E-02
         0.49223E-02
         0.51094E-02
         0.43617E-02
         0.51125E-02
         0.54803E-02
         0.68879E-02
         0.60076E-02
         0.56788E-02
         0.71400E-02
         0.42671E-02
         0.45327E-02
         0.39565E-02
         0.47238E-02
         0.49156E-02
         0.55614E-02
         0.55693E-02
         0.52820E-02
         0.44968E-02
         0.50429E-02
         0.42956E-02
         0.56047E-02
         0.53733E-02
         0.54140E-02
         0.52247E-02
         0.42874E-02
         0.44566E-02
         0.41763E-02
         0.43658E-02
         0.60699E-02
         0.52905E-02
         0.53665E-02
         0.65966E-02
         0.61989E-02
         0.60721E-02
         0.64655E-02
         0.60455E-02
         0.57496E-02
         0.50588E-02
         0.52288E-02
         0.61422E-02
         0.54132E-02
         0.50150E-02
         0.48689E-02
         0.50890E-02
         0.57839E-02
         0.51615E-02
         0.14891E-01
         0.14938E-01
         0.15624E-01
         0.15228E-01
         0.16232E-01
         0.17612E-01
         0.17082E-01
         0.15659E-01
         0.15489E-01
         0.16469E-01
         0.15954E-01
         0.15253E-01
         0.12457E-01
         0.11624E-01
         0.12433E-01
         0.13234E-01
         0.13695E-01
         0.15397E-01
         0.15582E-01
         0.15920E-01
         0.14005E-01
         0.13233E-01
         0.14062E-01
         0.13708E-01
         0.13918E-01
         0.13865E-01
         0.47536E-01
         0.49588E-01
         0.48887E-01
         0.44708E-01
         0.54882E-01
         0.51531E-01
         0.53473E-01
         0.54072E-01
         0.46396E-01
         0.54033E-01
         0.58592E-01
         0.66321E-01
         0.59954E-01
         0.60316E-01
         0.68717E-01
         0.45518E-01
         0.48739E-01
         0.42704E-01
         0.50304E-01
         0.52814E-01
         0.55081E-01
         0.56192E-01
         0.52852E-01
         0.48417E-01
         0.54529E-01
         0.46754E-01
         0.60103E-01
         0.59004E-01
         0.59280E-01
         0.56410E-01
         0.45965E-01
         0.48208E-01
         0.45050E-01
         0.47043E-01
         0.60106E-01
         0.55041E-01
         0.55312E-01
         0.66293E-01
         0.64365E-01
         0.63544E-01
         0.64992E-01
         0.61684E-01
         0.58429E-01
         0.51525E-01
         0.53522E-01
         0.60144E-01
         0.55498E-01
         0.52228E-01
         0.51175E-01
         0.53038E-01
         0.57675E-01
         0.53220E-01
         0.10086E+00
         0.98827E-01
         0.10152E+00
         0.98543E-01
         0.10229E+00
         0.10849E+00
         0.10938E+00
         0.10720E+00
         0.10746E+00
         0.11075E+00
         0.10753E+00
         0.10143E+00
         0.89280E-01
         0.84202E-01
         0.85372E-01
         0.87182E-01
         0.88456E-01
         0.96596E-01
         0.10208E+00
         0.10293E+00
         0.94428E-01
         0.91107E-01
         0.94642E-01
         0.93665E-01
         0.93069E-01
         0.92663E-01
  
SCALARS                      strain_yz  double 1
LOOKUP_TABLE default
        -0.29312E-01
         0.94368E-02
         0.25030E-01
         0.13356E-01
        -0.26217E-09
        -0.72259E-10
        -0.32491E-09
        -0.24782E-09
         0.91699E-01
        -0.61022E-01
        -0.48352E-09
        -0.42569E-09
         0.76805E-01
         0.38985E-02
         0.34604E-09
        -0.22186E-10
        -0.29199E-01
        -0.98498E-01
         0.50911E-11
         0.52092E-10
         0.49204E-01
         0.17964E+00
         0.19586E+00
         0.79323E-09
         0.13699E-08
         0.11451E-08
         0.17733E-01
         0.17433E+00
         0.57059E-09
         0.11069E-08
        -0.33311E-01
        -0.27822E-01
         0.25680E-01
         0.29580E-09
         0.30197E-09
        -0.62691E-11
        -0.96581E-01
        -0.88062E-01
         0.54433E-09
         0.42351E-09
        -0.92886E-01
        -0.56622E-01
         0.41138E-09
         0.37594E-09
        -0.87295E-01
        -0.30578E-01
        -0.13646E-10
         0.21108E-09
        -0.72334E-01
         0.99381E-10
        -0.80912E-02
        -0.80492E-11
        -0.40416E-02
         0.38442E-09
         0.26410E-01
         0.22362E-09
         0.86130E-01
        -0.16077E-01
         0.60667E-11
        -0.12313E-10
        -0.40362E-01
        -0.14485E+00
        -0.82658E-10
        -0.30918E-09
        -0.24620E-01
        -0.16685E-09
        -0.10367E+00
        -0.20326E-09
         0.79802E-01
         0.42092E-01
        -0.25119E-10
         0.33166E-09
         0.14547E+00
         0.72828E-09
         0.21769E+00
         0.70516E-09
         0.21790E+00
         0.53529E-09
         0.18015E+00
         0.44867E-09
         0.26986E+00
         0.21207E+00
         0.28782E-09
        -0.63814E-10
         0.31039E-01
        -0.71404E-11
        -0.13628E+00
        -0.44730E-09
        -0.31568E+00
        -0.78306E-09
        -0.43355E+00
        -0.26672E+00
        -0.11614E-08
        -0.94006E-09
        -0.18977E+00
        -0.72973E-09
        -0.17161E+00
        -0.74656E-09
        -0.16576E+00
        -0.80271E-09
        -0.27486E+00
        -0.23023E+00
        -0.74648E-09
        -0.35768E-09
         0.17645E+00
        -0.67993E-01
         0.26248E-09
        -0.32618E-09
         0.43154E+00
         0.87320E-09
         0.63067E+00
         0.12773E-08
         0.75592E+00
         0.15774E-08
         0.84356E+00
         0.15647E-08
         0.94438E+00
         0.12382E-08
         0.93670E+00
         0.95826E-09
         0.87933E+00
         0.89126E-09
         0.78334E+00
         0.84797E-09
         0.59044E+00
         0.54192E-09
         0.42247E+00
         0.17892E-09
         0.22553E+00
         0.11561E-09
        -0.16834E-01
         0.17377E-09
        -0.23136E+00
         0.89751E-10
        -0.42468E+00
        -0.27142E-09
        -0.65622E+00
        -0.76613E-09
        -0.69993E+00
        -0.11963E-08
        -0.73720E+00
        -0.15684E-08
        -0.92676E+00
        -0.15670E-08
        -0.97949E+00
        -0.13679E-08
        -0.91600E+00
        -0.13332E-08
        -0.73266E+00
        -0.13415E-08
        -0.49902E+00
        -0.10608E-08
        -0.35794E+00
        -0.62730E-09
        -0.26171E+00
        -0.48503E-09
        -0.74974E-02
        -0.38492E-02
        -0.33638E-02
        -0.10543E-02
        -0.34140E-02
        -0.36682E-02
        -0.38162E-03
        -0.59082E-02
        -0.51372E-02
        -0.74777E-02
         0.38232E-02
         0.16270E-01
         0.11195E-01
         0.12989E-02
         0.16487E-01
         0.19909E-02
        -0.17610E-02
         0.11389E-02
         0.14659E-02
        -0.11113E-02
         0.10163E-02
         0.84035E-03
        -0.28088E-02
         0.23704E-03
        -0.51069E-02
         0.75472E-03
         0.38736E-04
         0.67784E-03
         0.81664E-03
        -0.39839E-02
         0.19418E-02
        -0.20860E-02
         0.14120E-02
        -0.34179E-03
         0.54857E-03
         0.30034E-02
         0.67656E-02
         0.14549E-01
         0.13284E-01
         0.11119E-01
         0.10395E-01
         0.26265E-02
        -0.21794E-02
        -0.59667E-02
        -0.97885E-02
        -0.15768E-01
        -0.10470E-01
        -0.75954E-02
        -0.80975E-02
        -0.85271E-02
        -0.99040E-02
        -0.45860E-02
         0.82726E-02
        -0.10095E-01
         0.27281E-01
         0.37823E-01
         0.48187E-01
         0.56795E-01
         0.56618E-01
         0.51090E-01
         0.48668E-01
         0.45964E-01
         0.29580E-01
         0.13273E-01
         0.58809E-02
         0.25993E-02
        -0.40000E-02
        -0.15869E-01
        -0.29166E-01
        -0.37847E-01
        -0.44825E-01
        -0.51685E-01
        -0.49040E-01
        -0.46347E-01
        -0.43065E-01
        -0.29732E-01
        -0.17553E-01
        -0.15471E-01
        -0.16320E-01
        -0.10294E-01
        -0.95253E-02
        -0.22594E-02
        -0.12371E-01
        -0.55642E-02
        -0.44123E-02
        -0.15425E-01
        -0.10115E-01
        -0.14507E-01
         0.76702E-02
         0.33191E-01
         0.19665E-01
         0.28261E-02
         0.32701E-01
         0.61892E-02
        -0.18757E-02
         0.17907E-02
         0.80712E-02
         0.15605E-02
         0.69562E-02
         0.49389E-02
        -0.28633E-02
         0.24169E-02
        -0.97694E-02
         0.24164E-02
         0.60636E-03
         0.11272E-02
        -0.18006E-02
        -0.97453E-02
         0.66703E-02
         0.17571E-02
         0.43114E-02
         0.37435E-02
        -0.17849E-02
         0.54410E-02
         0.10388E-01
         0.24854E-01
         0.21918E-01
         0.19316E-01
         0.14190E-01
        -0.35063E-02
        -0.72222E-02
        -0.90217E-02
        -0.11617E-01
        -0.23730E-01
        -0.13809E-01
        -0.91317E-02
        -0.11477E-01
        -0.13549E-01
        -0.14038E-01
        -0.10533E-02
         0.17480E-01
        -0.25002E-01
         0.58175E-01
         0.75182E-01
         0.97015E-01
         0.11639E+00
         0.11402E+00
         0.99610E-01
         0.95466E-01
         0.94436E-01
         0.59306E-01
         0.19547E-01
         0.77924E-02
         0.66776E-02
        -0.30922E-02
        -0.26227E-01
        -0.52537E-01
        -0.73101E-01
        -0.95149E-01
        -0.10550E+00
        -0.92668E-01
        -0.87621E-01
        -0.87345E-01
        -0.61504E-01
        -0.31948E-01
        -0.30251E-01
        -0.16330E-01
        -0.10295E-01
        -0.95301E-02
        -0.22759E-02
        -0.12373E-01
        -0.55685E-02
        -0.44178E-02
        -0.15451E-01
        -0.10133E-01
        -0.14561E-01
         0.76748E-02
         0.33188E-01
         0.19670E-01
         0.28262E-02
         0.32742E-01
         0.61896E-02
        -0.18927E-02
         0.17880E-02
         0.80767E-02
         0.15518E-02
         0.69734E-02
         0.49436E-02
        -0.28640E-02
         0.24158E-02
        -0.98137E-02
         0.24120E-02
         0.61350E-03
         0.11335E-02
        -0.17887E-02
        -0.97659E-02
         0.66715E-02
         0.17532E-02
         0.43209E-02
         0.37496E-02
        -0.17681E-02
         0.54445E-02
         0.10388E-01
         0.24892E-01
         0.21965E-01
         0.19338E-01
         0.14201E-01
        -0.34969E-02
        -0.72296E-02
        -0.90263E-02
        -0.11618E-01
        -0.23730E-01
        -0.13810E-01
        -0.91262E-02
        -0.11462E-01
        -0.13531E-01
        -0.14032E-01
        -0.10374E-02
         0.17463E-01
        -0.25003E-01
         0.58186E-01
         0.75183E-01
         0.97003E-01
         0.11635E+00
         0.11397E+00
         0.99580E-01
         0.95446E-01
         0.94410E-01
         0.59293E-01
         0.19556E-01
         0.77917E-02
         0.66913E-02
        -0.30670E-02
        -0.26241E-01
        -0.52561E-01
        -0.73118E-01
        -0.95147E-01
        -0.10549E+00
        -0.92662E-01
        -0.87618E-01
        -0.87323E-01
        -0.61460E-01
        -0.31913E-01
        -0.30211E-01
        -0.16340E-01
        -0.10297E-01
        -0.95349E-02
        -0.22927E-02
        -0.12374E-01
        -0.55731E-02
        -0.44233E-02
        -0.15477E-01
        -0.10152E-01
        -0.14615E-01
         0.76793E-02
         0.33185E-01
         0.19675E-01
         0.28259E-02
         0.32784E-01
         0.61900E-02
        -0.19100E-02
         0.17853E-02
         0.80823E-02
         0.15429E-02
         0.69908E-02
         0.49483E-02
        -0.28651E-02
         0.24143E-02
        -0.98574E-02
         0.24070E-02
         0.62114E-03
         0.11402E-02
        -0.17757E-02
        -0.97858E-02
         0.66725E-02
         0.17486E-02
         0.43305E-02
         0.37557E-02
        -0.17512E-02
         0.54483E-02
         0.10387E-01
         0.24930E-01
         0.22013E-01
         0.19361E-01
         0.14212E-01
        -0.34865E-02
        -0.72366E-02
        -0.90321E-02
        -0.11619E-01
        -0.23731E-01
        -0.13812E-01
        -0.91205E-02
        -0.11446E-01
        -0.13513E-01
        -0.14026E-01
        -0.10215E-02
         0.17447E-01
        -0.25005E-01
         0.58197E-01
         0.75184E-01
         0.96992E-01
         0.11631E+00
         0.11393E+00
         0.99550E-01
         0.95426E-01
         0.94384E-01
         0.59281E-01
         0.19566E-01
         0.77913E-02
         0.67051E-02
        -0.30417E-02
        -0.26255E-01
        -0.52586E-01
        -0.73135E-01
        -0.95145E-01
        -0.10549E+00
        -0.92656E-01
        -0.87614E-01
        -0.87301E-01
        -0.61416E-01
        -0.31878E-01
        -0.30171E-01
        -0.16351E-01
        -0.10299E-01
        -0.95397E-02
        -0.23095E-02
        -0.12376E-01
        -0.55776E-02
        -0.44292E-02
        -0.15502E-01
        -0.10170E-01
        -0.14669E-01
         0.76839E-02
         0.33183E-01
         0.19680E-01
         0.28259E-02
         0.32826E-01
         0.61905E-02
        -0.19275E-02
         0.17825E-02
         0.80882E-02
         0.15335E-02
         0.70085E-02
         0.49525E-02
        -0.28676E-02
         0.24119E-02
        -0.98997E-02
         0.24005E-02
         0.62903E-03
         0.11491E-02
        -0.17596E-02
        -0.98038E-02
         0.66730E-02
         0.17423E-02
         0.43401E-02
         0.37618E-02
        -0.17345E-02
         0.54518E-02
         0.10386E-01
         0.24969E-01
         0.22061E-01
         0.19385E-01
         0.14225E-01
        -0.34732E-02
        -0.72423E-02
        -0.90410E-02
        -0.11622E-01
        -0.23732E-01
        -0.13814E-01
        -0.91150E-02
        -0.11431E-01
        -0.13494E-01
        -0.14020E-01
        -0.10057E-02
         0.17431E-01
        -0.25006E-01
         0.58208E-01
         0.75184E-01
         0.96980E-01
         0.11627E+00
         0.11388E+00
         0.99520E-01
         0.95406E-01
         0.94358E-01
         0.59270E-01
         0.19578E-01
         0.77914E-02
         0.67186E-02
        -0.30161E-02
        -0.26271E-01
        -0.52614E-01
        -0.73155E-01
        -0.95144E-01
        -0.10548E+00
        -0.92649E-01
        -0.87611E-01
        -0.87279E-01
        -0.61373E-01
        -0.31843E-01
        -0.30132E-01
        -0.16361E-01
        -0.10301E-01
        -0.95445E-02
        -0.23262E-02
        -0.12377E-01
        -0.55820E-02
        -0.44346E-02
        -0.15528E-01
        -0.10188E-01
        -0.14721E-01
         0.76885E-02
         0.33180E-01
         0.19685E-01
         0.28261E-02
         0.32868E-01
         0.61911E-02
        -0.19453E-02
         0.17797E-02
         0.80944E-02
         0.15236E-02
         0.70265E-02
         0.49561E-02
        -0.28713E-02
         0.24085E-02
        -0.99404E-02
         0.23922E-02
         0.63781E-03
         0.11600E-02
        -0.17403E-02
        -0.98199E-02
         0.66730E-02
         0.17341E-02
         0.43495E-02
         0.37679E-02
        -0.17175E-02
         0.54554E-02
         0.10386E-01
         0.25008E-01
         0.22110E-01
         0.19411E-01
         0.14240E-01
        -0.34570E-02
        -0.72467E-02
        -0.90531E-02
        -0.11628E-01
        -0.23735E-01
        -0.13817E-01
        -0.91101E-02
        -0.11416E-01
        -0.13476E-01
        -0.14014E-01
        -0.98971E-03
         0.17414E-01
        -0.25008E-01
         0.58218E-01
         0.75185E-01
         0.96968E-01
         0.11623E+00
         0.11383E+00
         0.99490E-01
         0.95386E-01
         0.94332E-01
         0.59260E-01
         0.19591E-01
         0.77922E-02
         0.67319E-02
        -0.29906E-02
        -0.26287E-01
        -0.52646E-01
        -0.73177E-01
        -0.95143E-01
        -0.10547E+00
        -0.92643E-01
        -0.87607E-01
        -0.87257E-01
        -0.61329E-01
        -0.31808E-01
        -0.30092E-01
        -0.16370E-01
        -0.10302E-01
        -0.95492E-02
        -0.23432E-02
        -0.12378E-01
        -0.55864E-02
        -0.44395E-02
        -0.15553E-01
        -0.10207E-01
        -0.14772E-01
         0.76938E-02
         0.33177E-01
         0.19690E-01
         0.28266E-02
         0.32909E-01
         0.61918E-02
        -0.19635E-02
         0.17770E-02
         0.81006E-02
         0.15135E-02
         0.70446E-02
         0.49597E-02
        -0.28757E-02
         0.24048E-02
        -0.99801E-02
         0.23833E-02
         0.64725E-03
         0.11720E-02
        -0.17197E-02
        -0.98352E-02
         0.66726E-02
         0.17249E-02
         0.43592E-02
         0.37742E-02
        -0.17005E-02
         0.54594E-02
         0.10386E-01
         0.25047E-01
         0.22160E-01
         0.19437E-01
         0.14256E-01
        -0.34397E-02
        -0.72504E-02
        -0.90662E-02
        -0.11635E-01
        -0.23739E-01
        -0.13821E-01
        -0.91060E-02
        -0.11402E-01
        -0.13458E-01
        -0.14008E-01
        -0.97377E-03
         0.17398E-01
        -0.25009E-01
         0.58229E-01
         0.75186E-01
         0.96957E-01
         0.11619E+00
         0.11378E+00
         0.99460E-01
         0.95367E-01
         0.94306E-01
         0.59251E-01
         0.19606E-01
         0.77933E-02
         0.67451E-02
        -0.29650E-02
        -0.26305E-01
        -0.52680E-01
        -0.73200E-01
        -0.95142E-01
        -0.10547E+00
        -0.92637E-01
        -0.87604E-01
        -0.87235E-01
        -0.61285E-01
        -0.31773E-01
        -0.30052E-01
        -0.16379E-01
        -0.10302E-01
        -0.95538E-02
        -0.23605E-02
        -0.12380E-01
        -0.55910E-02
        -0.44434E-02
        -0.15575E-01
        -0.10226E-01
        -0.14821E-01
         0.77001E-02
         0.33176E-01
         0.19697E-01
         0.28288E-02
         0.32952E-01
         0.61929E-02
        -0.19821E-02
         0.17743E-02
         0.81069E-02
         0.15034E-02
         0.70627E-02
         0.49633E-02
        -0.28801E-02
         0.24012E-02
        -0.10019E-01
         0.23744E-02
         0.65838E-03
         0.11847E-02
        -0.16986E-02
        -0.98500E-02
         0.66720E-02
         0.17151E-02
         0.43693E-02
         0.37809E-02
        -0.16835E-02
         0.54635E-02
         0.10386E-01
         0.25087E-01
         0.22210E-01
         0.19464E-01
         0.14272E-01
        -0.34221E-02
        -0.72540E-02
        -0.90793E-02
        -0.11643E-01
        -0.23744E-01
        -0.13826E-01
        -0.91045E-02
        -0.11390E-01
        -0.13441E-01
        -0.14002E-01
        -0.95764E-03
         0.17382E-01
        -0.25010E-01
         0.58239E-01
         0.75186E-01
         0.96945E-01
         0.11615E+00
         0.11373E+00
         0.99430E-01
         0.95347E-01
         0.94279E-01
         0.59241E-01
         0.19620E-01
         0.77944E-02
         0.67585E-02
        -0.29394E-02
        -0.26322E-01
        -0.52714E-01
        -0.73222E-01
        -0.95139E-01
        -0.10546E+00
        -0.92632E-01
        -0.87602E-01
        -0.87212E-01
        -0.61242E-01
        -0.31738E-01
        -0.30012E-01
        -0.16388E-01
        -0.10301E-01
        -0.95584E-02
        -0.23782E-02
        -0.12382E-01
        -0.55955E-02
        -0.44463E-02
        -0.15596E-01
        -0.10245E-01
        -0.14869E-01
         0.77070E-02
         0.33174E-01
         0.19703E-01
         0.28313E-02
         0.32994E-01
         0.61941E-02
        -0.20010E-02
         0.17715E-02
         0.81132E-02
         0.14933E-02
         0.70808E-02
         0.49670E-02
        -0.28843E-02
         0.23977E-02
        -0.10057E-01
         0.23656E-02
         0.66995E-03
         0.11978E-02
        -0.16775E-02
        -0.98647E-02
         0.66714E-02
         0.17049E-02
         0.43794E-02
         0.37879E-02
        -0.16663E-02
         0.54680E-02
         0.10387E-01
         0.25127E-01
         0.22261E-01
         0.19490E-01
         0.14288E-01
        -0.34045E-02
        -0.72575E-02
        -0.90926E-02
        -0.11651E-01
        -0.23749E-01
        -0.13833E-01
        -0.91038E-02
        -0.11379E-01
        -0.13424E-01
        -0.13997E-01
        -0.94152E-03
         0.17365E-01
        -0.25012E-01
         0.58249E-01
         0.75187E-01
         0.96933E-01
         0.11611E+00
         0.11368E+00
         0.99400E-01
         0.95327E-01
         0.94252E-01
         0.59232E-01
         0.19635E-01
         0.77955E-02
         0.67720E-02
        -0.29138E-02
        -0.26339E-01
        -0.52747E-01
        -0.73244E-01
        -0.95137E-01
        -0.10545E+00
        -0.92628E-01
        -0.87600E-01
        -0.87189E-01
        -0.61198E-01
        -0.31703E-01
        -0.29973E-01
        -0.16396E-01
        -0.10301E-01
        -0.95630E-02
        -0.23958E-02
        -0.12383E-01
        -0.56000E-02
        -0.44494E-02
        -0.15617E-01
        -0.10264E-01
        -0.14917E-01
         0.77135E-02
         0.33172E-01
         0.19710E-01
         0.28342E-02
         0.33036E-01
         0.61953E-02
        -0.20200E-02
         0.17686E-02
         0.81194E-02
         0.14831E-02
         0.70989E-02
         0.49708E-02
        -0.28887E-02
         0.23942E-02
        -0.10096E-01
         0.23568E-02
         0.68180E-03
         0.12108E-02
        -0.16564E-02
        -0.98795E-02
         0.66706E-02
         0.16948E-02
         0.43896E-02
         0.37947E-02
        -0.16490E-02
         0.54722E-02
         0.10388E-01
         0.25167E-01
         0.22311E-01
         0.19517E-01
         0.14304E-01
        -0.33870E-02
        -0.72611E-02
        -0.91060E-02
        -0.11659E-01
        -0.23755E-01
        -0.13839E-01
        -0.91033E-02
        -0.11368E-01
        -0.13407E-01
        -0.13991E-01
        -0.92531E-03
         0.17349E-01
        -0.25013E-01
         0.58260E-01
         0.75187E-01
         0.96922E-01
         0.11607E+00
         0.11364E+00
         0.99369E-01
         0.95308E-01
         0.94225E-01
         0.59222E-01
         0.19649E-01
         0.77968E-02
         0.67857E-02
        -0.28882E-02
        -0.26356E-01
        -0.52780E-01
        -0.73266E-01
        -0.95134E-01
        -0.10544E+00
        -0.92623E-01
        -0.87598E-01
        -0.87166E-01
        -0.61154E-01
        -0.31669E-01
        -0.29933E-01
        -0.16404E-01
        -0.10300E-01
        -0.95675E-02
        -0.24133E-02
        -0.12385E-01
        -0.56044E-02
        -0.44524E-02
        -0.15638E-01
        -0.10283E-01
        -0.14964E-01
         0.77205E-02
         0.33170E-01
         0.19716E-01
         0.28367E-02
         0.33079E-01
         0.61964E-02
        -0.20390E-02
         0.17658E-02
         0.81256E-02
         0.14729E-02
         0.71170E-02
         0.49744E-02
        -0.28928E-02
         0.23907E-02
        -0.10134E-01
         0.23480E-02
         0.69334E-03
         0.12236E-02
        -0.16354E-02
        -0.98942E-02
         0.66698E-02
         0.16847E-02
         0.43996E-02
         0.38016E-02
        -0.16317E-02
         0.54767E-02
         0.10388E-01
         0.25207E-01
         0.22362E-01
         0.19543E-01
         0.14320E-01
        -0.33696E-02
        -0.72647E-02
        -0.91191E-02
        -0.11667E-01
        -0.23760E-01
        -0.13845E-01
        -0.91030E-02
        -0.11358E-01
        -0.13390E-01
        -0.13985E-01
        -0.90918E-03
         0.17332E-01
        -0.25014E-01
         0.58269E-01
         0.75188E-01
         0.96910E-01
         0.11603E+00
         0.11359E+00
         0.99339E-01
         0.95288E-01
         0.94198E-01
         0.59213E-01
         0.19663E-01
         0.77980E-02
         0.67993E-02
        -0.28627E-02
        -0.26373E-01
        -0.52814E-01
        -0.73288E-01
        -0.95131E-01
        -0.10544E+00
        -0.92619E-01
        -0.87596E-01
        -0.87143E-01
        -0.61110E-01
        -0.31634E-01
        -0.29893E-01
        -0.16412E-01
        -0.10299E-01
        -0.95721E-02
        -0.24308E-02
        -0.12386E-01
        -0.56088E-02
        -0.44557E-02
        -0.15659E-01
        -0.10302E-01
        -0.15012E-01
         0.77274E-02
         0.33169E-01
         0.19723E-01
         0.28394E-02
         0.33121E-01
         0.61977E-02
        -0.20581E-02
         0.17630E-02
         0.81318E-02
         0.14626E-02
         0.71350E-02
         0.49779E-02
        -0.28971E-02
         0.23873E-02
        -0.10172E-01
         0.23392E-02
         0.70508E-03
         0.12362E-02
        -0.16145E-02
        -0.99089E-02
         0.66691E-02
         0.16746E-02
         0.44097E-02
         0.38085E-02
        -0.16144E-02
         0.54811E-02
         0.10389E-01
         0.25248E-01
         0.22412E-01
         0.19570E-01
         0.14336E-01
        -0.33521E-02
        -0.72682E-02
        -0.91322E-02
        -0.11675E-01
        -0.23765E-01
        -0.13851E-01
        -0.91024E-02
        -0.11347E-01
        -0.13374E-01
        -0.13980E-01
        -0.89300E-03
         0.17316E-01
        -0.25016E-01
         0.58279E-01
         0.75188E-01
         0.96898E-01
         0.11599E+00
         0.11354E+00
         0.99309E-01
         0.95269E-01
         0.94171E-01
         0.59203E-01
         0.19677E-01
         0.77992E-02
         0.68128E-02
        -0.28371E-02
        -0.26390E-01
        -0.52847E-01
        -0.73309E-01
        -0.95129E-01
        -0.10543E+00
        -0.92614E-01
        -0.87594E-01
        -0.87120E-01
        -0.61066E-01
        -0.31600E-01
        -0.29853E-01
        -0.16421E-01
        -0.10298E-01
        -0.95766E-02
        -0.24484E-02
        -0.12388E-01
        -0.56132E-02
        -0.44586E-02
        -0.15680E-01
        -0.10321E-01
        -0.15059E-01
         0.77343E-02
         0.33167E-01
         0.19729E-01
         0.28422E-02
         0.33164E-01
         0.61989E-02
        -0.20772E-02
         0.17601E-02
         0.81380E-02
         0.14524E-02
         0.71531E-02
         0.49814E-02
        -0.29014E-02
         0.23838E-02
        -0.10210E-01
         0.23305E-02
         0.71655E-03
         0.12488E-02
        -0.15935E-02
        -0.99235E-02
         0.66683E-02
         0.16644E-02
         0.44198E-02
         0.38155E-02
        -0.15969E-02
         0.54855E-02
         0.10390E-01
         0.25288E-01
         0.22463E-01
         0.19596E-01
         0.14352E-01
        -0.33348E-02
        -0.72717E-02
        -0.91453E-02
        -0.11683E-01
        -0.23771E-01
        -0.13858E-01
        -0.91021E-02
        -0.11336E-01
        -0.13357E-01
        -0.13974E-01
        -0.87684E-03
         0.17299E-01
        -0.25017E-01
         0.58289E-01
         0.75189E-01
         0.96887E-01
         0.11595E+00
         0.11349E+00
         0.99279E-01
         0.95249E-01
         0.94144E-01
         0.59193E-01
         0.19692E-01
         0.78004E-02
         0.68263E-02
        -0.28114E-02
        -0.26407E-01
        -0.52881E-01
        -0.73331E-01
        -0.95126E-01
        -0.10542E+00
        -0.92610E-01
        -0.87592E-01
        -0.87097E-01
        -0.61022E-01
        -0.31565E-01
        -0.29814E-01
        -0.16429E-01
        -0.10297E-01
        -0.95812E-02
        -0.24662E-02
        -0.12390E-01
        -0.56177E-02
        -0.44617E-02
        -0.15701E-01
        -0.10340E-01
        -0.15106E-01
         0.77412E-02
         0.33165E-01
         0.19736E-01
         0.28446E-02
         0.33206E-01
         0.62000E-02
        -0.20963E-02
         0.17572E-02
         0.81441E-02
         0.14422E-02
         0.71712E-02
         0.49850E-02
        -0.29056E-02
         0.23804E-02
        -0.10248E-01
         0.23217E-02
         0.72836E-03
         0.12612E-02
        -0.15725E-02
        -0.99381E-02
         0.66675E-02
         0.16542E-02
         0.44298E-02
         0.38224E-02
        -0.15795E-02
         0.54900E-02
         0.10390E-01
         0.25328E-01
         0.22513E-01
         0.19622E-01
         0.14368E-01
        -0.33173E-02
        -0.72752E-02
        -0.91586E-02
        -0.11691E-01
        -0.23776E-01
        -0.13864E-01
        -0.91016E-02
        -0.11325E-01
        -0.13340E-01
        -0.13968E-01
        -0.86072E-03
         0.17283E-01
        -0.25018E-01
         0.58299E-01
         0.75189E-01
         0.96875E-01
         0.11591E+00
         0.11344E+00
         0.99248E-01
         0.95230E-01
         0.94116E-01
         0.59183E-01
         0.19706E-01
         0.78016E-02
         0.68399E-02
        -0.27858E-02
        -0.26424E-01
        -0.52914E-01
        -0.73353E-01
        -0.95124E-01
        -0.10542E+00
        -0.92606E-01
        -0.87590E-01
        -0.87074E-01
        -0.60979E-01
        -0.31531E-01
        -0.29774E-01
        -0.16437E-01
        -0.10297E-01
        -0.95858E-02
        -0.24839E-02
        -0.12391E-01
        -0.56222E-02
        -0.44650E-02
        -0.15722E-01
        -0.10359E-01
        -0.15153E-01
         0.77481E-02
         0.33164E-01
         0.19743E-01
         0.28473E-02
         0.33249E-01
         0.62012E-02
        -0.21155E-02
         0.17543E-02
         0.81503E-02
         0.14320E-02
         0.71893E-02
         0.49885E-02
        -0.29099E-02
         0.23771E-02
        -0.10286E-01
         0.23129E-02
         0.73986E-03
         0.12735E-02
        -0.15517E-02
        -0.99527E-02
         0.66667E-02
         0.16441E-02
         0.44398E-02
         0.38293E-02
        -0.15620E-02
         0.54943E-02
         0.10391E-01
         0.25369E-01
         0.22564E-01
         0.19648E-01
         0.14384E-01
        -0.32999E-02
        -0.72787E-02
        -0.91717E-02
        -0.11699E-01
        -0.23781E-01
        -0.13871E-01
        -0.91011E-02
        -0.11314E-01
        -0.13323E-01
        -0.13963E-01
        -0.84470E-03
         0.17266E-01
        -0.25019E-01
         0.58309E-01
         0.75190E-01
         0.96863E-01
         0.11587E+00
         0.11339E+00
         0.99218E-01
         0.95210E-01
         0.94089E-01
         0.59173E-01
         0.19720E-01
         0.78028E-02
         0.68535E-02
        -0.27603E-02
        -0.26441E-01
        -0.52948E-01
        -0.73375E-01
        -0.95121E-01
        -0.10541E+00
        -0.92602E-01
        -0.87588E-01
        -0.87050E-01
        -0.60935E-01
        -0.31497E-01
        -0.29734E-01
        -0.16445E-01
        -0.10296E-01
        -0.95903E-02
        -0.25015E-02
        -0.12393E-01
        -0.56265E-02
        -0.44681E-02
        -0.15743E-01
        -0.10378E-01
        -0.15201E-01
         0.77550E-02
         0.33162E-01
         0.19749E-01
         0.28496E-02
         0.33291E-01
         0.62024E-02
        -0.21348E-02
         0.17515E-02
         0.81565E-02
         0.14218E-02
         0.72075E-02
         0.49919E-02
        -0.29140E-02
         0.23738E-02
        -0.10325E-01
         0.23041E-02
         0.75156E-03
         0.12855E-02
        -0.15309E-02
        -0.99673E-02
         0.66659E-02
         0.16338E-02
         0.44499E-02
         0.38363E-02
        -0.15445E-02
         0.54988E-02
         0.10392E-01
         0.25410E-01
         0.22615E-01
         0.19675E-01
         0.14400E-01
        -0.32825E-02
        -0.72822E-02
        -0.91848E-02
        -0.11707E-01
        -0.23787E-01
        -0.13877E-01
        -0.91009E-02
        -0.11303E-01
        -0.13306E-01
        -0.13957E-01
        -0.82857E-03
         0.17250E-01
        -0.25020E-01
         0.58318E-01
         0.75191E-01
         0.96852E-01
         0.11583E+00
         0.11334E+00
         0.99187E-01
         0.95191E-01
         0.94061E-01
         0.59164E-01
         0.19734E-01
         0.78039E-02
         0.68670E-02
        -0.27347E-02
        -0.26458E-01
        -0.52981E-01
        -0.73397E-01
        -0.95119E-01
        -0.10540E+00
        -0.92597E-01
        -0.87586E-01
        -0.87027E-01
        -0.60891E-01
        -0.31463E-01
        -0.29694E-01
        -0.16453E-01
        -0.10295E-01
        -0.95948E-02
        -0.25191E-02
        -0.12394E-01
        -0.56310E-02
        -0.44712E-02
        -0.15763E-01
        -0.10398E-01
        -0.15248E-01
         0.77619E-02
         0.33161E-01
         0.19756E-01
         0.28523E-02
         0.33334E-01
         0.62036E-02
        -0.21542E-02
         0.17486E-02
         0.81627E-02
         0.14115E-02
         0.72256E-02
         0.49953E-02
        -0.29182E-02
         0.23705E-02
        -0.10363E-01
         0.22953E-02
         0.76295E-03
         0.12974E-02
        -0.15102E-02
        -0.99820E-02
         0.66651E-02
         0.16237E-02
         0.44599E-02
         0.38433E-02
        -0.15268E-02
         0.55032E-02
         0.10392E-01
         0.25451E-01
         0.22666E-01
         0.19700E-01
         0.14416E-01
        -0.32651E-02
        -0.72858E-02
        -0.91977E-02
        -0.11715E-01
        -0.23792E-01
        -0.13883E-01
        -0.91004E-02
        -0.11293E-01
        -0.13290E-01
        -0.13951E-01
        -0.81244E-03
         0.17233E-01
        -0.25021E-01
         0.58328E-01
         0.75191E-01
         0.96840E-01
         0.11579E+00
         0.11329E+00
         0.99156E-01
         0.95171E-01
         0.94033E-01
         0.59154E-01
         0.19749E-01
         0.78050E-02
         0.68804E-02
        -0.27091E-02
        -0.26475E-01
        -0.53015E-01
        -0.73419E-01
        -0.95116E-01
        -0.10540E+00
        -0.92593E-01
        -0.87584E-01
        -0.87004E-01
        -0.60847E-01
        -0.31429E-01
        -0.29655E-01
        -0.16461E-01
        -0.10294E-01
        -0.95994E-02
        -0.25368E-02
        -0.12396E-01
        -0.56354E-02
        -0.44745E-02
        -0.15784E-01
        -0.10417E-01
        -0.15295E-01
         0.77689E-02
         0.33159E-01
         0.19763E-01
         0.28545E-02
         0.33376E-01
         0.62048E-02
        -0.21737E-02
         0.17457E-02
         0.81688E-02
         0.14014E-02
         0.72436E-02
         0.49985E-02
        -0.29224E-02
         0.23672E-02
        -0.10401E-01
         0.22865E-02
         0.77465E-03
         0.13092E-02
        -0.14895E-02
        -0.99962E-02
         0.66642E-02
         0.16135E-02
         0.44698E-02
         0.38503E-02
        -0.15091E-02
         0.55075E-02
         0.10393E-01
         0.25492E-01
         0.22716E-01
         0.19726E-01
         0.14432E-01
        -0.32479E-02
        -0.72895E-02
        -0.92110E-02
        -0.11724E-01
        -0.23798E-01
        -0.13890E-01
        -0.91002E-02
        -0.11282E-01
        -0.13273E-01
        -0.13946E-01
        -0.79644E-03
         0.17217E-01
        -0.25022E-01
         0.58338E-01
         0.75192E-01
         0.96828E-01
         0.11575E+00
         0.11324E+00
         0.99126E-01
         0.95152E-01
         0.94004E-01
         0.59145E-01
         0.19763E-01
         0.78059E-02
         0.68937E-02
        -0.26836E-02
        -0.26492E-01
        -0.53048E-01
        -0.73441E-01
        -0.95114E-01
        -0.10539E+00
        -0.92589E-01
        -0.87582E-01
        -0.86980E-01
        -0.60803E-01
        -0.31395E-01
        -0.29615E-01
        -0.16469E-01
        -0.10293E-01
        -0.96039E-02
        -0.25545E-02
        -0.12397E-01
        -0.56397E-02
        -0.44776E-02
        -0.15804E-01
        -0.10436E-01
        -0.15342E-01
         0.77758E-02
         0.33157E-01
         0.19769E-01
         0.28570E-02
         0.33418E-01
         0.62060E-02
        -0.21934E-02
         0.17427E-02
         0.81750E-02
         0.13918E-02
         0.72616E-02
         0.50016E-02
        -0.29267E-02
         0.23638E-02
        -0.10439E-01
         0.22777E-02
         0.78623E-03
         0.13209E-02
        -0.14689E-02
        -0.10010E-01
         0.66634E-02
         0.16032E-02
         0.44798E-02
         0.38573E-02
        -0.14914E-02
         0.55121E-02
         0.10394E-01
         0.25533E-01
         0.22767E-01
         0.19751E-01
         0.14448E-01
        -0.32304E-02
        -0.72932E-02
        -0.92241E-02
        -0.11732E-01
        -0.23803E-01
        -0.13896E-01
        -0.90997E-02
        -0.11271E-01
        -0.13256E-01
        -0.13940E-01
        -0.78043E-03
         0.17200E-01
        -0.25023E-01
         0.58347E-01
         0.75192E-01
         0.96817E-01
         0.11571E+00
         0.11319E+00
         0.99095E-01
         0.95132E-01
         0.93975E-01
         0.59137E-01
         0.19778E-01
         0.78062E-02
         0.69070E-02
        -0.26582E-02
        -0.26509E-01
        -0.53082E-01
        -0.73463E-01
        -0.95111E-01
        -0.10538E+00
        -0.92585E-01
        -0.87580E-01
        -0.86957E-01
        -0.60760E-01
        -0.31362E-01
        -0.29575E-01
        -0.16478E-01
        -0.10293E-01
        -0.96085E-02
        -0.25723E-02
        -0.12399E-01
        -0.56440E-02
        -0.44807E-02
        -0.15825E-01
        -0.10456E-01
        -0.15389E-01
         0.77827E-02
         0.33156E-01
         0.19776E-01
         0.28596E-02
         0.33461E-01
         0.62071E-02
        -0.22135E-02
         0.17398E-02
         0.81812E-02
         0.13826E-02
         0.72797E-02
         0.50047E-02
        -0.29309E-02
         0.23606E-02
        -0.10477E-01
         0.22689E-02
         0.79831E-03
         0.13325E-02
        -0.14483E-02
        -0.10022E-01
         0.66625E-02
         0.15930E-02
         0.44897E-02
         0.38643E-02
        -0.14736E-02
         0.55164E-02
         0.10394E-01
         0.25575E-01
         0.22817E-01
         0.19774E-01
         0.14463E-01
        -0.32130E-02
        -0.72972E-02
        -0.92371E-02
        -0.11740E-01
        -0.23809E-01
        -0.13902E-01
        -0.90992E-02
        -0.11260E-01
        -0.13239E-01
        -0.13935E-01
        -0.76429E-03
         0.17183E-01
        -0.25024E-01
         0.58356E-01
         0.75193E-01
         0.96805E-01
         0.11567E+00
         0.11314E+00
         0.99065E-01
         0.95112E-01
         0.93943E-01
         0.59129E-01
         0.19792E-01
         0.78059E-02
         0.69203E-02
        -0.26326E-02
        -0.26526E-01
        -0.53115E-01
        -0.73485E-01
        -0.95109E-01
        -0.10538E+00
        -0.92580E-01
        -0.87578E-01
        -0.86933E-01
        -0.60716E-01
        -0.31329E-01
        -0.29535E-01
        -0.16486E-01
        -0.10292E-01
        -0.96133E-02
        -0.25899E-02
        -0.12401E-01
        -0.56485E-02
        -0.44842E-02
        -0.15845E-01
        -0.10476E-01
        -0.15435E-01
         0.77896E-02
         0.33154E-01
         0.19782E-01
         0.28618E-02
         0.33503E-01
         0.62084E-02
        -0.22336E-02
         0.17368E-02
         0.81875E-02
         0.13736E-02
         0.72979E-02
         0.50077E-02
        -0.29349E-02
         0.23576E-02
        -0.10515E-01
         0.22604E-02
         0.81008E-03
         0.13435E-02
        -0.14279E-02
        -0.10035E-01
         0.66617E-02
         0.15830E-02
         0.44996E-02
         0.38715E-02
        -0.14560E-02
         0.55207E-02
         0.10395E-01
         0.25617E-01
         0.22867E-01
         0.19797E-01
         0.14478E-01
        -0.31959E-02
        -0.73015E-02
        -0.92500E-02
        -0.11748E-01
        -0.23814E-01
        -0.13909E-01
        -0.90989E-02
        -0.11250E-01
        -0.13222E-01
        -0.13929E-01
        -0.74827E-03
         0.17166E-01
        -0.25025E-01
         0.58366E-01
         0.75193E-01
         0.96794E-01
         0.11563E+00
         0.11309E+00
         0.99035E-01
         0.95091E-01
         0.93911E-01
         0.59122E-01
         0.19806E-01
         0.78051E-02
         0.69336E-02
        -0.26070E-02
        -0.26542E-01
        -0.53149E-01
        -0.73506E-01
        -0.95107E-01
        -0.10537E+00
        -0.92576E-01
        -0.87576E-01
        -0.86909E-01
        -0.60673E-01
        -0.31295E-01
        -0.29496E-01
        -0.16560E-01
        -0.10334E-01
        -0.96583E-02
        -0.26173E-02
        -0.12452E-01
        -0.56750E-02
        -0.45062E-02
        -0.15927E-01
        -0.10536E-01
        -0.15540E-01
         0.78272E-02
         0.33281E-01
         0.19865E-01
         0.28754E-02
         0.33676E-01
         0.62350E-02
        -0.22615E-02
         0.17409E-02
         0.82260E-02
         0.13711E-02
         0.73426E-02
         0.50300E-02
        -0.29476E-02
         0.23655E-02
        -0.10594E-01
         0.22637E-02
         0.82412E-03
         0.13574E-02
        -0.14171E-02
        -0.10088E-01
         0.66889E-02
         0.15823E-02
         0.45272E-02
         0.38939E-02
        -0.14457E-02
         0.55443E-02
         0.10433E-01
         0.25757E-01
         0.23005E-01
         0.19898E-01
         0.14549E-01
        -0.31956E-02
        -0.73360E-02
        -0.92934E-02
        -0.11797E-01
        -0.23906E-01
        -0.13965E-01
        -0.91307E-02
        -0.11282E-01
        -0.13258E-01
        -0.13978E-01
        -0.73533E-03
         0.17213E-01
        -0.25125E-01
         0.58597E-01
         0.75479E-01
         0.97156E-01
         0.11606E+00
         0.11350E+00
         0.99410E-01
         0.95460E-01
         0.94269E-01
         0.59355E-01
         0.19894E-01
         0.78315E-02
         0.69709E-02
        -0.25920E-02
        -0.26649E-01
        -0.53364E-01
        -0.73795E-01
        -0.95471E-01
        -0.10577E+00
        -0.92915E-01
        -0.87893E-01
        -0.87209E-01
        -0.60858E-01
        -0.31380E-01
        -0.29567E-01
        -0.24687E-01
        -0.15469E-01
        -0.14377E-01
        -0.39297E-02
        -0.17891E-01
        -0.82353E-02
        -0.67328E-02
        -0.23642E-01
        -0.15683E-01
        -0.23024E-01
         0.11494E-01
         0.46938E-01
         0.28442E-01
         0.42054E-02
         0.47775E-01
         0.93046E-02
        -0.33859E-02
         0.25960E-02
         0.12114E-01
         0.20186E-02
         0.10523E-01
         0.72922E-02
        -0.42267E-02
         0.35094E-02
        -0.15852E-01
         0.33852E-02
         0.12254E-02
         0.20320E-02
        -0.21111E-02
        -0.15067E-01
         0.99828E-02
         0.23535E-02
         0.67796E-02
         0.58231E-02
        -0.20108E-02
         0.80325E-02
         0.15116E-01
         0.37351E-01
         0.33843E-01
         0.29372E-01
         0.21181E-01
        -0.46770E-02
        -0.10758E-01
        -0.13432E-01
        -0.16991E-01
        -0.33449E-01
        -0.20047E-01
        -0.13264E-01
        -0.16471E-01
        -0.19269E-01
        -0.19835E-01
        -0.10467E-02
         0.21492E-01
        -0.31354E-01
         0.73129E-01
         0.94459E-01
         0.12149E+00
         0.14546E+00
         0.14385E+00
         0.12708E+00
         0.12181E+00
         0.11957E+00
         0.75379E-01
         0.25221E-01
         0.10034E-01
         0.89735E-02
        -0.32690E-02
        -0.33444E-01
        -0.66770E-01
        -0.91816E-01
        -0.11871E+00
        -0.13166E+00
        -0.11687E+00
        -0.11105E+00
        -0.10977E+00
        -0.76855E-01
        -0.39496E-01
        -0.37075E-01
  
SCALARS                      strain_xz  double 1
LOOKUP_TABLE default
        -0.48369E-02
         0.33017E-01
         0.11127E+00
        -0.79304E-02
        -0.27136E-09
         0.96215E-10
         0.32172E-09
         0.64254E-10
         0.30601E+00
         0.20686E+00
         0.96230E-09
         0.86678E-09
        -0.12458E-01
         0.50744E-01
        -0.11868E-09
        -0.55598E-09
         0.11533E-01
         0.48822E-01
        -0.40161E-09
        -0.59812E-09
         0.68878E-01
         0.11256E+00
         0.11181E+00
        -0.39940E-09
        -0.18417E-09
         0.32176E-09
         0.11908E+00
         0.92416E-01
        -0.74762E-09
        -0.59305E-09
        -0.26938E-01
         0.57336E-01
        -0.59631E-02
         0.76117E-10
        -0.29415E-09
        -0.18122E-09
        -0.77971E-01
        -0.35559E-01
        -0.43672E-09
        -0.46499E-09
        -0.15205E+00
        -0.20631E+00
        -0.98510E-09
        -0.72647E-09
        -0.16858E+00
        -0.91216E-01
        -0.10818E-08
        -0.52070E-09
         0.43182E-01
        -0.32685E-09
        -0.11673E+00
        -0.90982E-10
         0.42720E-01
        -0.63866E-09
        -0.31466E-01
        -0.16894E-09
        -0.13766E+00
        -0.39699E-01
        -0.14472E-09
        -0.34982E-09
         0.28739E-02
        -0.77982E-01
         0.28946E-09
         0.19850E-09
         0.20801E-01
        -0.29116E-10
         0.68290E-01
         0.19151E-09
         0.42585E+00
         0.29059E+00
         0.11970E-08
         0.86814E-09
         0.18473E+00
         0.63213E-09
        -0.37582E-01
        -0.43728E-09
        -0.11664E+00
        -0.85821E-10
        -0.24819E+00
        -0.13315E-09
        -0.33540E+00
        -0.24387E+00
        -0.48796E-09
        -0.55806E-09
        -0.22543E+00
        -0.60016E-09
        -0.20421E+00
        -0.86409E-09
        -0.12465E+00
        -0.55113E-09
        -0.19285E+00
        -0.14076E+00
        -0.23522E-09
         0.32257E-09
         0.32553E-01
         0.37837E-09
         0.90056E-01
         0.15887E-09
         0.21464E+00
         0.39232E-09
         0.31616E+00
         0.21870E+00
         0.90459E-09
         0.94394E-09
         0.74097E+00
         0.83525E+00
         0.16715E-08
         0.16472E-08
         0.73008E+00
         0.14279E-08
         0.67929E+00
         0.10671E-08
         0.47710E+00
         0.58642E-09
         0.32984E+00
         0.62709E-10
         0.11638E+00
        -0.22335E-09
        -0.14549E+00
        -0.17869E-09
        -0.34616E+00
        -0.17563E-09
        -0.51492E+00
        -0.39607E-09
        -0.71586E+00
        -0.75352E-09
        -0.92163E+00
        -0.89919E-09
        -0.10426E+01
        -0.84840E-09
        -0.10304E+01
        -0.92258E-09
        -0.97845E+00
        -0.11974E-08
        -0.90041E+00
        -0.14119E-08
        -0.79291E+00
        -0.13125E-08
        -0.59771E+00
        -0.10667E-08
        -0.33768E+00
        -0.50358E-09
        -0.28486E-01
         0.96159E-10
         0.18962E+00
         0.23346E-09
         0.30033E+00
         0.38176E-09
         0.44422E+00
         0.74712E-09
         0.58675E+00
         0.12260E-08
         0.78101E+00
         0.14729E-08
         0.91229E+00
         0.15065E-08
        -0.23218E-02
         0.11999E-02
         0.14091E-02
        -0.28636E-02
         0.10885E-01
         0.85047E-02
         0.12677E-02
        -0.18752E-02
        -0.97984E-03
        -0.17304E-02
         0.93065E-03
         0.40200E-02
         0.84541E-02
        -0.27051E-02
        -0.32410E-02
         0.38095E-02
         0.31916E-02
        -0.14863E-02
        -0.22814E-02
        -0.24608E-02
        -0.13401E-01
        -0.14307E-01
        -0.12857E-01
        -0.40005E-02
         0.16116E-02
        -0.12006E-02
        -0.38249E-02
        -0.42923E-03
        -0.43621E-02
        -0.30298E-02
         0.33984E-02
         0.66082E-03
        -0.16013E-02
        -0.51475E-03
         0.15856E-01
         0.10198E-01
         0.92678E-02
        -0.64561E-02
        -0.36749E-02
        -0.77921E-02
        -0.15926E-01
        -0.15083E-01
        -0.15089E-01
        -0.11073E-01
        -0.78904E-02
        -0.60940E-02
         0.11572E-02
         0.48847E-02
         0.14116E-02
         0.44387E-02
         0.11750E-01
         0.10017E-01
         0.45196E-01
         0.48134E-01
         0.42933E-01
         0.36647E-01
         0.27274E-01
         0.13794E-01
        -0.81173E-03
        -0.97144E-02
        -0.14817E-01
        -0.25421E-01
        -0.41282E-01
        -0.51299E-01
        -0.47302E-01
        -0.45476E-01
        -0.48259E-01
        -0.48412E-01
        -0.43981E-01
        -0.38304E-01
        -0.19006E-01
         0.30207E-02
         0.11690E-01
         0.13028E-01
         0.22035E-01
         0.34942E-01
         0.45794E-01
         0.48307E-01
        -0.55416E-02
         0.11376E-02
        -0.21657E-02
        -0.63060E-02
         0.12935E-01
         0.11054E-01
         0.32206E-02
        -0.70304E-02
        -0.32304E-02
        -0.66837E-02
        -0.13503E-02
         0.49258E-02
         0.16206E-01
        -0.12428E-01
        -0.12871E-01
         0.10887E-01
         0.60611E-02
        -0.36303E-02
        -0.24431E-02
        -0.42905E-02
        -0.25455E-01
        -0.24260E-01
        -0.23940E-01
        -0.57907E-02
         0.32890E-02
         0.22146E-02
        -0.12010E-01
         0.15947E-02
        -0.40193E-02
        -0.54810E-02
         0.83647E-02
         0.54127E-02
        -0.54252E-02
        -0.46823E-02
         0.23067E-01
         0.12732E-01
         0.14604E-01
        -0.14275E-01
        -0.23900E-02
        -0.69295E-02
        -0.25457E-01
        -0.26187E-01
        -0.25597E-01
        -0.18508E-01
        -0.14253E-01
        -0.83393E-02
         0.90132E-02
         0.10641E-01
        -0.14066E-02
         0.16936E-02
         0.17359E-01
         0.15292E-01
         0.96322E-01
         0.97061E-01
         0.87119E-01
         0.71856E-01
         0.53606E-01
         0.24683E-01
        -0.61292E-02
        -0.19867E-01
        -0.26173E-01
        -0.47968E-01
        -0.85207E-01
        -0.10052E+00
        -0.84333E-01
        -0.80239E-01
        -0.88384E-01
        -0.91010E-01
        -0.83059E-01
        -0.78546E-01
        -0.40025E-01
         0.10402E-01
         0.23013E-01
         0.23318E-01
         0.41451E-01
         0.71773E-01
         0.91861E-01
         0.91574E-01
        -0.55521E-02
         0.11418E-02
        -0.21698E-02
        -0.63103E-02
         0.12922E-01
         0.11044E-01
         0.32411E-02
        -0.70126E-02
        -0.32339E-02
        -0.66785E-02
        -0.13229E-02
         0.49378E-02
         0.16215E-01
        -0.12398E-01
        -0.12865E-01
         0.10899E-01
         0.60744E-02
        -0.36203E-02
        -0.24419E-02
        -0.42829E-02
        -0.25453E-01
        -0.24257E-01
        -0.23938E-01
        -0.57910E-02
         0.32964E-02
         0.22183E-02
        -0.12013E-01
         0.15647E-02
        -0.40476E-02
        -0.54845E-02
         0.83769E-02
         0.54120E-02
        -0.54026E-02
        -0.46844E-02
         0.23079E-01
         0.12726E-01
         0.14600E-01
        -0.14298E-01
        -0.24129E-02
        -0.69513E-02
        -0.25473E-01
        -0.26202E-01
        -0.25598E-01
        -0.18506E-01
        -0.14248E-01
        -0.83350E-02
         0.90114E-02
         0.10644E-01
        -0.13963E-02
         0.16878E-02
         0.17347E-01
         0.15269E-01
         0.96289E-01
         0.97036E-01
         0.87111E-01
         0.71857E-01
         0.53589E-01
         0.24676E-01
        -0.61362E-02
        -0.19879E-01
        -0.26151E-01
        -0.47949E-01
        -0.85194E-01
        -0.10052E+00
        -0.84325E-01
        -0.80235E-01
        -0.88395E-01
        -0.91029E-01
        -0.83073E-01
        -0.78562E-01
        -0.40014E-01
         0.10407E-01
         0.22996E-01
         0.23308E-01
         0.41420E-01
         0.71729E-01
         0.91816E-01
         0.91533E-01
        -0.55626E-02
         0.11460E-02
        -0.21739E-02
        -0.63144E-02
         0.12910E-01
         0.11034E-01
         0.32617E-02
        -0.69948E-02
        -0.32373E-02
        -0.66728E-02
        -0.12957E-02
         0.49497E-02
         0.16225E-01
        -0.12367E-01
        -0.12858E-01
         0.10910E-01
         0.60880E-02
        -0.36101E-02
        -0.24407E-02
        -0.42756E-02
        -0.25451E-01
        -0.24255E-01
        -0.23937E-01
        -0.57913E-02
         0.33043E-02
         0.22223E-02
        -0.12017E-01
         0.15351E-02
        -0.40760E-02
        -0.54880E-02
         0.83894E-02
         0.54116E-02
        -0.53799E-02
        -0.46865E-02
         0.23091E-01
         0.12721E-01
         0.14595E-01
        -0.14320E-01
        -0.24358E-02
        -0.69734E-02
        -0.25489E-01
        -0.26217E-01
        -0.25600E-01
        -0.18503E-01
        -0.14243E-01
        -0.83309E-02
         0.90098E-02
         0.10648E-01
        -0.13858E-02
         0.16818E-02
         0.17337E-01
         0.15247E-01
         0.96256E-01
         0.97011E-01
         0.87103E-01
         0.71857E-01
         0.53573E-01
         0.24668E-01
        -0.61432E-02
        -0.19891E-01
        -0.26129E-01
        -0.47930E-01
        -0.85181E-01
        -0.10053E+00
        -0.84317E-01
        -0.80231E-01
        -0.88407E-01
        -0.91050E-01
        -0.83088E-01
        -0.78577E-01
        -0.40003E-01
         0.10412E-01
         0.22979E-01
         0.23299E-01
         0.41390E-01
         0.71685E-01
         0.91770E-01
         0.91492E-01
        -0.55731E-02
         0.11503E-02
        -0.21779E-02
        -0.63186E-02
         0.12897E-01
         0.11024E-01
         0.32820E-02
        -0.69769E-02
        -0.32402E-02
        -0.66662E-02
        -0.12685E-02
         0.49619E-02
         0.16235E-01
        -0.12336E-01
        -0.12851E-01
         0.10923E-01
         0.61022E-02
        -0.35999E-02
        -0.24396E-02
        -0.42680E-02
        -0.25449E-01
        -0.24253E-01
        -0.23937E-01
        -0.57916E-02
         0.33137E-02
         0.22272E-02
        -0.12020E-01
         0.15064E-02
        -0.41044E-02
        -0.54912E-02
         0.84029E-02
         0.54121E-02
        -0.53571E-02
        -0.46886E-02
         0.23102E-01
         0.12715E-01
         0.14590E-01
        -0.14343E-01
        -0.24587E-02
        -0.69952E-02
        -0.25505E-01
        -0.26234E-01
        -0.25603E-01
        -0.18502E-01
        -0.14237E-01
        -0.83265E-02
         0.90085E-02
         0.10651E-01
        -0.13752E-02
         0.16758E-02
         0.17325E-01
         0.15224E-01
         0.96223E-01
         0.96986E-01
         0.87095E-01
         0.71858E-01
         0.53556E-01
         0.24661E-01
        -0.61503E-02
        -0.19904E-01
        -0.26107E-01
        -0.47911E-01
        -0.85168E-01
        -0.10053E+00
        -0.84311E-01
        -0.80227E-01
        -0.88420E-01
        -0.91073E-01
        -0.83105E-01
        -0.78592E-01
        -0.39991E-01
         0.10416E-01
         0.22962E-01
         0.23290E-01
         0.41359E-01
         0.71641E-01
         0.91725E-01
         0.91451E-01
        -0.55835E-02
         0.11546E-02
        -0.21819E-02
        -0.63227E-02
         0.12884E-01
         0.11013E-01
         0.33026E-02
        -0.69588E-02
        -0.32427E-02
        -0.66586E-02
        -0.12412E-02
         0.49739E-02
         0.16245E-01
        -0.12306E-01
        -0.12844E-01
         0.10936E-01
         0.61169E-02
        -0.35897E-02
        -0.24383E-02
        -0.42603E-02
        -0.25449E-01
        -0.24252E-01
        -0.23938E-01
        -0.57920E-02
         0.33247E-02
         0.22328E-02
        -0.12022E-01
         0.14786E-02
        -0.41326E-02
        -0.54942E-02
         0.84173E-02
         0.54134E-02
        -0.53341E-02
        -0.46907E-02
         0.23114E-01
         0.12709E-01
         0.14585E-01
        -0.14366E-01
        -0.24814E-02
        -0.70173E-02
        -0.25523E-01
        -0.26251E-01
        -0.25608E-01
        -0.18500E-01
        -0.14232E-01
        -0.83217E-02
         0.90075E-02
         0.10655E-01
        -0.13648E-02
         0.16699E-02
         0.17315E-01
         0.15201E-01
         0.96190E-01
         0.96961E-01
         0.87087E-01
         0.71858E-01
         0.53540E-01
         0.24653E-01
        -0.61572E-02
        -0.19916E-01
        -0.26085E-01
        -0.47892E-01
        -0.85154E-01
        -0.10053E+00
        -0.84307E-01
        -0.80224E-01
        -0.88433E-01
        -0.91100E-01
        -0.83123E-01
        -0.78607E-01
        -0.39980E-01
         0.10421E-01
         0.22946E-01
         0.23281E-01
         0.41329E-01
         0.71597E-01
         0.91679E-01
         0.91411E-01
        -0.55935E-02
         0.11592E-02
        -0.21855E-02
        -0.63268E-02
         0.12872E-01
         0.11003E-01
         0.33231E-02
        -0.69405E-02
        -0.32451E-02
        -0.66508E-02
        -0.12139E-02
         0.49860E-02
         0.16255E-01
        -0.12275E-01
        -0.12837E-01
         0.10950E-01
         0.61317E-02
        -0.35795E-02
        -0.24369E-02
        -0.42530E-02
        -0.25449E-01
        -0.24251E-01
        -0.23940E-01
        -0.57925E-02
         0.33355E-02
         0.22387E-02
        -0.12024E-01
         0.14510E-02
        -0.41610E-02
        -0.54978E-02
         0.84316E-02
         0.54146E-02
        -0.53110E-02
        -0.46925E-02
         0.23126E-01
         0.12704E-01
         0.14581E-01
        -0.14389E-01
        -0.25041E-02
        -0.70394E-02
        -0.25540E-01
        -0.26269E-01
        -0.25614E-01
        -0.18500E-01
        -0.14227E-01
        -0.83175E-02
         0.90062E-02
         0.10659E-01
        -0.13540E-02
         0.16645E-02
         0.17304E-01
         0.15179E-01
         0.96157E-01
         0.96936E-01
         0.87079E-01
         0.71858E-01
         0.53523E-01
         0.24646E-01
        -0.61640E-02
        -0.19928E-01
        -0.26063E-01
        -0.47873E-01
        -0.85141E-01
        -0.10054E+00
        -0.84304E-01
        -0.80221E-01
        -0.88448E-01
        -0.91128E-01
        -0.83142E-01
        -0.78622E-01
        -0.39969E-01
         0.10425E-01
         0.22929E-01
         0.23272E-01
         0.41299E-01
         0.71554E-01
         0.91634E-01
         0.91370E-01
        -0.56027E-02
         0.11648E-02
        -0.21883E-02
        -0.63307E-02
         0.12859E-01
         0.10993E-01
         0.33441E-02
        -0.69218E-02
        -0.32476E-02
        -0.66434E-02
        -0.11865E-02
         0.49980E-02
         0.16265E-01
        -0.12244E-01
        -0.12830E-01
         0.10964E-01
         0.61459E-02
        -0.35692E-02
        -0.24358E-02
        -0.42458E-02
        -0.25448E-01
        -0.24250E-01
        -0.23942E-01
        -0.57932E-02
         0.33451E-02
         0.22438E-02
        -0.12027E-01
         0.14228E-02
        -0.41897E-02
        -0.55018E-02
         0.84452E-02
         0.54148E-02
        -0.52873E-02
        -0.46939E-02
         0.23138E-01
         0.12699E-01
         0.14577E-01
        -0.14411E-01
        -0.25271E-02
        -0.70620E-02
        -0.25558E-01
        -0.26288E-01
        -0.25620E-01
        -0.18499E-01
        -0.14222E-01
        -0.83137E-02
         0.90041E-02
         0.10663E-01
        -0.13423E-02
         0.16603E-02
         0.17295E-01
         0.15157E-01
         0.96124E-01
         0.96912E-01
         0.87071E-01
         0.71858E-01
         0.53507E-01
         0.24638E-01
        -0.61709E-02
        -0.19940E-01
        -0.26041E-01
        -0.47854E-01
        -0.85127E-01
        -0.10054E+00
        -0.84301E-01
        -0.80219E-01
        -0.88462E-01
        -0.91156E-01
        -0.83161E-01
        -0.78636E-01
        -0.39958E-01
         0.10429E-01
         0.22911E-01
         0.23263E-01
         0.41269E-01
         0.71510E-01
         0.91589E-01
         0.91329E-01
        -0.56115E-02
         0.11707E-02
        -0.21907E-02
        -0.63345E-02
         0.12848E-01
         0.10983E-01
         0.33653E-02
        -0.69028E-02
        -0.32503E-02
        -0.66363E-02
        -0.11590E-02
         0.50101E-02
         0.16275E-01
        -0.12214E-01
        -0.12823E-01
         0.10978E-01
         0.61598E-02
        -0.35588E-02
        -0.24345E-02
        -0.42391E-02
        -0.25448E-01
        -0.24249E-01
        -0.23944E-01
        -0.57937E-02
         0.33541E-02
         0.22486E-02
        -0.12030E-01
         0.13943E-02
        -0.42188E-02
        -0.55062E-02
         0.84583E-02
         0.54145E-02
        -0.52634E-02
        -0.46950E-02
         0.23150E-01
         0.12695E-01
         0.14574E-01
        -0.14434E-01
        -0.25500E-02
        -0.70845E-02
        -0.25575E-01
        -0.26306E-01
        -0.25626E-01
        -0.18499E-01
        -0.14218E-01
        -0.83106E-02
         0.90018E-02
         0.10666E-01
        -0.13302E-02
         0.16567E-02
         0.17285E-01
         0.15136E-01
         0.96091E-01
         0.96887E-01
         0.87063E-01
         0.71859E-01
         0.53490E-01
         0.24631E-01
        -0.61777E-02
        -0.19953E-01
        -0.26019E-01
        -0.47835E-01
        -0.85113E-01
        -0.10055E+00
        -0.84298E-01
        -0.80216E-01
        -0.88476E-01
        -0.91183E-01
        -0.83179E-01
        -0.78649E-01
        -0.39946E-01
         0.10432E-01
         0.22893E-01
         0.23254E-01
         0.41240E-01
         0.71467E-01
         0.91543E-01
         0.91289E-01
        -0.56203E-02
         0.11767E-02
        -0.21930E-02
        -0.63383E-02
         0.12835E-01
         0.10973E-01
         0.33864E-02
        -0.68840E-02
        -0.32530E-02
        -0.66293E-02
        -0.11316E-02
         0.50221E-02
         0.16285E-01
        -0.12183E-01
        -0.12816E-01
         0.10991E-01
         0.61737E-02
        -0.35485E-02
        -0.24332E-02
        -0.42320E-02
        -0.25447E-01
        -0.24249E-01
        -0.23946E-01
        -0.57946E-02
         0.33630E-02
         0.22533E-02
        -0.12032E-01
         0.13660E-02
        -0.42478E-02
        -0.55106E-02
         0.84715E-02
         0.54142E-02
        -0.52395E-02
        -0.46961E-02
         0.23163E-01
         0.12691E-01
         0.14570E-01
        -0.14456E-01
        -0.25730E-02
        -0.71068E-02
        -0.25593E-01
        -0.26325E-01
        -0.25633E-01
        -0.18499E-01
        -0.14214E-01
        -0.83075E-02
         0.89995E-02
         0.10670E-01
        -0.13181E-02
         0.16532E-02
         0.17277E-01
         0.15114E-01
         0.96058E-01
         0.96862E-01
         0.87055E-01
         0.71859E-01
         0.53474E-01
         0.24623E-01
        -0.61845E-02
        -0.19965E-01
        -0.25997E-01
        -0.47816E-01
        -0.85099E-01
        -0.10055E+00
        -0.84295E-01
        -0.80213E-01
        -0.88490E-01
        -0.91211E-01
        -0.83198E-01
        -0.78663E-01
        -0.39934E-01
         0.10436E-01
         0.22875E-01
         0.23245E-01
         0.41210E-01
         0.71424E-01
         0.91498E-01
         0.91248E-01
        -0.56291E-02
         0.11827E-02
        -0.21953E-02
        -0.63422E-02
         0.12823E-01
         0.10963E-01
         0.34076E-02
        -0.68651E-02
        -0.32557E-02
        -0.66222E-02
        -0.11042E-02
         0.50342E-02
         0.16295E-01
        -0.12153E-01
        -0.12808E-01
         0.11005E-01
         0.61876E-02
        -0.35382E-02
        -0.24319E-02
        -0.42252E-02
        -0.25447E-01
        -0.24248E-01
        -0.23948E-01
        -0.57953E-02
         0.33719E-02
         0.22581E-02
        -0.12035E-01
         0.13378E-02
        -0.42768E-02
        -0.55149E-02
         0.84846E-02
         0.54137E-02
        -0.52157E-02
        -0.46973E-02
         0.23175E-01
         0.12687E-01
         0.14567E-01
        -0.14479E-01
        -0.25960E-02
        -0.71295E-02
        -0.25611E-01
        -0.26343E-01
        -0.25639E-01
        -0.18499E-01
        -0.14209E-01
        -0.83042E-02
         0.89971E-02
         0.10673E-01
        -0.13061E-02
         0.16495E-02
         0.17268E-01
         0.15092E-01
         0.96025E-01
         0.96838E-01
         0.87046E-01
         0.71859E-01
         0.53457E-01
         0.24616E-01
        -0.61912E-02
        -0.19977E-01
        -0.25975E-01
        -0.47797E-01
        -0.85085E-01
        -0.10055E+00
        -0.84291E-01
        -0.80211E-01
        -0.88504E-01
        -0.91239E-01
        -0.83217E-01
        -0.78676E-01
        -0.39922E-01
         0.10439E-01
         0.22857E-01
         0.23236E-01
         0.41181E-01
         0.71381E-01
         0.91453E-01
         0.91208E-01
        -0.56378E-02
         0.11886E-02
        -0.21977E-02
        -0.63459E-02
         0.12812E-01
         0.10953E-01
         0.34286E-02
        -0.68461E-02
        -0.32583E-02
        -0.66153E-02
        -0.10768E-02
         0.50464E-02
         0.16306E-01
        -0.12122E-01
        -0.12801E-01
         0.11019E-01
         0.62015E-02
        -0.35280E-02
        -0.24308E-02
        -0.42181E-02
        -0.25447E-01
        -0.24247E-01
        -0.23950E-01
        -0.57962E-02
         0.33808E-02
         0.22628E-02
        -0.12038E-01
         0.13095E-02
        -0.43056E-02
        -0.55192E-02
         0.84977E-02
         0.54134E-02
        -0.51918E-02
        -0.46984E-02
         0.23188E-01
         0.12682E-01
         0.14563E-01
        -0.14501E-01
        -0.26191E-02
        -0.71518E-02
        -0.25628E-01
        -0.26362E-01
        -0.25645E-01
        -0.18499E-01
        -0.14205E-01
        -0.83012E-02
         0.89948E-02
         0.10676E-01
        -0.12940E-02
         0.16458E-02
         0.17259E-01
         0.15071E-01
         0.95991E-01
         0.96813E-01
         0.87038E-01
         0.71859E-01
         0.53440E-01
         0.24608E-01
        -0.61978E-02
        -0.19989E-01
        -0.25953E-01
        -0.47778E-01
        -0.85071E-01
        -0.10056E+00
        -0.84288E-01
        -0.80208E-01
        -0.88519E-01
        -0.91267E-01
        -0.83236E-01
        -0.78690E-01
        -0.39911E-01
         0.10442E-01
         0.22839E-01
         0.23227E-01
         0.41152E-01
         0.71338E-01
         0.91408E-01
         0.91167E-01
        -0.56466E-02
         0.11946E-02
        -0.22000E-02
        -0.63497E-02
         0.12800E-01
         0.10943E-01
         0.34497E-02
        -0.68272E-02
        -0.32610E-02
        -0.66083E-02
        -0.10494E-02
         0.50585E-02
         0.16316E-01
        -0.12092E-01
        -0.12794E-01
         0.11032E-01
         0.62153E-02
        -0.35177E-02
        -0.24296E-02
        -0.42113E-02
        -0.25446E-01
        -0.24246E-01
        -0.23952E-01
        -0.57970E-02
         0.33896E-02
         0.22676E-02
        -0.12041E-01
         0.12814E-02
        -0.43343E-02
        -0.55237E-02
         0.85109E-02
         0.54130E-02
        -0.51678E-02
        -0.46996E-02
         0.23201E-01
         0.12678E-01
         0.14560E-01
        -0.14523E-01
        -0.26422E-02
        -0.71746E-02
        -0.25646E-01
        -0.26380E-01
        -0.25651E-01
        -0.18499E-01
        -0.14201E-01
        -0.82982E-02
         0.89924E-02
         0.10680E-01
        -0.12819E-02
         0.16424E-02
         0.17250E-01
         0.15049E-01
         0.95958E-01
         0.96788E-01
         0.87030E-01
         0.71859E-01
         0.53424E-01
         0.24601E-01
        -0.62045E-02
        -0.20001E-01
        -0.25931E-01
        -0.47759E-01
        -0.85058E-01
        -0.10056E+00
        -0.84284E-01
        -0.80205E-01
        -0.88533E-01
        -0.91295E-01
        -0.83255E-01
        -0.78703E-01
        -0.39899E-01
         0.10445E-01
         0.22821E-01
         0.23218E-01
         0.41122E-01
         0.71295E-01
         0.91363E-01
         0.91127E-01
        -0.56554E-02
         0.12006E-02
        -0.22023E-02
        -0.63535E-02
         0.12787E-01
         0.10932E-01
         0.34708E-02
        -0.68083E-02
        -0.32635E-02
        -0.66011E-02
        -0.10222E-02
         0.50705E-02
         0.16326E-01
        -0.12061E-01
        -0.12787E-01
         0.11046E-01
         0.62291E-02
        -0.35074E-02
        -0.24284E-02
        -0.42044E-02
        -0.25446E-01
        -0.24246E-01
        -0.23954E-01
        -0.57979E-02
         0.33983E-02
         0.22723E-02
        -0.12044E-01
         0.12533E-02
        -0.43631E-02
        -0.55279E-02
         0.85240E-02
         0.54126E-02
        -0.51438E-02
        -0.47007E-02
         0.23213E-01
         0.12674E-01
         0.14556E-01
        -0.14546E-01
        -0.26654E-02
        -0.71971E-02
        -0.25664E-01
        -0.26398E-01
        -0.25657E-01
        -0.18499E-01
        -0.14197E-01
        -0.82946E-02
         0.89901E-02
         0.10683E-01
        -0.12697E-02
         0.16387E-02
         0.17240E-01
         0.15027E-01
         0.95925E-01
         0.96764E-01
         0.87021E-01
         0.71859E-01
         0.53407E-01
         0.24593E-01
        -0.62113E-02
        -0.20013E-01
        -0.25909E-01
        -0.47740E-01
        -0.85044E-01
        -0.10057E+00
        -0.84281E-01
        -0.80203E-01
        -0.88547E-01
        -0.91323E-01
        -0.83273E-01
        -0.78717E-01
        -0.39888E-01
         0.10448E-01
         0.22803E-01
         0.23209E-01
         0.41093E-01
         0.71252E-01
         0.91318E-01
         0.91086E-01
        -0.56642E-02
         0.12065E-02
        -0.22045E-02
        -0.63572E-02
         0.12776E-01
         0.10922E-01
         0.34916E-02
        -0.67894E-02
        -0.32661E-02
        -0.65940E-02
        -0.99493E-03
         0.50826E-02
         0.16336E-01
        -0.12031E-01
        -0.12779E-01
         0.11059E-01
         0.62430E-02
        -0.34971E-02
        -0.24274E-02
        -0.41976E-02
        -0.25445E-01
        -0.24245E-01
        -0.23957E-01
        -0.57987E-02
         0.34069E-02
         0.22771E-02
        -0.12046E-01
         0.12253E-02
        -0.43920E-02
        -0.55321E-02
         0.85371E-02
         0.54122E-02
        -0.51198E-02
        -0.47018E-02
         0.23226E-01
         0.12670E-01
         0.14553E-01
        -0.14568E-01
        -0.26886E-02
        -0.72198E-02
        -0.25682E-01
        -0.26416E-01
        -0.25663E-01
        -0.18499E-01
        -0.14193E-01
        -0.82916E-02
         0.89877E-02
         0.10687E-01
        -0.12576E-02
         0.16351E-02
         0.17232E-01
         0.15005E-01
         0.95892E-01
         0.96740E-01
         0.87013E-01
         0.71859E-01
         0.53391E-01
         0.24586E-01
        -0.62179E-02
        -0.20024E-01
        -0.25887E-01
        -0.47721E-01
        -0.85030E-01
        -0.10057E+00
        -0.84278E-01
        -0.80200E-01
        -0.88561E-01
        -0.91351E-01
        -0.83292E-01
        -0.78730E-01
        -0.39876E-01
         0.10451E-01
         0.22785E-01
         0.23200E-01
         0.41064E-01
         0.71208E-01
         0.91273E-01
         0.91045E-01
        -0.56730E-02
         0.12124E-02
        -0.22068E-02
        -0.63609E-02
         0.12764E-01
         0.10912E-01
         0.35127E-02
        -0.67704E-02
        -0.32687E-02
        -0.65870E-02
        -0.96771E-03
         0.50949E-02
         0.16346E-01
        -0.12001E-01
        -0.12772E-01
         0.11073E-01
         0.62568E-02
        -0.34869E-02
        -0.24262E-02
        -0.41905E-02
        -0.25445E-01
        -0.24244E-01
        -0.23958E-01
        -0.57996E-02
         0.34156E-02
         0.22818E-02
        -0.12049E-01
         0.11973E-02
        -0.44208E-02
        -0.55363E-02
         0.85501E-02
         0.54117E-02
        -0.50958E-02
        -0.47029E-02
         0.23239E-01
         0.12666E-01
         0.14550E-01
        -0.14590E-01
        -0.27118E-02
        -0.72424E-02
        -0.25699E-01
        -0.26435E-01
        -0.25669E-01
        -0.18499E-01
        -0.14189E-01
        -0.82886E-02
         0.89853E-02
         0.10690E-01
        -0.12453E-02
         0.16315E-02
         0.17223E-01
         0.14983E-01
         0.95859E-01
         0.96715E-01
         0.87004E-01
         0.71859E-01
         0.53375E-01
         0.24578E-01
        -0.62244E-02
        -0.20036E-01
        -0.25865E-01
        -0.47702E-01
        -0.85016E-01
        -0.10057E+00
        -0.84274E-01
        -0.80197E-01
        -0.88576E-01
        -0.91379E-01
        -0.83311E-01
        -0.78744E-01
        -0.39864E-01
         0.10454E-01
         0.22767E-01
         0.23192E-01
         0.41034E-01
         0.71165E-01
         0.91228E-01
         0.91005E-01
        -0.56819E-02
         0.12184E-02
        -0.22091E-02
        -0.63646E-02
         0.12752E-01
         0.10902E-01
         0.35336E-02
        -0.67515E-02
        -0.32713E-02
        -0.65799E-02
        -0.94047E-03
         0.51070E-02
         0.16357E-01
        -0.11970E-01
        -0.12764E-01
         0.11087E-01
         0.62706E-02
        -0.34768E-02
        -0.24250E-02
        -0.41837E-02
        -0.25445E-01
        -0.24243E-01
        -0.23961E-01
        -0.58004E-02
         0.34240E-02
         0.22865E-02
        -0.12052E-01
         0.11694E-02
        -0.44495E-02
        -0.55405E-02
         0.85632E-02
         0.54113E-02
        -0.50718E-02
        -0.47041E-02
         0.23251E-01
         0.12662E-01
         0.14546E-01
        -0.14612E-01
        -0.27351E-02
        -0.72649E-02
        -0.25717E-01
        -0.26453E-01
        -0.25675E-01
        -0.18499E-01
        -0.14185E-01
        -0.82852E-02
         0.89830E-02
         0.10693E-01
        -0.12331E-02
         0.16278E-02
         0.17214E-01
         0.14961E-01
         0.95826E-01
         0.96691E-01
         0.86996E-01
         0.71859E-01
         0.53358E-01
         0.24570E-01
        -0.62309E-02
        -0.20047E-01
        -0.25843E-01
        -0.47683E-01
        -0.85003E-01
        -0.10058E+00
        -0.84271E-01
        -0.80195E-01
        -0.88590E-01
        -0.91406E-01
        -0.83330E-01
        -0.78757E-01
        -0.39853E-01
         0.10457E-01
         0.22749E-01
         0.23183E-01
         0.41005E-01
         0.71122E-01
         0.91184E-01
         0.90964E-01
        -0.56907E-02
         0.12243E-02
        -0.22114E-02
        -0.63683E-02
         0.12740E-01
         0.10892E-01
         0.35545E-02
        -0.67325E-02
        -0.32738E-02
        -0.65725E-02
        -0.91325E-03
         0.51192E-02
         0.16367E-01
        -0.11940E-01
        -0.12757E-01
         0.11100E-01
         0.62845E-02
        -0.34666E-02
        -0.24238E-02
        -0.41767E-02
        -0.25444E-01
        -0.24242E-01
        -0.23963E-01
        -0.58014E-02
         0.34324E-02
         0.22912E-02
        -0.12054E-01
         0.11411E-02
        -0.44780E-02
        -0.55447E-02
         0.85764E-02
         0.54110E-02
        -0.50479E-02
        -0.47053E-02
         0.23264E-01
         0.12657E-01
         0.14543E-01
        -0.14633E-01
        -0.27587E-02
        -0.72878E-02
        -0.25734E-01
        -0.26471E-01
        -0.25681E-01
        -0.18499E-01
        -0.14180E-01
        -0.82821E-02
         0.89807E-02
         0.10697E-01
        -0.12209E-02
         0.16241E-02
         0.17205E-01
         0.14940E-01
         0.95792E-01
         0.96666E-01
         0.86988E-01
         0.71859E-01
         0.53341E-01
         0.24563E-01
        -0.62372E-02
        -0.20059E-01
        -0.25822E-01
        -0.47664E-01
        -0.84989E-01
        -0.10058E+00
        -0.84268E-01
        -0.80192E-01
        -0.88604E-01
        -0.91434E-01
        -0.83349E-01
        -0.78771E-01
        -0.39841E-01
         0.10460E-01
         0.22731E-01
         0.23174E-01
         0.40976E-01
         0.71079E-01
         0.91138E-01
         0.90924E-01
        -0.56995E-02
         0.12303E-02
        -0.22136E-02
        -0.63720E-02
         0.12728E-01
         0.10882E-01
         0.35754E-02
        -0.67136E-02
        -0.32761E-02
        -0.65643E-02
        -0.88607E-03
         0.51314E-02
         0.16377E-01
        -0.11909E-01
        -0.12749E-01
         0.11114E-01
         0.62982E-02
        -0.34564E-02
        -0.24230E-02
        -0.41700E-02
        -0.25444E-01
        -0.24241E-01
        -0.23965E-01
        -0.58022E-02
         0.34401E-02
         0.22961E-02
        -0.12055E-01
         0.11122E-02
        -0.45067E-02
        -0.55491E-02
         0.85895E-02
         0.54105E-02
        -0.50238E-02
        -0.47065E-02
         0.23277E-01
         0.12653E-01
         0.14539E-01
        -0.14655E-01
        -0.27829E-02
        -0.73101E-02
        -0.25750E-01
        -0.26487E-01
        -0.25687E-01
        -0.18499E-01
        -0.14176E-01
        -0.82788E-02
         0.89783E-02
         0.10700E-01
        -0.12088E-02
         0.16205E-02
         0.17196E-01
         0.14918E-01
         0.95759E-01
         0.96642E-01
         0.86979E-01
         0.71859E-01
         0.53325E-01
         0.24556E-01
        -0.62436E-02
        -0.20071E-01
        -0.25800E-01
        -0.47644E-01
        -0.84975E-01
        -0.10059E+00
        -0.84267E-01
        -0.80190E-01
        -0.88618E-01
        -0.91462E-01
        -0.83368E-01
        -0.78784E-01
        -0.39829E-01
         0.10464E-01
         0.22713E-01
         0.23165E-01
         0.40946E-01
         0.71036E-01
         0.91093E-01
         0.90884E-01
        -0.57083E-02
         0.12362E-02
        -0.22158E-02
        -0.63756E-02
         0.12716E-01
         0.10872E-01
         0.35963E-02
        -0.66946E-02
        -0.32781E-02
        -0.65553E-02
        -0.85896E-03
         0.51435E-02
         0.16387E-01
        -0.11879E-01
        -0.12741E-01
         0.11127E-01
         0.63118E-02
        -0.34462E-02
        -0.24219E-02
        -0.41631E-02
        -0.25444E-01
        -0.24240E-01
        -0.23967E-01
        -0.58031E-02
         0.34473E-02
         0.23008E-02
        -0.12056E-01
         0.10824E-02
        -0.45353E-02
        -0.55534E-02
         0.86026E-02
         0.54100E-02
        -0.49998E-02
        -0.47076E-02
         0.23290E-01
         0.12649E-01
         0.14536E-01
        -0.14675E-01
        -0.28078E-02
        -0.73326E-02
        -0.25764E-01
        -0.26502E-01
        -0.25691E-01
        -0.18499E-01
        -0.14172E-01
        -0.82758E-02
         0.89760E-02
         0.10704E-01
        -0.11965E-02
         0.16169E-02
         0.17187E-01
         0.14896E-01
         0.95726E-01
         0.96618E-01
         0.86971E-01
         0.71859E-01
         0.53308E-01
         0.24548E-01
        -0.62499E-02
        -0.20082E-01
        -0.25779E-01
        -0.47624E-01
        -0.84960E-01
        -0.10060E+00
        -0.84267E-01
        -0.80187E-01
        -0.88632E-01
        -0.91489E-01
        -0.83386E-01
        -0.78797E-01
        -0.39818E-01
         0.10467E-01
         0.22695E-01
         0.23156E-01
         0.40917E-01
         0.70993E-01
         0.91048E-01
         0.90843E-01
        -0.57171E-02
         0.12421E-02
        -0.22181E-02
        -0.63794E-02
         0.12704E-01
         0.10862E-01
         0.36170E-02
        -0.66758E-02
        -0.32800E-02
        -0.65462E-02
        -0.83205E-03
         0.51554E-02
         0.16397E-01
        -0.11848E-01
        -0.12733E-01
         0.11141E-01
         0.63254E-02
        -0.34361E-02
        -0.24207E-02
        -0.41563E-02
        -0.25443E-01
        -0.24239E-01
        -0.23969E-01
        -0.58040E-02
         0.34542E-02
         0.23054E-02
        -0.12056E-01
         0.10525E-02
        -0.45638E-02
        -0.55576E-02
         0.86157E-02
         0.54096E-02
        -0.49759E-02
        -0.47088E-02
         0.23303E-01
         0.12645E-01
         0.14533E-01
        -0.14696E-01
        -0.28330E-02
        -0.73545E-02
        -0.25778E-01
        -0.26517E-01
        -0.25695E-01
        -0.18499E-01
        -0.14168E-01
        -0.82727E-02
         0.89738E-02
         0.10707E-01
        -0.11844E-02
         0.16131E-02
         0.17178E-01
         0.14874E-01
         0.95693E-01
         0.96594E-01
         0.86963E-01
         0.71859E-01
         0.53292E-01
         0.24540E-01
        -0.62561E-02
        -0.20093E-01
        -0.25757E-01
        -0.47603E-01
        -0.84945E-01
        -0.10061E+00
        -0.84268E-01
        -0.80185E-01
        -0.88646E-01
        -0.91517E-01
        -0.83405E-01
        -0.78810E-01
        -0.39806E-01
         0.10470E-01
         0.22677E-01
         0.23147E-01
         0.40888E-01
         0.70950E-01
         0.91004E-01
         0.90803E-01
        -0.57484E-02
         0.12517E-02
        -0.22294E-02
        -0.64078E-02
         0.12741E-01
         0.10894E-01
         0.36497E-02
        -0.66857E-02
        -0.32945E-02
        -0.65649E-02
        -0.81188E-03
         0.51844E-02
         0.16469E-01
        -0.11868E-01
        -0.12777E-01
         0.11197E-01
         0.63633E-02
        -0.34402E-02
        -0.24285E-02
        -0.41651E-02
        -0.25537E-01
        -0.24330E-01
        -0.24059E-01
        -0.58273E-02
         0.34742E-02
         0.23186E-02
        -0.12106E-01
         0.10287E-02
        -0.46082E-02
        -0.55834E-02
         0.86620E-02
         0.54300E-02
        -0.49736E-02
        -0.47289E-02
         0.23404E-01
         0.12690E-01
         0.14585E-01
        -0.14775E-01
        -0.28673E-02
        -0.74038E-02
        -0.25894E-01
        -0.26636E-01
        -0.25799E-01
        -0.18567E-01
        -0.14217E-01
        -0.82998E-02
         0.90064E-02
         0.10753E-01
        -0.11782E-02
         0.16156E-02
         0.17236E-01
         0.14911E-01
         0.96031E-01
         0.96936E-01
         0.87290E-01
         0.72132E-01
         0.53482E-01
         0.24626E-01
        -0.62893E-02
        -0.20182E-01
        -0.25841E-01
        -0.47778E-01
        -0.85276E-01
        -0.10101E+00
        -0.84582E-01
        -0.80474E-01
        -0.88975E-01
        -0.91864E-01
        -0.83716E-01
        -0.79111E-01
        -0.39948E-01
         0.10516E-01
         0.22748E-01
         0.23223E-01
         0.41014E-01
         0.71176E-01
         0.91298E-01
         0.91097E-01
        -0.85738E-02
         0.18796E-02
        -0.33188E-02
        -0.95724E-02
         0.18285E-01
         0.15784E-01
         0.54656E-02
        -0.99061E-02
        -0.48983E-02
        -0.97106E-02
        -0.11749E-02
         0.73143E-02
         0.23579E-01
        -0.17326E-01
        -0.18111E-01
         0.16714E-01
         0.94741E-02
        -0.51289E-02
        -0.35746E-02
        -0.61445E-02
        -0.36532E-01
        -0.35253E-01
        -0.34513E-01
        -0.86453E-02
         0.51910E-02
         0.34707E-02
        -0.17831E-01
         0.15098E-02
        -0.69264E-02
        -0.83315E-02
         0.12936E-01
         0.80841E-02
        -0.74123E-02
        -0.70651E-02
         0.32982E-01
         0.18377E-01
         0.21130E-01
        -0.21435E-01
        -0.42327E-02
        -0.10938E-01
        -0.37690E-01
        -0.39055E-01
        -0.37798E-01
        -0.26826E-01
        -0.20473E-01
        -0.11611E-01
         0.12926E-01
         0.15640E-01
        -0.17104E-02
         0.23470E-02
         0.24451E-01
         0.21538E-01
         0.11999E+00
         0.12091E+00
         0.10893E+00
         0.90273E-01
         0.66870E-01
         0.30857E-01
        -0.79829E-02
        -0.25806E-01
        -0.32958E-01
        -0.60591E-01
        -0.10830E+00
        -0.12806E+00
        -0.10842E+00
        -0.10348E+00
        -0.11294E+00
        -0.11528E+00
        -0.10473E+00
        -0.98426E-01
        -0.49662E-01
         0.13100E-01
         0.28609E-01
         0.29336E-01
         0.51619E-01
         0.89896E-01
         0.11495E+00
         0.11429E+00
  
SCALARS                      strain_xy  double 1
LOOKUP_TABLE default
         0.18064E-04
         0.40232E-04
         0.35667E-03
        -0.13357E-04
        -0.35482E-19
         0.34676E-20
         0.52135E-19
         0.79418E-20
         0.36317E-02
        -0.16247E-02
         0.23207E-18
         0.18403E-18
        -0.12600E-03
         0.26068E-04
         0.20484E-19
        -0.61521E-20
        -0.42563E-04
        -0.63312E-03
         0.10198E-20
         0.15540E-19
         0.45295E-03
         0.27366E-02
         0.29088E-02
         0.15801E-18
         0.12583E-18
        -0.18376E-18
         0.28547E-03
         0.22171E-02
         0.21276E-18
         0.32742E-18
         0.11350E-03
        -0.20536E-03
        -0.19044E-04
        -0.11230E-19
         0.44301E-19
        -0.56662E-21
         0.96244E-03
         0.40929E-03
         0.11856E-18
         0.98219E-19
         0.18216E-02
         0.15337E-02
         0.20212E-18
         0.13621E-18
         0.18706E-02
         0.35210E-03
        -0.73629E-20
         0.54817E-19
        -0.41562E-03
         0.16201E-19
         0.11939E-03
        -0.36525E-21
        -0.23452E-04
         0.12245E-18
        -0.11349E-03
         0.18843E-19
        -0.16200E-02
         0.85492E-04
         0.43790E-21
        -0.21483E-20
        -0.14677E-04
         0.14395E-02
         0.11933E-19
         0.30609E-19
        -0.64525E-04
        -0.24229E-20
        -0.89935E-03
         0.19415E-19
         0.44236E-02
         0.15927E-02
         0.14996E-19
        -0.14361E-18
         0.35142E-02
        -0.22961E-18
        -0.11331E-02
         0.15379E-18
        -0.35317E-02
         0.22912E-19
        -0.62077E-02
         0.29795E-19
        -0.12485E-01
        -0.70598E-02
         0.70046E-19
        -0.17761E-19
        -0.93762E-03
        -0.21374E-20
         0.35403E-02
        -0.19277E-18
         0.50510E-02
        -0.21525E-18
         0.10826E-01
         0.48673E-02
        -0.13625E-18
         0.15124E-18
        -0.79650E-03
         0.13771E-18
        -0.19862E-02
         0.59155E-19
        -0.45888E-02
         0.15707E-18
        -0.11240E-01
        -0.64851E-02
         0.33679E-18
         0.16839E-18
         0.17318E-01
        -0.74802E-02
        -0.21881E-18
         0.26797E-18
         0.41906E-01
        -0.62188E-18
         0.56611E-01
        -0.67980E-18
         0.48037E-01
        -0.46137E-18
         0.37835E-01
        -0.48938E-19
         0.15272E-01
         0.13794E-18
        -0.19162E-01
         0.85403E-19
        -0.42845E-01
         0.78073E-19
        -0.56736E-01
         0.16751E-18
        -0.58665E-01
         0.20366E-18
        -0.52935E-01
         0.80240E-19
        -0.31202E-01
         0.48920E-19
         0.22635E-02
         0.79959E-19
         0.29077E-01
         0.53598E-19
         0.48620E-01
        -0.19114E-18
         0.66262E-01
        -0.50153E-18
         0.54353E-01
        -0.63648E-18
         0.32771E-01
        -0.39391E-18
         0.35089E-02
         0.75153E-19
        -0.24527E-01
         0.15928E-18
        -0.36114E-01
         0.25384E-18
        -0.42904E-01
         0.49988E-18
        -0.38492E-01
         0.64864E-18
        -0.36633E-01
         0.46083E-18
        -0.31141E-01
         0.36445E-18
        -0.74444E-05
         0.19765E-05
         0.20283E-05
        -0.12908E-05
         0.15916E-04
         0.13348E-04
         0.20725E-06
        -0.47431E-05
        -0.21523E-05
        -0.55366E-05
        -0.15255E-05
        -0.28051E-04
        -0.40564E-04
         0.15058E-05
         0.22910E-04
        -0.32428E-05
         0.24034E-05
         0.72356E-06
         0.14313E-05
        -0.11701E-05
         0.58299E-05
         0.51450E-05
        -0.15461E-04
         0.40593E-06
         0.35217E-05
         0.38771E-06
         0.63449E-07
         0.12459E-06
         0.15264E-05
        -0.51669E-05
        -0.28216E-05
         0.58993E-06
         0.96679E-06
        -0.75269E-07
        -0.37311E-05
        -0.13125E-04
        -0.26859E-04
         0.40257E-04
         0.20923E-04
         0.37169E-04
         0.71075E-04
         0.16980E-04
        -0.14076E-04
        -0.28284E-04
        -0.33087E-04
        -0.41218E-04
         0.51914E-05
         0.15880E-04
         0.48926E-05
         0.16214E-04
         0.49897E-04
         0.19674E-04
        -0.16086E-03
         0.20878E-03
        -0.50337E-03
        -0.59553E-03
        -0.56473E-03
        -0.33692E-03
         0.19780E-04
         0.21364E-03
         0.31037E-03
         0.50297E-03
         0.52580E-03
         0.29258E-03
         0.11944E-03
         0.50739E-04
        -0.82827E-04
        -0.32955E-03
        -0.55027E-03
        -0.62223E-03
        -0.36638E-03
         0.67111E-04
         0.24626E-03
         0.25935E-03
         0.40765E-03
         0.44657E-03
         0.34520E-03
         0.32084E-03
        -0.45111E-04
         0.58405E-05
        -0.10289E-04
        -0.71061E-05
         0.79817E-04
         0.30678E-04
         0.70874E-05
        -0.54089E-04
        -0.16298E-04
        -0.48363E-04
         0.51655E-05
        -0.81565E-04
        -0.15897E-03
         0.17518E-04
         0.20999E-03
        -0.33610E-04
         0.56702E-05
         0.32424E-05
         0.98349E-05
         0.33393E-05
         0.88331E-04
         0.59769E-04
        -0.34193E-04
         0.69805E-05
         0.16026E-04
        -0.26691E-05
         0.36321E-05
        -0.89652E-06
        -0.36095E-05
        -0.26641E-04
        -0.27829E-04
        -0.47434E-05
         0.11666E-04
         0.87424E-05
         0.20537E-04
        -0.34552E-04
        -0.75673E-04
         0.17698E-03
         0.26130E-04
         0.66765E-04
         0.18020E-03
        -0.45803E-04
        -0.92218E-04
        -0.83289E-04
        -0.82590E-04
        -0.98715E-04
         0.62080E-04
         0.48465E-04
        -0.80519E-05
         0.11445E-04
         0.12155E-03
         0.80341E-05
        -0.84174E-03
         0.12134E-02
        -0.25347E-02
        -0.27017E-02
        -0.26018E-02
        -0.14379E-02
         0.34970E-03
         0.98955E-03
         0.12493E-02
         0.22657E-02
         0.25271E-02
         0.98259E-03
         0.32834E-03
         0.26767E-03
        -0.13658E-03
        -0.11932E-02
        -0.21816E-02
        -0.28720E-02
        -0.19045E-02
         0.54888E-03
         0.10661E-02
         0.10211E-02
         0.18100E-02
         0.22066E-02
         0.14672E-02
         0.13849E-02
        -0.45224E-04
         0.58632E-05
        -0.10314E-04
        -0.71630E-05
         0.79749E-04
         0.30673E-04
         0.71414E-05
        -0.54043E-04
        -0.16345E-04
        -0.48506E-04
         0.50640E-05
        -0.81756E-04
        -0.15910E-03
         0.17475E-04
         0.21015E-03
        -0.33646E-04
         0.57343E-05
         0.32286E-05
         0.98368E-05
         0.33148E-05
         0.88541E-04
         0.59820E-04
        -0.34199E-04
         0.69775E-05
         0.16135E-04
        -0.26686E-05
         0.36760E-05
        -0.88458E-06
        -0.36109E-05
        -0.26715E-04
        -0.27874E-04
        -0.47325E-05
         0.11643E-04
         0.87606E-05
         0.20355E-04
        -0.34559E-04
        -0.75646E-04
         0.17754E-03
         0.26437E-04
         0.67053E-04
         0.18045E-03
        -0.45706E-04
        -0.92317E-04
        -0.83319E-04
        -0.82563E-04
        -0.98665E-04
         0.62074E-04
         0.48452E-04
        -0.79823E-05
         0.11391E-04
         0.12142E-03
         0.79007E-05
        -0.84067E-03
         0.12131E-02
        -0.25349E-02
        -0.27018E-02
        -0.26007E-02
        -0.14370E-02
         0.34995E-03
         0.98987E-03
         0.12480E-02
         0.22641E-02
         0.25262E-02
         0.98307E-03
         0.32829E-03
         0.26820E-03
        -0.13548E-03
        -0.11940E-02
        -0.21830E-02
        -0.28732E-02
        -0.19039E-02
         0.54910E-03
         0.10652E-02
         0.10207E-02
         0.18082E-02
         0.22036E-02
         0.14648E-02
         0.13824E-02
        -0.45338E-04
         0.58857E-05
        -0.10338E-04
        -0.72206E-05
         0.79679E-04
         0.30671E-04
         0.71958E-05
        -0.53996E-04
        -0.16391E-04
        -0.48644E-04
         0.49625E-05
        -0.81947E-04
        -0.15924E-03
         0.17431E-04
         0.21030E-03
        -0.33684E-04
         0.57995E-05
         0.32146E-05
         0.98387E-05
         0.32903E-05
         0.88754E-04
         0.59869E-04
        -0.34210E-04
         0.69737E-05
         0.16246E-04
        -0.26679E-05
         0.37228E-05
        -0.87297E-06
        -0.36099E-05
        -0.26786E-04
        -0.27920E-04
        -0.47196E-05
         0.11620E-04
         0.87786E-05
         0.20171E-04
        -0.34568E-04
        -0.75616E-04
         0.17810E-03
         0.26746E-04
         0.67344E-04
         0.18071E-03
        -0.45597E-04
        -0.92413E-04
        -0.83363E-04
        -0.82545E-04
        -0.98620E-04
         0.62068E-04
         0.48438E-04
        -0.79117E-05
         0.11335E-04
         0.12130E-03
         0.77683E-05
        -0.83960E-03
         0.12129E-02
        -0.25352E-02
        -0.27018E-02
        -0.25996E-02
        -0.14361E-02
         0.35021E-03
         0.99018E-03
         0.12466E-02
         0.22626E-02
         0.25253E-02
         0.98358E-03
         0.32824E-03
         0.26874E-03
        -0.13438E-03
        -0.11950E-02
        -0.21844E-02
        -0.28745E-02
        -0.19033E-02
         0.54931E-03
         0.10643E-02
         0.10202E-02
         0.18064E-02
         0.22007E-02
         0.14625E-02
         0.13800E-02
        -0.45452E-04
         0.59089E-05
        -0.10363E-04
        -0.72783E-05
         0.79610E-04
         0.30667E-04
         0.72502E-05
        -0.53948E-04
        -0.16436E-04
        -0.48773E-04
         0.48612E-05
        -0.82142E-04
        -0.15938E-03
         0.17388E-04
         0.21046E-03
        -0.33726E-04
         0.58664E-05
         0.32006E-05
         0.98417E-05
         0.32644E-05
         0.88975E-04
         0.59915E-04
        -0.34239E-04
         0.69671E-05
         0.16362E-04
        -0.26665E-05
         0.37710E-05
        -0.86332E-06
        -0.36021E-05
        -0.26851E-04
        -0.27967E-04
        -0.47030E-05
         0.11596E-04
         0.87969E-05
         0.19987E-04
        -0.34575E-04
        -0.75586E-04
         0.17866E-03
         0.27056E-04
         0.67640E-04
         0.18100E-03
        -0.45452E-04
        -0.92498E-04
        -0.83436E-04
        -0.82537E-04
        -0.98572E-04
         0.62070E-04
         0.48425E-04
        -0.78411E-05
         0.11280E-04
         0.12116E-03
         0.76365E-05
        -0.83852E-03
         0.12126E-02
        -0.25354E-02
        -0.27019E-02
        -0.25985E-02
        -0.14352E-02
         0.35046E-03
         0.99050E-03
         0.12453E-02
         0.22611E-02
         0.25245E-02
         0.98419E-03
         0.32822E-03
         0.26927E-03
        -0.13327E-03
        -0.11960E-02
        -0.21861E-02
        -0.28758E-02
        -0.19028E-02
         0.54953E-03
         0.10635E-02
         0.10198E-02
         0.18046E-02
         0.21978E-02
         0.14602E-02
         0.13776E-02
        -0.45565E-04
         0.59320E-05
        -0.10387E-04
        -0.73359E-05
         0.79543E-04
         0.30663E-04
         0.73046E-05
        -0.53898E-04
        -0.16478E-04
        -0.48892E-04
         0.47596E-05
        -0.82334E-04
        -0.15952E-03
         0.17346E-04
         0.21061E-03
        -0.33771E-04
         0.59349E-05
         0.31865E-05
         0.98438E-05
         0.32375E-05
         0.89201E-04
         0.59956E-04
        -0.34286E-04
         0.69578E-05
         0.16483E-04
        -0.26640E-05
         0.38244E-05
        -0.85541E-06
        -0.35871E-05
        -0.26910E-04
        -0.28015E-04
        -0.46820E-05
         0.11572E-04
         0.88150E-05
         0.19803E-04
        -0.34582E-04
        -0.75559E-04
         0.17922E-03
         0.27367E-04
         0.67943E-04
         0.18131E-03
        -0.45269E-04
        -0.92572E-04
        -0.83543E-04
        -0.82545E-04
        -0.98526E-04
         0.62077E-04
         0.48417E-04
        -0.77711E-05
         0.11225E-04
         0.12104E-03
         0.75042E-05
        -0.83745E-03
         0.12124E-02
        -0.25357E-02
        -0.27019E-02
        -0.25973E-02
        -0.14342E-02
         0.35071E-03
         0.99081E-03
         0.12440E-02
         0.22596E-02
         0.25236E-02
         0.98491E-03
         0.32824E-03
         0.26979E-03
        -0.13216E-03
        -0.11971E-02
        -0.21879E-02
        -0.28772E-02
        -0.19022E-02
         0.54974E-03
         0.10626E-02
         0.10193E-02
         0.18028E-02
         0.21949E-02
         0.14578E-02
         0.13751E-02
        -0.45673E-04
         0.59567E-05
        -0.10409E-04
        -0.73940E-05
         0.79474E-04
         0.30659E-04
         0.73583E-05
        -0.53841E-04
        -0.16520E-04
        -0.49004E-04
         0.46582E-05
        -0.82527E-04
        -0.15965E-03
         0.17306E-04
         0.21076E-03
        -0.33818E-04
         0.60049E-05
         0.31725E-05
         0.98458E-05
         0.32105E-05
         0.89429E-04
         0.59997E-04
        -0.34341E-04
         0.69477E-05
         0.16603E-04
        -0.26611E-05
         0.38818E-05
        -0.84812E-06
        -0.35689E-05
        -0.26969E-04
        -0.28061E-04
        -0.46583E-05
         0.11547E-04
         0.88335E-05
         0.19617E-04
        -0.34593E-04
        -0.75536E-04
         0.17978E-03
         0.27680E-04
         0.68250E-04
         0.18163E-03
        -0.45075E-04
        -0.92641E-04
        -0.83660E-04
        -0.82565E-04
        -0.98493E-04
         0.62084E-04
         0.48413E-04
        -0.77001E-05
         0.11173E-04
         0.12091E-03
         0.73727E-05
        -0.83637E-03
         0.12122E-02
        -0.25359E-02
        -0.27019E-02
        -0.25962E-02
        -0.14333E-02
         0.35095E-03
         0.99112E-03
         0.12427E-02
         0.22580E-02
         0.25228E-02
         0.98568E-03
         0.32827E-03
         0.27031E-03
        -0.13105E-03
        -0.11982E-02
        -0.21898E-02
        -0.28786E-02
        -0.19017E-02
         0.54993E-03
         0.10618E-02
         0.10189E-02
         0.18010E-02
         0.21920E-02
         0.14555E-02
         0.13727E-02
        -0.45773E-04
         0.59852E-05
        -0.10427E-04
        -0.74535E-05
         0.79408E-04
         0.30657E-04
         0.74110E-05
        -0.53772E-04
        -0.16564E-04
        -0.49111E-04
         0.45567E-05
        -0.82723E-04
        -0.15981E-03
         0.17276E-04
         0.21092E-03
        -0.33866E-04
         0.60759E-05
         0.31585E-05
         0.98490E-05
         0.31837E-05
         0.89658E-04
         0.60040E-04
        -0.34396E-04
         0.69380E-05
         0.16716E-04
        -0.26572E-05
         0.39494E-05
        -0.84067E-06
        -0.35495E-05
        -0.27030E-04
        -0.28104E-04
        -0.46320E-05
         0.11522E-04
         0.88516E-05
         0.19430E-04
        -0.34607E-04
        -0.75518E-04
         0.18035E-03
         0.27997E-04
         0.68562E-04
         0.18196E-03
        -0.44875E-04
        -0.92709E-04
        -0.83779E-04
        -0.82593E-04
        -0.98469E-04
         0.62095E-04
         0.48421E-04
        -0.76256E-05
         0.11131E-04
         0.12080E-03
         0.72400E-05
        -0.83530E-03
         0.12119E-02
        -0.25361E-02
        -0.27020E-02
        -0.25951E-02
        -0.14324E-02
         0.35118E-03
         0.99143E-03
         0.12414E-02
         0.22565E-02
         0.25220E-02
         0.98645E-03
         0.32830E-03
         0.27084E-03
        -0.12994E-03
        -0.11994E-02
        -0.21917E-02
        -0.28800E-02
        -0.19011E-02
         0.55008E-03
         0.10609E-02
         0.10185E-02
         0.17993E-02
         0.21891E-02
         0.14532E-02
         0.13703E-02
        -0.45869E-04
         0.60151E-05
        -0.10444E-04
        -0.75136E-05
         0.79346E-04
         0.30653E-04
         0.74630E-05
        -0.53698E-04
        -0.16608E-04
        -0.49217E-04
         0.44552E-05
        -0.82918E-04
        -0.15996E-03
         0.17248E-04
         0.21107E-03
        -0.33915E-04
         0.61476E-05
         0.31443E-05
         0.98514E-05
         0.31573E-05
         0.89887E-04
         0.60083E-04
        -0.34450E-04
         0.69285E-05
         0.16825E-04
        -0.26530E-05
         0.40196E-05
        -0.83299E-06
        -0.35297E-05
        -0.27092E-04
        -0.28145E-04
        -0.46041E-05
         0.11497E-04
         0.88700E-05
         0.19242E-04
        -0.34624E-04
        -0.75506E-04
         0.18092E-03
         0.28315E-04
         0.68874E-04
         0.18229E-03
        -0.44676E-04
        -0.92776E-04
        -0.83901E-04
        -0.82624E-04
        -0.98454E-04
         0.62108E-04
         0.48433E-04
        -0.75498E-05
         0.11093E-04
         0.12068E-03
         0.71080E-05
        -0.83422E-03
         0.12117E-02
        -0.25363E-02
        -0.27020E-02
        -0.25940E-02
        -0.14315E-02
         0.35142E-03
         0.99173E-03
         0.12401E-02
         0.22550E-02
         0.25212E-02
         0.98721E-03
         0.32834E-03
         0.27137E-03
        -0.12883E-03
        -0.12005E-02
        -0.21935E-02
        -0.28814E-02
        -0.19005E-02
         0.55022E-03
         0.10600E-02
         0.10181E-02
         0.17975E-02
         0.21862E-02
         0.14509E-02
         0.13678E-02
        -0.45964E-04
         0.60453E-05
        -0.10460E-04
        -0.75738E-05
         0.79281E-04
         0.30648E-04
         0.75149E-05
        -0.53623E-04
        -0.16653E-04
        -0.49323E-04
         0.43536E-05
        -0.83113E-04
        -0.16011E-03
         0.17222E-04
         0.21123E-03
        -0.33964E-04
         0.62199E-05
         0.31301E-05
         0.98536E-05
         0.31305E-05
         0.90115E-04
         0.60126E-04
        -0.34505E-04
         0.69194E-05
         0.16934E-04
        -0.26487E-05
         0.40917E-05
        -0.82486E-06
        -0.35093E-05
        -0.27154E-04
        -0.28185E-04
        -0.45766E-05
         0.11471E-04
         0.88882E-05
         0.19053E-04
        -0.34638E-04
        -0.75492E-04
         0.18149E-03
         0.28635E-04
         0.69185E-04
         0.18262E-03
        -0.44478E-04
        -0.92844E-04
        -0.84025E-04
        -0.82658E-04
        -0.98440E-04
         0.62119E-04
         0.48445E-04
        -0.74741E-05
         0.11056E-04
         0.12058E-03
         0.69756E-05
        -0.83315E-03
         0.12114E-02
        -0.25365E-02
        -0.27020E-02
        -0.25929E-02
        -0.14305E-02
         0.35166E-03
         0.99203E-03
         0.12388E-02
         0.22534E-02
         0.25204E-02
         0.98797E-03
         0.32838E-03
         0.27191E-03
        -0.12772E-03
        -0.12017E-02
        -0.21954E-02
        -0.28827E-02
        -0.18998E-02
         0.55036E-03
         0.10591E-02
         0.10177E-02
         0.17958E-02
         0.21833E-02
         0.14486E-02
         0.13654E-02
        -0.46059E-04
         0.60757E-05
        -0.10476E-04
        -0.76338E-05
         0.79216E-04
         0.30644E-04
         0.75670E-05
        -0.53548E-04
        -0.16697E-04
        -0.49427E-04
         0.42520E-05
        -0.83308E-04
        -0.16027E-03
         0.17194E-04
         0.21138E-03
        -0.34012E-04
         0.62927E-05
         0.31161E-05
         0.98557E-05
         0.31039E-05
         0.90343E-04
         0.60168E-04
        -0.34556E-04
         0.69102E-05
         0.17043E-04
        -0.26444E-05
         0.41619E-05
        -0.81639E-06
        -0.34884E-05
        -0.27216E-04
        -0.28226E-04
        -0.45488E-05
         0.11445E-04
         0.89066E-05
         0.18863E-04
        -0.34656E-04
        -0.75480E-04
         0.18206E-03
         0.28957E-04
         0.69501E-04
         0.18295E-03
        -0.44280E-04
        -0.92912E-04
        -0.84146E-04
        -0.82690E-04
        -0.98422E-04
         0.62132E-04
         0.48459E-04
        -0.73990E-05
         0.11017E-04
         0.12046E-03
         0.68441E-05
        -0.83207E-03
         0.12112E-02
        -0.25367E-02
        -0.27020E-02
        -0.25918E-02
        -0.14296E-02
         0.35189E-03
         0.99232E-03
         0.12375E-02
         0.22519E-02
         0.25195E-02
         0.98872E-03
         0.32842E-03
         0.27245E-03
        -0.12661E-03
        -0.12028E-02
        -0.21973E-02
        -0.28841E-02
        -0.18992E-02
         0.55049E-03
         0.10583E-02
         0.10172E-02
         0.17940E-02
         0.21804E-02
         0.14463E-02
         0.13630E-02
        -0.46154E-04
         0.61059E-05
        -0.10492E-04
        -0.76937E-05
         0.79153E-04
         0.30641E-04
         0.76193E-05
        -0.53472E-04
        -0.16742E-04
        -0.49532E-04
         0.41501E-05
        -0.83505E-04
        -0.16042E-03
         0.17168E-04
         0.21153E-03
        -0.34061E-04
         0.63658E-05
         0.31022E-05
         0.98590E-05
         0.30770E-05
         0.90571E-04
         0.60209E-04
        -0.34611E-04
         0.69012E-05
         0.17152E-04
        -0.26400E-05
         0.42334E-05
        -0.80741E-06
        -0.34670E-05
        -0.27277E-04
        -0.28266E-04
        -0.45212E-05
         0.11419E-04
         0.89249E-05
         0.18673E-04
        -0.34671E-04
        -0.75468E-04
         0.18264E-03
         0.29280E-04
         0.69812E-04
         0.18329E-03
        -0.44081E-04
        -0.92980E-04
        -0.84265E-04
        -0.82722E-04
        -0.98409E-04
         0.62144E-04
         0.48471E-04
        -0.73235E-05
         0.10978E-04
         0.12035E-03
         0.67126E-05
        -0.83098E-03
         0.12109E-02
        -0.25369E-02
        -0.27020E-02
        -0.25906E-02
        -0.14287E-02
         0.35211E-03
         0.99261E-03
         0.12362E-02
         0.22504E-02
         0.25187E-02
         0.98948E-03
         0.32846E-03
         0.27298E-03
        -0.12550E-03
        -0.12040E-02
        -0.21992E-02
        -0.28855E-02
        -0.18986E-02
         0.55062E-03
         0.10574E-02
         0.10168E-02
         0.17922E-02
         0.21775E-02
         0.14440E-02
         0.13606E-02
        -0.46249E-04
         0.61360E-05
        -0.10508E-04
        -0.77543E-05
         0.79089E-04
         0.30636E-04
         0.76714E-05
        -0.53396E-04
        -0.16787E-04
        -0.49636E-04
         0.40483E-05
        -0.83702E-04
        -0.16057E-03
         0.17141E-04
         0.21168E-03
        -0.34110E-04
         0.64393E-05
         0.30881E-05
         0.98614E-05
         0.30506E-05
         0.90799E-04
         0.60249E-04
        -0.34666E-04
         0.68924E-05
         0.17261E-04
        -0.26358E-05
         0.43033E-05
        -0.79811E-06
        -0.34446E-05
        -0.27339E-04
        -0.28307E-04
        -0.44935E-05
         0.11392E-04
         0.89434E-05
         0.18481E-04
        -0.34687E-04
        -0.75454E-04
         0.18321E-03
         0.29606E-04
         0.70129E-04
         0.18362E-03
        -0.43884E-04
        -0.93046E-04
        -0.84387E-04
        -0.82755E-04
        -0.98396E-04
         0.62155E-04
         0.48486E-04
        -0.72480E-05
         0.10942E-04
         0.12024E-03
         0.65816E-05
        -0.82990E-03
         0.12107E-02
        -0.25371E-02
        -0.27021E-02
        -0.25895E-02
        -0.14278E-02
         0.35233E-03
         0.99291E-03
         0.12349E-02
         0.22488E-02
         0.25179E-02
         0.99023E-03
         0.32849E-03
         0.27351E-03
        -0.12439E-03
        -0.12051E-02
        -0.22011E-02
        -0.28868E-02
        -0.18980E-02
         0.55076E-03
         0.10565E-02
         0.10164E-02
         0.17905E-02
         0.21746E-02
         0.14417E-02
         0.13581E-02
        -0.46344E-04
         0.61664E-05
        -0.10524E-04
        -0.78150E-05
         0.79024E-04
         0.30632E-04
         0.77235E-05
        -0.53319E-04
        -0.16831E-04
        -0.49738E-04
         0.39465E-05
        -0.83897E-04
        -0.16073E-03
         0.17112E-04
         0.21183E-03
        -0.34158E-04
         0.65130E-05
         0.30739E-05
         0.98640E-05
         0.30242E-05
         0.91027E-04
         0.60290E-04
        -0.34719E-04
         0.68836E-05
         0.17370E-04
        -0.26313E-05
         0.43752E-05
        -0.78834E-06
        -0.34220E-05
        -0.27401E-04
        -0.28347E-04
        -0.44655E-05
         0.11365E-04
         0.89617E-05
         0.18289E-04
        -0.34705E-04
        -0.75442E-04
         0.18378E-03
         0.29933E-04
         0.70443E-04
         0.18395E-03
        -0.43684E-04
        -0.93114E-04
        -0.84510E-04
        -0.82790E-04
        -0.98374E-04
         0.62169E-04
         0.48498E-04
        -0.71723E-05
         0.10903E-04
         0.12012E-03
         0.64512E-05
        -0.82882E-03
         0.12104E-02
        -0.25372E-02
        -0.27021E-02
        -0.25884E-02
        -0.14268E-02
         0.35257E-03
         0.99319E-03
         0.12336E-02
         0.22472E-02
         0.25171E-02
         0.99099E-03
         0.32853E-03
         0.27405E-03
        -0.12327E-03
        -0.12063E-02
        -0.22030E-02
        -0.28882E-02
        -0.18974E-02
         0.55089E-03
         0.10556E-02
         0.10160E-02
         0.17887E-02
         0.21718E-02
         0.14395E-02
         0.13557E-02
        -0.46439E-04
         0.61963E-05
        -0.10540E-04
        -0.78756E-05
         0.78962E-04
         0.30628E-04
         0.77758E-05
        -0.53241E-04
        -0.16875E-04
        -0.49840E-04
         0.38448E-05
        -0.84092E-04
        -0.16089E-03
         0.17086E-04
         0.21198E-03
        -0.34207E-04
         0.65873E-05
         0.30599E-05
         0.98675E-05
         0.29980E-05
         0.91255E-04
         0.60331E-04
        -0.34773E-04
         0.68748E-05
         0.17479E-04
        -0.26268E-05
         0.44452E-05
        -0.77824E-06
        -0.33990E-05
        -0.27462E-04
        -0.28387E-04
        -0.44379E-05
         0.11337E-04
         0.89801E-05
         0.18096E-04
        -0.34721E-04
        -0.75428E-04
         0.18436E-03
         0.30261E-04
         0.70760E-04
         0.18428E-03
        -0.43484E-04
        -0.93181E-04
        -0.84631E-04
        -0.82822E-04
        -0.98361E-04
         0.62181E-04
         0.48511E-04
        -0.70969E-05
         0.10866E-04
         0.12002E-03
         0.63220E-05
        -0.82774E-03
         0.12102E-02
        -0.25374E-02
        -0.27021E-02
        -0.25873E-02
        -0.14259E-02
         0.35279E-03
         0.99346E-03
         0.12323E-02
         0.22457E-02
         0.25162E-02
         0.99174E-03
         0.32857E-03
         0.27458E-03
        -0.12216E-03
        -0.12074E-02
        -0.22049E-02
        -0.28896E-02
        -0.18968E-02
         0.55101E-03
         0.10547E-02
         0.10156E-02
         0.17870E-02
         0.21689E-02
         0.14372E-02
         0.13533E-02
        -0.46535E-04
         0.62260E-05
        -0.10556E-04
        -0.79362E-05
         0.78898E-04
         0.30623E-04
         0.78280E-05
        -0.53163E-04
        -0.16920E-04
        -0.49941E-04
         0.37430E-05
        -0.84292E-04
        -0.16104E-03
         0.17056E-04
         0.21213E-03
        -0.34255E-04
         0.66621E-05
         0.30460E-05
         0.98699E-05
         0.29715E-05
         0.91484E-04
         0.60371E-04
        -0.34826E-04
         0.68662E-05
         0.17589E-04
        -0.26222E-05
         0.45165E-05
        -0.76766E-06
        -0.33755E-05
        -0.27523E-04
        -0.28427E-04
        -0.44099E-05
         0.11310E-04
         0.89985E-05
         0.17903E-04
        -0.34738E-04
        -0.75415E-04
         0.18493E-03
         0.30591E-04
         0.71076E-04
         0.18461E-03
        -0.43285E-04
        -0.93249E-04
        -0.84751E-04
        -0.82854E-04
        -0.98348E-04
         0.62192E-04
         0.48525E-04
        -0.70206E-05
         0.10828E-04
         0.11991E-03
         0.61923E-05
        -0.82666E-03
         0.12099E-02
        -0.25376E-02
        -0.27021E-02
        -0.25862E-02
        -0.14250E-02
         0.35301E-03
         0.99372E-03
         0.12310E-02
         0.22441E-02
         0.25154E-02
         0.99250E-03
         0.32860E-03
         0.27512E-03
        -0.12105E-03
        -0.12086E-02
        -0.22068E-02
        -0.28909E-02
        -0.18962E-02
         0.55114E-03
         0.10538E-02
         0.10152E-02
         0.17852E-02
         0.21660E-02
         0.14349E-02
         0.13509E-02
        -0.46630E-04
         0.62564E-05
        -0.10572E-04
        -0.79967E-05
         0.78833E-04
         0.30620E-04
         0.78800E-05
        -0.53084E-04
        -0.16965E-04
        -0.50042E-04
         0.36408E-05
        -0.84488E-04
        -0.16120E-03
         0.17029E-04
         0.21228E-03
        -0.34304E-04
         0.67375E-05
         0.30322E-05
         0.98725E-05
         0.29454E-05
         0.91713E-04
         0.60409E-04
        -0.34879E-04
         0.68578E-05
         0.17697E-04
        -0.26176E-05
         0.45860E-05
        -0.75668E-06
        -0.33515E-05
        -0.27584E-04
        -0.28467E-04
        -0.43823E-05
         0.11282E-04
         0.90173E-05
         0.17708E-04
        -0.34754E-04
        -0.75403E-04
         0.18551E-03
         0.30923E-04
         0.71390E-04
         0.18495E-03
        -0.43085E-04
        -0.93317E-04
        -0.84869E-04
        -0.82889E-04
        -0.98330E-04
         0.62205E-04
         0.48538E-04
        -0.69452E-05
         0.10790E-04
         0.11979E-03
         0.60628E-05
        -0.82558E-03
         0.12097E-02
        -0.25378E-02
        -0.27022E-02
        -0.25851E-02
        -0.14240E-02
         0.35321E-03
         0.99399E-03
         0.12297E-02
         0.22425E-02
         0.25146E-02
         0.99326E-03
         0.32863E-03
         0.27564E-03
        -0.11994E-03
        -0.12097E-02
        -0.22087E-02
        -0.28923E-02
        -0.18956E-02
         0.55126E-03
         0.10530E-02
         0.10148E-02
         0.17835E-02
         0.21631E-02
         0.14327E-02
         0.13485E-02
        -0.46725E-04
         0.62863E-05
        -0.10588E-04
        -0.80575E-05
         0.78771E-04
         0.30615E-04
         0.79326E-05
        -0.53004E-04
        -0.17010E-04
        -0.50140E-04
         0.35386E-05
        -0.84685E-04
        -0.16135E-03
         0.16999E-04
         0.21242E-03
        -0.34353E-04
         0.68135E-05
         0.30183E-05
         0.98754E-05
         0.29194E-05
         0.91940E-04
         0.60446E-04
        -0.34932E-04
         0.68494E-05
         0.17805E-04
        -0.26129E-05
         0.46572E-05
        -0.74513E-06
        -0.33267E-05
        -0.27644E-04
        -0.28507E-04
        -0.43545E-05
         0.11254E-04
         0.90360E-05
         0.17513E-04
        -0.34770E-04
        -0.75388E-04
         0.18609E-03
         0.31260E-04
         0.71708E-04
         0.18527E-03
        -0.42887E-04
        -0.93385E-04
        -0.84992E-04
        -0.82922E-04
        -0.98317E-04
         0.62218E-04
         0.48553E-04
        -0.68703E-05
         0.10752E-04
         0.11968E-03
         0.59349E-05
        -0.82449E-03
         0.12094E-02
        -0.25379E-02
        -0.27022E-02
        -0.25840E-02
        -0.14231E-02
         0.35342E-03
         0.99425E-03
         0.12284E-02
         0.22410E-02
         0.25138E-02
         0.99404E-03
         0.32866E-03
         0.27617E-03
        -0.11883E-03
        -0.12108E-02
        -0.22106E-02
        -0.28936E-02
        -0.18950E-02
         0.55138E-03
         0.10521E-02
         0.10143E-02
         0.17817E-02
         0.21602E-02
         0.14304E-02
         0.13461E-02
        -0.46820E-04
         0.63162E-05
        -0.10603E-04
        -0.81186E-05
         0.78707E-04
         0.30610E-04
         0.79847E-05
        -0.52923E-04
        -0.17053E-04
        -0.50231E-04
         0.34364E-05
        -0.84883E-04
        -0.16150E-03
         0.16971E-04
         0.21256E-03
        -0.34402E-04
         0.68902E-05
         0.30043E-05
         0.98795E-05
         0.28947E-05
         0.92167E-04
         0.60481E-04
        -0.34987E-04
         0.68406E-05
         0.17911E-04
        -0.26084E-05
         0.47274E-05
        -0.73273E-06
        -0.33016E-05
        -0.27704E-04
        -0.28547E-04
        -0.43262E-05
         0.11225E-04
         0.90547E-05
         0.17317E-04
        -0.34788E-04
        -0.75376E-04
         0.18666E-03
         0.31604E-04
         0.72017E-04
         0.18559E-03
        -0.42683E-04
        -0.93452E-04
        -0.85113E-04
        -0.82955E-04
        -0.98300E-04
         0.62229E-04
         0.48566E-04
        -0.67955E-05
         0.10714E-04
         0.11958E-03
         0.58070E-05
        -0.82341E-03
         0.12091E-02
        -0.25381E-02
        -0.27022E-02
        -0.25828E-02
        -0.14222E-02
         0.35362E-03
         0.99452E-03
         0.12271E-02
         0.22393E-02
         0.25130E-02
         0.99485E-03
         0.32867E-03
         0.27669E-03
        -0.11772E-03
        -0.12120E-02
        -0.22125E-02
        -0.28950E-02
        -0.18944E-02
         0.55151E-03
         0.10512E-02
         0.10139E-02
         0.17799E-02
         0.21574E-02
         0.14282E-02
         0.13437E-02
        -0.46916E-04
         0.63460E-05
        -0.10619E-04
        -0.81796E-05
         0.78642E-04
         0.30605E-04
         0.80370E-05
        -0.52842E-04
        -0.17096E-04
        -0.50316E-04
         0.33342E-05
        -0.85079E-04
        -0.16166E-03
         0.16942E-04
         0.21270E-03
        -0.34450E-04
         0.69681E-05
         0.29903E-05
         0.98825E-05
         0.28707E-05
         0.92396E-04
         0.60515E-04
        -0.35040E-04
         0.68324E-05
         0.18014E-04
        -0.26036E-05
         0.48003E-05
        -0.71934E-06
        -0.32760E-05
        -0.27760E-04
        -0.28587E-04
        -0.42984E-05
         0.11196E-04
         0.90734E-05
         0.17120E-04
        -0.34804E-04
        -0.75363E-04
         0.18723E-03
         0.31957E-04
         0.72326E-04
         0.18589E-03
        -0.42478E-04
        -0.93519E-04
        -0.85233E-04
        -0.82991E-04
        -0.98287E-04
         0.62242E-04
         0.48579E-04
        -0.67202E-05
         0.10677E-04
         0.11946E-03
         0.56785E-05
        -0.82232E-03
         0.12089E-02
        -0.25383E-02
        -0.27022E-02
        -0.25817E-02
        -0.14212E-02
         0.35382E-03
         0.99479E-03
         0.12259E-02
         0.22376E-02
         0.25123E-02
         0.99568E-03
         0.32866E-03
         0.27722E-03
        -0.11660E-03
        -0.12131E-02
        -0.22144E-02
        -0.28963E-02
        -0.18938E-02
         0.55163E-03
         0.10503E-02
         0.10135E-02
         0.17782E-02
         0.21545E-02
         0.14260E-02
         0.13413E-02
        -0.47012E-04
         0.63759E-05
        -0.10635E-04
        -0.82405E-05
         0.78581E-04
         0.30601E-04
         0.80894E-05
        -0.52760E-04
        -0.17138E-04
        -0.50399E-04
         0.32326E-05
        -0.85273E-04
        -0.16181E-03
         0.16911E-04
         0.21284E-03
        -0.34499E-04
         0.70466E-05
         0.29765E-05
         0.98854E-05
         0.28474E-05
         0.92624E-04
         0.60549E-04
        -0.35090E-04
         0.68247E-05
         0.18116E-04
        -0.25991E-05
         0.48712E-05
        -0.70529E-06
        -0.32502E-05
        -0.27815E-04
        -0.28627E-04
        -0.42711E-05
         0.11167E-04
         0.90925E-05
         0.16924E-04
        -0.34820E-04
        -0.75348E-04
         0.18780E-03
         0.32314E-04
         0.72625E-04
         0.18619E-03
        -0.42275E-04
        -0.93589E-04
        -0.85352E-04
        -0.83021E-04
        -0.98273E-04
         0.62256E-04
         0.48594E-04
        -0.66457E-05
         0.10638E-04
         0.11936E-03
         0.55515E-05
        -0.82123E-03
         0.12086E-02
        -0.25384E-02
        -0.27022E-02
        -0.25806E-02
        -0.14203E-02
         0.35402E-03
         0.99503E-03
         0.12246E-02
         0.22359E-02
         0.25115E-02
         0.99651E-03
         0.32863E-03
         0.27774E-03
        -0.11549E-03
        -0.12142E-02
        -0.22163E-02
        -0.28977E-02
        -0.18932E-02
         0.55177E-03
         0.10495E-02
         0.10131E-02
         0.17764E-02
         0.21517E-02
         0.14237E-02
         0.13389E-02
        -0.47550E-04
         0.64617E-05
        -0.10756E-04
        -0.83765E-05
         0.79273E-04
         0.30886E-04
         0.82162E-05
        -0.53201E-04
        -0.17338E-04
        -0.50971E-04
         0.31752E-05
        -0.86261E-04
        -0.16350E-03
         0.17052E-04
         0.21515E-03
        -0.34870E-04
         0.71883E-05
         0.29909E-05
         0.99794E-05
         0.28528E-05
         0.93698E-04
         0.61153E-04
        -0.35434E-04
         0.68854E-05
         0.18387E-04
        -0.26215E-05
         0.49854E-05
        -0.69771E-06
        -0.32630E-05
        -0.28142E-04
        -0.28939E-04
        -0.42917E-05
         0.11246E-04
         0.91975E-05
         0.16910E-04
        -0.35154E-04
        -0.76033E-04
         0.19024E-03
         0.32967E-04
         0.73628E-04
         0.18831E-03
        -0.42540E-04
        -0.94583E-04
        -0.86206E-04
        -0.83796E-04
        -0.99166E-04
         0.62845E-04
         0.49053E-04
        -0.66405E-05
         0.10701E-04
         0.12039E-03
         0.54782E-05
        -0.82921E-03
         0.12218E-02
        -0.25668E-02
        -0.27317E-02
        -0.26083E-02
        -0.14355E-02
         0.35846E-03
         0.10068E-02
         0.12377E-02
         0.22608E-02
         0.25402E-02
         0.10083E-02
         0.33195E-03
         0.28103E-03
        -0.11558E-03
        -0.12273E-02
        -0.22402E-02
        -0.29296E-02
        -0.19138E-02
         0.55822E-03
         0.10599E-02
         0.10232E-02
         0.17937E-02
         0.21719E-02
         0.14366E-02
         0.13506E-02
        -0.10726E-03
         0.14745E-04
        -0.24190E-04
        -0.19044E-04
         0.16620E-03
         0.65960E-04
         0.18685E-04
        -0.11895E-03
        -0.38914E-04
        -0.11355E-03
         0.68690E-05
        -0.17512E-03
        -0.34132E-03
         0.37083E-04
         0.44171E-03
        -0.78756E-04
         0.16262E-04
         0.67361E-05
         0.21965E-04
         0.62966E-05
         0.19533E-03
         0.13067E-03
        -0.74062E-04
         0.15379E-04
         0.41798E-04
        -0.59523E-05
         0.11120E-04
        -0.15607E-05
        -0.74395E-05
        -0.63806E-04
        -0.65406E-04
        -0.96435E-05
         0.25444E-04
         0.20845E-04
         0.33753E-04
        -0.74997E-04
        -0.16229E-03
         0.40836E-03
         0.73011E-04
         0.16370E-03
         0.40700E-03
        -0.93018E-04
        -0.20684E-03
        -0.18285E-03
        -0.17664E-03
        -0.19768E-03
         0.13167E-03
         0.10529E-03
        -0.14294E-04
         0.22961E-04
         0.24664E-03
         0.11447E-04
        -0.13325E-02
         0.19576E-02
        -0.41177E-02
        -0.44033E-02
        -0.42014E-02
        -0.23268E-02
         0.59540E-03
         0.16984E-02
         0.20793E-02
         0.37573E-02
         0.42286E-02
         0.16695E-02
         0.55970E-03
         0.47687E-03
        -0.18972E-03
        -0.19827E-02
        -0.35981E-02
        -0.46639E-02
        -0.30479E-02
         0.89201E-03
         0.17237E-02
         0.16774E-02
         0.29216E-02
         0.35607E-02
         0.23396E-02
         0.21832E-02
  
SCALARS                      strain_eq  double 1
LOOKUP_TABLE default
         0.96760E+01
         0.95467E+01
         0.96283E+01
         0.97757E+01
         0.28013E-08
         0.31061E-08
         0.30177E-08
         0.27154E-08
         0.95385E+01
         0.95843E+01
         0.30549E-08
         0.29215E-08
         0.93591E+01
         0.93523E+01
         0.33423E-08
         0.31829E-08
         0.97541E+01
         0.93621E+01
         0.24933E-08
         0.28043E-08
         0.92181E+01
         0.91047E+01
         0.92827E+01
         0.34424E-08
         0.32837E-08
         0.32661E-08
         0.91102E+01
         0.89457E+01
         0.33343E-08
         0.30283E-08
         0.97470E+01
         0.95766E+01
         0.99120E+01
         0.27132E-08
         0.25479E-08
         0.24406E-08
         0.96480E+01
         0.94311E+01
         0.29580E-08
         0.26967E-08
         0.95615E+01
         0.93934E+01
         0.27514E-08
         0.23737E-08
         0.97031E+01
         0.97669E+01
         0.29711E-08
         0.30811E-08
         0.92603E+01
         0.26628E-08
         0.97544E+01
         0.30962E-08
         0.90635E+01
         0.29112E-08
         0.90121E+01
         0.26871E-08
         0.90120E+01
         0.91956E+01
         0.27230E-08
         0.26776E-08
         0.97435E+01
         0.96772E+01
         0.27474E-08
         0.31101E-08
         0.97844E+01
         0.26371E-08
         0.97062E+01
         0.28882E-08
         0.94951E+01
         0.94783E+01
         0.30893E-08
         0.30874E-08
         0.94331E+01
         0.31243E-08
         0.88871E+01
         0.24974E-08
         0.88579E+01
         0.23245E-08
         0.88709E+01
         0.24215E-08
         0.89467E+01
         0.90321E+01
         0.23422E-08
         0.24327E-08
         0.91997E+01
         0.22911E-08
         0.96989E+01
         0.30762E-08
         0.96191E+01
         0.31326E-08
         0.95513E+01
         0.95210E+01
         0.31296E-08
         0.30700E-08
         0.95662E+01
         0.27550E-08
         0.95969E+01
         0.26975E-08
         0.95678E+01
         0.29177E-08
         0.95544E+01
         0.95852E+01
         0.29995E-08
         0.29913E-08
         0.93851E+01
         0.94548E+01
         0.28522E-08
         0.27531E-08
         0.93659E+01
         0.27699E-08
         0.94463E+01
         0.27043E-08
         0.93640E+01
         0.27010E-08
         0.91759E+01
         0.25323E-08
         0.89908E+01
         0.21427E-08
         0.88821E+01
         0.18106E-08
         0.88712E+01
         0.17560E-08
         0.88752E+01
         0.18709E-08
         0.89941E+01
         0.19300E-08
         0.92083E+01
         0.18080E-08
         0.94464E+01
         0.16501E-08
         0.95909E+01
         0.17078E-08
         0.97327E+01
         0.20243E-08
         0.98258E+01
         0.23632E-08
         0.98199E+01
         0.25187E-08
         0.96033E+01
         0.26894E-08
         0.94538E+01
         0.28263E-08
         0.93925E+01
         0.26370E-08
         0.94714E+01
         0.23217E-08
         0.95177E+01
         0.23172E-08
         0.94515E+01
         0.25498E-08
         0.94579E+01
         0.27057E-08
         0.95078E+01
         0.26181E-08
         0.95739E+01
         0.25597E-08
         0.40154E+00
         0.39921E+00
         0.39954E+00
         0.40233E+00
         0.39682E+00
         0.39990E+00
         0.39582E+00
         0.39805E+00
         0.40195E+00
         0.39968E+00
         0.39326E+00
         0.39279E+00
         0.39485E+00
         0.39474E+00
         0.39372E+00
         0.40222E+00
         0.40174E+00
         0.40301E+00
         0.39893E+00
         0.39978E+00
         0.39878E+00
         0.39964E+00
         0.39805E+00
         0.39825E+00
         0.39974E+00
         0.39960E+00
         0.39702E+00
         0.39725E+00
         0.39514E+00
         0.39830E+00
         0.40199E+00
         0.39916E+00
         0.40195E+00
         0.40017E+00
         0.39215E+00
         0.39498E+00
         0.39633E+00
         0.39493E+00
         0.39463E+00
         0.39184E+00
         0.38989E+00
         0.39481E+00
         0.39890E+00
         0.39830E+00
         0.39624E+00
         0.39232E+00
         0.39561E+00
         0.39886E+00
         0.39863E+00
         0.39614E+00
         0.39343E+00
         0.39711E+00
         0.38647E+00
         0.39132E+00
         0.39084E+00
         0.39208E+00
         0.39223E+00
         0.39038E+00
         0.38758E+00
         0.38605E+00
         0.38625E+00
         0.38623E+00
         0.38485E+00
         0.39166E+00
         0.39315E+00
         0.39370E+00
         0.39542E+00
         0.39674E+00
         0.39695E+00
         0.39540E+00
         0.38835E+00
         0.39037E+00
         0.39240E+00
         0.39207E+00
         0.39172E+00
         0.38926E+00
         0.39279E+00
         0.39411E+00
         0.19902E-01
         0.11958E-01
         0.11280E-01
         0.77349E-02
         0.20668E-01
         0.14290E-01
         0.63077E-02
         0.19574E-01
         0.12262E-01
         0.18444E-01
         0.89930E-02
         0.38751E-01
         0.29426E-01
         0.14717E-01
         0.40585E-01
         0.14461E-01
         0.73263E-02
         0.46742E-02
         0.97375E-02
         0.52717E-02
         0.30474E-01
         0.28590E-01
         0.27842E-01
         0.72456E-02
         0.11903E-01
         0.37848E-02
         0.13885E-01
         0.22553E-02
         0.50856E-02
         0.12911E-01
         0.12354E-01
         0.65711E-02
         0.80019E-02
         0.69223E-02
         0.26717E-01
         0.15988E-01
         0.20695E-01
         0.33099E-01
         0.25460E-01
         0.23697E-01
         0.33656E-01
         0.30510E-01
         0.30713E-01
         0.23777E-01
         0.21233E-01
         0.29046E-01
         0.19042E-01
         0.16191E-01
         0.13352E-01
         0.15767E-01
         0.25780E-01
         0.17700E-01
         0.11317E+00
         0.11588E+00
         0.12113E+00
         0.12025E+00
         0.12818E+00
         0.13763E+00
         0.13207E+00
         0.11744E+00
         0.11444E+00
         0.12248E+00
         0.12004E+00
         0.11840E+00
         0.97881E-01
         0.93048E-01
         0.10222E+00
         0.10949E+00
         0.11362E+00
         0.12408E+00
         0.11935E+00
         0.12258E+00
         0.11038E+00
         0.10481E+00
         0.11177E+00
         0.10926E+00
         0.11244E+00
         0.11149E+00
         0.19917E-01
         0.11961E-01
         0.11286E-01
         0.77460E-02
         0.20659E-01
         0.14282E-01
         0.63269E-02
         0.19593E-01
         0.12283E-01
         0.18499E-01
         0.89928E-02
         0.38750E-01
         0.29438E-01
         0.14683E-01
         0.40627E-01
         0.14473E-01
         0.73468E-02
         0.46625E-02
         0.97432E-02
         0.52601E-02
         0.30476E-01
         0.28588E-01
         0.27841E-01
         0.72454E-02
         0.11954E-01
         0.37840E-02
         0.13890E-01
         0.22314E-02
         0.51098E-02
         0.12933E-01
         0.12366E-01
         0.65690E-02
         0.79883E-02
         0.69286E-02
         0.26729E-01
         0.15984E-01
         0.20691E-01
         0.33150E-01
         0.25517E-01
         0.23730E-01
         0.33679E-01
         0.30526E-01
         0.30717E-01
         0.23776E-01
         0.21229E-01
         0.29045E-01
         0.19042E-01
         0.16190E-01
         0.13333E-01
         0.15745E-01
         0.25766E-01
         0.17673E-01
         0.11313E+00
         0.11585E+00
         0.12113E+00
         0.12025E+00
         0.12816E+00
         0.13758E+00
         0.13201E+00
         0.11741E+00
         0.11441E+00
         0.12244E+00
         0.12002E+00
         0.11841E+00
         0.97872E-01
         0.93044E-01
         0.10223E+00
         0.10951E+00
         0.11365E+00
         0.12410E+00
         0.11934E+00
         0.12257E+00
         0.11037E+00
         0.10480E+00
         0.11173E+00
         0.10919E+00
         0.11237E+00
         0.11143E+00
         0.19933E-01
         0.11964E-01
         0.11293E-01
         0.77571E-02
         0.20649E-01
         0.14274E-01
         0.63461E-02
         0.19612E-01
         0.12304E-01
         0.18553E-01
         0.89927E-02
         0.38748E-01
         0.29449E-01
         0.14648E-01
         0.40669E-01
         0.14485E-01
         0.73677E-02
         0.46506E-02
         0.97489E-02
         0.52487E-02
         0.30479E-01
         0.28586E-01
         0.27839E-01
         0.72451E-02
         0.12005E-01
         0.37828E-02
         0.13894E-01
         0.22084E-02
         0.51339E-02
         0.12955E-01
         0.12378E-01
         0.65669E-02
         0.79748E-02
         0.69349E-02
         0.26741E-01
         0.15979E-01
         0.20686E-01
         0.33202E-01
         0.25575E-01
         0.23763E-01
         0.33701E-01
         0.30542E-01
         0.30721E-01
         0.23777E-01
         0.21225E-01
         0.29044E-01
         0.19042E-01
         0.16189E-01
         0.13314E-01
         0.15724E-01
         0.25752E-01
         0.17645E-01
         0.11309E+00
         0.11583E+00
         0.12113E+00
         0.12025E+00
         0.12814E+00
         0.13753E+00
         0.13196E+00
         0.11737E+00
         0.11439E+00
         0.12240E+00
         0.12000E+00
         0.11841E+00
         0.97863E-01
         0.93041E-01
         0.10224E+00
         0.10954E+00
         0.11368E+00
         0.12413E+00
         0.11934E+00
         0.12257E+00
         0.11036E+00
         0.10479E+00
         0.11169E+00
         0.10912E+00
         0.11231E+00
         0.11137E+00
         0.19948E-01
         0.11967E-01
         0.11299E-01
         0.77683E-02
         0.20640E-01
         0.14266E-01
         0.63655E-02
         0.19631E-01
         0.12325E-01
         0.18605E-01
         0.89927E-02
         0.38747E-01
         0.29461E-01
         0.14614E-01
         0.40711E-01
         0.14498E-01
         0.73894E-02
         0.46386E-02
         0.97552E-02
         0.52368E-02
         0.30483E-01
         0.28585E-01
         0.27839E-01
         0.72444E-02
         0.12055E-01
         0.37811E-02
         0.13898E-01
         0.21881E-02
         0.51565E-02
         0.12975E-01
         0.12390E-01
         0.65652E-02
         0.79612E-02
         0.69412E-02
         0.26753E-01
         0.15975E-01
         0.20681E-01
         0.33253E-01
         0.25633E-01
         0.23798E-01
         0.33726E-01
         0.30559E-01
         0.30727E-01
         0.23779E-01
         0.21223E-01
         0.29043E-01
         0.19044E-01
         0.16188E-01
         0.13295E-01
         0.15702E-01
         0.25737E-01
         0.17618E-01
         0.11305E+00
         0.11580E+00
         0.12113E+00
         0.12025E+00
         0.12812E+00
         0.13749E+00
         0.13190E+00
         0.11734E+00
         0.11436E+00
         0.12237E+00
         0.11998E+00
         0.11842E+00
         0.97856E-01
         0.93038E-01
         0.10226E+00
         0.10957E+00
         0.11371E+00
         0.12416E+00
         0.11933E+00
         0.12256E+00
         0.11034E+00
         0.10479E+00
         0.11165E+00
         0.10905E+00
         0.11225E+00
         0.11131E+00
         0.19963E-01
         0.11969E-01
         0.11306E-01
         0.77794E-02
         0.20631E-01
         0.14258E-01
         0.63847E-02
         0.19649E-01
         0.12346E-01
         0.18657E-01
         0.89929E-02
         0.38746E-01
         0.29473E-01
         0.14580E-01
         0.40753E-01
         0.14512E-01
         0.74119E-02
         0.46266E-02
         0.97616E-02
         0.52246E-02
         0.30488E-01
         0.28584E-01
         0.27841E-01
         0.72433E-02
         0.12103E-01
         0.37785E-02
         0.13902E-01
         0.21705E-02
         0.51778E-02
         0.12993E-01
         0.12403E-01
         0.65638E-02
         0.79476E-02
         0.69475E-02
         0.26765E-01
         0.15970E-01
         0.20676E-01
         0.33305E-01
         0.25692E-01
         0.23834E-01
         0.33751E-01
         0.30577E-01
         0.30734E-01
         0.23784E-01
         0.21222E-01
         0.29045E-01
         0.19046E-01
         0.16188E-01
         0.13276E-01
         0.15680E-01
         0.25723E-01
         0.17591E-01
         0.11301E+00
         0.11577E+00
         0.12113E+00
         0.12025E+00
         0.12810E+00
         0.13744E+00
         0.13185E+00
         0.11731E+00
         0.11433E+00
         0.12233E+00
         0.11996E+00
         0.11842E+00
         0.97852E-01
         0.93036E-01
         0.10227E+00
         0.10961E+00
         0.11375E+00
         0.12419E+00
         0.11933E+00
         0.12255E+00
         0.11033E+00
         0.10478E+00
         0.11162E+00
         0.10898E+00
         0.11218E+00
         0.11125E+00
         0.19977E-01
         0.11971E-01
         0.11312E-01
         0.77906E-02
         0.20622E-01
         0.14249E-01
         0.64034E-02
         0.19666E-01
         0.12367E-01
         0.18707E-01
         0.89939E-02
         0.38745E-01
         0.29485E-01
         0.14545E-01
         0.40795E-01
         0.14526E-01
         0.74345E-02
         0.46146E-02
         0.97680E-02
         0.52127E-02
         0.30493E-01
         0.28584E-01
         0.27844E-01
         0.72421E-02
         0.12151E-01
         0.37757E-02
         0.13905E-01
         0.21541E-02
         0.51989E-02
         0.13011E-01
         0.12416E-01
         0.65619E-02
         0.79339E-02
         0.69538E-02
         0.26777E-01
         0.15967E-01
         0.20672E-01
         0.33358E-01
         0.25752E-01
         0.23872E-01
         0.33778E-01
         0.30595E-01
         0.30741E-01
         0.23790E-01
         0.21223E-01
         0.29047E-01
         0.19049E-01
         0.16188E-01
         0.13259E-01
         0.15659E-01
         0.25709E-01
         0.17564E-01
         0.11297E+00
         0.11574E+00
         0.12113E+00
         0.12025E+00
         0.12808E+00
         0.13740E+00
         0.13179E+00
         0.11728E+00
         0.11430E+00
         0.12229E+00
         0.11994E+00
         0.11843E+00
         0.97849E-01
         0.93034E-01
         0.10229E+00
         0.10964E+00
         0.11379E+00
         0.12422E+00
         0.11932E+00
         0.12255E+00
         0.11032E+00
         0.10477E+00
         0.11158E+00
         0.10891E+00
         0.11212E+00
         0.11119E+00
         0.19990E-01
         0.11972E-01
         0.11318E-01
         0.78018E-02
         0.20613E-01
         0.14242E-01
         0.64215E-02
         0.19681E-01
         0.12389E-01
         0.18755E-01
         0.89962E-02
         0.38746E-01
         0.29498E-01
         0.14511E-01
         0.40838E-01
         0.14540E-01
         0.74567E-02
         0.46025E-02
         0.97745E-02
         0.52009E-02
         0.30498E-01
         0.28584E-01
         0.27847E-01
         0.72413E-02
         0.12197E-01
         0.37723E-02
         0.13909E-01
         0.21383E-02
         0.52204E-02
         0.13028E-01
         0.12428E-01
         0.65587E-02
         0.79202E-02
         0.69598E-02
         0.26789E-01
         0.15964E-01
         0.20669E-01
         0.33410E-01
         0.25813E-01
         0.23910E-01
         0.33805E-01
         0.30613E-01
         0.30749E-01
         0.23796E-01
         0.21224E-01
         0.29051E-01
         0.19053E-01
         0.16190E-01
         0.13243E-01
         0.15639E-01
         0.25697E-01
         0.17538E-01
         0.11293E+00
         0.11572E+00
         0.12112E+00
         0.12025E+00
         0.12806E+00
         0.13735E+00
         0.13174E+00
         0.11725E+00
         0.11427E+00
         0.12226E+00
         0.11992E+00
         0.11844E+00
         0.97845E-01
         0.93032E-01
         0.10230E+00
         0.10968E+00
         0.11383E+00
         0.12425E+00
         0.11931E+00
         0.12254E+00
         0.11031E+00
         0.10477E+00
         0.11154E+00
         0.10884E+00
         0.11206E+00
         0.11113E+00
         0.20002E-01
         0.11972E-01
         0.11323E-01
         0.78131E-02
         0.20604E-01
         0.14233E-01
         0.64390E-02
         0.19694E-01
         0.12411E-01
         0.18802E-01
         0.89993E-02
         0.38746E-01
         0.29511E-01
         0.14477E-01
         0.40880E-01
         0.14555E-01
         0.74787E-02
         0.45903E-02
         0.97810E-02
         0.51897E-02
         0.30504E-01
         0.28584E-01
         0.27850E-01
         0.72403E-02
         0.12242E-01
         0.37687E-02
         0.13912E-01
         0.21230E-02
         0.52424E-02
         0.13045E-01
         0.12439E-01
         0.65547E-02
         0.79064E-02
         0.69658E-02
         0.26803E-01
         0.15962E-01
         0.20666E-01
         0.33463E-01
         0.25874E-01
         0.23947E-01
         0.33831E-01
         0.30632E-01
         0.30757E-01
         0.23803E-01
         0.21226E-01
         0.29056E-01
         0.19057E-01
         0.16193E-01
         0.13229E-01
         0.15619E-01
         0.25684E-01
         0.17512E-01
         0.11289E+00
         0.11569E+00
         0.12112E+00
         0.12026E+00
         0.12804E+00
         0.13730E+00
         0.13168E+00
         0.11722E+00
         0.11424E+00
         0.12222E+00
         0.11990E+00
         0.11845E+00
         0.97842E-01
         0.93030E-01
         0.10232E+00
         0.10972E+00
         0.11387E+00
         0.12428E+00
         0.11930E+00
         0.12253E+00
         0.11030E+00
         0.10476E+00
         0.11150E+00
         0.10876E+00
         0.11200E+00
         0.11108E+00
         0.20015E-01
         0.11972E-01
         0.11329E-01
         0.78243E-02
         0.20595E-01
         0.14225E-01
         0.64565E-02
         0.19708E-01
         0.12433E-01
         0.18849E-01
         0.90022E-02
         0.38746E-01
         0.29525E-01
         0.14444E-01
         0.40923E-01
         0.14569E-01
         0.75007E-02
         0.45782E-02
         0.97875E-02
         0.51782E-02
         0.30509E-01
         0.28584E-01
         0.27853E-01
         0.72396E-02
         0.12287E-01
         0.37651E-02
         0.13916E-01
         0.21082E-02
         0.52647E-02
         0.13063E-01
         0.12451E-01
         0.65509E-02
         0.78928E-02
         0.69718E-02
         0.26816E-01
         0.15959E-01
         0.20663E-01
         0.33517E-01
         0.25935E-01
         0.23985E-01
         0.33858E-01
         0.30650E-01
         0.30765E-01
         0.23810E-01
         0.21228E-01
         0.29061E-01
         0.19062E-01
         0.16195E-01
         0.13215E-01
         0.15599E-01
         0.25672E-01
         0.17485E-01
         0.11285E+00
         0.11566E+00
         0.12112E+00
         0.12026E+00
         0.12802E+00
         0.13726E+00
         0.13162E+00
         0.11719E+00
         0.11421E+00
         0.12218E+00
         0.11988E+00
         0.11846E+00
         0.97838E-01
         0.93029E-01
         0.10233E+00
         0.10975E+00
         0.11391E+00
         0.12431E+00
         0.11929E+00
         0.12252E+00
         0.11029E+00
         0.10476E+00
         0.11146E+00
         0.10869E+00
         0.11193E+00
         0.11102E+00
         0.20027E-01
         0.11972E-01
         0.11335E-01
         0.78357E-02
         0.20586E-01
         0.14217E-01
         0.64741E-02
         0.19721E-01
         0.12455E-01
         0.18896E-01
         0.90056E-02
         0.38746E-01
         0.29538E-01
         0.14410E-01
         0.40966E-01
         0.14584E-01
         0.75228E-02
         0.45662E-02
         0.97939E-02
         0.51668E-02
         0.30514E-01
         0.28584E-01
         0.27856E-01
         0.72389E-02
         0.12333E-01
         0.37616E-02
         0.13920E-01
         0.20939E-02
         0.52872E-02
         0.13080E-01
         0.12462E-01
         0.65469E-02
         0.78792E-02
         0.69779E-02
         0.26829E-01
         0.15956E-01
         0.20660E-01
         0.33570E-01
         0.25996E-01
         0.24023E-01
         0.33885E-01
         0.30669E-01
         0.30773E-01
         0.23817E-01
         0.21231E-01
         0.29065E-01
         0.19067E-01
         0.16198E-01
         0.13201E-01
         0.15579E-01
         0.25660E-01
         0.17459E-01
         0.11280E+00
         0.11563E+00
         0.12112E+00
         0.12026E+00
         0.12799E+00
         0.13721E+00
         0.13157E+00
         0.11715E+00
         0.11418E+00
         0.12214E+00
         0.11986E+00
         0.11846E+00
         0.97834E-01
         0.93027E-01
         0.10235E+00
         0.10979E+00
         0.11395E+00
         0.12433E+00
         0.11929E+00
         0.12252E+00
         0.11028E+00
         0.10475E+00
         0.11142E+00
         0.10862E+00
         0.11187E+00
         0.11096E+00
         0.20039E-01
         0.11971E-01
         0.11341E-01
         0.78470E-02
         0.20578E-01
         0.14209E-01
         0.64919E-02
         0.19735E-01
         0.12476E-01
         0.18943E-01
         0.90090E-02
         0.38746E-01
         0.29552E-01
         0.14377E-01
         0.41009E-01
         0.14598E-01
         0.75449E-02
         0.45542E-02
         0.98004E-02
         0.51552E-02
         0.30519E-01
         0.28584E-01
         0.27859E-01
         0.72383E-02
         0.12378E-01
         0.37580E-02
         0.13924E-01
         0.20799E-02
         0.53098E-02
         0.13097E-01
         0.12473E-01
         0.65431E-02
         0.78657E-02
         0.69839E-02
         0.26842E-01
         0.15954E-01
         0.20658E-01
         0.33623E-01
         0.26057E-01
         0.24060E-01
         0.33912E-01
         0.30688E-01
         0.30781E-01
         0.23823E-01
         0.21233E-01
         0.29070E-01
         0.19071E-01
         0.16201E-01
         0.13187E-01
         0.15559E-01
         0.25648E-01
         0.17433E-01
         0.11276E+00
         0.11561E+00
         0.12112E+00
         0.12026E+00
         0.12797E+00
         0.13716E+00
         0.13151E+00
         0.11712E+00
         0.11416E+00
         0.12211E+00
         0.11984E+00
         0.11847E+00
         0.97830E-01
         0.93025E-01
         0.10236E+00
         0.10983E+00
         0.11399E+00
         0.12436E+00
         0.11928E+00
         0.12251E+00
         0.11027E+00
         0.10475E+00
         0.11138E+00
         0.10855E+00
         0.11181E+00
         0.11090E+00
         0.20052E-01
         0.11971E-01
         0.11346E-01
         0.78584E-02
         0.20569E-01
         0.14201E-01
         0.65095E-02
         0.19748E-01
         0.12498E-01
         0.18990E-01
         0.90126E-02
         0.38746E-01
         0.29565E-01
         0.14343E-01
         0.41051E-01
         0.14613E-01
         0.75671E-02
         0.45420E-02
         0.98068E-02
         0.51439E-02
         0.30524E-01
         0.28584E-01
         0.27862E-01
         0.72377E-02
         0.12423E-01
         0.37547E-02
         0.13928E-01
         0.20665E-02
         0.53323E-02
         0.13114E-01
         0.12485E-01
         0.65392E-02
         0.78521E-02
         0.69900E-02
         0.26855E-01
         0.15951E-01
         0.20655E-01
         0.33676E-01
         0.26118E-01
         0.24098E-01
         0.33939E-01
         0.30706E-01
         0.30789E-01
         0.23830E-01
         0.21235E-01
         0.29075E-01
         0.19076E-01
         0.16204E-01
         0.13173E-01
         0.15540E-01
         0.25636E-01
         0.17407E-01
         0.11272E+00
         0.11558E+00
         0.12112E+00
         0.12026E+00
         0.12795E+00
         0.13711E+00
         0.13146E+00
         0.11709E+00
         0.11413E+00
         0.12207E+00
         0.11982E+00
         0.11848E+00
         0.97826E-01
         0.93023E-01
         0.10238E+00
         0.10986E+00
         0.11402E+00
         0.12439E+00
         0.11927E+00
         0.12250E+00
         0.11026E+00
         0.10474E+00
         0.11135E+00
         0.10848E+00
         0.11175E+00
         0.11084E+00
         0.20064E-01
         0.11971E-01
         0.11352E-01
         0.78698E-02
         0.20560E-01
         0.14193E-01
         0.65272E-02
         0.19762E-01
         0.12520E-01
         0.19036E-01
         0.90164E-02
         0.38747E-01
         0.29579E-01
         0.14309E-01
         0.41094E-01
         0.14627E-01
         0.75893E-02
         0.45299E-02
         0.98133E-02
         0.51325E-02
         0.30529E-01
         0.28584E-01
         0.27865E-01
         0.72371E-02
         0.12468E-01
         0.37513E-02
         0.13932E-01
         0.20535E-02
         0.53554E-02
         0.13131E-01
         0.12496E-01
         0.65353E-02
         0.78386E-02
         0.69960E-02
         0.26868E-01
         0.15949E-01
         0.20652E-01
         0.33730E-01
         0.26179E-01
         0.24135E-01
         0.33966E-01
         0.30724E-01
         0.30797E-01
         0.23837E-01
         0.21237E-01
         0.29079E-01
         0.19081E-01
         0.16206E-01
         0.13159E-01
         0.15520E-01
         0.25623E-01
         0.17380E-01
         0.11268E+00
         0.11555E+00
         0.12111E+00
         0.12026E+00
         0.12793E+00
         0.13707E+00
         0.13140E+00
         0.11706E+00
         0.11410E+00
         0.12203E+00
         0.11980E+00
         0.11849E+00
         0.97823E-01
         0.93022E-01
         0.10240E+00
         0.10990E+00
         0.11406E+00
         0.12442E+00
         0.11926E+00
         0.12249E+00
         0.11025E+00
         0.10474E+00
         0.11131E+00
         0.10841E+00
         0.11168E+00
         0.11078E+00
         0.20076E-01
         0.11971E-01
         0.11358E-01
         0.78811E-02
         0.20552E-01
         0.14185E-01
         0.65451E-02
         0.19775E-01
         0.12542E-01
         0.19083E-01
         0.90202E-02
         0.38747E-01
         0.29592E-01
         0.14276E-01
         0.41137E-01
         0.14641E-01
         0.76115E-02
         0.45178E-02
         0.98197E-02
         0.51212E-02
         0.30535E-01
         0.28584E-01
         0.27868E-01
         0.72366E-02
         0.12512E-01
         0.37478E-02
         0.13936E-01
         0.20411E-02
         0.53787E-02
         0.13149E-01
         0.12508E-01
         0.65314E-02
         0.78253E-02
         0.70021E-02
         0.26882E-01
         0.15947E-01
         0.20649E-01
         0.33783E-01
         0.26241E-01
         0.24173E-01
         0.33993E-01
         0.30743E-01
         0.30805E-01
         0.23843E-01
         0.21239E-01
         0.29084E-01
         0.19085E-01
         0.16209E-01
         0.13145E-01
         0.15500E-01
         0.25611E-01
         0.17355E-01
         0.11264E+00
         0.11552E+00
         0.12111E+00
         0.12026E+00
         0.12791E+00
         0.13702E+00
         0.13134E+00
         0.11703E+00
         0.11407E+00
         0.12199E+00
         0.11978E+00
         0.11849E+00
         0.97819E-01
         0.93020E-01
         0.10241E+00
         0.10994E+00
         0.11410E+00
         0.12445E+00
         0.11926E+00
         0.12249E+00
         0.11024E+00
         0.10473E+00
         0.11127E+00
         0.10834E+00
         0.11162E+00
         0.11072E+00
         0.20088E-01
         0.11971E-01
         0.11364E-01
         0.78926E-02
         0.20543E-01
         0.14177E-01
         0.65628E-02
         0.19788E-01
         0.12564E-01
         0.19130E-01
         0.90242E-02
         0.38747E-01
         0.29605E-01
         0.14243E-01
         0.41180E-01
         0.14656E-01
         0.76338E-02
         0.45058E-02
         0.98262E-02
         0.51097E-02
         0.30540E-01
         0.28584E-01
         0.27871E-01
         0.72360E-02
         0.12557E-01
         0.37444E-02
         0.13940E-01
         0.20290E-02
         0.54021E-02
         0.13166E-01
         0.12519E-01
         0.65275E-02
         0.78119E-02
         0.70082E-02
         0.26895E-01
         0.15944E-01
         0.20646E-01
         0.33837E-01
         0.26302E-01
         0.24210E-01
         0.34020E-01
         0.30761E-01
         0.30813E-01
         0.23850E-01
         0.21242E-01
         0.29089E-01
         0.19090E-01
         0.16212E-01
         0.13131E-01
         0.15480E-01
         0.25599E-01
         0.17328E-01
         0.11260E+00
         0.11550E+00
         0.12111E+00
         0.12026E+00
         0.12789E+00
         0.13697E+00
         0.13129E+00
         0.11700E+00
         0.11404E+00
         0.12195E+00
         0.11976E+00
         0.11850E+00
         0.97815E-01
         0.93018E-01
         0.10243E+00
         0.10997E+00
         0.11414E+00
         0.12448E+00
         0.11925E+00
         0.12248E+00
         0.11023E+00
         0.10473E+00
         0.11123E+00
         0.10827E+00
         0.11156E+00
         0.11066E+00
         0.20100E-01
         0.11971E-01
         0.11369E-01
         0.79041E-02
         0.20534E-01
         0.14169E-01
         0.65806E-02
         0.19802E-01
         0.12587E-01
         0.19176E-01
         0.90283E-02
         0.38747E-01
         0.29619E-01
         0.14209E-01
         0.41222E-01
         0.14670E-01
         0.76561E-02
         0.44938E-02
         0.98326E-02
         0.50985E-02
         0.30545E-01
         0.28584E-01
         0.27874E-01
         0.72355E-02
         0.12602E-01
         0.37411E-02
         0.13944E-01
         0.20173E-02
         0.54258E-02
         0.13183E-01
         0.12530E-01
         0.65237E-02
         0.77987E-02
         0.70143E-02
         0.26908E-01
         0.15942E-01
         0.20644E-01
         0.33890E-01
         0.26363E-01
         0.24247E-01
         0.34046E-01
         0.30780E-01
         0.30821E-01
         0.23856E-01
         0.21244E-01
         0.29093E-01
         0.19095E-01
         0.16214E-01
         0.13118E-01
         0.15461E-01
         0.25587E-01
         0.17302E-01
         0.11256E+00
         0.11547E+00
         0.12111E+00
         0.12026E+00
         0.12787E+00
         0.13693E+00
         0.13123E+00
         0.11696E+00
         0.11401E+00
         0.12191E+00
         0.11974E+00
         0.11851E+00
         0.97811E-01
         0.93016E-01
         0.10244E+00
         0.11001E+00
         0.11418E+00
         0.12451E+00
         0.11924E+00
         0.12247E+00
         0.11022E+00
         0.10472E+00
         0.11119E+00
         0.10820E+00
         0.11150E+00
         0.11060E+00
         0.20113E-01
         0.11971E-01
         0.11375E-01
         0.79156E-02
         0.20526E-01
         0.14161E-01
         0.65986E-02
         0.19815E-01
         0.12609E-01
         0.19223E-01
         0.90325E-02
         0.38748E-01
         0.29632E-01
         0.14176E-01
         0.41265E-01
         0.14684E-01
         0.76786E-02
         0.44818E-02
         0.98391E-02
         0.50871E-02
         0.30550E-01
         0.28584E-01
         0.27877E-01
         0.72351E-02
         0.12647E-01
         0.37377E-02
         0.13948E-01
         0.20059E-02
         0.54493E-02
         0.13200E-01
         0.12542E-01
         0.65199E-02
         0.77856E-02
         0.70205E-02
         0.26922E-01
         0.15939E-01
         0.20641E-01
         0.33944E-01
         0.26425E-01
         0.24284E-01
         0.34073E-01
         0.30798E-01
         0.30828E-01
         0.23863E-01
         0.21246E-01
         0.29098E-01
         0.19100E-01
         0.16217E-01
         0.13104E-01
         0.15441E-01
         0.25575E-01
         0.17276E-01
         0.11252E+00
         0.11544E+00
         0.12111E+00
         0.12026E+00
         0.12785E+00
         0.13688E+00
         0.13117E+00
         0.11693E+00
         0.11398E+00
         0.12187E+00
         0.11972E+00
         0.11852E+00
         0.97808E-01
         0.93015E-01
         0.10246E+00
         0.11004E+00
         0.11422E+00
         0.12454E+00
         0.11923E+00
         0.12246E+00
         0.11021E+00
         0.10472E+00
         0.11115E+00
         0.10813E+00
         0.11144E+00
         0.11055E+00
         0.20125E-01
         0.11971E-01
         0.11381E-01
         0.79271E-02
         0.20517E-01
         0.14153E-01
         0.66164E-02
         0.19828E-01
         0.12631E-01
         0.19269E-01
         0.90368E-02
         0.38748E-01
         0.29645E-01
         0.14142E-01
         0.41307E-01
         0.14699E-01
         0.77010E-02
         0.44697E-02
         0.98457E-02
         0.50762E-02
         0.30556E-01
         0.28583E-01
         0.27880E-01
         0.72345E-02
         0.12692E-01
         0.37346E-02
         0.13950E-01
         0.19944E-02
         0.54733E-02
         0.13216E-01
         0.12553E-01
         0.65160E-02
         0.77725E-02
         0.70267E-02
         0.26935E-01
         0.15937E-01
         0.20638E-01
         0.33998E-01
         0.26486E-01
         0.24319E-01
         0.34097E-01
         0.30814E-01
         0.30835E-01
         0.23870E-01
         0.21249E-01
         0.29103E-01
         0.19104E-01
         0.16220E-01
         0.13090E-01
         0.15421E-01
         0.25563E-01
         0.17250E-01
         0.11247E+00
         0.11542E+00
         0.12110E+00
         0.12026E+00
         0.12783E+00
         0.13683E+00
         0.13111E+00
         0.11690E+00
         0.11396E+00
         0.12183E+00
         0.11970E+00
         0.11853E+00
         0.97807E-01
         0.93013E-01
         0.10247E+00
         0.11008E+00
         0.11426E+00
         0.12456E+00
         0.11922E+00
         0.12246E+00
         0.11020E+00
         0.10471E+00
         0.11111E+00
         0.10805E+00
         0.11137E+00
         0.11049E+00
         0.20137E-01
         0.11971E-01
         0.11386E-01
         0.79386E-02
         0.20509E-01
         0.14145E-01
         0.66343E-02
         0.19841E-01
         0.12653E-01
         0.19315E-01
         0.90412E-02
         0.38748E-01
         0.29659E-01
         0.14108E-01
         0.41350E-01
         0.14713E-01
         0.77234E-02
         0.44577E-02
         0.98522E-02
         0.50653E-02
         0.30561E-01
         0.28583E-01
         0.27883E-01
         0.72340E-02
         0.12736E-01
         0.37312E-02
         0.13952E-01
         0.19828E-02
         0.54975E-02
         0.13231E-01
         0.12564E-01
         0.65122E-02
         0.77594E-02
         0.70329E-02
         0.26948E-01
         0.15935E-01
         0.20635E-01
         0.34052E-01
         0.26547E-01
         0.24354E-01
         0.34121E-01
         0.30829E-01
         0.30842E-01
         0.23877E-01
         0.21251E-01
         0.29108E-01
         0.19109E-01
         0.16222E-01
         0.13076E-01
         0.15401E-01
         0.25550E-01
         0.17223E-01
         0.11243E+00
         0.11539E+00
         0.12110E+00
         0.12026E+00
         0.12780E+00
         0.13678E+00
         0.13106E+00
         0.11687E+00
         0.11393E+00
         0.12179E+00
         0.11968E+00
         0.11855E+00
         0.97807E-01
         0.93012E-01
         0.10249E+00
         0.11012E+00
         0.11430E+00
         0.12459E+00
         0.11922E+00
         0.12245E+00
         0.11019E+00
         0.10471E+00
         0.11107E+00
         0.10798E+00
         0.11131E+00
         0.11043E+00
         0.20149E-01
         0.11970E-01
         0.11392E-01
         0.79503E-02
         0.20501E-01
         0.14137E-01
         0.66524E-02
         0.19854E-01
         0.12676E-01
         0.19361E-01
         0.90459E-02
         0.38749E-01
         0.29672E-01
         0.14074E-01
         0.41393E-01
         0.14727E-01
         0.77460E-02
         0.44457E-02
         0.98587E-02
         0.50546E-02
         0.30566E-01
         0.28582E-01
         0.27886E-01
         0.72337E-02
         0.12780E-01
         0.37281E-02
         0.13953E-01
         0.19712E-02
         0.55217E-02
         0.13246E-01
         0.12576E-01
         0.65084E-02
         0.77466E-02
         0.70392E-02
         0.26962E-01
         0.15933E-01
         0.20632E-01
         0.34105E-01
         0.26608E-01
         0.24387E-01
         0.34143E-01
         0.30843E-01
         0.30848E-01
         0.23883E-01
         0.21253E-01
         0.29112E-01
         0.19114E-01
         0.16225E-01
         0.13062E-01
         0.15381E-01
         0.25539E-01
         0.17198E-01
         0.11239E+00
         0.11536E+00
         0.12110E+00
         0.12026E+00
         0.12778E+00
         0.13674E+00
         0.13100E+00
         0.11684E+00
         0.11390E+00
         0.12174E+00
         0.11967E+00
         0.11856E+00
         0.97808E-01
         0.93011E-01
         0.10250E+00
         0.11015E+00
         0.11434E+00
         0.12462E+00
         0.11921E+00
         0.12244E+00
         0.11018E+00
         0.10470E+00
         0.11103E+00
         0.10791E+00
         0.11125E+00
         0.11037E+00
         0.20575E-01
         0.12593E-01
         0.12037E-01
         0.86831E-02
         0.21036E-01
         0.14752E-01
         0.78095E-02
         0.20378E-01
         0.13235E-01
         0.19923E-01
         0.10129E-01
         0.39300E-01
         0.30198E-01
         0.14843E-01
         0.42001E-01
         0.15203E-01
         0.86316E-02
         0.55006E-02
         0.10628E-01
         0.64611E-02
         0.31017E-01
         0.29047E-01
         0.28320E-01
         0.81374E-02
         0.13516E-01
         0.51285E-02
         0.14740E-01
         0.48079E-02
         0.71086E-02
         0.13981E-01
         0.13113E-01
         0.74761E-02
         0.84816E-02
         0.79209E-02
         0.27527E-01
         0.16564E-01
         0.21166E-01
         0.34710E-01
         0.27244E-01
         0.25012E-01
         0.34702E-01
         0.31369E-01
         0.31327E-01
         0.24328E-01
         0.21755E-01
         0.29649E-01
         0.19691E-01
         0.16796E-01
         0.13688E-01
         0.15972E-01
         0.26056E-01
         0.17747E-01
         0.11338E+00
         0.11634E+00
         0.12215E+00
         0.12128E+00
         0.12884E+00
         0.13787E+00
         0.13211E+00
         0.11790E+00
         0.11496E+00
         0.12286E+00
         0.12076E+00
         0.11961E+00
         0.98655E-01
         0.93791E-01
         0.10333E+00
         0.11104E+00
         0.11525E+00
         0.12565E+00
         0.12026E+00
         0.12351E+00
         0.11111E+00
         0.10558E+00
         0.11194E+00
         0.10877E+00
         0.11212E+00
         0.11123E+00
         0.49164E-01
         0.44307E-01
         0.43400E-01
         0.38409E-01
         0.53672E-01
         0.46828E-01
         0.44794E-01
         0.53154E-01
         0.42367E-01
         0.52715E-01
         0.49666E-01
         0.77085E-01
         0.64935E-01
         0.53378E-01
         0.81423E-01
         0.43234E-01
         0.41456E-01
         0.35494E-01
         0.43586E-01
         0.43764E-01
         0.62849E-01
         0.61914E-01
         0.58945E-01
         0.40974E-01
         0.48510E-01
         0.38583E-01
         0.53237E-01
         0.48266E-01
         0.49119E-01
         0.50166E-01
         0.42006E-01
         0.40545E-01
         0.38569E-01
         0.39839E-01
         0.62165E-01
         0.50558E-01
         0.54219E-01
         0.73506E-01
         0.65674E-01
         0.63260E-01
         0.72861E-01
         0.67823E-01
         0.65845E-01
         0.54498E-01
         0.53419E-01
         0.63901E-01
         0.53029E-01
         0.48777E-01
         0.45952E-01
         0.48763E-01
         0.59494E-01
         0.50083E-01
         0.16320E+00
         0.16540E+00
         0.17284E+00
         0.17114E+00
         0.18079E+00
         0.19343E+00
         0.18902E+00
         0.17358E+00
         0.17022E+00
         0.17942E+00
         0.17600E+00
         0.17212E+00
         0.14542E+00
         0.13831E+00
         0.14802E+00
         0.15593E+00
         0.16071E+00
         0.17446E+00
         0.17051E+00
         0.17453E+00
         0.15901E+00
         0.15216E+00
         0.16009E+00
         0.15663E+00
         0.15972E+00
         0.15815E+00
  
SCALARS                     nodal_mass  double 1
LOOKUP_TABLE default
         0.24608E-05
         0.19551E-05
         0.20945E-05
         0.35953E-05
         0.12304E-05
         0.97770E-06
         0.10472E-05
         0.17973E-05
         0.19315E-05
         0.24627E-05
         0.96570E-06
         0.12312E-05
         0.13823E-05
         0.16614E-05
         0.69133E-06
         0.83095E-06
         0.27274E-05
         0.20125E-05
         0.13635E-05
         0.10066E-05
         0.81737E-06
         0.15393E-05
         0.16929E-05
         0.40889E-06
         0.76975E-06
         0.84649E-06
         0.13859E-05
         0.17532E-05
         0.69345E-06
         0.87672E-06
         0.32470E-05
         0.25355E-05
         0.32225E-05
         0.16233E-05
         0.12675E-05
         0.16109E-05
         0.18980E-05
         0.21673E-05
         0.94902E-06
         0.10836E-05
         0.20482E-05
         0.22683E-05
         0.10242E-05
         0.11342E-05
         0.17426E-05
         0.10823E-05
         0.87140E-06
         0.54121E-06
         0.20598E-05
         0.10301E-05
         0.17103E-05
         0.85523E-06
         0.17977E-05
         0.89958E-06
         0.18362E-05
         0.91859E-06
         0.15911E-05
         0.19369E-05
         0.79575E-06
         0.96860E-06
         0.24553E-05
         0.17361E-05
         0.12277E-05
         0.86816E-06
         0.27409E-05
         0.13702E-05
         0.23792E-05
         0.11891E-05
         0.10821E-05
         0.16705E-05
         0.54106E-06
         0.83538E-06
         0.18955E-05
         0.94787E-06
         0.20026E-05
         0.10014E-05
         0.19316E-05
         0.96578E-06
         0.15181E-05
         0.75906E-06
         0.95443E-06
         0.15782E-05
         0.47723E-06
         0.78918E-06
         0.20886E-05
         0.10443E-05
         0.16867E-05
         0.84342E-06
         0.14838E-05
         0.74203E-06
         0.97224E-06
         0.16569E-05
         0.48620E-06
         0.82849E-06
         0.22482E-05
         0.11241E-05
         0.23568E-05
         0.11783E-05
         0.19018E-05
         0.95085E-06
         0.11709E-05
         0.20091E-05
         0.58544E-06
         0.10044E-05
         0.74681E-06
         0.94889E-06
         0.37348E-06
         0.47447E-06
         0.88885E-06
         0.44455E-06
         0.10466E-05
         0.52333E-06
         0.10205E-05
         0.51021E-06
         0.99108E-06
         0.49550E-06
         0.10560E-05
         0.52791E-06
         0.11142E-05
         0.55694E-06
         0.10497E-05
         0.52469E-06
         0.82085E-06
         0.41039E-06
         0.66950E-06
         0.33475E-06
         0.86397E-06
         0.43199E-06
         0.11504E-05
         0.57519E-06
         0.12637E-05
         0.63182E-06
         0.12132E-05
         0.60658E-06
         0.10948E-05
         0.54745E-06
         0.99429E-06
         0.49718E-06
         0.80759E-06
         0.40382E-06
         0.67982E-06
         0.33995E-06
         0.88797E-06
         0.44401E-06
         0.11753E-05
         0.58766E-06
         0.12140E-05
         0.60702E-06
         0.98236E-06
         0.49125E-06
         0.79766E-06
         0.39889E-06
         0.97540E-06
         0.48769E-06
         0.11548E-05
         0.57743E-06
         0.24609E-05
         0.19547E-05
         0.20946E-05
         0.35969E-05
         0.19318E-05
         0.24634E-05
         0.13815E-05
         0.16603E-05
         0.27283E-05
         0.20111E-05
         0.81658E-06
         0.15390E-05
         0.16927E-05
         0.13839E-05
         0.17528E-05
         0.32479E-05
         0.25367E-05
         0.32241E-05
         0.18980E-05
         0.21675E-05
         0.20481E-05
         0.22684E-05
         0.17424E-05
         0.10822E-05
         0.20589E-05
         0.17102E-05
         0.17950E-05
         0.18344E-05
         0.15904E-05
         0.19365E-05
         0.24555E-05
         0.17359E-05
         0.27423E-05
         0.23814E-05
         0.10820E-05
         0.16702E-05
         0.18953E-05
         0.20025E-05
         0.19317E-05
         0.15181E-05
         0.95442E-06
         0.15780E-05
         0.20884E-05
         0.16864E-05
         0.14835E-05
         0.97197E-06
         0.16567E-05
         0.22482E-05
         0.23571E-05
         0.19022E-05
         0.11709E-05
         0.20101E-05
         0.74658E-06
         0.94886E-06
         0.88841E-06
         0.10467E-05
         0.10207E-05
         0.99128E-06
         0.10565E-05
         0.11150E-05
         0.10503E-05
         0.82102E-06
         0.66954E-06
         0.86398E-06
         0.11506E-05
         0.12640E-05
         0.12133E-05
         0.10948E-05
         0.99421E-06
         0.80751E-06
         0.67970E-06
         0.88789E-06
         0.11752E-05
         0.12140E-05
         0.98215E-06
         0.79747E-06
         0.97551E-06
         0.11548E-05
         0.24611E-05
         0.19543E-05
         0.20949E-05
         0.35987E-05
         0.19321E-05
         0.24642E-05
         0.13808E-05
         0.16594E-05
         0.27293E-05
         0.20098E-05
         0.81582E-06
         0.15388E-05
         0.16927E-05
         0.13821E-05
         0.17525E-05
         0.32489E-05
         0.25379E-05
         0.32257E-05
         0.18982E-05
         0.21678E-05
         0.20480E-05
         0.22685E-05
         0.17423E-05
         0.10821E-05
         0.20580E-05
         0.17101E-05
         0.17924E-05
         0.18326E-05
         0.15898E-05
         0.19361E-05
         0.24558E-05
         0.17357E-05
         0.27438E-05
         0.23836E-05
         0.10821E-05
         0.16699E-05
         0.18951E-05
         0.20024E-05
         0.19318E-05
         0.15183E-05
         0.95445E-06
         0.15778E-05
         0.20884E-05
         0.16862E-05
         0.14831E-05
         0.97174E-06
         0.16566E-05
         0.22483E-05
         0.23575E-05
         0.19026E-05
         0.11709E-05
         0.20112E-05
         0.74636E-06
         0.94886E-06
         0.88800E-06
         0.10467E-05
         0.10210E-05
         0.99152E-06
         0.10570E-05
         0.11159E-05
         0.10509E-05
         0.82122E-06
         0.66961E-06
         0.86402E-06
         0.11507E-05
         0.12643E-05
         0.12135E-05
         0.10948E-05
         0.99417E-06
         0.80747E-06
         0.67961E-06
         0.88784E-06
         0.11752E-05
         0.12140E-05
         0.98197E-06
         0.79731E-06
         0.97565E-06
         0.11548E-05
         0.24612E-05
         0.19539E-05
         0.20950E-05
         0.36004E-05
         0.19324E-05
         0.24650E-05
         0.13801E-05
         0.16584E-05
         0.27303E-05
         0.20085E-05
         0.81504E-06
         0.15385E-05
         0.16925E-05
         0.13801E-05
         0.17521E-05
         0.32498E-05
         0.25390E-05
         0.32274E-05
         0.18982E-05
         0.21681E-05
         0.20479E-05
         0.22686E-05
         0.17421E-05
         0.10820E-05
         0.20571E-05
         0.17099E-05
         0.17897E-05
         0.18308E-05
         0.15891E-05
         0.19356E-05
         0.24561E-05
         0.17355E-05
         0.27453E-05
         0.23857E-05
         0.10820E-05
         0.16696E-05
         0.18948E-05
         0.20022E-05
         0.19320E-05
         0.15183E-05
         0.95445E-06
         0.15776E-05
         0.20883E-05
         0.16859E-05
         0.14828E-05
         0.97149E-06
         0.16564E-05
         0.22483E-05
         0.23578E-05
         0.19030E-05
         0.11710E-05
         0.20122E-05
         0.74613E-06
         0.94884E-06
         0.88756E-06
         0.10467E-05
         0.10212E-05
         0.99173E-06
         0.10574E-05
         0.11167E-05
         0.10515E-05
         0.82140E-06
         0.66966E-06
         0.86404E-06
         0.11509E-05
         0.12646E-05
         0.12136E-05
         0.10947E-05
         0.99410E-06
         0.80740E-06
         0.67950E-06
         0.88777E-06
         0.11752E-05
         0.12140E-05
         0.98177E-06
         0.79713E-06
         0.97576E-06
         0.11547E-05
         0.24613E-05
         0.19535E-05
         0.20952E-05
         0.36022E-05
         0.19327E-05
         0.24657E-05
         0.13794E-05
         0.16574E-05
         0.27313E-05
         0.20072E-05
         0.81426E-06
         0.15382E-05
         0.16924E-05
         0.13782E-05
         0.17517E-05
         0.32508E-05
         0.25402E-05
         0.32290E-05
         0.18983E-05
         0.21684E-05
         0.20479E-05
         0.22687E-05
         0.17420E-05
         0.10819E-05
         0.20563E-05
         0.17098E-05
         0.17870E-05
         0.18290E-05
         0.15884E-05
         0.19352E-05
         0.24563E-05
         0.17353E-05
         0.27467E-05
         0.23879E-05
         0.10820E-05
         0.16693E-05
         0.18946E-05
         0.20021E-05
         0.19321E-05
         0.15184E-05
         0.95445E-06
         0.15773E-05
         0.20882E-05
         0.16857E-05
         0.14824E-05
         0.97124E-06
         0.16563E-05
         0.22484E-05
         0.23582E-05
         0.19034E-05
         0.11710E-05
         0.20132E-05
         0.74590E-06
         0.94883E-06
         0.88713E-06
         0.10468E-05
         0.10215E-05
         0.99194E-06
         0.10579E-05
         0.11175E-05
         0.10521E-05
         0.82159E-06
         0.66972E-06
         0.86406E-06
         0.11510E-05
         0.12649E-05
         0.12138E-05
         0.10947E-05
         0.99404E-06
         0.80734E-06
         0.67940E-06
         0.88771E-06
         0.11752E-05
         0.12140E-05
         0.98157E-06
         0.79696E-06
         0.97588E-06
         0.11547E-05
         0.24615E-05
         0.19531E-05
         0.20954E-05
         0.36039E-05
         0.19331E-05
         0.24665E-05
         0.13787E-05
         0.16564E-05
         0.27322E-05
         0.20059E-05
         0.81349E-06
         0.15380E-05
         0.16923E-05
         0.13763E-05
         0.17514E-05
         0.32518E-05
         0.25414E-05
         0.32306E-05
         0.18984E-05
         0.21687E-05
         0.20478E-05
         0.22688E-05
         0.17418E-05
         0.10818E-05
         0.20554E-05
         0.17096E-05
         0.17843E-05
         0.18272E-05
         0.15878E-05
         0.19347E-05
         0.24566E-05
         0.17351E-05
         0.27482E-05
         0.23901E-05
         0.10820E-05
         0.16690E-05
         0.18943E-05
         0.20019E-05
         0.19322E-05
         0.15185E-05
         0.95446E-06
         0.15771E-05
         0.20881E-05
         0.16855E-05
         0.14821E-05
         0.97100E-06
         0.16562E-05
         0.22484E-05
         0.23586E-05
         0.19038E-05
         0.11710E-05
         0.20142E-05
         0.74568E-06
         0.94882E-06
         0.88671E-06
         0.10468E-05
         0.10217E-05
         0.99216E-06
         0.10583E-05
         0.11183E-05
         0.10528E-05
         0.82178E-06
         0.66977E-06
         0.86408E-06
         0.11512E-05
         0.12652E-05
         0.12139E-05
         0.10947E-05
         0.99398E-06
         0.80728E-06
         0.67930E-06
         0.88766E-06
         0.11752E-05
         0.12140E-05
         0.98138E-06
         0.79679E-06
         0.97601E-06
         0.11547E-05
         0.24616E-05
         0.19527E-05
         0.20956E-05
         0.36056E-05
         0.19334E-05
         0.24672E-05
         0.13779E-05
         0.16554E-05
         0.27332E-05
         0.20046E-05
         0.81271E-06
         0.15377E-05
         0.16922E-05
         0.13744E-05
         0.17510E-05
         0.32527E-05
         0.25425E-05
         0.32322E-05
         0.18984E-05
         0.21689E-05
         0.20477E-05
         0.22689E-05
         0.17416E-05
         0.10816E-05
         0.20545E-05
         0.17095E-05
         0.17817E-05
         0.18254E-05
         0.15871E-05
         0.19343E-05
         0.24568E-05
         0.17349E-05
         0.27496E-05
         0.23922E-05
         0.10820E-05
         0.16686E-05
         0.18941E-05
         0.20018E-05
         0.19324E-05
         0.15186E-05
         0.95446E-06
         0.15769E-05
         0.20880E-05
         0.16852E-05
         0.14817E-05
         0.97074E-06
         0.16560E-05
         0.22484E-05
         0.23589E-05
         0.19042E-05
         0.11710E-05
         0.20152E-05
         0.74544E-06
         0.94880E-06
         0.88627E-06
         0.10469E-05
         0.10219E-05
         0.99237E-06
         0.10588E-05
         0.11191E-05
         0.10534E-05
         0.82196E-06
         0.66982E-06
         0.86410E-06
         0.11513E-05
         0.12654E-05
         0.12140E-05
         0.10947E-05
         0.99391E-06
         0.80721E-06
         0.67919E-06
         0.88759E-06
         0.11751E-05
         0.12140E-05
         0.98118E-06
         0.79661E-06
         0.97612E-06
         0.11546E-05
         0.24618E-05
         0.19523E-05
         0.20957E-05
         0.36073E-05
         0.19337E-05
         0.24680E-05
         0.13772E-05
         0.16545E-05
         0.27341E-05
         0.20033E-05
         0.81194E-06
         0.15374E-05
         0.16921E-05
         0.13725E-05
         0.17506E-05
         0.32537E-05
         0.25437E-05
         0.32339E-05
         0.18985E-05
         0.21692E-05
         0.20476E-05
         0.22690E-05
         0.17414E-05
         0.10815E-05
         0.20536E-05
         0.17093E-05
         0.17790E-05
         0.18236E-05
         0.15864E-05
         0.19339E-05
         0.24571E-05
         0.17347E-05
         0.27511E-05
         0.23944E-05
         0.10820E-05
         0.16683E-05
         0.18938E-05
         0.20016E-05
         0.19325E-05
         0.15186E-05
         0.95446E-06
         0.15767E-05
         0.20878E-05
         0.16850E-05
         0.14814E-05
         0.97050E-06
         0.16559E-05
         0.22484E-05
         0.23593E-05
         0.19046E-05
         0.11711E-05
         0.20162E-05
         0.74522E-06
         0.94878E-06
         0.88584E-06
         0.10469E-05
         0.10222E-05
         0.99258E-06
         0.10593E-05
         0.11199E-05
         0.10540E-05
         0.82215E-06
         0.66988E-06
         0.86413E-06
         0.11515E-05
         0.12657E-05
         0.12142E-05
         0.10946E-05
         0.99385E-06
         0.80715E-06
         0.67909E-06
         0.88752E-06
         0.11751E-05
         0.12140E-05
         0.98098E-06
         0.79643E-06
         0.97624E-06
         0.11546E-05
         0.24619E-05
         0.19519E-05
         0.20959E-05
         0.36091E-05
         0.19340E-05
         0.24688E-05
         0.13765E-05
         0.16535E-05
         0.27351E-05
         0.20020E-05
         0.81117E-06
         0.15372E-05
         0.16920E-05
         0.13706E-05
         0.17503E-05
         0.32546E-05
         0.25448E-05
         0.32355E-05
         0.18986E-05
         0.21695E-05
         0.20475E-05
         0.22691E-05
         0.17413E-05
         0.10814E-05
         0.20527E-05
         0.17092E-05
         0.17763E-05
         0.18219E-05
         0.15858E-05
         0.19334E-05
         0.24573E-05
         0.17345E-05
         0.27525E-05
         0.23966E-05
         0.10820E-05
         0.16680E-05
         0.18936E-05
         0.20015E-05
         0.19326E-05
         0.15187E-05
         0.95447E-06
         0.15765E-05
         0.20878E-05
         0.16848E-05
         0.14810E-05
         0.97025E-06
         0.16557E-05
         0.22485E-05
         0.23597E-05
         0.19050E-05
         0.11711E-05
         0.20172E-05
         0.74499E-06
         0.94877E-06
         0.88541E-06
         0.10469E-05
         0.10224E-05
         0.99280E-06
         0.10597E-05
         0.11207E-05
         0.10546E-05
         0.82234E-06
         0.66994E-06
         0.86415E-06
         0.11517E-05
         0.12660E-05
         0.12143E-05
         0.10946E-05
         0.99379E-06
         0.80709E-06
         0.67898E-06
         0.88746E-06
         0.11751E-05
         0.12140E-05
         0.98079E-06
         0.79626E-06
         0.97636E-06
         0.11546E-05
         0.24621E-05
         0.19515E-05
         0.20961E-05
         0.36108E-05
         0.19343E-05
         0.24695E-05
         0.13758E-05
         0.16525E-05
         0.27361E-05
         0.20006E-05
         0.81039E-06
         0.15369E-05
         0.16919E-05
         0.13686E-05
         0.17499E-05
         0.32556E-05
         0.25460E-05
         0.32371E-05
         0.18986E-05
         0.21697E-05
         0.20474E-05
         0.22692E-05
         0.17411E-05
         0.10813E-05
         0.20519E-05
         0.17091E-05
         0.17736E-05
         0.18201E-05
         0.15851E-05
         0.19330E-05
         0.24575E-05
         0.17342E-05
         0.27540E-05
         0.23987E-05
         0.10820E-05
         0.16677E-05
         0.18933E-05
         0.20014E-05
         0.19328E-05
         0.15188E-05
         0.95448E-06
         0.15763E-05
         0.20876E-05
         0.16845E-05
         0.14807E-05
         0.97000E-06
         0.16556E-05
         0.22485E-05
         0.23600E-05
         0.19053E-05
         0.11711E-05
         0.20182E-05
         0.74476E-06
         0.94875E-06
         0.88498E-06
         0.10470E-05
         0.10227E-05
         0.99301E-06
         0.10602E-05
         0.11215E-05
         0.10553E-05
         0.82252E-06
         0.66999E-06
         0.86417E-06
         0.11518E-05
         0.12663E-05
         0.12145E-05
         0.10946E-05
         0.99373E-06
         0.80702E-06
         0.67888E-06
         0.88740E-06
         0.11751E-05
         0.12140E-05
         0.98058E-06
         0.79608E-06
         0.97648E-06
         0.11546E-05
         0.24622E-05
         0.19511E-05
         0.20963E-05
         0.36125E-05
         0.19346E-05
         0.24703E-05
         0.13751E-05
         0.16515E-05
         0.27370E-05
         0.19993E-05
         0.80962E-06
         0.15366E-05
         0.16917E-05
         0.13667E-05
         0.17495E-05
         0.32565E-05
         0.25471E-05
         0.32388E-05
         0.18987E-05
         0.21700E-05
         0.20473E-05
         0.22693E-05
         0.17409E-05
         0.10812E-05
         0.20510E-05
         0.17089E-05
         0.17710E-05
         0.18183E-05
         0.15844E-05
         0.19325E-05
         0.24578E-05
         0.17340E-05
         0.27554E-05
         0.24009E-05
         0.10820E-05
         0.16674E-05
         0.18931E-05
         0.20012E-05
         0.19329E-05
         0.15189E-05
         0.95448E-06
         0.15760E-05
         0.20875E-05
         0.16843E-05
         0.14803E-05
         0.96975E-06
         0.16555E-05
         0.22485E-05
         0.23604E-05
         0.19057E-05
         0.11712E-05
         0.20192E-05
         0.74453E-06
         0.94874E-06
         0.88455E-06
         0.10470E-05
         0.10229E-05
         0.99322E-06
         0.10606E-05
         0.11223E-05
         0.10559E-05
         0.82270E-06
         0.67004E-06
         0.86419E-06
         0.11520E-05
         0.12666E-05
         0.12146E-05
         0.10945E-05
         0.99366E-06
         0.80696E-06
         0.67877E-06
         0.88733E-06
         0.11751E-05
         0.12140E-05
         0.98038E-06
         0.79590E-06
         0.97660E-06
         0.11545E-05
         0.24623E-05
         0.19507E-05
         0.20964E-05
         0.36142E-05
         0.19349E-05
         0.24710E-05
         0.13743E-05
         0.16505E-05
         0.27380E-05
         0.19980E-05
         0.80885E-06
         0.15364E-05
         0.16916E-05
         0.13648E-05
         0.17492E-05
         0.32575E-05
         0.25483E-05
         0.32404E-05
         0.18988E-05
         0.21703E-05
         0.20473E-05
         0.22694E-05
         0.17407E-05
         0.10811E-05
         0.20501E-05
         0.17088E-05
         0.17683E-05
         0.18165E-05
         0.15837E-05
         0.19321E-05
         0.24580E-05
         0.17338E-05
         0.27569E-05
         0.24031E-05
         0.10820E-05
         0.16670E-05
         0.18928E-05
         0.20011E-05
         0.19330E-05
         0.15189E-05
         0.95448E-06
         0.15758E-05
         0.20874E-05
         0.16840E-05
         0.14800E-05
         0.96950E-06
         0.16553E-05
         0.22485E-05
         0.23608E-05
         0.19061E-05
         0.11712E-05
         0.20202E-05
         0.74430E-06
         0.94872E-06
         0.88412E-06
         0.10470E-05
         0.10231E-05
         0.99344E-06
         0.10611E-05
         0.11231E-05
         0.10565E-05
         0.82289E-06
         0.67009E-06
         0.86422E-06
         0.11521E-05
         0.12669E-05
         0.12147E-05
         0.10945E-05
         0.99360E-06
         0.80690E-06
         0.67867E-06
         0.88727E-06
         0.11750E-05
         0.12140E-05
         0.98019E-06
         0.79573E-06
         0.97672E-06
         0.11545E-05
         0.24625E-05
         0.19503E-05
         0.20966E-05
         0.36160E-05
         0.19352E-05
         0.24718E-05
         0.13736E-05
         0.16496E-05
         0.27389E-05
         0.19967E-05
         0.80807E-06
         0.15361E-05
         0.16915E-05
         0.13629E-05
         0.17488E-05
         0.32584E-05
         0.25495E-05
         0.32420E-05
         0.18988E-05
         0.21705E-05
         0.20472E-05
         0.22695E-05
         0.17406E-05
         0.10810E-05
         0.20492E-05
         0.17086E-05
         0.17656E-05
         0.18147E-05
         0.15831E-05
         0.19317E-05
         0.24583E-05
         0.17336E-05
         0.27583E-05
         0.24053E-05
         0.10820E-05
         0.16667E-05
         0.18926E-05
         0.20009E-05
         0.19331E-05
         0.15190E-05
         0.95449E-06
         0.15756E-05
         0.20873E-05
         0.16838E-05
         0.14796E-05
         0.96925E-06
         0.16552E-05
         0.22486E-05
         0.23611E-05
         0.19065E-05
         0.11712E-05
         0.20212E-05
         0.74407E-06
         0.94870E-06
         0.88368E-06
         0.10471E-05
         0.10234E-05
         0.99365E-06
         0.10616E-05
         0.11239E-05
         0.10571E-05
         0.82307E-06
         0.67014E-06
         0.86424E-06
         0.11523E-05
         0.12672E-05
         0.12149E-05
         0.10945E-05
         0.99354E-06
         0.80683E-06
         0.67856E-06
         0.88721E-06
         0.11750E-05
         0.12140E-05
         0.97999E-06
         0.79555E-06
         0.97684E-06
         0.11545E-05
         0.24626E-05
         0.19499E-05
         0.20968E-05
         0.36177E-05
         0.19355E-05
         0.24725E-05
         0.13729E-05
         0.16486E-05
         0.27399E-05
         0.19954E-05
         0.80730E-06
         0.15358E-05
         0.16914E-05
         0.13610E-05
         0.17484E-05
         0.32594E-05
         0.25506E-05
         0.32437E-05
         0.18989E-05
         0.21708E-05
         0.20471E-05
         0.22696E-05
         0.17404E-05
         0.10808E-05
         0.20483E-05
         0.17085E-05
         0.17629E-05
         0.18129E-05
         0.15824E-05
         0.19312E-05
         0.24585E-05
         0.17334E-05
         0.27598E-05
         0.24074E-05
         0.10820E-05
         0.16664E-05
         0.18923E-05
         0.20008E-05
         0.19333E-05
         0.15191E-05
         0.95449E-06
         0.15754E-05
         0.20872E-05
         0.16835E-05
         0.14793E-05
         0.96901E-06
         0.16550E-05
         0.22486E-05
         0.23615E-05
         0.19069E-05
         0.11713E-05
         0.20222E-05
         0.74384E-06
         0.94869E-06
         0.88325E-06
         0.10471E-05
         0.10236E-05
         0.99386E-06
         0.10620E-05
         0.11247E-05
         0.10577E-05
         0.82326E-06
         0.67020E-06
         0.86426E-06
         0.11524E-05
         0.12674E-05
         0.12150E-05
         0.10944E-05
         0.99348E-06
         0.80677E-06
         0.67846E-06
         0.88714E-06
         0.11750E-05
         0.12140E-05
         0.97979E-06
         0.79538E-06
         0.97696E-06
         0.11544E-05
         0.24628E-05
         0.19495E-05
         0.20970E-05
         0.36194E-05
         0.19358E-05
         0.24733E-05
         0.13722E-05
         0.16476E-05
         0.27409E-05
         0.19941E-05
         0.80652E-06
         0.15355E-05
         0.16913E-05
         0.13591E-05
         0.17481E-05
         0.32604E-05
         0.25518E-05
         0.32453E-05
         0.18990E-05
         0.21711E-05
         0.20470E-05
         0.22697E-05
         0.17402E-05
         0.10807E-05
         0.20474E-05
         0.17084E-05
         0.17603E-05
         0.18111E-05
         0.15817E-05
         0.19308E-05
         0.24588E-05
         0.17332E-05
         0.27613E-05
         0.24096E-05
         0.10819E-05
         0.16661E-05
         0.18921E-05
         0.20006E-05
         0.19334E-05
         0.15192E-05
         0.95450E-06
         0.15752E-05
         0.20871E-05
         0.16833E-05
         0.14789E-05
         0.96876E-06
         0.16549E-05
         0.22486E-05
         0.23619E-05
         0.19073E-05
         0.11713E-05
         0.20232E-05
         0.74362E-06
         0.94868E-06
         0.88282E-06
         0.10472E-05
         0.10238E-05
         0.99408E-06
         0.10625E-05
         0.11255E-05
         0.10584E-05
         0.82345E-06
         0.67025E-06
         0.86428E-06
         0.11526E-05
         0.12677E-05
         0.12152E-05
         0.10944E-05
         0.99342E-06
         0.80671E-06
         0.67836E-06
         0.88709E-06
         0.11750E-05
         0.12140E-05
         0.97959E-06
         0.79521E-06
         0.97708E-06
         0.11544E-05
         0.24629E-05
         0.19491E-05
         0.20972E-05
         0.36212E-05
         0.19361E-05
         0.24741E-05
         0.13715E-05
         0.16466E-05
         0.27418E-05
         0.19928E-05
         0.80575E-06
         0.15353E-05
         0.16912E-05
         0.13572E-05
         0.17477E-05
         0.32613E-05
         0.25529E-05
         0.32469E-05
         0.18990E-05
         0.21714E-05
         0.20469E-05
         0.22698E-05
         0.17400E-05
         0.10806E-05
         0.20466E-05
         0.17082E-05
         0.17576E-05
         0.18093E-05
         0.15810E-05
         0.19303E-05
         0.24590E-05
         0.17330E-05
         0.27627E-05
         0.24118E-05
         0.10819E-05
         0.16658E-05
         0.18919E-05
         0.20005E-05
         0.19335E-05
         0.15192E-05
         0.95450E-06
         0.15750E-05
         0.20870E-05
         0.16831E-05
         0.14786E-05
         0.96851E-06
         0.16548E-05
         0.22487E-05
         0.23622E-05
         0.19077E-05
         0.11713E-05
         0.20242E-05
         0.74339E-06
         0.94866E-06
         0.88239E-06
         0.10472E-05
         0.10241E-05
         0.99429E-06
         0.10630E-05
         0.11263E-05
         0.10590E-05
         0.82363E-06
         0.67030E-06
         0.86430E-06
         0.11527E-05
         0.12680E-05
         0.12153E-05
         0.10944E-05
         0.99335E-06
         0.80665E-06
         0.67825E-06
         0.88702E-06
         0.11749E-05
         0.12140E-05
         0.97939E-06
         0.79503E-06
         0.97720E-06
         0.11544E-05
         0.24631E-05
         0.19487E-05
         0.20973E-05
         0.36229E-05
         0.19364E-05
         0.24748E-05
         0.13707E-05
         0.16456E-05
         0.27428E-05
         0.19915E-05
         0.80498E-06
         0.15350E-05
         0.16911E-05
         0.13553E-05
         0.17473E-05
         0.32623E-05
         0.25541E-05
         0.32486E-05
         0.18991E-05
         0.21716E-05
         0.20468E-05
         0.22699E-05
         0.17399E-05
         0.10805E-05
         0.20457E-05
         0.17081E-05
         0.17549E-05
         0.18075E-05
         0.15804E-05
         0.19299E-05
         0.24592E-05
         0.17328E-05
         0.27642E-05
         0.24140E-05
         0.10819E-05
         0.16654E-05
         0.18916E-05
         0.20003E-05
         0.19337E-05
         0.15193E-05
         0.95450E-06
         0.15748E-05
         0.20869E-05
         0.16828E-05
         0.14782E-05
         0.96826E-06
         0.16546E-05
         0.22487E-05
         0.23626E-05
         0.19081E-05
         0.11714E-05
         0.20253E-05
         0.74316E-06
         0.94864E-06
         0.88196E-06
         0.10472E-05
         0.10243E-05
         0.99450E-06
         0.10634E-05
         0.11271E-05
         0.10596E-05
         0.82381E-06
         0.67036E-06
         0.86432E-06
         0.11529E-05
         0.12683E-05
         0.12154E-05
         0.10943E-05
         0.99329E-06
         0.80658E-06
         0.67815E-06
         0.88696E-06
         0.11749E-05
         0.12140E-05
         0.97919E-06
         0.79485E-06
         0.97732E-06
         0.11544E-05
         0.24632E-05
         0.19483E-05
         0.20975E-05
         0.36246E-05
         0.19368E-05
         0.24756E-05
         0.13700E-05
         0.16447E-05
         0.27437E-05
         0.19902E-05
         0.80421E-06
         0.15347E-05
         0.16910E-05
         0.13534E-05
         0.17470E-05
         0.32632E-05
         0.25552E-05
         0.32502E-05
         0.18992E-05
         0.21719E-05
         0.20467E-05
         0.22700E-05
         0.17397E-05
         0.10804E-05
         0.20448E-05
         0.17079E-05
         0.17523E-05
         0.18057E-05
         0.15797E-05
         0.19295E-05
         0.24595E-05
         0.17326E-05
         0.27656E-05
         0.24161E-05
         0.10819E-05
         0.16651E-05
         0.18914E-05
         0.20002E-05
         0.19338E-05
         0.15194E-05
         0.95451E-06
         0.15745E-05
         0.20868E-05
         0.16826E-05
         0.14779E-05
         0.96801E-06
         0.16545E-05
         0.22487E-05
         0.23630E-05
         0.19085E-05
         0.11714E-05
         0.20263E-05
         0.74293E-06
         0.94863E-06
         0.88153E-06
         0.10473E-05
         0.10245E-05
         0.99472E-06
         0.10639E-05
         0.11279E-05
         0.10602E-05
         0.82400E-06
         0.67041E-06
         0.86435E-06
         0.11530E-05
         0.12686E-05
         0.12156E-05
         0.10943E-05
         0.99323E-06
         0.80652E-06
         0.67804E-06
         0.88690E-06
         0.11749E-05
         0.12140E-05
         0.97900E-06
         0.79468E-06
         0.97744E-06
         0.11543E-05
         0.24633E-05
         0.19479E-05
         0.20977E-05
         0.36264E-05
         0.19371E-05
         0.24763E-05
         0.13693E-05
         0.16437E-05
         0.27447E-05
         0.19888E-05
         0.80343E-06
         0.15345E-05
         0.16908E-05
         0.13515E-05
         0.17466E-05
         0.32642E-05
         0.25564E-05
         0.32518E-05
         0.18992E-05
         0.21722E-05
         0.20466E-05
         0.22701E-05
         0.17395E-05
         0.10803E-05
         0.20439E-05
         0.17078E-05
         0.17496E-05
         0.18039E-05
         0.15790E-05
         0.19290E-05
         0.24597E-05
         0.17323E-05
         0.27671E-05
         0.24183E-05
         0.10819E-05
         0.16648E-05
         0.18911E-05
         0.20001E-05
         0.19339E-05
         0.15195E-05
         0.95452E-06
         0.15743E-05
         0.20867E-05
         0.16823E-05
         0.14775E-05
         0.96776E-06
         0.16543E-05
         0.22487E-05
         0.23633E-05
         0.19089E-05
         0.11714E-05
         0.20273E-05
         0.74270E-06
         0.94861E-06
         0.88109E-06
         0.10473E-05
         0.10248E-05
         0.99493E-06
         0.10643E-05
         0.11287E-05
         0.10609E-05
         0.82418E-06
         0.67046E-06
         0.86437E-06
         0.11532E-05
         0.12689E-05
         0.12157E-05
         0.10943E-05
         0.99316E-06
         0.80646E-06
         0.67794E-06
         0.88683E-06
         0.11749E-05
         0.12140E-05
         0.97879E-06
         0.79450E-06
         0.97755E-06
         0.11543E-05
         0.24635E-05
         0.19475E-05
         0.20979E-05
         0.36281E-05
         0.19374E-05
         0.24771E-05
         0.13686E-05
         0.16427E-05
         0.27456E-05
         0.19875E-05
         0.80266E-06
         0.15342E-05
         0.16907E-05
         0.13496E-05
         0.17463E-05
         0.32651E-05
         0.25575E-05
         0.32534E-05
         0.18993E-05
         0.21724E-05
         0.20466E-05
         0.22702E-05
         0.17393E-05
         0.10802E-05
         0.20430E-05
         0.17076E-05
         0.17469E-05
         0.18021E-05
         0.15784E-05
         0.19286E-05
         0.24600E-05
         0.17321E-05
         0.27685E-05
         0.24205E-05
         0.10819E-05
         0.16645E-05
         0.18909E-05
         0.19999E-05
         0.19341E-05
         0.15195E-05
         0.95452E-06
         0.15741E-05
         0.20866E-05
         0.16821E-05
         0.14772E-05
         0.96751E-06
         0.16542E-05
         0.22488E-05
         0.23637E-05
         0.19092E-05
         0.11715E-05
         0.20283E-05
         0.74247E-06
         0.94860E-06
         0.88066E-06
         0.10473E-05
         0.10250E-05
         0.99514E-06
         0.10648E-05
         0.11295E-05
         0.10615E-05
         0.82437E-06
         0.67052E-06
         0.86439E-06
         0.11533E-05
         0.12691E-05
         0.12159E-05
         0.10942E-05
         0.99310E-06
         0.80639E-06
         0.67783E-06
         0.88676E-06
         0.11748E-05
         0.12140E-05
         0.97859E-06
         0.79433E-06
         0.97767E-06
         0.11543E-05
         0.24636E-05
         0.19471E-05
         0.20980E-05
         0.36298E-05
         0.19377E-05
         0.24779E-05
         0.13679E-05
         0.16417E-05
         0.27466E-05
         0.19862E-05
         0.80189E-06
         0.15339E-05
         0.16906E-05
         0.13477E-05
         0.17459E-05
         0.32661E-05
         0.25587E-05
         0.32551E-05
         0.18994E-05
         0.21727E-05
         0.20465E-05
         0.22703E-05
         0.17392E-05
         0.10800E-05
         0.20421E-05
         0.17075E-05
         0.17443E-05
         0.18003E-05
         0.15777E-05
         0.19281E-05
         0.24602E-05
         0.17319E-05
         0.27700E-05
         0.24227E-05
         0.10819E-05
         0.16642E-05
         0.18906E-05
         0.19998E-05
         0.19342E-05
         0.15196E-05
         0.95453E-06
         0.15739E-05
         0.20865E-05
         0.16819E-05
         0.14768E-05
         0.96727E-06
         0.16541E-05
         0.22488E-05
         0.23640E-05
         0.19096E-05
         0.11715E-05
         0.20293E-05
         0.74225E-06
         0.94859E-06
         0.88023E-06
         0.10474E-05
         0.10253E-05
         0.99535E-06
         0.10653E-05
         0.11303E-05
         0.10621E-05
         0.82456E-06
         0.67057E-06
         0.86441E-06
         0.11535E-05
         0.12694E-05
         0.12160E-05
         0.10942E-05
         0.99304E-06
         0.80633E-06
         0.67773E-06
         0.88671E-06
         0.11748E-05
         0.12140E-05
         0.97840E-06
         0.79415E-06
         0.97780E-06
         0.11542E-05
         0.24637E-05
         0.19466E-05
         0.20982E-05
         0.36315E-05
         0.19380E-05
         0.24786E-05
         0.13671E-05
         0.16407E-05
         0.27475E-05
         0.19849E-05
         0.80110E-06
         0.15336E-05
         0.16905E-05
         0.13457E-05
         0.17455E-05
         0.32669E-05
         0.25598E-05
         0.32567E-05
         0.18994E-05
         0.21729E-05
         0.20464E-05
         0.22703E-05
         0.17390E-05
         0.10799E-05
         0.20412E-05
         0.17073E-05
         0.17416E-05
         0.17985E-05
         0.15770E-05
         0.19277E-05
         0.24604E-05
         0.17317E-05
         0.27714E-05
         0.24248E-05
         0.10819E-05
         0.16638E-05
         0.18903E-05
         0.19996E-05
         0.19343E-05
         0.15196E-05
         0.95451E-06
         0.15737E-05
         0.20864E-05
         0.16816E-05
         0.14765E-05
         0.96700E-06
         0.16539E-05
         0.22488E-05
         0.23644E-05
         0.19100E-05
         0.11715E-05
         0.20303E-05
         0.74200E-06
         0.94855E-06
         0.87978E-06
         0.10474E-05
         0.10255E-05
         0.99555E-06
         0.10657E-05
         0.11311E-05
         0.10627E-05
         0.82472E-06
         0.67061E-06
         0.86442E-06
         0.11536E-05
         0.12697E-05
         0.12161E-05
         0.10941E-05
         0.99295E-06
         0.80625E-06
         0.67761E-06
         0.88662E-06
         0.11748E-05
         0.12140E-05
         0.97818E-06
         0.79396E-06
         0.97790E-06
         0.11542E-05
         0.24639E-05
         0.19463E-05
         0.20984E-05
         0.36333E-05
         0.19383E-05
         0.24794E-05
         0.13664E-05
         0.16398E-05
         0.27485E-05
         0.19836E-05
         0.80034E-06
         0.15334E-05
         0.16904E-05
         0.13439E-05
         0.17452E-05
         0.32679E-05
         0.25610E-05
         0.32583E-05
         0.18995E-05
         0.21732E-05
         0.20463E-05
         0.22704E-05
         0.17388E-05
         0.10798E-05
         0.20404E-05
         0.17072E-05
         0.17389E-05
         0.17967E-05
         0.15763E-05
         0.19272E-05
         0.24607E-05
         0.17315E-05
         0.27729E-05
         0.24270E-05
         0.10819E-05
         0.16635E-05
         0.18901E-05
         0.19995E-05
         0.19345E-05
         0.15197E-05
         0.95453E-06
         0.15735E-05
         0.20863E-05
         0.16814E-05
         0.14761E-05
         0.96677E-06
         0.16538E-05
         0.22488E-05
         0.23647E-05
         0.19104E-05
         0.11716E-05
         0.20313E-05
         0.74179E-06
         0.94855E-06
         0.87936E-06
         0.10475E-05
         0.10257E-05
         0.99577E-06
         0.10662E-05
         0.11319E-05
         0.10633E-05
         0.82492E-06
         0.67068E-06
         0.86446E-06
         0.11538E-05
         0.12700E-05
         0.12163E-05
         0.10941E-05
         0.99291E-06
         0.80620E-06
         0.67752E-06
         0.88657E-06
         0.11748E-05
         0.12140E-05
         0.97800E-06
         0.79380E-06
         0.97803E-06
         0.11542E-05
         0.12320E-05
         0.97306E-06
         0.10493E-05
         0.18171E-05
         0.96926E-06
         0.12399E-05
         0.68306E-06
         0.81967E-06
         0.13745E-05
         0.99152E-06
         0.39999E-06
         0.76665E-06
         0.84519E-06
         0.67148E-06
         0.87252E-06
         0.16343E-05
         0.12808E-05
         0.16296E-05
         0.94981E-06
         0.10867E-05
         0.10232E-05
         0.11353E-05
         0.86940E-06
         0.53990E-06
         0.10200E-05
         0.85360E-06
         0.86884E-06
         0.89793E-06
         0.78802E-06
         0.96354E-06
         0.12305E-05
         0.86572E-06
         0.13869E-05
         0.12141E-05
         0.54095E-06
         0.83170E-06
         0.94503E-06
         0.99975E-06
         0.96729E-06
         0.75992E-06
         0.47728E-06
         0.78670E-06
         0.10432E-05
         0.84065E-06
         0.73800E-06
         0.48334E-06
         0.82688E-06
         0.11245E-05
         0.11825E-05
         0.95534E-06
         0.58581E-06
         0.10159E-05
         0.37085E-06
         0.47429E-06
         0.43959E-06
         0.52375E-06
         0.51294E-06
         0.49796E-06
         0.53322E-06
         0.56619E-06
         0.53185E-06
         0.41252E-06
         0.33536E-06
         0.43225E-06
         0.57696E-06
         0.63509E-06
         0.60820E-06
         0.54708E-06
         0.49646E-06
         0.40310E-06
         0.33875E-06
         0.44329E-06
         0.58740E-06
         0.60700E-06
         0.48897E-06
         0.39687E-06
         0.48906E-06
         0.57710E-06
  
SCALARS                 Poissons_ratio  double 1
LOOKUP_TABLE default
         0.30000E+00
         0.30000E+00
         0.30000E+00
         0.30000E+00
         0.30000E+00
         0.30000E+00
         0.30000E+00
         0.30000E+00
         0.30000E+00
         0.30000E+00
         0.30000E+00
         0.30000E+00
         0.30000E+00
         0.30000E+00
         0.30000E+00
         0.30000E+00
         0.30000E+00
         0.30000E+00
         0.30000E+00
         0.30000E+00
         0.30000E+00
         0.30000E+00
         0.30000E+00
         0.30000E+00
         0.30000E+00
         0.30000E+00
         0.30000E+00
         0.30000E+00
         0.30000E+00
         0.30000E+00
         0.30000E+00
         0.30000E+00
         0.30000E+00
         0.30000E+00
         0.30000E+00
         0.30000E+00
         0.30000E+00
         0.30000E+00
         0.30000E+00
         0.30000E+00
         0.30000E+00
         0.30000E+00
         0.30000E+00
         0.30000E+00
         0.30000E+00
         0.30000E+00
         0.30000E+00
         0.30000E+00
         0.30000E+00
         0.30000E+00
         0.30000E+00
         0.30000E+00
         0.30000E+00
         0.30000E+00
         0.30000E+00
         0.30000E+00
         0.30000E+00
         0.30000E+00
         0.30000E+00
         0.30000E+00
         0.30000E+00
         0.30000E+00
         0.30000E+00
         0.30000E+00
         0.30000E+00
         0.30000E+00
         0.30000E+00
         0.30000E+00
         0.30000E+00
         0.30000E+00
         0.30000E+00
         0.30000E+00
         0.30000E+00
         0.30000E+00
         0.30000E+00
         0.30000E+00
         0.30000E+00
         0.30000E+00
         0.30000E+00
         0.30000E+00
         0.30000E+00
         0.30000E+00
         0.30000E+00
         0.30000E+00
         0.30000E+00
         0.30000E+00
         0.30000E+00
         0.30000E+00
         0.30000E+00
         0.30000E+00
         0.30000E+00
         0.30000E+00
         0.30000E+00
         0.30000E+00
         0.30000E+00
         0.30000E+00
         0.30000E+00
         0.30000E+00
         0.30000E+00
         0.30000E+00
         0.30000E+00
         0.30000E+00
         0.30000E+00
         0.30000E+00
         0.30000E+00
         0.30000E+00
         0.30000E+00
         0.30000E+00
         0.30000E+00
         0.30000E+00
         0.30000E+00
         0.30000E+00
         0.30000E+00
         0.30000E+00
         0.30000E+00
         0.30000E+00
         0.30000E+00
         0.30000E+00
         0.30000E+00
         0.30000E+00
         0.30000E+00
         0.30000E+00
         0.30000E+00
         0.30000E+00
         0.30000E+00
         0.30000E+00
         0.30000E+00
         0.30000E+00
         0.30000E+00
         0.30000E+00
         0.30000E+00
         0.30000E+00
         0.30000E+00
         0.30000E+00
         0.30000E+00
         0.30000E+00
         0.30000E+00
         0.30000E+00
         0.30000E+00
         0.30000E+00
         0.30000E+00
         0.30000E+00
         0.30000E+00
         0.30000E+00
         0.30000E+00
         0.30000E+00
         0.30000E+00
         0.30000E+00
         0.30000E+00
         0.30000E+00
         0.30000E+00
         0.30000E+00
         0.30000E+00
         0.30000E+00
         0.30000E+00
         0.30000E+00
         0.30000E+00
         0.30000E+00
         0.30000E+00
         0.30000E+00
         0.30000E+00
         0.30000E+00
         0.30000E+00
         0.30000E+00
         0.30000E+00
         0.30000E+00
         0.30000E+00
         0.30000E+00
         0.30000E+00
         0.30000E+00
         0.30000E+00
         0.30000E+00
         0.30000E+00
         0.30000E+00
         0.30000E+00
         0.30000E+00
         0.30000E+00
         0.30000E+00
         0.30000E+00
         0.30000E+00
         0.30000E+00
         0.30000E+00
         0.30000E+00
         0.30000E+00
         0.30000E+00
         0.30000E+00
         0.30000E+00
         0.30000E+00
         0.30000E+00
         0.30000E+00
         0.30000E+00
         0.30000E+00
         0.30000E+00
         0.30000E+00
         0.30000E+00
         0.30000E+00
         0.30000E+00
         0.30000E+00
         0.30000E+00
         0.30000E+00
         0.30000E+00
         0.30000E+00
         0.30000E+00
         0.30000E+00
         0.30000E+00
         0.30000E+00
         0.30000E+00
         0.30000E+00
         0.30000E+00
         0.30000E+00
         0.30000E+00
         0.30000E+00
         0.30000E+00
         0.30000E+00
         0.30000E+00
         0.30000E+00
         0.30000E+00
         0.30000E+00
         0.30000E+00
         0.30000E+00
         0.30000E+00
         0.30000E+00
         0.30000E+00
         0.30000E+00
         0.30000E+00
         0.30000E+00
         0.30000E+00
         0.30000E+00
         0.30000E+00
         0.30000E+00
         0.30000E+00
         0.30000E+00
         0.30000E+00
         0.30000E+00
         0.30000E+00
         0.30000E+00
         0.30000E+00
         0.30000E+00
         0.30000E+00
         0.30000E+00
         0.30000E+00
         0.30000E+00
         0.30000E+00
         0.30000E+00
         0.30000E+00
         0.30000E+00
         0.30000E+00
         0.30000E+00
         0.30000E+00
         0.30000E+00
         0.30000E+00
         0.30000E+00
         0.30000E+00
         0.30000E+00
         0.30000E+00
         0.30000E+00
         0.30000E+00
         0.30000E+00
         0.30000E+00
         0.30000E+00
         0.30000E+00
         0.30000E+00
         0.30000E+00
         0.30000E+00
         0.30000E+00
         0.30000E+00
         0.30000E+00
         0.30000E+00
         0.30000E+00
         0.30000E+00
         0.30000E+00
         0.30000E+00
         0.30000E+00
         0.30000E+00
         0.30000E+00
         0.30000E+00
         0.30000E+00
         0.30000E+00
         0.30000E+00
         0.30000E+00
         0.30000E+00
         0.30000E+00
         0.30000E+00
         0.30000E+00
         0.30000E+00
         0.30000E+00
         0.30000E+00
         0.30000E+00
         0.30000E+00
         0.30000E+00
         0.30000E+00
         0.30000E+00
         0.30000E+00
         0.30000E+00
         0.30000E+00
         0.30000E+00
         0.30000E+00
         0.30000E+00
         0.30000E+00
         0.30000E+00
         0.30000E+00
         0.30000E+00
         0.30000E+00
         0.30000E+00
         0.30000E+00
         0.30000E+00
         0.30000E+00
         0.30000E+00
         0.30000E+00
         0.30000E+00
         0.30000E+00
         0.30000E+00
         0.30000E+00
         0.30000E+00
         0.30000E+00
         0.30000E+00
         0.30000E+00
         0.30000E+00
         0.30000E+00
         0.30000E+00
         0.30000E+00
         0.30000E+00
         0.30000E+00
         0.30000E+00
         0.30000E+00
         0.30000E+00
         0.30000E+00
         0.30000E+00
         0.30000E+00
         0.30000E+00
         0.30000E+00
         0.30000E+00
         0.30000E+00
         0.30000E+00
         0.30000E+00
         0.30000E+00
         0.30000E+00
         0.30000E+00
         0.30000E+00
         0.30000E+00
         0.30000E+00
         0.30000E+00
         0.30000E+00
         0.30000E+00
         0.30000E+00
         0.30000E+00
         0.30000E+00
         0.30000E+00
         0.30000E+00
         0.30000E+00
         0.30000E+00
         0.30000E+00
         0.30000E+00
         0.30000E+00
         0.30000E+00
         0.30000E+00
         0.30000E+00
         0.30000E+00
         0.30000E+00
         0.30000E+00
         0.30000E+00
         0.30000E+00
         0.30000E+00
         0.30000E+00
         0.30000E+00
         0.30000E+00
         0.30000E+00
         0.30000E+00
         0.30000E+00
         0.30000E+00
         0.30000E+00
         0.30000E+00
         0.30000E+00
         0.30000E+00
         0.30000E+00
         0.30000E+00
         0.30000E+00
         0.30000E+00
         0.30000E+00
         0.30000E+00
         0.30000E+00
         0.30000E+00
         0.30000E+00
         0.30000E+00
         0.30000E+00
         0.30000E+00
         0.30000E+00
         0.30000E+00
         0.30000E+00
         0.30000E+00
         0.30000E+00
         0.30000E+00
         0.30000E+00
         0.30000E+00
         0.30000E+00
         0.30000E+00
         0.30000E+00
         0.30000E+00
         0.30000E+00
         0.30000E+00
         0.30000E+00
         0.30000E+00
         0.30000E+00
         0.30000E+00
         0.30000E+00
         0.30000E+00
         0.30000E+00
         0.30000E+00
         0.30000E+00
         0.30000E+00
         0.30000E+00
         0.30000E+00
         0.30000E+00
         0.30000E+00
         0.30000E+00
         0.30000E+00
         0.30000E+00
         0.30000E+00
         0.30000E+00
         0.30000E+00
         0.30000E+00
         0.30000E+00
         0.30000E+00
         0.30000E+00
         0.30000E+00
         0.30000E+00
         0.30000E+00
         0.30000E+00
         0.30000E+00
         0.30000E+00
         0.30000E+00
         0.30000E+00
         0.30000E+00
         0.30000E+00
         0.30000E+00
         0.30000E+00
         0.30000E+00
         0.30000E+00
         0.30000E+00
         0.30000E+00
         0.30000E+00
         0.30000E+00
         0.30000E+00
         0.30000E+00
         0.30000E+00
         0.30000E+00
         0.30000E+00
         0.30000E+00
         0.30000E+00
         0.30000E+00
         0.30000E+00
         0.30000E+00
         0.30000E+00
         0.30000E+00
         0.30000E+00
         0.30000E+00
         0.30000E+00
         0.30000E+00
         0.30000E+00
         0.30000E+00
         0.30000E+00
         0.30000E+00
         0.30000E+00
         0.30000E+00
         0.30000E+00
         0.30000E+00
         0.30000E+00
         0.30000E+00
         0.30000E+00
         0.30000E+00
         0.30000E+00
         0.30000E+00
         0.30000E+00
         0.30000E+00
         0.30000E+00
         0.30000E+00
         0.30000E+00
         0.30000E+00
         0.30000E+00
         0.30000E+00
         0.30000E+00
         0.30000E+00
         0.30000E+00
         0.30000E+00
         0.30000E+00
         0.30000E+00
         0.30000E+00
         0.30000E+00
         0.30000E+00
         0.30000E+00
         0.30000E+00
         0.30000E+00
         0.30000E+00
         0.30000E+00
         0.30000E+00
         0.30000E+00
         0.30000E+00
         0.30000E+00
         0.30000E+00
         0.30000E+00
         0.30000E+00
         0.30000E+00
         0.30000E+00
         0.30000E+00
         0.30000E+00
         0.30000E+00
         0.30000E+00
         0.30000E+00
         0.30000E+00
         0.30000E+00
         0.30000E+00
         0.30000E+00
         0.30000E+00
         0.30000E+00
         0.30000E+00
         0.30000E+00
         0.30000E+00
         0.30000E+00
         0.30000E+00
         0.30000E+00
         0.30000E+00
         0.30000E+00
         0.30000E+00
         0.30000E+00
         0.30000E+00
         0.30000E+00
         0.30000E+00
         0.30000E+00
         0.30000E+00
         0.30000E+00
         0.30000E+00
         0.30000E+00
         0.30000E+00
         0.30000E+00
         0.30000E+00
         0.30000E+00
         0.30000E+00
         0.30000E+00
         0.30000E+00
         0.30000E+00
         0.30000E+00
         0.30000E+00
         0.30000E+00
         0.30000E+00
         0.30000E+00
         0.30000E+00
         0.30000E+00
         0.30000E+00
         0.30000E+00
         0.30000E+00
         0.30000E+00
         0.30000E+00
         0.30000E+00
         0.30000E+00
         0.30000E+00
         0.30000E+00
         0.30000E+00
         0.30000E+00
         0.30000E+00
         0.30000E+00
         0.30000E+00
         0.30000E+00
         0.30000E+00
         0.30000E+00
         0.30000E+00
         0.30000E+00
         0.30000E+00
         0.30000E+00
         0.30000E+00
         0.30000E+00
         0.30000E+00
         0.30000E+00
         0.30000E+00
         0.30000E+00
         0.30000E+00
         0.30000E+00
         0.30000E+00
         0.30000E+00
         0.30000E+00
         0.30000E+00
         0.30000E+00
         0.30000E+00
         0.30000E+00
         0.30000E+00
         0.30000E+00
         0.30000E+00
         0.30000E+00
         0.30000E+00
         0.30000E+00
         0.30000E+00
         0.30000E+00
         0.30000E+00
         0.30000E+00
         0.30000E+00
         0.30000E+00
         0.30000E+00
         0.30000E+00
         0.30000E+00
         0.30000E+00
         0.30000E+00
         0.30000E+00
         0.30000E+00
         0.30000E+00
         0.30000E+00
         0.30000E+00
         0.30000E+00
         0.30000E+00
         0.30000E+00
         0.30000E+00
         0.30000E+00
         0.30000E+00
         0.30000E+00
         0.30000E+00
         0.30000E+00
         0.30000E+00
         0.30000E+00
         0.30000E+00
         0.30000E+00
         0.30000E+00
         0.30000E+00
         0.30000E+00
         0.30000E+00
         0.30000E+00
         0.30000E+00
         0.30000E+00
         0.30000E+00
         0.30000E+00
         0.30000E+00
         0.30000E+00
         0.30000E+00
         0.30000E+00
         0.30000E+00
         0.30000E+00
         0.30000E+00
         0.30000E+00
         0.30000E+00
         0.30000E+00
         0.30000E+00
         0.30000E+00
         0.30000E+00
         0.30000E+00
         0.30000E+00
         0.30000E+00
         0.30000E+00
         0.30000E+00
         0.30000E+00
         0.30000E+00
         0.30000E+00
         0.30000E+00
         0.30000E+00
         0.30000E+00
         0.30000E+00
         0.30000E+00
         0.30000E+00
         0.30000E+00
         0.30000E+00
         0.30000E+00
         0.30000E+00
         0.30000E+00
         0.30000E+00
         0.30000E+00
         0.30000E+00
         0.30000E+00
         0.30000E+00
         0.30000E+00
         0.30000E+00
         0.30000E+00
         0.30000E+00
         0.30000E+00
         0.30000E+00
         0.30000E+00
         0.30000E+00
         0.30000E+00
         0.30000E+00
         0.30000E+00
         0.30000E+00
         0.30000E+00
         0.30000E+00
         0.30000E+00
         0.30000E+00
         0.30000E+00
         0.30000E+00
         0.30000E+00
         0.30000E+00
         0.30000E+00
         0.30000E+00
         0.30000E+00
         0.30000E+00
         0.30000E+00
         0.30000E+00
         0.30000E+00
         0.30000E+00
         0.30000E+00
         0.30000E+00
         0.30000E+00
         0.30000E+00
         0.30000E+00
         0.30000E+00
         0.30000E+00
         0.30000E+00
         0.30000E+00
         0.30000E+00
         0.30000E+00
         0.30000E+00
         0.30000E+00
         0.30000E+00
         0.30000E+00
         0.30000E+00
         0.30000E+00
         0.30000E+00
         0.30000E+00
         0.30000E+00
         0.30000E+00
         0.30000E+00
         0.30000E+00
         0.30000E+00
         0.30000E+00
         0.30000E+00
         0.30000E+00
         0.30000E+00
         0.30000E+00
         0.30000E+00
         0.30000E+00
         0.30000E+00
         0.30000E+00
         0.30000E+00
         0.30000E+00
         0.30000E+00
         0.30000E+00
         0.30000E+00
         0.30000E+00
         0.30000E+00
         0.30000E+00
         0.30000E+00
         0.30000E+00
         0.30000E+00
         0.30000E+00
         0.30000E+00
         0.30000E+00
         0.30000E+00
         0.30000E+00
         0.30000E+00
         0.30000E+00
         0.30000E+00
         0.30000E+00
         0.30000E+00
         0.30000E+00
         0.30000E+00
         0.30000E+00
         0.30000E+00
         0.30000E+00
         0.30000E+00
         0.30000E+00
         0.30000E+00
         0.30000E+00
         0.30000E+00
         0.30000E+00
         0.30000E+00
         0.30000E+00
         0.30000E+00
         0.30000E+00
         0.30000E+00
         0.30000E+00
         0.30000E+00
         0.30000E+00
         0.30000E+00
         0.30000E+00
         0.30000E+00
         0.30000E+00
         0.30000E+00
         0.30000E+00
         0.30000E+00
         0.30000E+00
         0.30000E+00
         0.30000E+00
         0.30000E+00
         0.30000E+00
         0.30000E+00
         0.30000E+00
         0.30000E+00
         0.30000E+00
         0.30000E+00
         0.30000E+00
         0.30000E+00
         0.30000E+00
         0.30000E+00
         0.30000E+00
         0.30000E+00
         0.30000E+00
         0.30000E+00
         0.30000E+00
         0.30000E+00
         0.30000E+00
         0.30000E+00
         0.30000E+00
         0.30000E+00
         0.30000E+00
         0.30000E+00
         0.30000E+00
         0.30000E+00
         0.30000E+00
         0.30000E+00
         0.30000E+00
         0.30000E+00
         0.30000E+00
         0.30000E+00
         0.30000E+00
         0.30000E+00
         0.30000E+00
         0.30000E+00
         0.30000E+00
         0.30000E+00
         0.30000E+00
         0.30000E+00
         0.30000E+00
         0.30000E+00
         0.30000E+00
         0.30000E+00
         0.30000E+00
         0.30000E+00
         0.30000E+00
         0.30000E+00
         0.30000E+00
         0.30000E+00
         0.30000E+00
         0.30000E+00
         0.30000E+00
         0.30000E+00
         0.30000E+00
         0.30000E+00
         0.30000E+00
         0.30000E+00
         0.30000E+00
         0.30000E+00
         0.30000E+00
         0.30000E+00
         0.30000E+00
         0.30000E+00
         0.30000E+00
         0.30000E+00
         0.30000E+00
         0.30000E+00
         0.30000E+00
         0.30000E+00
         0.30000E+00
         0.30000E+00
         0.30000E+00
         0.30000E+00
         0.30000E+00
         0.30000E+00
         0.30000E+00
         0.30000E+00
         0.30000E+00
         0.30000E+00
         0.30000E+00
         0.30000E+00
         0.30000E+00
         0.30000E+00
         0.30000E+00
         0.30000E+00
         0.30000E+00
         0.30000E+00
         0.30000E+00
         0.30000E+00
         0.30000E+00
         0.30000E+00
         0.30000E+00
         0.30000E+00
         0.30000E+00
         0.30000E+00
         0.30000E+00
         0.30000E+00
         0.30000E+00
         0.30000E+00
         0.30000E+00
         0.30000E+00
         0.30000E+00
         0.30000E+00
         0.30000E+00
         0.30000E+00
         0.30000E+00
         0.30000E+00
         0.30000E+00
         0.30000E+00
         0.30000E+00
         0.30000E+00
         0.30000E+00
         0.30000E+00
         0.30000E+00
         0.30000E+00
         0.30000E+00
         0.30000E+00
         0.30000E+00
         0.30000E+00
         0.30000E+00
         0.30000E+00
         0.30000E+00
         0.30000E+00
         0.30000E+00
         0.30000E+00
         0.30000E+00
         0.30000E+00
         0.30000E+00
         0.30000E+00
         0.30000E+00
         0.30000E+00
         0.30000E+00
         0.30000E+00
         0.30000E+00
         0.30000E+00
         0.30000E+00
         0.30000E+00
         0.30000E+00
         0.30000E+00
         0.30000E+00
         0.30000E+00
         0.30000E+00
         0.30000E+00
         0.30000E+00
         0.30000E+00
         0.30000E+00
         0.30000E+00
         0.30000E+00
         0.30000E+00
         0.30000E+00
         0.30000E+00
         0.30000E+00
         0.30000E+00
         0.30000E+00
         0.30000E+00
         0.30000E+00
         0.30000E+00
         0.30000E+00
         0.30000E+00
         0.30000E+00
         0.30000E+00
         0.30000E+00
         0.30000E+00
         0.30000E+00
         0.30000E+00
         0.30000E+00
         0.30000E+00
         0.30000E+00
         0.30000E+00
         0.30000E+00
         0.30000E+00
         0.30000E+00
         0.30000E+00
         0.30000E+00
         0.30000E+00
         0.30000E+00
         0.30000E+00
         0.30000E+00
         0.30000E+00
         0.30000E+00
         0.30000E+00
         0.30000E+00
         0.30000E+00
         0.30000E+00
         0.30000E+00
         0.30000E+00
         0.30000E+00
         0.30000E+00
         0.30000E+00
         0.30000E+00
         0.30000E+00
         0.30000E+00
         0.30000E+00
         0.30000E+00
         0.30000E+00
         0.30000E+00
         0.30000E+00
         0.30000E+00
         0.30000E+00
         0.30000E+00
         0.30000E+00
         0.30000E+00
         0.30000E+00
         0.30000E+00
         0.30000E+00
         0.30000E+00
         0.30000E+00
         0.30000E+00
         0.30000E+00
         0.30000E+00
         0.30000E+00
         0.30000E+00
         0.30000E+00
         0.30000E+00
         0.30000E+00
         0.30000E+00
         0.30000E+00
         0.30000E+00
         0.30000E+00
         0.30000E+00
         0.30000E+00
         0.30000E+00
         0.30000E+00
         0.30000E+00
         0.30000E+00
         0.30000E+00
         0.30000E+00
         0.30000E+00
         0.30000E+00
         0.30000E+00
         0.30000E+00
         0.30000E+00
         0.30000E+00
         0.30000E+00
         0.30000E+00
         0.30000E+00
         0.30000E+00
         0.30000E+00
         0.30000E+00
         0.30000E+00
         0.30000E+00
         0.30000E+00
         0.30000E+00
         0.30000E+00
         0.30000E+00
         0.30000E+00
         0.30000E+00
         0.30000E+00
         0.30000E+00
         0.30000E+00
         0.30000E+00
         0.30000E+00
         0.30000E+00
         0.30000E+00
         0.30000E+00
         0.30000E+00
         0.30000E+00
         0.30000E+00
         0.30000E+00
         0.30000E+00
         0.30000E+00
         0.30000E+00
         0.30000E+00
         0.30000E+00
         0.30000E+00
         0.30000E+00
         0.30000E+00
         0.30000E+00
         0.30000E+00
         0.30000E+00
         0.30000E+00
         0.30000E+00
         0.30000E+00
         0.30000E+00
         0.30000E+00
         0.30000E+00
         0.30000E+00
         0.30000E+00
         0.30000E+00
         0.30000E+00
         0.30000E+00
         0.30000E+00
         0.30000E+00
         0.30000E+00
         0.30000E+00
         0.30000E+00
         0.30000E+00
         0.30000E+00
         0.30000E+00
         0.30000E+00
         0.30000E+00
         0.30000E+00
         0.30000E+00
         0.30000E+00
         0.30000E+00
         0.30000E+00
         0.30000E+00
         0.30000E+00
         0.30000E+00
         0.30000E+00
         0.30000E+00
         0.30000E+00
         0.30000E+00
         0.30000E+00
         0.30000E+00
         0.30000E+00
         0.30000E+00
         0.30000E+00
         0.30000E+00
         0.30000E+00
         0.30000E+00
         0.30000E+00
         0.30000E+00
         0.30000E+00
         0.30000E+00
         0.30000E+00
         0.30000E+00
         0.30000E+00
         0.30000E+00
         0.30000E+00
         0.30000E+00
         0.30000E+00
         0.30000E+00
         0.30000E+00
         0.30000E+00
         0.30000E+00
         0.30000E+00
         0.30000E+00
         0.30000E+00
         0.30000E+00
         0.30000E+00
         0.30000E+00
         0.30000E+00
         0.30000E+00
         0.30000E+00
         0.30000E+00
         0.30000E+00
         0.30000E+00
         0.30000E+00
         0.30000E+00
         0.30000E+00
         0.30000E+00
         0.30000E+00
         0.30000E+00
         0.30000E+00
         0.30000E+00
         0.30000E+00
         0.30000E+00
         0.30000E+00
         0.30000E+00
         0.30000E+00
         0.30000E+00
         0.30000E+00
         0.30000E+00
         0.30000E+00
         0.30000E+00
         0.30000E+00
         0.30000E+00
         0.30000E+00
         0.30000E+00
         0.30000E+00
         0.30000E+00
         0.30000E+00
         0.30000E+00
         0.30000E+00
         0.30000E+00
         0.30000E+00
         0.30000E+00
         0.30000E+00
         0.30000E+00
         0.30000E+00
         0.30000E+00
         0.30000E+00
         0.30000E+00
         0.30000E+00
         0.30000E+00
         0.30000E+00
         0.30000E+00
         0.30000E+00
         0.30000E+00
         0.30000E+00
         0.30000E+00
         0.30000E+00
         0.30000E+00
         0.30000E+00
         0.30000E+00
         0.30000E+00
         0.30000E+00
         0.30000E+00
         0.30000E+00
         0.30000E+00
         0.30000E+00
         0.30000E+00
         0.30000E+00
         0.30000E+00
         0.30000E+00
         0.30000E+00
         0.30000E+00
         0.30000E+00
         0.30000E+00
         0.30000E+00
         0.30000E+00
         0.30000E+00
         0.30000E+00
         0.30000E+00
         0.30000E+00
         0.30000E+00
         0.30000E+00
         0.30000E+00
         0.30000E+00
         0.30000E+00
         0.30000E+00
         0.30000E+00
         0.30000E+00
         0.30000E+00
         0.30000E+00
         0.30000E+00
         0.30000E+00
         0.30000E+00
         0.30000E+00
         0.30000E+00
         0.30000E+00
         0.30000E+00
         0.30000E+00
         0.30000E+00
         0.30000E+00
         0.30000E+00
         0.30000E+00
         0.30000E+00
         0.30000E+00
         0.30000E+00
         0.30000E+00
         0.30000E+00
         0.30000E+00
         0.30000E+00
         0.30000E+00
         0.30000E+00
         0.30000E+00
         0.30000E+00
         0.30000E+00
         0.30000E+00
         0.30000E+00
         0.30000E+00
         0.30000E+00
         0.30000E+00
         0.30000E+00
         0.30000E+00
         0.30000E+00
         0.30000E+00
         0.30000E+00
         0.30000E+00
         0.30000E+00
         0.30000E+00
         0.30000E+00
         0.30000E+00
         0.30000E+00
         0.30000E+00
         0.30000E+00
         0.30000E+00
         0.30000E+00
         0.30000E+00
         0.30000E+00
         0.30000E+00
         0.30000E+00
         0.30000E+00
         0.30000E+00
         0.30000E+00
         0.30000E+00
         0.30000E+00
         0.30000E+00
         0.30000E+00
         0.30000E+00
         0.30000E+00
         0.30000E+00
         0.30000E+00
         0.30000E+00
         0.30000E+00
         0.30000E+00
         0.30000E+00
         0.30000E+00
         0.30000E+00
         0.30000E+00
         0.30000E+00
         0.30000E+00
         0.30000E+00
         0.30000E+00
         0.30000E+00
         0.30000E+00
         0.30000E+00
         0.30000E+00
         0.30000E+00
         0.30000E+00
         0.30000E+00
         0.30000E+00
         0.30000E+00
         0.30000E+00
         0.30000E+00
         0.30000E+00
         0.30000E+00
         0.30000E+00
         0.30000E+00
         0.30000E+00
         0.30000E+00
         0.30000E+00
         0.30000E+00
         0.30000E+00
         0.30000E+00
         0.30000E+00
         0.30000E+00
         0.30000E+00
         0.30000E+00
         0.30000E+00
         0.30000E+00
         0.30000E+00
         0.30000E+00
         0.30000E+00
         0.30000E+00
         0.30000E+00
         0.30000E+00
         0.30000E+00
         0.30000E+00
         0.30000E+00
         0.30000E+00
         0.30000E+00
         0.30000E+00
         0.30000E+00
         0.30000E+00
         0.30000E+00
         0.30000E+00
         0.30000E+00
         0.30000E+00
         0.30000E+00
         0.30000E+00
         0.30000E+00
         0.30000E+00
         0.30000E+00
         0.30000E+00
         0.30000E+00
         0.30000E+00
         0.30000E+00
         0.30000E+00
         0.30000E+00
         0.30000E+00
         0.30000E+00
         0.30000E+00
         0.30000E+00
         0.30000E+00
         0.30000E+00
         0.30000E+00
         0.30000E+00
         0.30000E+00
         0.30000E+00
         0.30000E+00
         0.30000E+00
         0.30000E+00
         0.30000E+00
         0.30000E+00
         0.30000E+00
         0.30000E+00
         0.30000E+00
         0.30000E+00
         0.30000E+00
         0.30000E+00
         0.30000E+00
         0.30000E+00
         0.30000E+00
         0.30000E+00
         0.30000E+00
         0.30000E+00
         0.30000E+00
         0.30000E+00
         0.30000E+00
         0.30000E+00
         0.30000E+00
         0.30000E+00
         0.30000E+00
         0.30000E+00
         0.30000E+00
         0.30000E+00
         0.30000E+00
         0.30000E+00
         0.30000E+00
         0.30000E+00
         0.30000E+00
         0.30000E+00
         0.30000E+00
         0.30000E+00
         0.30000E+00
         0.30000E+00
         0.30000E+00
         0.30000E+00
         0.30000E+00
         0.30000E+00
         0.30000E+00
         0.30000E+00
         0.30000E+00
         0.30000E+00
         0.30000E+00
         0.30000E+00
         0.30000E+00
         0.30000E+00
         0.30000E+00
         0.30000E+00
         0.30000E+00
         0.30000E+00
         0.30000E+00
         0.30000E+00
         0.30000E+00
         0.30000E+00
         0.30000E+00
         0.30000E+00
         0.30000E+00
         0.30000E+00
         0.30000E+00
         0.30000E+00
         0.30000E+00
         0.30000E+00
         0.30000E+00
         0.30000E+00
         0.30000E+00
         0.30000E+00
         0.30000E+00
         0.30000E+00
         0.30000E+00
         0.30000E+00
         0.30000E+00
         0.30000E+00
         0.30000E+00
         0.30000E+00
         0.30000E+00
         0.30000E+00
         0.30000E+00
         0.30000E+00
         0.30000E+00
         0.30000E+00
         0.30000E+00
         0.30000E+00
         0.30000E+00
         0.30000E+00
         0.30000E+00
         0.30000E+00
         0.30000E+00
         0.30000E+00
         0.30000E+00
         0.30000E+00
         0.30000E+00
         0.30000E+00
         0.30000E+00
         0.30000E+00
         0.30000E+00
         0.30000E+00
         0.30000E+00
         0.30000E+00
         0.30000E+00
         0.30000E+00
         0.30000E+00
         0.30000E+00
         0.30000E+00
         0.30000E+00
         0.30000E+00
         0.30000E+00
         0.30000E+00
         0.30000E+00
         0.30000E+00
         0.30000E+00
         0.30000E+00
         0.30000E+00
         0.30000E+00
         0.30000E+00
         0.30000E+00
         0.30000E+00
         0.30000E+00
         0.30000E+00
         0.30000E+00
         0.30000E+00
         0.30000E+00
         0.30000E+00
         0.30000E+00
         0.30000E+00
         0.30000E+00
         0.30000E+00
         0.30000E+00
         0.30000E+00
         0.30000E+00
         0.30000E+00
         0.30000E+00
         0.30000E+00
         0.30000E+00
         0.30000E+00
         0.30000E+00
         0.30000E+00
         0.30000E+00
         0.30000E+00
         0.30000E+00
         0.30000E+00
         0.30000E+00
         0.30000E+00
         0.30000E+00
         0.30000E+00
         0.30000E+00
         0.30000E+00
         0.30000E+00
         0.30000E+00
         0.30000E+00
         0.30000E+00
         0.30000E+00
         0.30000E+00
         0.30000E+00
         0.30000E+00
         0.30000E+00
         0.30000E+00
         0.30000E+00
         0.30000E+00
         0.30000E+00
         0.30000E+00
         0.30000E+00
         0.30000E+00
         0.30000E+00
         0.30000E+00
         0.30000E+00
         0.30000E+00
         0.30000E+00
         0.30000E+00
         0.30000E+00
         0.30000E+00
         0.30000E+00
         0.30000E+00
         0.30000E+00
         0.30000E+00
         0.30000E+00
         0.30000E+00
         0.30000E+00
         0.30000E+00
         0.30000E+00
         0.30000E+00
         0.30000E+00
         0.30000E+00
         0.30000E+00
         0.30000E+00
         0.30000E+00
         0.30000E+00
         0.30000E+00
         0.30000E+00
         0.30000E+00
         0.30000E+00
         0.30000E+00
         0.30000E+00
         0.30000E+00
         0.30000E+00
         0.30000E+00
         0.30000E+00
         0.30000E+00
         0.30000E+00
         0.30000E+00
         0.30000E+00
         0.30000E+00
         0.30000E+00
         0.30000E+00
         0.30000E+00
         0.30000E+00
         0.30000E+00
         0.30000E+00
         0.30000E+00
         0.30000E+00
         0.30000E+00
         0.30000E+00
         0.30000E+00
         0.30000E+00
         0.30000E+00
         0.30000E+00
         0.30000E+00
         0.30000E+00
         0.30000E+00
         0.30000E+00
         0.30000E+00
         0.30000E+00
         0.30000E+00
         0.30000E+00
         0.30000E+00
         0.30000E+00
         0.30000E+00
         0.30000E+00
         0.30000E+00
         0.30000E+00
         0.30000E+00
         0.30000E+00
         0.30000E+00
         0.30000E+00
         0.30000E+00
         0.30000E+00
         0.30000E+00
         0.30000E+00
         0.30000E+00
         0.30000E+00
         0.30000E+00
         0.30000E+00
         0.30000E+00
         0.30000E+00
         0.30000E+00
         0.30000E+00
         0.30000E+00
         0.30000E+00
         0.30000E+00
         0.30000E+00
         0.30000E+00
         0.30000E+00
         0.30000E+00
         0.30000E+00
         0.30000E+00
         0.30000E+00
         0.30000E+00
         0.30000E+00
         0.30000E+00
         0.30000E+00
         0.30000E+00
         0.30000E+00
         0.30000E+00
         0.30000E+00
         0.30000E+00
         0.30000E+00
         0.30000E+00
         0.30000E+00
         0.30000E+00
         0.30000E+00
         0.30000E+00
         0.30000E+00
         0.30000E+00
         0.30000E+00
         0.30000E+00
         0.30000E+00
         0.30000E+00
         0.30000E+00
         0.30000E+00
         0.30000E+00
         0.30000E+00
         0.30000E+00
         0.30000E+00
         0.30000E+00
         0.30000E+00
         0.30000E+00
         0.30000E+00
         0.30000E+00
         0.30000E+00
         0.30000E+00
         0.30000E+00
         0.30000E+00
         0.30000E+00
         0.30000E+00
         0.30000E+00
         0.30000E+00
         0.30000E+00
         0.30000E+00
         0.30000E+00
         0.30000E+00
         0.30000E+00
         0.30000E+00
         0.30000E+00
         0.30000E+00
         0.30000E+00
         0.30000E+00
         0.30000E+00
         0.30000E+00
         0.30000E+00
         0.30000E+00
         0.30000E+00
         0.30000E+00
         0.30000E+00
         0.30000E+00
         0.30000E+00
         0.30000E+00
         0.30000E+00
         0.30000E+00
         0.30000E+00
         0.30000E+00
         0.30000E+00
         0.30000E+00
         0.30000E+00
         0.30000E+00
         0.30000E+00
         0.30000E+00
         0.30000E+00
         0.30000E+00
         0.30000E+00
         0.30000E+00
         0.30000E+00
         0.30000E+00
         0.30000E+00
         0.30000E+00
         0.30000E+00
         0.30000E+00
         0.30000E+00
         0.30000E+00
         0.30000E+00
         0.30000E+00
         0.30000E+00
         0.30000E+00
         0.30000E+00
         0.30000E+00
         0.30000E+00
         0.30000E+00
         0.30000E+00
         0.30000E+00
         0.30000E+00
         0.30000E+00
         0.30000E+00
         0.30000E+00
         0.30000E+00
         0.30000E+00
         0.30000E+00
         0.30000E+00
         0.30000E+00
         0.30000E+00
         0.30000E+00
         0.30000E+00
         0.30000E+00
         0.30000E+00
         0.30000E+00
         0.30000E+00
         0.30000E+00
         0.30000E+00
         0.30000E+00
         0.30000E+00
         0.30000E+00
         0.30000E+00
         0.30000E+00
         0.30000E+00
         0.30000E+00
         0.30000E+00
         0.30000E+00
         0.30000E+00
         0.30000E+00
         0.30000E+00
         0.30000E+00
         0.30000E+00
         0.30000E+00
         0.30000E+00
         0.30000E+00
         0.30000E+00
         0.30000E+00
         0.30000E+00
         0.30000E+00
         0.30000E+00
         0.30000E+00
         0.30000E+00
         0.30000E+00
         0.30000E+00
         0.30000E+00
         0.30000E+00
         0.30000E+00
         0.30000E+00
         0.30000E+00
         0.30000E+00
         0.30000E+00
         0.30000E+00
         0.30000E+00
         0.30000E+00
         0.30000E+00
         0.30000E+00
         0.30000E+00
         0.30000E+00
         0.30000E+00
         0.30000E+00
         0.30000E+00
         0.30000E+00
         0.30000E+00
         0.30000E+00
         0.30000E+00
         0.30000E+00
         0.30000E+00
         0.30000E+00
         0.30000E+00
         0.30000E+00
         0.30000E+00
         0.30000E+00
         0.30000E+00
         0.30000E+00
         0.30000E+00
         0.30000E+00
         0.30000E+00
         0.30000E+00
         0.30000E+00
         0.30000E+00
         0.30000E+00
         0.30000E+00
         0.30000E+00
         0.30000E+00
         0.30000E+00
         0.30000E+00
         0.30000E+00
         0.30000E+00
         0.30000E+00
         0.30000E+00
         0.30000E+00
         0.30000E+00
         0.30000E+00
         0.30000E+00
         0.30000E+00
         0.30000E+00
         0.30000E+00
         0.30000E+00
         0.30000E+00
         0.30000E+00
         0.30000E+00
         0.30000E+00
         0.30000E+00
         0.30000E+00
         0.30000E+00
         0.30000E+00
         0.30000E+00
         0.30000E+00
         0.30000E+00
         0.30000E+00
         0.30000E+00
         0.30000E+00
         0.30000E+00
         0.30000E+00
         0.30000E+00
         0.30000E+00
         0.30000E+00
         0.30000E+00
         0.30000E+00
         0.30000E+00
         0.30000E+00
         0.30000E+00
         0.30000E+00
         0.30000E+00
         0.30000E+00
         0.30000E+00
         0.30000E+00
         0.30000E+00
         0.30000E+00
         0.30000E+00
         0.30000E+00
         0.30000E+00
         0.30000E+00
         0.30000E+00
         0.30000E+00
         0.30000E+00
         0.30000E+00
         0.30000E+00
         0.30000E+00
         0.30000E+00
         0.30000E+00
         0.30000E+00
         0.30000E+00
         0.30000E+00
         0.30000E+00
         0.30000E+00
         0.30000E+00
         0.30000E+00
         0.30000E+00
         0.30000E+00
         0.30000E+00
         0.30000E+00
         0.30000E+00
         0.30000E+00
         0.30000E+00
         0.30000E+00
         0.30000E+00
         0.30000E+00
         0.30000E+00
         0.30000E+00
         0.30000E+00
         0.30000E+00
         0.30000E+00
         0.30000E+00
         0.30000E+00
         0.30000E+00
         0.30000E+00
         0.30000E+00
         0.30000E+00
         0.30000E+00
         0.30000E+00
         0.30000E+00
         0.30000E+00
         0.30000E+00
         0.30000E+00
         0.30000E+00
         0.30000E+00
         0.30000E+00
         0.30000E+00
         0.30000E+00
         0.30000E+00
         0.30000E+00
         0.30000E+00
         0.30000E+00
         0.30000E+00
         0.30000E+00
         0.30000E+00
         0.30000E+00
         0.30000E+00
         0.30000E+00
         0.30000E+00
         0.30000E+00
         0.30000E+00
         0.30000E+00
         0.30000E+00
         0.30000E+00
         0.30000E+00
         0.30000E+00
         0.30000E+00
         0.30000E+00
         0.30000E+00
         0.30000E+00
         0.30000E+00
         0.30000E+00
         0.30000E+00
         0.30000E+00
         0.30000E+00
         0.30000E+00
         0.30000E+00
         0.30000E+00
         0.30000E+00
         0.30000E+00
         0.30000E+00
         0.30000E+00
         0.30000E+00
         0.30000E+00
         0.30000E+00
         0.30000E+00
         0.30000E+00
         0.30000E+00
         0.30000E+00
         0.30000E+00
         0.30000E+00
         0.30000E+00
         0.30000E+00
         0.30000E+00
         0.30000E+00
         0.30000E+00
         0.30000E+00
         0.30000E+00
         0.30000E+00
         0.30000E+00
         0.30000E+00
         0.30000E+00
         0.30000E+00
         0.30000E+00
         0.30000E+00
         0.30000E+00
         0.30000E+00
         0.30000E+00
         0.30000E+00
         0.30000E+00
         0.30000E+00
         0.30000E+00
         0.30000E+00
         0.30000E+00
         0.30000E+00
         0.30000E+00
         0.30000E+00
         0.30000E+00
         0.30000E+00
         0.30000E+00
         0.30000E+00
         0.30000E+00
         0.30000E+00
         0.30000E+00
         0.30000E+00
         0.30000E+00
         0.30000E+00
         0.30000E+00
         0.30000E+00
         0.30000E+00
         0.30000E+00
         0.30000E+00
         0.30000E+00
         0.30000E+00
         0.30000E+00
         0.30000E+00
         0.30000E+00
         0.30000E+00
         0.30000E+00
         0.30000E+00
         0.30000E+00
  
SCALARS                 Youngs_modulus  double 1
LOOKUP_TABLE default
         0.78200E+11
         0.78200E+11
         0.78200E+11
         0.78200E+11
         0.78200E+11
         0.78200E+11
         0.78200E+11
         0.78200E+11
         0.78200E+11
         0.78200E+11
         0.78200E+11
         0.78200E+11
         0.78200E+11
         0.78200E+11
         0.78200E+11
         0.78200E+11
         0.78200E+11
         0.78200E+11
         0.78200E+11
         0.78200E+11
         0.78200E+11
         0.78200E+11
         0.78200E+11
         0.78200E+11
         0.78200E+11
         0.78200E+11
         0.78200E+11
         0.78200E+11
         0.78200E+11
         0.78200E+11
         0.78200E+11
         0.78200E+11
         0.78200E+11
         0.78200E+11
         0.78200E+11
         0.78200E+11
         0.78200E+11
         0.78200E+11
         0.78200E+11
         0.78200E+11
         0.78200E+11
         0.78200E+11
         0.78200E+11
         0.78200E+11
         0.78200E+11
         0.78200E+11
         0.78200E+11
         0.78200E+11
         0.78200E+11
         0.78200E+11
         0.78200E+11
         0.78200E+11
         0.78200E+11
         0.78200E+11
         0.78200E+11
         0.78200E+11
         0.78200E+11
         0.78200E+11
         0.78200E+11
         0.78200E+11
         0.78200E+11
         0.78200E+11
         0.78200E+11
         0.78200E+11
         0.78200E+11
         0.78200E+11
         0.78200E+11
         0.78200E+11
         0.78200E+11
         0.78200E+11
         0.78200E+11
         0.78200E+11
         0.78200E+11
         0.78200E+11
         0.78200E+11
         0.78200E+11
         0.78200E+11
         0.78200E+11
         0.78200E+11
         0.78200E+11
         0.78200E+11
         0.78200E+11
         0.78200E+11
         0.78200E+11
         0.78200E+11
         0.78200E+11
         0.78200E+11
         0.78200E+11
         0.78200E+11
         0.78200E+11
         0.78200E+11
         0.78200E+11
         0.78200E+11
         0.78200E+11
         0.78200E+11
         0.78200E+11
         0.78200E+11
         0.78200E+11
         0.78200E+11
         0.78200E+11
         0.78200E+11
         0.78200E+11
         0.78200E+11
         0.78200E+11
         0.78200E+11
         0.78200E+11
         0.78200E+11
         0.78200E+11
         0.78200E+11
         0.78200E+11
         0.78200E+11
         0.78200E+11
         0.78200E+11
         0.78200E+11
         0.78200E+11
         0.78200E+11
         0.78200E+11
         0.78200E+11
         0.78200E+11
         0.78200E+11
         0.78200E+11
         0.78200E+11
         0.78200E+11
         0.78200E+11
         0.78200E+11
         0.78200E+11
         0.78200E+11
         0.78200E+11
         0.78200E+11
         0.78200E+11
         0.78200E+11
         0.78200E+11
         0.78200E+11
         0.78200E+11
         0.78200E+11
         0.78200E+11
         0.78200E+11
         0.78200E+11
         0.78200E+11
         0.78200E+11
         0.78200E+11
         0.78200E+11
         0.78200E+11
         0.78200E+11
         0.78200E+11
         0.78200E+11
         0.78200E+11
         0.78200E+11
         0.78200E+11
         0.78200E+11
         0.78200E+11
         0.78200E+11
         0.78200E+11
         0.78200E+11
         0.78200E+11
         0.78200E+11
         0.78200E+11
         0.78200E+11
         0.78200E+11
         0.78200E+11
         0.78200E+11
         0.78200E+11
         0.78200E+11
         0.78200E+11
         0.78200E+11
         0.78200E+11
         0.78200E+11
         0.78200E+11
         0.78200E+11
         0.78200E+11
         0.78200E+11
         0.78200E+11
         0.78200E+11
         0.78200E+11
         0.78200E+11
         0.78200E+11
         0.78200E+11
         0.78200E+11
         0.78200E+11
         0.78200E+11
         0.78200E+11
         0.78200E+11
         0.78200E+11
         0.78200E+11
         0.78200E+11
         0.78200E+11
         0.78200E+11
         0.78200E+11
         0.78200E+11
         0.78200E+11
         0.78200E+11
         0.78200E+11
         0.78200E+11
         0.78200E+11
         0.78200E+11
         0.78200E+11
         0.78200E+11
         0.78200E+11
         0.78200E+11
         0.78200E+11
         0.78200E+11
         0.78200E+11
         0.78200E+11
         0.78200E+11
         0.78200E+11
         0.78200E+11
         0.78200E+11
         0.78200E+11
         0.78200E+11
         0.78200E+11
         0.78200E+11
         0.78200E+11
         0.78200E+11
         0.78200E+11
         0.78200E+11
         0.78200E+11
         0.78200E+11
         0.78200E+11
         0.78200E+11
         0.78200E+11
         0.78200E+11
         0.78200E+11
         0.78200E+11
         0.78200E+11
         0.78200E+11
         0.78200E+11
         0.78200E+11
         0.78200E+11
         0.78200E+11
         0.78200E+11
         0.78200E+11
         0.78200E+11
         0.78200E+11
         0.78200E+11
         0.78200E+11
         0.78200E+11
         0.78200E+11
         0.78200E+11
         0.78200E+11
         0.78200E+11
         0.78200E+11
         0.78200E+11
         0.78200E+11
         0.78200E+11
         0.78200E+11
         0.78200E+11
         0.78200E+11
         0.78200E+11
         0.78200E+11
         0.78200E+11
         0.78200E+11
         0.78200E+11
         0.78200E+11
         0.78200E+11
         0.78200E+11
         0.78200E+11
         0.78200E+11
         0.78200E+11
         0.78200E+11
         0.78200E+11
         0.78200E+11
         0.78200E+11
         0.78200E+11
         0.78200E+11
         0.78200E+11
         0.78200E+11
         0.78200E+11
         0.78200E+11
         0.78200E+11
         0.78200E+11
         0.78200E+11
         0.78200E+11
         0.78200E+11
         0.78200E+11
         0.78200E+11
         0.78200E+11
         0.78200E+11
         0.78200E+11
         0.78200E+11
         0.78200E+11
         0.78200E+11
         0.78200E+11
         0.78200E+11
         0.78200E+11
         0.78200E+11
         0.78200E+11
         0.78200E+11
         0.78200E+11
         0.78200E+11
         0.78200E+11
         0.78200E+11
         0.78200E+11
         0.78200E+11
         0.78200E+11
         0.78200E+11
         0.78200E+11
         0.78200E+11
         0.78200E+11
         0.78200E+11
         0.78200E+11
         0.78200E+11
         0.78200E+11
         0.78200E+11
         0.78200E+11
         0.78200E+11
         0.78200E+11
         0.78200E+11
         0.78200E+11
         0.78200E+11
         0.78200E+11
         0.78200E+11
         0.78200E+11
         0.78200E+11
         0.78200E+11
         0.78200E+11
         0.78200E+11
         0.78200E+11
         0.78200E+11
         0.78200E+11
         0.78200E+11
         0.78200E+11
         0.78200E+11
         0.78200E+11
         0.78200E+11
         0.78200E+11
         0.78200E+11
         0.78200E+11
         0.78200E+11
         0.78200E+11
         0.78200E+11
         0.78200E+11
         0.78200E+11
         0.78200E+11
         0.78200E+11
         0.78200E+11
         0.78200E+11
         0.78200E+11
         0.78200E+11
         0.78200E+11
         0.78200E+11
         0.78200E+11
         0.78200E+11
         0.78200E+11
         0.78200E+11
         0.78200E+11
         0.78200E+11
         0.78200E+11
         0.78200E+11
         0.78200E+11
         0.78200E+11
         0.78200E+11
         0.78200E+11
         0.78200E+11
         0.78200E+11
         0.78200E+11
         0.78200E+11
         0.78200E+11
         0.78200E+11
         0.78200E+11
         0.78200E+11
         0.78200E+11
         0.78200E+11
         0.78200E+11
         0.78200E+11
         0.78200E+11
         0.78200E+11
         0.78200E+11
         0.78200E+11
         0.78200E+11
         0.78200E+11
         0.78200E+11
         0.78200E+11
         0.78200E+11
         0.78200E+11
         0.78200E+11
         0.78200E+11
         0.78200E+11
         0.78200E+11
         0.78200E+11
         0.78200E+11
         0.78200E+11
         0.78200E+11
         0.78200E+11
         0.78200E+11
         0.78200E+11
         0.78200E+11
         0.78200E+11
         0.78200E+11
         0.78200E+11
         0.78200E+11
         0.78200E+11
         0.78200E+11
         0.78200E+11
         0.78200E+11
         0.78200E+11
         0.78200E+11
         0.78200E+11
         0.78200E+11
         0.78200E+11
         0.78200E+11
         0.78200E+11
         0.78200E+11
         0.78200E+11
         0.78200E+11
         0.78200E+11
         0.78200E+11
         0.78200E+11
         0.78200E+11
         0.78200E+11
         0.78200E+11
         0.78200E+11
         0.78200E+11
         0.78200E+11
         0.78200E+11
         0.78200E+11
         0.78200E+11
         0.78200E+11
         0.78200E+11
         0.78200E+11
         0.78200E+11
         0.78200E+11
         0.78200E+11
         0.78200E+11
         0.78200E+11
         0.78200E+11
         0.78200E+11
         0.78200E+11
         0.78200E+11
         0.78200E+11
         0.78200E+11
         0.78200E+11
         0.78200E+11
         0.78200E+11
         0.78200E+11
         0.78200E+11
         0.78200E+11
         0.78200E+11
         0.78200E+11
         0.78200E+11
         0.78200E+11
         0.78200E+11
         0.78200E+11
         0.78200E+11
         0.78200E+11
         0.78200E+11
         0.78200E+11
         0.78200E+11
         0.78200E+11
         0.78200E+11
         0.78200E+11
         0.78200E+11
         0.78200E+11
         0.78200E+11
         0.78200E+11
         0.78200E+11
         0.78200E+11
         0.78200E+11
         0.78200E+11
         0.78200E+11
         0.78200E+11
         0.78200E+11
         0.78200E+11
         0.78200E+11
         0.78200E+11
         0.78200E+11
         0.78200E+11
         0.78200E+11
         0.78200E+11
         0.78200E+11
         0.78200E+11
         0.78200E+11
         0.78200E+11
         0.78200E+11
         0.78200E+11
         0.78200E+11
         0.78200E+11
         0.78200E+11
         0.78200E+11
         0.78200E+11
         0.78200E+11
         0.78200E+11
         0.78200E+11
         0.78200E+11
         0.78200E+11
         0.78200E+11
         0.78200E+11
         0.78200E+11
         0.78200E+11
         0.78200E+11
         0.78200E+11
         0.78200E+11
         0.78200E+11
         0.78200E+11
         0.78200E+11
         0.78200E+11
         0.78200E+11
         0.78200E+11
         0.78200E+11
         0.78200E+11
         0.78200E+11
         0.78200E+11
         0.78200E+11
         0.78200E+11
         0.78200E+11
         0.78200E+11
         0.78200E+11
         0.78200E+11
         0.78200E+11
         0.78200E+11
         0.78200E+11
         0.78200E+11
         0.78200E+11
         0.78200E+11
         0.78200E+11
         0.78200E+11
         0.78200E+11
         0.78200E+11
         0.78200E+11
         0.78200E+11
         0.78200E+11
         0.78200E+11
         0.78200E+11
         0.78200E+11
         0.78200E+11
         0.78200E+11
         0.78200E+11
         0.78200E+11
         0.78200E+11
         0.78200E+11
         0.78200E+11
         0.78200E+11
         0.78200E+11
         0.78200E+11
         0.78200E+11
         0.78200E+11
         0.78200E+11
         0.78200E+11
         0.78200E+11
         0.78200E+11
         0.78200E+11
         0.78200E+11
         0.78200E+11
         0.78200E+11
         0.78200E+11
         0.78200E+11
         0.78200E+11
         0.78200E+11
         0.78200E+11
         0.78200E+11
         0.78200E+11
         0.78200E+11
         0.78200E+11
         0.78200E+11
         0.78200E+11
         0.78200E+11
         0.78200E+11
         0.78200E+11
         0.78200E+11
         0.78200E+11
         0.78200E+11
         0.78200E+11
         0.78200E+11
         0.78200E+11
         0.78200E+11
         0.78200E+11
         0.78200E+11
         0.78200E+11
         0.78200E+11
         0.78200E+11
         0.78200E+11
         0.78200E+11
         0.78200E+11
         0.78200E+11
         0.78200E+11
         0.78200E+11
         0.78200E+11
         0.78200E+11
         0.78200E+11
         0.78200E+11
         0.78200E+11
         0.78200E+11
         0.78200E+11
         0.78200E+11
         0.78200E+11
         0.78200E+11
         0.78200E+11
         0.78200E+11
         0.78200E+11
         0.78200E+11
         0.78200E+11
         0.78200E+11
         0.78200E+11
         0.78200E+11
         0.78200E+11
         0.78200E+11
         0.78200E+11
         0.78200E+11
         0.78200E+11
         0.78200E+11
         0.78200E+11
         0.78200E+11
         0.78200E+11
         0.78200E+11
         0.78200E+11
         0.78200E+11
         0.78200E+11
         0.78200E+11
         0.78200E+11
         0.78200E+11
         0.78200E+11
         0.78200E+11
         0.78200E+11
         0.78200E+11
         0.78200E+11
         0.78200E+11
         0.78200E+11
         0.78200E+11
         0.78200E+11
         0.78200E+11
         0.78200E+11
         0.78200E+11
         0.78200E+11
         0.78200E+11
         0.78200E+11
         0.78200E+11
         0.78200E+11
         0.78200E+11
         0.78200E+11
         0.78200E+11
         0.78200E+11
         0.78200E+11
         0.78200E+11
         0.78200E+11
         0.78200E+11
         0.78200E+11
         0.78200E+11
         0.78200E+11
         0.78200E+11
         0.78200E+11
         0.78200E+11
         0.78200E+11
         0.78200E+11
         0.78200E+11
         0.78200E+11
         0.78200E+11
         0.78200E+11
         0.78200E+11
         0.78200E+11
         0.78200E+11
         0.78200E+11
         0.78200E+11
         0.78200E+11
         0.78200E+11
         0.78200E+11
         0.78200E+11
         0.78200E+11
         0.78200E+11
         0.78200E+11
         0.78200E+11
         0.78200E+11
         0.78200E+11
         0.78200E+11
         0.78200E+11
         0.78200E+11
         0.78200E+11
         0.78200E+11
         0.78200E+11
         0.78200E+11
         0.78200E+11
         0.78200E+11
         0.78200E+11
         0.78200E+11
         0.78200E+11
         0.78200E+11
         0.78200E+11
         0.78200E+11
         0.78200E+11
         0.78200E+11
         0.78200E+11
         0.78200E+11
         0.78200E+11
         0.78200E+11
         0.78200E+11
         0.78200E+11
         0.78200E+11
         0.78200E+11
         0.78200E+11
         0.78200E+11
         0.78200E+11
         0.78200E+11
         0.78200E+11
         0.78200E+11
         0.78200E+11
         0.78200E+11
         0.78200E+11
         0.78200E+11
         0.78200E+11
         0.78200E+11
         0.78200E+11
         0.78200E+11
         0.78200E+11
         0.78200E+11
         0.78200E+11
         0.78200E+11
         0.78200E+11
         0.78200E+11
         0.78200E+11
         0.78200E+11
         0.78200E+11
         0.78200E+11
         0.78200E+11
         0.78200E+11
         0.78200E+11
         0.78200E+11
         0.78200E+11
         0.78200E+11
         0.78200E+11
         0.78200E+11
         0.78200E+11
         0.78200E+11
         0.78200E+11
         0.78200E+11
         0.78200E+11
         0.78200E+11
         0.78200E+11
         0.78200E+11
         0.78200E+11
         0.78200E+11
         0.78200E+11
         0.78200E+11
         0.78200E+11
         0.78200E+11
         0.78200E+11
         0.78200E+11
         0.78200E+11
         0.78200E+11
         0.78200E+11
         0.78200E+11
         0.78200E+11
         0.78200E+11
         0.78200E+11
         0.78200E+11
         0.78200E+11
         0.78200E+11
         0.78200E+11
         0.78200E+11
         0.78200E+11
         0.78200E+11
         0.78200E+11
         0.78200E+11
         0.78200E+11
         0.78200E+11
         0.78200E+11
         0.78200E+11
         0.78200E+11
         0.78200E+11
         0.78200E+11
         0.78200E+11
         0.78200E+11
         0.78200E+11
         0.78200E+11
         0.78200E+11
         0.78200E+11
         0.78200E+11
         0.78200E+11
         0.78200E+11
         0.78200E+11
         0.78200E+11
         0.78200E+11
         0.78200E+11
         0.78200E+11
         0.78200E+11
         0.78200E+11
         0.78200E+11
         0.78200E+11
         0.78200E+11
         0.78200E+11
         0.78200E+11
         0.78200E+11
         0.78200E+11
         0.78200E+11
         0.78200E+11
         0.78200E+11
         0.78200E+11
         0.78200E+11
         0.78200E+11
         0.78200E+11
         0.78200E+11
         0.78200E+11
         0.78200E+11
         0.78200E+11
         0.78200E+11
         0.78200E+11
         0.78200E+11
         0.78200E+11
         0.78200E+11
         0.78200E+11
         0.78200E+11
         0.78200E+11
         0.78200E+11
         0.78200E+11
         0.78200E+11
         0.78200E+11
         0.78200E+11
         0.78200E+11
         0.78200E+11
         0.78200E+11
         0.78200E+11
         0.78200E+11
         0.78200E+11
         0.78200E+11
         0.78200E+11
         0.78200E+11
         0.78200E+11
         0.78200E+11
         0.78200E+11
         0.78200E+11
         0.78200E+11
         0.78200E+11
         0.78200E+11
         0.78200E+11
         0.78200E+11
         0.78200E+11
         0.78200E+11
         0.78200E+11
         0.78200E+11
         0.78200E+11
         0.78200E+11
         0.78200E+11
         0.78200E+11
         0.78200E+11
         0.78200E+11
         0.78200E+11
         0.78200E+11
         0.78200E+11
         0.78200E+11
         0.78200E+11
         0.78200E+11
         0.78200E+11
         0.78200E+11
         0.78200E+11
         0.78200E+11
         0.78200E+11
         0.78200E+11
         0.78200E+11
         0.78200E+11
         0.78200E+11
         0.78200E+11
         0.78200E+11
         0.78200E+11
         0.78200E+11
         0.78200E+11
         0.78200E+11
         0.78200E+11
         0.78200E+11
         0.78200E+11
         0.78200E+11
         0.78200E+11
         0.78200E+11
         0.78200E+11
         0.78200E+11
         0.78200E+11
         0.78200E+11
         0.78200E+11
         0.78200E+11
         0.78200E+11
         0.78200E+11
         0.78200E+11
         0.78200E+11
         0.78200E+11
         0.78200E+11
         0.78200E+11
         0.78200E+11
         0.78200E+11
         0.78200E+11
         0.78200E+11
         0.78200E+11
         0.78200E+11
         0.78200E+11
         0.78200E+11
         0.78200E+11
         0.78200E+11
         0.78200E+11
         0.78200E+11
         0.78200E+11
         0.78200E+11
         0.78200E+11
         0.78200E+11
         0.78200E+11
         0.78200E+11
         0.78200E+11
         0.78200E+11
         0.78200E+11
         0.78200E+11
         0.78200E+11
         0.78200E+11
         0.78200E+11
         0.78200E+11
         0.78200E+11
         0.78200E+11
         0.78200E+11
         0.78200E+11
         0.78200E+11
         0.78200E+11
         0.78200E+11
         0.78200E+11
         0.78200E+11
         0.78200E+11
         0.78200E+11
         0.78200E+11
         0.78200E+11
         0.78200E+11
         0.78200E+11
         0.78200E+11
         0.78200E+11
         0.78200E+11
         0.78200E+11
         0.78200E+11
         0.78200E+11
         0.78200E+11
         0.78200E+11
         0.78200E+11
         0.78200E+11
         0.78200E+11
         0.78200E+11
         0.78200E+11
         0.78200E+11
         0.78200E+11
         0.78200E+11
         0.78200E+11
         0.78200E+11
         0.78200E+11
         0.78200E+11
         0.78200E+11
         0.78200E+11
         0.78200E+11
         0.78200E+11
         0.78200E+11
         0.78200E+11
         0.78200E+11
         0.78200E+11
         0.78200E+11
         0.78200E+11
         0.78200E+11
         0.78200E+11
         0.78200E+11
         0.78200E+11
         0.78200E+11
         0.78200E+11
         0.78200E+11
         0.78200E+11
         0.78200E+11
         0.78200E+11
         0.78200E+11
         0.78200E+11
         0.78200E+11
         0.78200E+11
         0.78200E+11
         0.78200E+11
         0.78200E+11
         0.78200E+11
         0.78200E+11
         0.78200E+11
         0.78200E+11
         0.78200E+11
         0.78200E+11
         0.78200E+11
         0.78200E+11
         0.78200E+11
         0.78200E+11
         0.78200E+11
         0.78200E+11
         0.78200E+11
         0.78200E+11
         0.78200E+11
         0.78200E+11
         0.78200E+11
         0.78200E+11
         0.78200E+11
         0.78200E+11
         0.78200E+11
         0.78200E+11
         0.78200E+11
         0.78200E+11
         0.78200E+11
         0.78200E+11
         0.78200E+11
         0.78200E+11
         0.78200E+11
         0.78200E+11
         0.78200E+11
         0.78200E+11
         0.78200E+11
         0.78200E+11
         0.78200E+11
         0.78200E+11
         0.78200E+11
         0.78200E+11
         0.78200E+11
         0.78200E+11
         0.78200E+11
         0.78200E+11
         0.78200E+11
         0.78200E+11
         0.78200E+11
         0.78200E+11
         0.78200E+11
         0.78200E+11
         0.78200E+11
         0.78200E+11
         0.78200E+11
         0.78200E+11
         0.78200E+11
         0.78200E+11
         0.78200E+11
         0.78200E+11
         0.78200E+11
         0.78200E+11
         0.78200E+11
         0.78200E+11
         0.78200E+11
         0.78200E+11
         0.78200E+11
         0.78200E+11
         0.78200E+11
         0.78200E+11
         0.78200E+11
         0.78200E+11
         0.78200E+11
         0.78200E+11
         0.78200E+11
         0.78200E+11
         0.78200E+11
         0.78200E+11
         0.78200E+11
         0.78200E+11
         0.78200E+11
         0.78200E+11
         0.78200E+11
         0.78200E+11
         0.78200E+11
         0.78200E+11
         0.78200E+11
         0.78200E+11
         0.78200E+11
         0.78200E+11
         0.78200E+11
         0.78200E+11
         0.78200E+11
         0.78200E+11
         0.78200E+11
         0.78200E+11
         0.78200E+11
         0.78200E+11
         0.78200E+11
         0.78200E+11
         0.78200E+11
         0.78200E+11
         0.78200E+11
         0.78200E+11
         0.78200E+11
         0.78200E+11
         0.78200E+11
         0.78200E+11
         0.78200E+11
         0.78200E+11
         0.78200E+11
         0.78200E+11
         0.78200E+11
         0.78200E+11
         0.78200E+11
         0.78200E+11
         0.78200E+11
         0.78200E+11
         0.78200E+11
         0.78200E+11
         0.78200E+11
         0.78200E+11
         0.78200E+11
         0.78200E+11
         0.78200E+11
         0.78200E+11
         0.78200E+11
         0.78200E+11
         0.78200E+11
         0.78200E+11
         0.78200E+11
         0.78200E+11
         0.78200E+11
         0.78200E+11
         0.78200E+11
         0.78200E+11
         0.78200E+11
         0.78200E+11
         0.78200E+11
         0.78200E+11
         0.78200E+11
         0.78200E+11
         0.78200E+11
         0.78200E+11
         0.78200E+11
         0.78200E+11
         0.78200E+11
         0.78200E+11
         0.78200E+11
         0.78200E+11
         0.78200E+11
         0.78200E+11
         0.78200E+11
         0.78200E+11
         0.78200E+11
         0.78200E+11
         0.78200E+11
         0.78200E+11
         0.78200E+11
         0.78200E+11
         0.78200E+11
         0.78200E+11
         0.78200E+11
         0.78200E+11
         0.78200E+11
         0.78200E+11
         0.78200E+11
         0.78200E+11
         0.78200E+11
         0.78200E+11
         0.78200E+11
         0.78200E+11
         0.78200E+11
         0.78200E+11
         0.78200E+11
         0.78200E+11
         0.78200E+11
         0.78200E+11
         0.78200E+11
         0.78200E+11
         0.78200E+11
         0.78200E+11
         0.78200E+11
         0.78200E+11
         0.78200E+11
         0.78200E+11
         0.78200E+11
         0.78200E+11
         0.78200E+11
         0.78200E+11
         0.78200E+11
         0.78200E+11
         0.78200E+11
         0.78200E+11
         0.78200E+11
         0.78200E+11
         0.78200E+11
         0.78200E+11
         0.78200E+11
         0.78200E+11
         0.78200E+11
         0.78200E+11
         0.78200E+11
         0.78200E+11
         0.78200E+11
         0.78200E+11
         0.78200E+11
         0.78200E+11
         0.78200E+11
         0.78200E+11
         0.78200E+11
         0.78200E+11
         0.78200E+11
         0.78200E+11
         0.78200E+11
         0.78200E+11
         0.78200E+11
         0.78200E+11
         0.78200E+11
         0.78200E+11
         0.78200E+11
         0.78200E+11
         0.78200E+11
         0.78200E+11
         0.78200E+11
         0.78200E+11
         0.78200E+11
         0.78200E+11
         0.78200E+11
         0.78200E+11
         0.78200E+11
         0.78200E+11
         0.78200E+11
         0.78200E+11
         0.78200E+11
         0.78200E+11
         0.78200E+11
         0.78200E+11
         0.78200E+11
         0.78200E+11
         0.78200E+11
         0.78200E+11
         0.78200E+11
         0.78200E+11
         0.78200E+11
         0.78200E+11
         0.78200E+11
         0.78200E+11
         0.78200E+11
         0.78200E+11
         0.78200E+11
         0.78200E+11
         0.78200E+11
         0.78200E+11
         0.78200E+11
         0.78200E+11
         0.78200E+11
         0.78200E+11
         0.78200E+11
         0.78200E+11
         0.78200E+11
         0.78200E+11
         0.78200E+11
         0.78200E+11
         0.78200E+11
         0.78200E+11
         0.78200E+11
         0.78200E+11
         0.78200E+11
         0.78200E+11
         0.78200E+11
         0.78200E+11
         0.78200E+11
         0.78200E+11
         0.78200E+11
         0.78200E+11
         0.78200E+11
         0.78200E+11
         0.78200E+11
         0.78200E+11
         0.78200E+11
         0.78200E+11
         0.78200E+11
         0.78200E+11
         0.78200E+11
         0.78200E+11
         0.78200E+11
         0.78200E+11
         0.78200E+11
         0.78200E+11
         0.78200E+11
         0.78200E+11
         0.78200E+11
         0.78200E+11
         0.78200E+11
         0.78200E+11
         0.78200E+11
         0.78200E+11
         0.78200E+11
         0.78200E+11
         0.78200E+11
         0.78200E+11
         0.78200E+11
         0.78200E+11
         0.78200E+11
         0.78200E+11
         0.78200E+11
         0.78200E+11
         0.78200E+11
         0.78200E+11
         0.78200E+11
         0.78200E+11
         0.78200E+11
         0.78200E+11
         0.78200E+11
         0.78200E+11
         0.78200E+11
         0.78200E+11
         0.78200E+11
         0.78200E+11
         0.78200E+11
         0.78200E+11
         0.78200E+11
         0.78200E+11
         0.78200E+11
         0.78200E+11
         0.78200E+11
         0.78200E+11
         0.78200E+11
         0.78200E+11
         0.78200E+11
         0.78200E+11
         0.78200E+11
         0.78200E+11
         0.78200E+11
         0.78200E+11
         0.78200E+11
         0.78200E+11
         0.78200E+11
         0.78200E+11
         0.78200E+11
         0.78200E+11
         0.78200E+11
         0.78200E+11
         0.78200E+11
         0.78200E+11
         0.78200E+11
         0.78200E+11
         0.78200E+11
         0.78200E+11
         0.78200E+11
         0.78200E+11
         0.78200E+11
         0.78200E+11
         0.78200E+11
         0.78200E+11
         0.78200E+11
         0.78200E+11
         0.78200E+11
         0.78200E+11
         0.78200E+11
         0.78200E+11
         0.78200E+11
         0.78200E+11
         0.78200E+11
         0.78200E+11
         0.78200E+11
         0.78200E+11
         0.78200E+11
         0.78200E+11
         0.78200E+11
         0.78200E+11
         0.78200E+11
         0.78200E+11
         0.78200E+11
         0.78200E+11
         0.78200E+11
         0.78200E+11
         0.78200E+11
         0.78200E+11
         0.78200E+11
         0.78200E+11
         0.78200E+11
         0.78200E+11
         0.78200E+11
         0.78200E+11
         0.78200E+11
         0.78200E+11
         0.78200E+11
         0.78200E+11
         0.78200E+11
         0.78200E+11
         0.78200E+11
         0.78200E+11
         0.78200E+11
         0.78200E+11
         0.78200E+11
         0.78200E+11
         0.78200E+11
         0.78200E+11
         0.78200E+11
         0.78200E+11
         0.78200E+11
         0.78200E+11
         0.78200E+11
         0.78200E+11
         0.78200E+11
         0.78200E+11
         0.78200E+11
         0.78200E+11
         0.78200E+11
         0.78200E+11
         0.78200E+11
         0.78200E+11
         0.78200E+11
         0.78200E+11
         0.78200E+11
         0.78200E+11
         0.78200E+11
         0.78200E+11
         0.78200E+11
         0.78200E+11
         0.78200E+11
         0.78200E+11
         0.78200E+11
         0.78200E+11
         0.78200E+11
         0.78200E+11
         0.78200E+11
         0.78200E+11
         0.78200E+11
         0.78200E+11
         0.78200E+11
         0.78200E+11
         0.78200E+11
         0.78200E+11
         0.78200E+11
         0.78200E+11
         0.78200E+11
         0.78200E+11
         0.78200E+11
         0.78200E+11
         0.78200E+11
         0.78200E+11
         0.78200E+11
         0.78200E+11
         0.78200E+11
         0.78200E+11
         0.78200E+11
         0.78200E+11
         0.78200E+11
         0.78200E+11
         0.78200E+11
         0.78200E+11
         0.78200E+11
         0.78200E+11
         0.78200E+11
         0.78200E+11
         0.78200E+11
         0.78200E+11
         0.78200E+11
         0.78200E+11
         0.78200E+11
         0.78200E+11
         0.78200E+11
         0.78200E+11
         0.78200E+11
         0.78200E+11
         0.78200E+11
         0.78200E+11
         0.78200E+11
         0.78200E+11
         0.78200E+11
         0.78200E+11
         0.78200E+11
         0.78200E+11
         0.78200E+11
         0.78200E+11
         0.78200E+11
         0.78200E+11
         0.78200E+11
         0.78200E+11
         0.78200E+11
         0.78200E+11
         0.78200E+11
         0.78200E+11
         0.78200E+11
         0.78200E+11
         0.78200E+11
         0.78200E+11
         0.78200E+11
         0.78200E+11
         0.78200E+11
         0.78200E+11
         0.78200E+11
         0.78200E+11
         0.78200E+11
         0.78200E+11
         0.78200E+11
         0.78200E+11
         0.78200E+11
         0.78200E+11
         0.78200E+11
         0.78200E+11
         0.78200E+11
         0.78200E+11
         0.78200E+11
         0.78200E+11
         0.78200E+11
         0.78200E+11
         0.78200E+11
         0.78200E+11
         0.78200E+11
         0.78200E+11
         0.78200E+11
         0.78200E+11
         0.78200E+11
         0.78200E+11
         0.78200E+11
         0.78200E+11
         0.78200E+11
         0.78200E+11
         0.78200E+11
         0.78200E+11
         0.78200E+11
         0.78200E+11
         0.78200E+11
         0.78200E+11
         0.78200E+11
         0.78200E+11
         0.78200E+11
         0.78200E+11
         0.78200E+11
         0.78200E+11
         0.78200E+11
         0.78200E+11
         0.78200E+11
         0.78200E+11
         0.78200E+11
         0.78200E+11
         0.78200E+11
         0.78200E+11
         0.78200E+11
         0.78200E+11
         0.78200E+11
         0.78200E+11
         0.78200E+11
         0.78200E+11
         0.78200E+11
         0.78200E+11
         0.78200E+11
         0.78200E+11
         0.78200E+11
         0.78200E+11
         0.78200E+11
         0.78200E+11
         0.78200E+11
         0.78200E+11
         0.78200E+11
         0.78200E+11
         0.78200E+11
         0.78200E+11
         0.78200E+11
         0.78200E+11
         0.78200E+11
         0.78200E+11
         0.78200E+11
         0.78200E+11
         0.78200E+11
         0.78200E+11
         0.78200E+11
         0.78200E+11
         0.78200E+11
         0.78200E+11
         0.78200E+11
         0.78200E+11
         0.78200E+11
         0.78200E+11
         0.78200E+11
         0.78200E+11
         0.78200E+11
         0.78200E+11
         0.78200E+11
         0.78200E+11
         0.78200E+11
         0.78200E+11
         0.78200E+11
         0.78200E+11
         0.78200E+11
         0.78200E+11
         0.78200E+11
         0.78200E+11
         0.78200E+11
         0.78200E+11
         0.78200E+11
         0.78200E+11
         0.78200E+11
         0.78200E+11
         0.78200E+11
         0.78200E+11
         0.78200E+11
         0.78200E+11
         0.78200E+11
         0.78200E+11
         0.78200E+11
         0.78200E+11
         0.78200E+11
         0.78200E+11
         0.78200E+11
         0.78200E+11
         0.78200E+11
         0.78200E+11
         0.78200E+11
         0.78200E+11
         0.78200E+11
         0.78200E+11
         0.78200E+11
         0.78200E+11
         0.78200E+11
         0.78200E+11
         0.78200E+11
         0.78200E+11
         0.78200E+11
         0.78200E+11
         0.78200E+11
         0.78200E+11
         0.78200E+11
         0.78200E+11
         0.78200E+11
         0.78200E+11
         0.78200E+11
         0.78200E+11
         0.78200E+11
         0.78200E+11
         0.78200E+11
         0.78200E+11
         0.78200E+11
         0.78200E+11
         0.78200E+11
         0.78200E+11
         0.78200E+11
         0.78200E+11
         0.78200E+11
         0.78200E+11
         0.78200E+11
         0.78200E+11
         0.78200E+11
         0.78200E+11
         0.78200E+11
         0.78200E+11
         0.78200E+11
         0.78200E+11
         0.78200E+11
         0.78200E+11
         0.78200E+11
         0.78200E+11
         0.78200E+11
         0.78200E+11
         0.78200E+11
         0.78200E+11
         0.78200E+11
         0.78200E+11
         0.78200E+11
         0.78200E+11
         0.78200E+11
         0.78200E+11
         0.78200E+11
         0.78200E+11
         0.78200E+11
         0.78200E+11
         0.78200E+11
         0.78200E+11
         0.78200E+11
         0.78200E+11
         0.78200E+11
         0.78200E+11
         0.78200E+11
         0.78200E+11
         0.78200E+11
         0.78200E+11
         0.78200E+11
         0.78200E+11
         0.78200E+11
         0.78200E+11
         0.78200E+11
         0.78200E+11
         0.78200E+11
         0.78200E+11
         0.78200E+11
         0.78200E+11
         0.78200E+11
         0.78200E+11
         0.78200E+11
         0.78200E+11
         0.78200E+11
         0.78200E+11
         0.78200E+11
         0.78200E+11
         0.78200E+11
         0.78200E+11
         0.78200E+11
         0.78200E+11
         0.78200E+11
         0.78200E+11
         0.78200E+11
         0.78200E+11
         0.78200E+11
         0.78200E+11
         0.78200E+11
         0.78200E+11
         0.78200E+11
         0.78200E+11
         0.78200E+11
         0.78200E+11
         0.78200E+11
         0.78200E+11
         0.78200E+11
         0.78200E+11
         0.78200E+11
         0.78200E+11
         0.78200E+11
         0.78200E+11
         0.78200E+11
         0.78200E+11
         0.78200E+11
         0.78200E+11
         0.78200E+11
         0.78200E+11
         0.78200E+11
         0.78200E+11
         0.78200E+11
         0.78200E+11
         0.78200E+11
         0.78200E+11
         0.78200E+11
         0.78200E+11
         0.78200E+11
         0.78200E+11
         0.78200E+11
         0.78200E+11
         0.78200E+11
         0.78200E+11
         0.78200E+11
         0.78200E+11
         0.78200E+11
         0.78200E+11
         0.78200E+11
         0.78200E+11
         0.78200E+11
         0.78200E+11
         0.78200E+11
         0.78200E+11
         0.78200E+11
         0.78200E+11
         0.78200E+11
         0.78200E+11
         0.78200E+11
         0.78200E+11
         0.78200E+11
         0.78200E+11
         0.78200E+11
         0.78200E+11
         0.78200E+11
         0.78200E+11
         0.78200E+11
         0.78200E+11
         0.78200E+11
         0.78200E+11
         0.78200E+11
         0.78200E+11
         0.78200E+11
         0.78200E+11
         0.78200E+11
         0.78200E+11
         0.78200E+11
         0.78200E+11
         0.78200E+11
         0.78200E+11
         0.78200E+11
         0.78200E+11
         0.78200E+11
         0.78200E+11
         0.78200E+11
         0.78200E+11
         0.78200E+11
         0.78200E+11
         0.78200E+11
         0.78200E+11
         0.78200E+11
         0.78200E+11
         0.78200E+11
         0.78200E+11
         0.78200E+11
         0.78200E+11
         0.78200E+11
         0.78200E+11
         0.78200E+11
         0.78200E+11
         0.78200E+11
         0.78200E+11
         0.78200E+11
         0.78200E+11
         0.78200E+11
         0.78200E+11
         0.78200E+11
         0.78200E+11
         0.78200E+11
         0.78200E+11
         0.78200E+11
         0.78200E+11
         0.78200E+11
         0.78200E+11
         0.78200E+11
         0.78200E+11
         0.78200E+11
         0.78200E+11
         0.78200E+11
         0.78200E+11
         0.78200E+11
         0.78200E+11
         0.78200E+11
         0.78200E+11
         0.78200E+11
         0.78200E+11
         0.78200E+11
         0.78200E+11
         0.78200E+11
         0.78200E+11
         0.78200E+11
         0.78200E+11
         0.78200E+11
         0.78200E+11
         0.78200E+11
         0.78200E+11
         0.78200E+11
         0.78200E+11
         0.78200E+11
         0.78200E+11
         0.78200E+11
         0.78200E+11
         0.78200E+11
         0.78200E+11
         0.78200E+11
         0.78200E+11
         0.78200E+11
         0.78200E+11
         0.78200E+11
         0.78200E+11
         0.78200E+11
         0.78200E+11
         0.78200E+11
         0.78200E+11
         0.78200E+11
         0.78200E+11
         0.78200E+11
         0.78200E+11
         0.78200E+11
         0.78200E+11
         0.78200E+11
         0.78200E+11
         0.78200E+11
         0.78200E+11
         0.78200E+11
         0.78200E+11
         0.78200E+11
         0.78200E+11
         0.78200E+11
         0.78200E+11
         0.78200E+11
         0.78200E+11
         0.78200E+11
         0.78200E+11
         0.78200E+11
         0.78200E+11
         0.78200E+11
         0.78200E+11
         0.78200E+11
         0.78200E+11
         0.78200E+11
         0.78200E+11
         0.78200E+11
         0.78200E+11
         0.78200E+11
         0.78200E+11
         0.78200E+11
         0.78200E+11
         0.78200E+11
         0.78200E+11
         0.78200E+11
         0.78200E+11
         0.78200E+11
         0.78200E+11
         0.78200E+11
         0.78200E+11
         0.78200E+11
         0.78200E+11
         0.78200E+11
         0.78200E+11
         0.78200E+11
         0.78200E+11
         0.78200E+11
         0.78200E+11
         0.78200E+11
         0.78200E+11
         0.78200E+11
         0.78200E+11
         0.78200E+11
         0.78200E+11
         0.78200E+11
         0.78200E+11
         0.78200E+11
         0.78200E+11
         0.78200E+11
         0.78200E+11
         0.78200E+11
         0.78200E+11
         0.78200E+11
         0.78200E+11
         0.78200E+11
         0.78200E+11
         0.78200E+11
         0.78200E+11
         0.78200E+11
         0.78200E+11
         0.78200E+11
         0.78200E+11
         0.78200E+11
         0.78200E+11
         0.78200E+11
         0.78200E+11
         0.78200E+11
         0.78200E+11
         0.78200E+11
         0.78200E+11
         0.78200E+11
         0.78200E+11
         0.78200E+11
         0.78200E+11
         0.78200E+11
         0.78200E+11
         0.78200E+11
         0.78200E+11
         0.78200E+11
         0.78200E+11
         0.78200E+11
         0.78200E+11
         0.78200E+11
         0.78200E+11
         0.78200E+11
         0.78200E+11
         0.78200E+11
         0.78200E+11
         0.78200E+11
         0.78200E+11
         0.78200E+11
         0.78200E+11
         0.78200E+11
         0.78200E+11
         0.78200E+11
         0.78200E+11
         0.78200E+11
         0.78200E+11
         0.78200E+11
         0.78200E+11
         0.78200E+11
         0.78200E+11
         0.78200E+11
         0.78200E+11
         0.78200E+11
         0.78200E+11
         0.78200E+11
         0.78200E+11
         0.78200E+11
         0.78200E+11
         0.78200E+11
         0.78200E+11
         0.78200E+11
         0.78200E+11
         0.78200E+11
         0.78200E+11
         0.78200E+11
         0.78200E+11
         0.78200E+11
         0.78200E+11
         0.78200E+11
         0.78200E+11
         0.78200E+11
         0.78200E+11
         0.78200E+11
         0.78200E+11
         0.78200E+11
         0.78200E+11
         0.78200E+11
         0.78200E+11
  
SCALARS                        density  double 1
LOOKUP_TABLE default
         0.27000E+04
         0.27000E+04
         0.27000E+04
         0.27000E+04
         0.27000E+04
         0.27000E+04
         0.27000E+04
         0.27000E+04
         0.27000E+04
         0.27000E+04
         0.27000E+04
         0.27000E+04
         0.27000E+04
         0.27000E+04
         0.27000E+04
         0.27000E+04
         0.27000E+04
         0.27000E+04
         0.27000E+04
         0.27000E+04
         0.27000E+04
         0.27000E+04
         0.27000E+04
         0.27000E+04
         0.27000E+04
         0.27000E+04
         0.27000E+04
         0.27000E+04
         0.27000E+04
         0.27000E+04
         0.27000E+04
         0.27000E+04
         0.27000E+04
         0.27000E+04
         0.27000E+04
         0.27000E+04
         0.27000E+04
         0.27000E+04
         0.27000E+04
         0.27000E+04
         0.27000E+04
         0.27000E+04
         0.27000E+04
         0.27000E+04
         0.27000E+04
         0.27000E+04
         0.27000E+04
         0.27000E+04
         0.27000E+04
         0.27000E+04
         0.27000E+04
         0.27000E+04
         0.27000E+04
         0.27000E+04
         0.27000E+04
         0.27000E+04
         0.27000E+04
         0.27000E+04
         0.27000E+04
         0.27000E+04
         0.27000E+04
         0.27000E+04
         0.27000E+04
         0.27000E+04
         0.27000E+04
         0.27000E+04
         0.27000E+04
         0.27000E+04
         0.27000E+04
         0.27000E+04
         0.27000E+04
         0.27000E+04
         0.27000E+04
         0.27000E+04
         0.27000E+04
         0.27000E+04
         0.27000E+04
         0.27000E+04
         0.27000E+04
         0.27000E+04
         0.27000E+04
         0.27000E+04
         0.27000E+04
         0.27000E+04
         0.27000E+04
         0.27000E+04
         0.27000E+04
         0.27000E+04
         0.27000E+04
         0.27000E+04
         0.27000E+04
         0.27000E+04
         0.27000E+04
         0.27000E+04
         0.27000E+04
         0.27000E+04
         0.27000E+04
         0.27000E+04
         0.27000E+04
         0.27000E+04
         0.27000E+04
         0.27000E+04
         0.27000E+04
         0.27000E+04
         0.27000E+04
         0.27000E+04
         0.27000E+04
         0.27000E+04
         0.27000E+04
         0.27000E+04
         0.27000E+04
         0.27000E+04
         0.27000E+04
         0.27000E+04
         0.27000E+04
         0.27000E+04
         0.27000E+04
         0.27000E+04
         0.27000E+04
         0.27000E+04
         0.27000E+04
         0.27000E+04
         0.27000E+04
         0.27000E+04
         0.27000E+04
         0.27000E+04
         0.27000E+04
         0.27000E+04
         0.27000E+04
         0.27000E+04
         0.27000E+04
         0.27000E+04
         0.27000E+04
         0.27000E+04
         0.27000E+04
         0.27000E+04
         0.27000E+04
         0.27000E+04
         0.27000E+04
         0.27000E+04
         0.27000E+04
         0.27000E+04
         0.27000E+04
         0.27000E+04
         0.27000E+04
         0.27000E+04
         0.27000E+04
         0.27000E+04
         0.27000E+04
         0.27000E+04
         0.27000E+04
         0.27000E+04
         0.27000E+04
         0.27000E+04
         0.27000E+04
         0.27000E+04
         0.27000E+04
         0.27000E+04
         0.27000E+04
         0.27000E+04
         0.27000E+04
         0.27000E+04
         0.27000E+04
         0.27000E+04
         0.27000E+04
         0.27000E+04
         0.27000E+04
         0.27000E+04
         0.27000E+04
         0.27000E+04
         0.27000E+04
         0.27000E+04
         0.27000E+04
         0.27000E+04
         0.27000E+04
         0.27000E+04
         0.27000E+04
         0.27000E+04
         0.27000E+04
         0.27000E+04
         0.27000E+04
         0.27000E+04
         0.27000E+04
         0.27000E+04
         0.27000E+04
         0.27000E+04
         0.27000E+04
         0.27000E+04
         0.27000E+04
         0.27000E+04
         0.27000E+04
         0.27000E+04
         0.27000E+04
         0.27000E+04
         0.27000E+04
         0.27000E+04
         0.27000E+04
         0.27000E+04
         0.27000E+04
         0.27000E+04
         0.27000E+04
         0.27000E+04
         0.27000E+04
         0.27000E+04
         0.27000E+04
         0.27000E+04
         0.27000E+04
         0.27000E+04
         0.27000E+04
         0.27000E+04
         0.27000E+04
         0.27000E+04
         0.27000E+04
         0.27000E+04
         0.27000E+04
         0.27000E+04
         0.27000E+04
         0.27000E+04
         0.27000E+04
         0.27000E+04
         0.27000E+04
         0.27000E+04
         0.27000E+04
         0.27000E+04
         0.27000E+04
         0.27000E+04
         0.27000E+04
         0.27000E+04
         0.27000E+04
         0.27000E+04
         0.27000E+04
         0.27000E+04
         0.27000E+04
         0.27000E+04
         0.27000E+04
         0.27000E+04
         0.27000E+04
         0.27000E+04
         0.27000E+04
         0.27000E+04
         0.27000E+04
         0.27000E+04
         0.27000E+04
         0.27000E+04
         0.27000E+04
         0.27000E+04
         0.27000E+04
         0.27000E+04
         0.27000E+04
         0.27000E+04
         0.27000E+04
         0.27000E+04
         0.27000E+04
         0.27000E+04
         0.27000E+04
         0.27000E+04
         0.27000E+04
         0.27000E+04
         0.27000E+04
         0.27000E+04
         0.27000E+04
         0.27000E+04
         0.27000E+04
         0.27000E+04
         0.27000E+04
         0.27000E+04
         0.27000E+04
         0.27000E+04
         0.27000E+04
         0.27000E+04
         0.27000E+04
         0.27000E+04
         0.27000E+04
         0.27000E+04
         0.27000E+04
         0.27000E+04
         0.27000E+04
         0.27000E+04
         0.27000E+04
         0.27000E+04
         0.27000E+04
         0.27000E+04
         0.27000E+04
         0.27000E+04
         0.27000E+04
         0.27000E+04
         0.27000E+04
         0.27000E+04
         0.27000E+04
         0.27000E+04
         0.27000E+04
         0.27000E+04
         0.27000E+04
         0.27000E+04
         0.27000E+04
         0.27000E+04
         0.27000E+04
         0.27000E+04
         0.27000E+04
         0.27000E+04
         0.27000E+04
         0.27000E+04
         0.27000E+04
         0.27000E+04
         0.27000E+04
         0.27000E+04
         0.27000E+04
         0.27000E+04
         0.27000E+04
         0.27000E+04
         0.27000E+04
         0.27000E+04
         0.27000E+04
         0.27000E+04
         0.27000E+04
         0.27000E+04
         0.27000E+04
         0.27000E+04
         0.27000E+04
         0.27000E+04
         0.27000E+04
         0.27000E+04
         0.27000E+04
         0.27000E+04
         0.27000E+04
         0.27000E+04
         0.27000E+04
         0.27000E+04
         0.27000E+04
         0.27000E+04
         0.27000E+04
         0.27000E+04
         0.27000E+04
         0.27000E+04
         0.27000E+04
         0.27000E+04
         0.27000E+04
         0.27000E+04
         0.27000E+04
         0.27000E+04
         0.27000E+04
         0.27000E+04
         0.27000E+04
         0.27000E+04
         0.27000E+04
         0.27000E+04
         0.27000E+04
         0.27000E+04
         0.27000E+04
         0.27000E+04
         0.27000E+04
         0.27000E+04
         0.27000E+04
         0.27000E+04
         0.27000E+04
         0.27000E+04
         0.27000E+04
         0.27000E+04
         0.27000E+04
         0.27000E+04
         0.27000E+04
         0.27000E+04
         0.27000E+04
         0.27000E+04
         0.27000E+04
         0.27000E+04
         0.27000E+04
         0.27000E+04
         0.27000E+04
         0.27000E+04
         0.27000E+04
         0.27000E+04
         0.27000E+04
         0.27000E+04
         0.27000E+04
         0.27000E+04
         0.27000E+04
         0.27000E+04
         0.27000E+04
         0.27000E+04
         0.27000E+04
         0.27000E+04
         0.27000E+04
         0.27000E+04
         0.27000E+04
         0.27000E+04
         0.27000E+04
         0.27000E+04
         0.27000E+04
         0.27000E+04
         0.27000E+04
         0.27000E+04
         0.27000E+04
         0.27000E+04
         0.27000E+04
         0.27000E+04
         0.27000E+04
         0.27000E+04
         0.27000E+04
         0.27000E+04
         0.27000E+04
         0.27000E+04
         0.27000E+04
         0.27000E+04
         0.27000E+04
         0.27000E+04
         0.27000E+04
         0.27000E+04
         0.27000E+04
         0.27000E+04
         0.27000E+04
         0.27000E+04
         0.27000E+04
         0.27000E+04
         0.27000E+04
         0.27000E+04
         0.27000E+04
         0.27000E+04
         0.27000E+04
         0.27000E+04
         0.27000E+04
         0.27000E+04
         0.27000E+04
         0.27000E+04
         0.27000E+04
         0.27000E+04
         0.27000E+04
         0.27000E+04
         0.27000E+04
         0.27000E+04
         0.27000E+04
         0.27000E+04
         0.27000E+04
         0.27000E+04
         0.27000E+04
         0.27000E+04
         0.27000E+04
         0.27000E+04
         0.27000E+04
         0.27000E+04
         0.27000E+04
         0.27000E+04
         0.27000E+04
         0.27000E+04
         0.27000E+04
         0.27000E+04
         0.27000E+04
         0.27000E+04
         0.27000E+04
         0.27000E+04
         0.27000E+04
         0.27000E+04
         0.27000E+04
         0.27000E+04
         0.27000E+04
         0.27000E+04
         0.27000E+04
         0.27000E+04
         0.27000E+04
         0.27000E+04
         0.27000E+04
         0.27000E+04
         0.27000E+04
         0.27000E+04
         0.27000E+04
         0.27000E+04
         0.27000E+04
         0.27000E+04
         0.27000E+04
         0.27000E+04
         0.27000E+04
         0.27000E+04
         0.27000E+04
         0.27000E+04
         0.27000E+04
         0.27000E+04
         0.27000E+04
         0.27000E+04
         0.27000E+04
         0.27000E+04
         0.27000E+04
         0.27000E+04
         0.27000E+04
         0.27000E+04
         0.27000E+04
         0.27000E+04
         0.27000E+04
         0.27000E+04
         0.27000E+04
         0.27000E+04
         0.27000E+04
         0.27000E+04
         0.27000E+04
         0.27000E+04
         0.27000E+04
         0.27000E+04
         0.27000E+04
         0.27000E+04
         0.27000E+04
         0.27000E+04
         0.27000E+04
         0.27000E+04
         0.27000E+04
         0.27000E+04
         0.27000E+04
         0.27000E+04
         0.27000E+04
         0.27000E+04
         0.27000E+04
         0.27000E+04
         0.27000E+04
         0.27000E+04
         0.27000E+04
         0.27000E+04
         0.27000E+04
         0.27000E+04
         0.27000E+04
         0.27000E+04
         0.27000E+04
         0.27000E+04
         0.27000E+04
         0.27000E+04
         0.27000E+04
         0.27000E+04
         0.27000E+04
         0.27000E+04
         0.27000E+04
         0.27000E+04
         0.27000E+04
         0.27000E+04
         0.27000E+04
         0.27000E+04
         0.27000E+04
         0.27000E+04
         0.27000E+04
         0.27000E+04
         0.27000E+04
         0.27000E+04
         0.27000E+04
         0.27000E+04
         0.27000E+04
         0.27000E+04
         0.27000E+04
         0.27000E+04
         0.27000E+04
         0.27000E+04
         0.27000E+04
         0.27000E+04
         0.27000E+04
         0.27000E+04
         0.27000E+04
         0.27000E+04
         0.27000E+04
         0.27000E+04
         0.27000E+04
         0.27000E+04
         0.27000E+04
         0.27000E+04
         0.27000E+04
         0.27000E+04
         0.27000E+04
         0.27000E+04
         0.27000E+04
         0.27000E+04
         0.27000E+04
         0.27000E+04
         0.27000E+04
         0.27000E+04
         0.27000E+04
         0.27000E+04
         0.27000E+04
         0.27000E+04
         0.27000E+04
         0.27000E+04
         0.27000E+04
         0.27000E+04
         0.27000E+04
         0.27000E+04
         0.27000E+04
         0.27000E+04
         0.27000E+04
         0.27000E+04
         0.27000E+04
         0.27000E+04
         0.27000E+04
         0.27000E+04
         0.27000E+04
         0.27000E+04
         0.27000E+04
         0.27000E+04
         0.27000E+04
         0.27000E+04
         0.27000E+04
         0.27000E+04
         0.27000E+04
         0.27000E+04
         0.27000E+04
         0.27000E+04
         0.27000E+04
         0.27000E+04
         0.27000E+04
         0.27000E+04
         0.27000E+04
         0.27000E+04
         0.27000E+04
         0.27000E+04
         0.27000E+04
         0.27000E+04
         0.27000E+04
         0.27000E+04
         0.27000E+04
         0.27000E+04
         0.27000E+04
         0.27000E+04
         0.27000E+04
         0.27000E+04
         0.27000E+04
         0.27000E+04
         0.27000E+04
         0.27000E+04
         0.27000E+04
         0.27000E+04
         0.27000E+04
         0.27000E+04
         0.27000E+04
         0.27000E+04
         0.27000E+04
         0.27000E+04
         0.27000E+04
         0.27000E+04
         0.27000E+04
         0.27000E+04
         0.27000E+04
         0.27000E+04
         0.27000E+04
         0.27000E+04
         0.27000E+04
         0.27000E+04
         0.27000E+04
         0.27000E+04
         0.27000E+04
         0.27000E+04
         0.27000E+04
         0.27000E+04
         0.27000E+04
         0.27000E+04
         0.27000E+04
         0.27000E+04
         0.27000E+04
         0.27000E+04
         0.27000E+04
         0.27000E+04
         0.27000E+04
         0.27000E+04
         0.27000E+04
         0.27000E+04
         0.27000E+04
         0.27000E+04
         0.27000E+04
         0.27000E+04
         0.27000E+04
         0.27000E+04
         0.27000E+04
         0.27000E+04
         0.27000E+04
         0.27000E+04
         0.27000E+04
         0.27000E+04
         0.27000E+04
         0.27000E+04
         0.27000E+04
         0.27000E+04
         0.27000E+04
         0.27000E+04
         0.27000E+04
         0.27000E+04
         0.27000E+04
         0.27000E+04
         0.27000E+04
         0.27000E+04
         0.27000E+04
         0.27000E+04
         0.27000E+04
         0.27000E+04
         0.27000E+04
         0.27000E+04
         0.27000E+04
         0.27000E+04
         0.27000E+04
         0.27000E+04
         0.27000E+04
         0.27000E+04
         0.27000E+04
         0.27000E+04
         0.27000E+04
         0.27000E+04
         0.27000E+04
         0.27000E+04
         0.27000E+04
         0.27000E+04
         0.27000E+04
         0.27000E+04
         0.27000E+04
         0.27000E+04
         0.27000E+04
         0.27000E+04
         0.27000E+04
         0.27000E+04
         0.27000E+04
         0.27000E+04
         0.27000E+04
         0.27000E+04
         0.27000E+04
         0.27000E+04
         0.27000E+04
         0.27000E+04
         0.27000E+04
         0.27000E+04
         0.27000E+04
         0.27000E+04
         0.27000E+04
         0.27000E+04
         0.27000E+04
         0.27000E+04
         0.27000E+04
         0.27000E+04
         0.27000E+04
         0.27000E+04
         0.27000E+04
         0.27000E+04
         0.27000E+04
         0.27000E+04
         0.27000E+04
         0.27000E+04
         0.27000E+04
         0.27000E+04
         0.27000E+04
         0.27000E+04
         0.27000E+04
         0.27000E+04
         0.27000E+04
         0.27000E+04
         0.27000E+04
         0.27000E+04
         0.27000E+04
         0.27000E+04
         0.27000E+04
         0.27000E+04
         0.27000E+04
         0.27000E+04
         0.27000E+04
         0.27000E+04
         0.27000E+04
         0.27000E+04
         0.27000E+04
         0.27000E+04
         0.27000E+04
         0.27000E+04
         0.27000E+04
         0.27000E+04
         0.27000E+04
         0.27000E+04
         0.27000E+04
         0.27000E+04
         0.27000E+04
         0.27000E+04
         0.27000E+04
         0.27000E+04
         0.27000E+04
         0.27000E+04
         0.27000E+04
         0.27000E+04
         0.27000E+04
         0.27000E+04
         0.27000E+04
         0.27000E+04
         0.27000E+04
         0.27000E+04
         0.27000E+04
         0.27000E+04
         0.27000E+04
         0.27000E+04
         0.27000E+04
         0.27000E+04
         0.27000E+04
         0.27000E+04
         0.27000E+04
         0.27000E+04
         0.27000E+04
         0.27000E+04
         0.27000E+04
         0.27000E+04
         0.27000E+04
         0.27000E+04
         0.27000E+04
         0.27000E+04
         0.27000E+04
         0.27000E+04
         0.27000E+04
         0.27000E+04
         0.27000E+04
         0.27000E+04
         0.27000E+04
         0.27000E+04
         0.27000E+04
         0.27000E+04
         0.27000E+04
         0.27000E+04
         0.27000E+04
         0.27000E+04
         0.27000E+04
         0.27000E+04
         0.27000E+04
         0.27000E+04
         0.27000E+04
         0.27000E+04
         0.27000E+04
         0.27000E+04
         0.27000E+04
         0.27000E+04
         0.27000E+04
         0.27000E+04
         0.27000E+04
         0.27000E+04
         0.27000E+04
         0.27000E+04
         0.27000E+04
         0.27000E+04
         0.27000E+04
         0.27000E+04
         0.27000E+04
         0.27000E+04
         0.27000E+04
         0.27000E+04
         0.27000E+04
         0.27000E+04
         0.27000E+04
         0.27000E+04
         0.27000E+04
         0.27000E+04
         0.27000E+04
         0.27000E+04
         0.27000E+04
         0.27000E+04
         0.27000E+04
         0.27000E+04
         0.27000E+04
         0.27000E+04
         0.27000E+04
         0.27000E+04
         0.27000E+04
         0.27000E+04
         0.27000E+04
         0.27000E+04
         0.27000E+04
         0.27000E+04
         0.27000E+04
         0.27000E+04
         0.27000E+04
         0.27000E+04
         0.27000E+04
         0.27000E+04
         0.27000E+04
         0.27000E+04
         0.27000E+04
         0.27000E+04
         0.27000E+04
         0.27000E+04
         0.27000E+04
         0.27000E+04
         0.27000E+04
         0.27000E+04
         0.27000E+04
         0.27000E+04
         0.27000E+04
         0.27000E+04
         0.27000E+04
         0.27000E+04
         0.27000E+04
         0.27000E+04
         0.27000E+04
         0.27000E+04
         0.27000E+04
         0.27000E+04
         0.27000E+04
         0.27000E+04
         0.27000E+04
         0.27000E+04
         0.27000E+04
         0.27000E+04
         0.27000E+04
         0.27000E+04
         0.27000E+04
         0.27000E+04
         0.27000E+04
         0.27000E+04
         0.27000E+04
         0.27000E+04
         0.27000E+04
         0.27000E+04
         0.27000E+04
         0.27000E+04
         0.27000E+04
         0.27000E+04
         0.27000E+04
         0.27000E+04
         0.27000E+04
         0.27000E+04
         0.27000E+04
         0.27000E+04
         0.27000E+04
         0.27000E+04
         0.27000E+04
         0.27000E+04
         0.27000E+04
         0.27000E+04
         0.27000E+04
         0.27000E+04
         0.27000E+04
         0.27000E+04
         0.27000E+04
         0.27000E+04
         0.27000E+04
         0.27000E+04
         0.27000E+04
         0.27000E+04
         0.27000E+04
         0.27000E+04
         0.27000E+04
         0.27000E+04
         0.27000E+04
         0.27000E+04
         0.27000E+04
         0.27000E+04
         0.27000E+04
         0.27000E+04
         0.27000E+04
         0.27000E+04
         0.27000E+04
         0.27000E+04
         0.27000E+04
         0.27000E+04
         0.27000E+04
         0.27000E+04
         0.27000E+04
         0.27000E+04
         0.27000E+04
         0.27000E+04
         0.27000E+04
         0.27000E+04
         0.27000E+04
         0.27000E+04
         0.27000E+04
         0.27000E+04
         0.27000E+04
         0.27000E+04
         0.27000E+04
         0.27000E+04
         0.27000E+04
         0.27000E+04
         0.27000E+04
         0.27000E+04
         0.27000E+04
         0.27000E+04
         0.27000E+04
         0.27000E+04
         0.27000E+04
         0.27000E+04
         0.27000E+04
         0.27000E+04
         0.27000E+04
         0.27000E+04
         0.27000E+04
         0.27000E+04
         0.27000E+04
         0.27000E+04
         0.27000E+04
         0.27000E+04
         0.27000E+04
         0.27000E+04
         0.27000E+04
         0.27000E+04
         0.27000E+04
         0.27000E+04
         0.27000E+04
         0.27000E+04
         0.27000E+04
         0.27000E+04
         0.27000E+04
         0.27000E+04
         0.27000E+04
         0.27000E+04
         0.27000E+04
         0.27000E+04
         0.27000E+04
         0.27000E+04
         0.27000E+04
         0.27000E+04
         0.27000E+04
         0.27000E+04
         0.27000E+04
         0.27000E+04
         0.27000E+04
         0.27000E+04
         0.27000E+04
         0.27000E+04
         0.27000E+04
         0.27000E+04
         0.27000E+04
         0.27000E+04
         0.27000E+04
         0.27000E+04
         0.27000E+04
         0.27000E+04
         0.27000E+04
         0.27000E+04
         0.27000E+04
         0.27000E+04
         0.27000E+04
         0.27000E+04
         0.27000E+04
         0.27000E+04
         0.27000E+04
         0.27000E+04
         0.27000E+04
         0.27000E+04
         0.27000E+04
         0.27000E+04
         0.27000E+04
         0.27000E+04
         0.27000E+04
         0.27000E+04
         0.27000E+04
         0.27000E+04
         0.27000E+04
         0.27000E+04
         0.27000E+04
         0.27000E+04
         0.27000E+04
         0.27000E+04
         0.27000E+04
         0.27000E+04
         0.27000E+04
         0.27000E+04
         0.27000E+04
         0.27000E+04
         0.27000E+04
         0.27000E+04
         0.27000E+04
         0.27000E+04
         0.27000E+04
         0.27000E+04
         0.27000E+04
         0.27000E+04
         0.27000E+04
         0.27000E+04
         0.27000E+04
         0.27000E+04
         0.27000E+04
         0.27000E+04
         0.27000E+04
         0.27000E+04
         0.27000E+04
         0.27000E+04
         0.27000E+04
         0.27000E+04
         0.27000E+04
         0.27000E+04
         0.27000E+04
         0.27000E+04
         0.27000E+04
         0.27000E+04
         0.27000E+04
         0.27000E+04
         0.27000E+04
         0.27000E+04
         0.27000E+04
         0.27000E+04
         0.27000E+04
         0.27000E+04
         0.27000E+04
         0.27000E+04
         0.27000E+04
         0.27000E+04
         0.27000E+04
         0.27000E+04
         0.27000E+04
         0.27000E+04
         0.27000E+04
         0.27000E+04
         0.27000E+04
         0.27000E+04
         0.27000E+04
         0.27000E+04
         0.27000E+04
         0.27000E+04
         0.27000E+04
         0.27000E+04
         0.27000E+04
         0.27000E+04
         0.27000E+04
         0.27000E+04
         0.27000E+04
         0.27000E+04
         0.27000E+04
         0.27000E+04
         0.27000E+04
         0.27000E+04
         0.27000E+04
         0.27000E+04
         0.27000E+04
         0.27000E+04
         0.27000E+04
         0.27000E+04
         0.27000E+04
         0.27000E+04
         0.27000E+04
         0.27000E+04
         0.27000E+04
         0.27000E+04
         0.27000E+04
         0.27000E+04
         0.27000E+04
         0.27000E+04
         0.27000E+04
         0.27000E+04
         0.27000E+04
         0.27000E+04
         0.27000E+04
         0.27000E+04
         0.27000E+04
         0.27000E+04
         0.27000E+04
         0.27000E+04
         0.27000E+04
         0.27000E+04
         0.27000E+04
         0.27000E+04
         0.27000E+04
         0.27000E+04
         0.27000E+04
         0.27000E+04
         0.27000E+04
         0.27000E+04
         0.27000E+04
         0.27000E+04
         0.27000E+04
         0.27000E+04
         0.27000E+04
         0.27000E+04
         0.27000E+04
         0.27000E+04
         0.27000E+04
         0.27000E+04
         0.27000E+04
         0.27000E+04
         0.27000E+04
         0.27000E+04
         0.27000E+04
         0.27000E+04
         0.27000E+04
         0.27000E+04
         0.27000E+04
         0.27000E+04
         0.27000E+04
         0.27000E+04
         0.27000E+04
         0.27000E+04
         0.27000E+04
         0.27000E+04
         0.27000E+04
         0.27000E+04
         0.27000E+04
         0.27000E+04
         0.27000E+04
         0.27000E+04
         0.27000E+04
         0.27000E+04
         0.27000E+04
         0.27000E+04
         0.27000E+04
         0.27000E+04
         0.27000E+04
         0.27000E+04
         0.27000E+04
         0.27000E+04
         0.27000E+04
         0.27000E+04
         0.27000E+04
         0.27000E+04
         0.27000E+04
         0.27000E+04
         0.27000E+04
         0.27000E+04
         0.27000E+04
         0.27000E+04
         0.27000E+04
         0.27000E+04
         0.27000E+04
         0.27000E+04
         0.27000E+04
         0.27000E+04
         0.27000E+04
         0.27000E+04
         0.27000E+04
         0.27000E+04
         0.27000E+04
         0.27000E+04
         0.27000E+04
         0.27000E+04
         0.27000E+04
         0.27000E+04
         0.27000E+04
         0.27000E+04
         0.27000E+04
         0.27000E+04
         0.27000E+04
         0.27000E+04
         0.27000E+04
         0.27000E+04
         0.27000E+04
         0.27000E+04
         0.27000E+04
         0.27000E+04
         0.27000E+04
         0.27000E+04
         0.27000E+04
         0.27000E+04
         0.27000E+04
         0.27000E+04
         0.27000E+04
         0.27000E+04
         0.27000E+04
         0.27000E+04
         0.27000E+04
         0.27000E+04
         0.27000E+04
         0.27000E+04
         0.27000E+04
         0.27000E+04
         0.27000E+04
         0.27000E+04
         0.27000E+04
         0.27000E+04
         0.27000E+04
         0.27000E+04
         0.27000E+04
         0.27000E+04
         0.27000E+04
         0.27000E+04
         0.27000E+04
         0.27000E+04
         0.27000E+04
         0.27000E+04
         0.27000E+04
         0.27000E+04
         0.27000E+04
         0.27000E+04
         0.27000E+04
         0.27000E+04
         0.27000E+04
         0.27000E+04
         0.27000E+04
         0.27000E+04
         0.27000E+04
         0.27000E+04
         0.27000E+04
         0.27000E+04
         0.27000E+04
         0.27000E+04
         0.27000E+04
         0.27000E+04
         0.27000E+04
         0.27000E+04
         0.27000E+04
         0.27000E+04
         0.27000E+04
         0.27000E+04
         0.27000E+04
         0.27000E+04
         0.27000E+04
         0.27000E+04
         0.27000E+04
         0.27000E+04
         0.27000E+04
         0.27000E+04
         0.27000E+04
         0.27000E+04
         0.27000E+04
         0.27000E+04
         0.27000E+04
         0.27000E+04
         0.27000E+04
         0.27000E+04
         0.27000E+04
         0.27000E+04
         0.27000E+04
         0.27000E+04
         0.27000E+04
         0.27000E+04
         0.27000E+04
         0.27000E+04
         0.27000E+04
         0.27000E+04
         0.27000E+04
         0.27000E+04
         0.27000E+04
         0.27000E+04
         0.27000E+04
         0.27000E+04
         0.27000E+04
         0.27000E+04
         0.27000E+04
         0.27000E+04
         0.27000E+04
         0.27000E+04
         0.27000E+04
         0.27000E+04
         0.27000E+04
         0.27000E+04
         0.27000E+04
         0.27000E+04
         0.27000E+04
         0.27000E+04
         0.27000E+04
         0.27000E+04
         0.27000E+04
         0.27000E+04
         0.27000E+04
         0.27000E+04
         0.27000E+04
         0.27000E+04
         0.27000E+04
         0.27000E+04
         0.27000E+04
         0.27000E+04
         0.27000E+04
         0.27000E+04
         0.27000E+04
         0.27000E+04
         0.27000E+04
         0.27000E+04
         0.27000E+04
         0.27000E+04
         0.27000E+04
         0.27000E+04
         0.27000E+04
         0.27000E+04
         0.27000E+04
         0.27000E+04
         0.27000E+04
         0.27000E+04
         0.27000E+04
         0.27000E+04
         0.27000E+04
         0.27000E+04
         0.27000E+04
         0.27000E+04
         0.27000E+04
         0.27000E+04
         0.27000E+04
         0.27000E+04
         0.27000E+04
         0.27000E+04
         0.27000E+04
         0.27000E+04
         0.27000E+04
         0.27000E+04
         0.27000E+04
         0.27000E+04
         0.27000E+04
         0.27000E+04
         0.27000E+04
         0.27000E+04
         0.27000E+04
         0.27000E+04
         0.27000E+04
         0.27000E+04
         0.27000E+04
         0.27000E+04
         0.27000E+04
         0.27000E+04
         0.27000E+04
         0.27000E+04
         0.27000E+04
         0.27000E+04
         0.27000E+04
         0.27000E+04
         0.27000E+04
         0.27000E+04
         0.27000E+04
         0.27000E+04
         0.27000E+04
         0.27000E+04
         0.27000E+04
         0.27000E+04
         0.27000E+04
         0.27000E+04
         0.27000E+04
         0.27000E+04
         0.27000E+04
         0.27000E+04
         0.27000E+04
         0.27000E+04
         0.27000E+04
         0.27000E+04
         0.27000E+04
         0.27000E+04
         0.27000E+04
         0.27000E+04
         0.27000E+04
         0.27000E+04
         0.27000E+04
         0.27000E+04
         0.27000E+04
         0.27000E+04
         0.27000E+04
         0.27000E+04
         0.27000E+04
         0.27000E+04
         0.27000E+04
         0.27000E+04
         0.27000E+04
         0.27000E+04
         0.27000E+04
         0.27000E+04
         0.27000E+04
         0.27000E+04
         0.27000E+04
         0.27000E+04
         0.27000E+04
         0.27000E+04
         0.27000E+04
         0.27000E+04
         0.27000E+04
         0.27000E+04
         0.27000E+04
         0.27000E+04
         0.27000E+04
         0.27000E+04
         0.27000E+04
         0.27000E+04
         0.27000E+04
         0.27000E+04
         0.27000E+04
         0.27000E+04
         0.27000E+04
         0.27000E+04
         0.27000E+04
         0.27000E+04
         0.27000E+04
         0.27000E+04
         0.27000E+04
         0.27000E+04
         0.27000E+04
         0.27000E+04
         0.27000E+04
         0.27000E+04
         0.27000E+04
         0.27000E+04
         0.27000E+04
         0.27000E+04
         0.27000E+04
         0.27000E+04
         0.27000E+04
         0.27000E+04
         0.27000E+04
         0.27000E+04
         0.27000E+04
         0.27000E+04
         0.27000E+04
         0.27000E+04
         0.27000E+04
         0.27000E+04
         0.27000E+04
         0.27000E+04
         0.27000E+04
         0.27000E+04
         0.27000E+04
         0.27000E+04
         0.27000E+04
         0.27000E+04
         0.27000E+04
         0.27000E+04
         0.27000E+04
         0.27000E+04
         0.27000E+04
         0.27000E+04
         0.27000E+04
         0.27000E+04
         0.27000E+04
         0.27000E+04
         0.27000E+04
         0.27000E+04
         0.27000E+04
         0.27000E+04
         0.27000E+04
         0.27000E+04
         0.27000E+04
         0.27000E+04
         0.27000E+04
         0.27000E+04
         0.27000E+04
         0.27000E+04
         0.27000E+04
         0.27000E+04
         0.27000E+04
         0.27000E+04
         0.27000E+04
         0.27000E+04
         0.27000E+04
         0.27000E+04
         0.27000E+04
         0.27000E+04
         0.27000E+04
         0.27000E+04
         0.27000E+04
         0.27000E+04
         0.27000E+04
         0.27000E+04
         0.27000E+04
         0.27000E+04
         0.27000E+04
         0.27000E+04
         0.27000E+04
         0.27000E+04
         0.27000E+04
         0.27000E+04
         0.27000E+04
         0.27000E+04
         0.27000E+04
         0.27000E+04
         0.27000E+04
         0.27000E+04
         0.27000E+04
         0.27000E+04
         0.27000E+04
         0.27000E+04
         0.27000E+04
         0.27000E+04
         0.27000E+04
         0.27000E+04
         0.27000E+04
         0.27000E+04
         0.27000E+04
         0.27000E+04
         0.27000E+04
         0.27000E+04
         0.27000E+04
         0.27000E+04
         0.27000E+04
         0.27000E+04
         0.27000E+04
         0.27000E+04
         0.27000E+04
         0.27000E+04
         0.27000E+04
         0.27000E+04
         0.27000E+04
         0.27000E+04
         0.27000E+04
         0.27000E+04
         0.27000E+04
         0.27000E+04
         0.27000E+04
         0.27000E+04
         0.27000E+04
         0.27000E+04
         0.27000E+04
         0.27000E+04
         0.27000E+04
         0.27000E+04
         0.27000E+04
         0.27000E+04
         0.27000E+04
         0.27000E+04
         0.27000E+04
         0.27000E+04
         0.27000E+04
         0.27000E+04
         0.27000E+04
         0.27000E+04
         0.27000E+04
         0.27000E+04
         0.27000E+04
         0.27000E+04
         0.27000E+04
         0.27000E+04
         0.27000E+04
         0.27000E+04
         0.27000E+04
         0.27000E+04
         0.27000E+04
         0.27000E+04
         0.27000E+04
         0.27000E+04
         0.27000E+04
         0.27000E+04
         0.27000E+04
         0.27000E+04
         0.27000E+04
         0.27000E+04
         0.27000E+04
         0.27000E+04
         0.27000E+04
         0.27000E+04
         0.27000E+04
         0.27000E+04
         0.27000E+04
         0.27000E+04
         0.27000E+04
         0.27000E+04
         0.27000E+04
         0.27000E+04
         0.27000E+04
         0.27000E+04
         0.27000E+04
         0.27000E+04
         0.27000E+04
         0.27000E+04
         0.27000E+04
         0.27000E+04
         0.27000E+04
         0.27000E+04
         0.27000E+04
         0.27000E+04
         0.27000E+04
         0.27000E+04
         0.27000E+04
         0.27000E+04
         0.27000E+04
         0.27000E+04
         0.27000E+04
         0.27000E+04
         0.27000E+04
         0.27000E+04
         0.27000E+04
         0.27000E+04
         0.27000E+04
         0.27000E+04
         0.27000E+04
         0.27000E+04
         0.27000E+04
         0.27000E+04
         0.27000E+04
         0.27000E+04
         0.27000E+04
         0.27000E+04
         0.27000E+04
         0.27000E+04
         0.27000E+04
         0.27000E+04
         0.27000E+04
         0.27000E+04
         0.27000E+04
         0.27000E+04
         0.27000E+04
         0.27000E+04
         0.27000E+04
         0.27000E+04
         0.27000E+04
         0.27000E+04
         0.27000E+04
         0.27000E+04
         0.27000E+04
         0.27000E+04
         0.27000E+04
         0.27000E+04
         0.27000E+04
         0.27000E+04
         0.27000E+04
         0.27000E+04
         0.27000E+04
         0.27000E+04
         0.27000E+04
         0.27000E+04
         0.27000E+04
         0.27000E+04
         0.27000E+04
         0.27000E+04
         0.27000E+04
         0.27000E+04
         0.27000E+04
         0.27000E+04
         0.27000E+04
         0.27000E+04
         0.27000E+04
         0.27000E+04
         0.27000E+04
         0.27000E+04
         0.27000E+04
         0.27000E+04
         0.27000E+04
         0.27000E+04
         0.27000E+04
         0.27000E+04
         0.27000E+04
         0.27000E+04
         0.27000E+04
         0.27000E+04
         0.27000E+04
         0.27000E+04
         0.27000E+04
         0.27000E+04
         0.27000E+04
         0.27000E+04
         0.27000E+04
         0.27000E+04
         0.27000E+04
         0.27000E+04
         0.27000E+04
         0.27000E+04
         0.27000E+04
         0.27000E+04
         0.27000E+04
         0.27000E+04
         0.27000E+04
         0.27000E+04
         0.27000E+04
         0.27000E+04
         0.27000E+04
         0.27000E+04
         0.27000E+04
         0.27000E+04
         0.27000E+04
         0.27000E+04
         0.27000E+04
         0.27000E+04
         0.27000E+04
         0.27000E+04
         0.27000E+04
         0.27000E+04
         0.27000E+04
         0.27000E+04
         0.27000E+04
         0.27000E+04
         0.27000E+04
         0.27000E+04
         0.27000E+04
         0.27000E+04
         0.27000E+04
         0.27000E+04
         0.27000E+04
         0.27000E+04
         0.27000E+04
         0.27000E+04
         0.27000E+04
         0.27000E+04
         0.27000E+04
         0.27000E+04
         0.27000E+04
         0.27000E+04
         0.27000E+04
         0.27000E+04
         0.27000E+04
         0.27000E+04
         0.27000E+04
         0.27000E+04
         0.27000E+04
         0.27000E+04
         0.27000E+04
         0.27000E+04
         0.27000E+04
         0.27000E+04
         0.27000E+04
         0.27000E+04
         0.27000E+04
         0.27000E+04
         0.27000E+04
         0.27000E+04
         0.27000E+04
         0.27000E+04
         0.27000E+04
         0.27000E+04
         0.27000E+04
         0.27000E+04
         0.27000E+04
         0.27000E+04
         0.27000E+04
         0.27000E+04
         0.27000E+04
         0.27000E+04
         0.27000E+04
         0.27000E+04
         0.27000E+04
         0.27000E+04
         0.27000E+04
         0.27000E+04
         0.27000E+04
         0.27000E+04
         0.27000E+04
         0.27000E+04
         0.27000E+04
         0.27000E+04
         0.27000E+04
         0.27000E+04
         0.27000E+04
         0.27000E+04
         0.27000E+04
         0.27000E+04
         0.27000E+04
         0.27000E+04
         0.27000E+04
         0.27000E+04
         0.27000E+04
         0.27000E+04
         0.27000E+04
         0.27000E+04
         0.27000E+04
         0.27000E+04
         0.27000E+04
         0.27000E+04
         0.27000E+04
         0.27000E+04
         0.27000E+04
         0.27000E+04
         0.27000E+04
         0.27000E+04
         0.27000E+04
         0.27000E+04
         0.27000E+04
         0.27000E+04
         0.27000E+04
         0.27000E+04
         0.27000E+04
         0.27000E+04
         0.27000E+04
         0.27000E+04
         0.27000E+04
         0.27000E+04
         0.27000E+04
         0.27000E+04
         0.27000E+04
         0.27000E+04
         0.27000E+04
         0.27000E+04
         0.27000E+04
         0.27000E+04
         0.27000E+04
         0.27000E+04
         0.27000E+04
         0.27000E+04
         0.27000E+04
         0.27000E+04
         0.27000E+04
         0.27000E+04
         0.27000E+04
         0.27000E+04
         0.27000E+04
         0.27000E+04
         0.27000E+04
         0.27000E+04
         0.27000E+04
         0.27000E+04
         0.27000E+04
         0.27000E+04
         0.27000E+04
         0.27000E+04
         0.27000E+04
         0.27000E+04
         0.27000E+04
         0.27000E+04
         0.27000E+04
         0.27000E+04
         0.27000E+04
         0.27000E+04
         0.27000E+04
         0.27000E+04
         0.27000E+04
         0.27000E+04
         0.27000E+04
         0.27000E+04
         0.27000E+04
         0.27000E+04
         0.27000E+04
         0.27000E+04
         0.27000E+04
         0.27000E+04
         0.27000E+04
         0.27000E+04
         0.27000E+04
         0.27000E+04
         0.27000E+04
         0.27000E+04
         0.27000E+04
         0.27000E+04
         0.27000E+04
         0.27000E+04
         0.27000E+04
         0.27000E+04
         0.27000E+04
         0.27000E+04
         0.27000E+04
         0.27000E+04
         0.27000E+04
         0.27000E+04
         0.27000E+04
         0.27000E+04
         0.27000E+04
         0.27000E+04
         0.27000E+04
         0.27000E+04
         0.27000E+04
         0.27000E+04
         0.27000E+04
         0.27000E+04
         0.27000E+04
         0.27000E+04
         0.27000E+04
         0.27000E+04
         0.27000E+04
         0.27000E+04
         0.27000E+04
         0.27000E+04
         0.27000E+04
         0.27000E+04
         0.27000E+04
         0.27000E+04
         0.27000E+04
         0.27000E+04
         0.27000E+04
         0.27000E+04
         0.27000E+04
         0.27000E+04
         0.27000E+04
         0.27000E+04
         0.27000E+04
         0.27000E+04
         0.27000E+04
         0.27000E+04
         0.27000E+04
         0.27000E+04
         0.27000E+04
         0.27000E+04
         0.27000E+04
         0.27000E+04
         0.27000E+04
         0.27000E+04
         0.27000E+04
         0.27000E+04
         0.27000E+04
         0.27000E+04
         0.27000E+04
         0.27000E+04
         0.27000E+04
         0.27000E+04
         0.27000E+04
         0.27000E+04
         0.27000E+04
         0.27000E+04
