# vtk DataFile Version 2.0
               (MEGA VTK FILE)
ASCII
DATASET UNSTRUCTURED_GRID
POINTS       1950    double
  0.10378E-02  0.67292E-03 -0.21486E-01
  0.17452E-02  0.12308E-02 -0.21469E-01
  0.23177E-02  0.59151E-03 -0.21466E-01
  0.16698E-02 -0.33775E-03 -0.21498E-01
  0.10379E-02  0.67237E-03 -0.11750E-01
  0.17453E-02  0.12301E-02 -0.11750E-01
  0.23178E-02  0.59098E-03 -0.11750E-01
  0.16700E-02 -0.33851E-03 -0.11750E-01
  0.30377E-02  0.14882E-03 -0.21434E-01
  0.27791E-02 -0.67643E-03 -0.21472E-01
  0.30377E-02  0.14846E-03 -0.11750E-01
  0.27788E-02 -0.67692E-03 -0.11750E-01
  0.12850E-02  0.18412E-02 -0.21451E-01
  0.65139E-03  0.14576E-02 -0.21475E-01
  0.12851E-02  0.18410E-02 -0.11750E-01
  0.65164E-03  0.14566E-02 -0.11750E-01
  0.12757E-03  0.29933E-03 -0.21488E-01
 -0.12822E-03  0.11672E-02 -0.21492E-01
  0.12783E-03  0.29819E-03 -0.11750E-01
 -0.12804E-03  0.11655E-02 -0.11750E-01
  0.94500E-03  0.22748E-02 -0.21438E-01
  0.11327E-02  0.28286E-02 -0.21423E-01
  0.17490E-02  0.24238E-02 -0.21430E-01
  0.94533E-03  0.22746E-02 -0.11750E-01
  0.11330E-02  0.28291E-02 -0.11750E-01
  0.17494E-02  0.24236E-02 -0.11750E-01
  0.40588E-03  0.21685E-02 -0.21467E-01
  0.39779E-03  0.29366E-02 -0.21458E-01
  0.40594E-03  0.21684E-02 -0.11750E-01
  0.39781E-03  0.29369E-02 -0.11750E-01
 -0.76303E-03 -0.10033E-02 -0.21501E-01
 -0.86604E-03  0.78969E-04 -0.21509E-01
  0.46119E-03 -0.70318E-03 -0.21495E-01
 -0.76268E-03 -0.10032E-02 -0.11750E-01
 -0.86593E-03  0.78160E-04 -0.11750E-01
  0.46164E-03 -0.70391E-03 -0.11750E-01
 -0.18300E-02 -0.71196E-03 -0.21467E-01
 -0.18440E-02  0.82749E-04 -0.21502E-01
 -0.18297E-02 -0.71210E-03 -0.11750E-01
 -0.18441E-02  0.82626E-04 -0.11750E-01
 -0.27238E-02 -0.77865E-03 -0.21457E-01
 -0.28028E-02  0.40713E-04 -0.21486E-01
 -0.27238E-02 -0.77882E-03 -0.11750E-01
 -0.28031E-02  0.40439E-04 -0.11750E-01
 -0.25365E-02 -0.15195E-02 -0.21430E-01
 -0.19287E-02 -0.13230E-02 -0.21444E-01
 -0.25363E-02 -0.15195E-02 -0.11750E-01
 -0.19283E-02 -0.13231E-02 -0.11750E-01
 -0.99363E-03  0.98847E-03 -0.21512E-01
 -0.99377E-03  0.98712E-03 -0.11750E-01
 -0.14380E-02 -0.17325E-02 -0.21463E-01
 -0.14377E-02 -0.17325E-02 -0.11750E-01
 -0.31574E-03  0.20220E-02 -0.21499E-01
 -0.31594E-03  0.20217E-02 -0.11750E-01
 -0.11068E-02  0.18615E-02 -0.21510E-01
 -0.11071E-02  0.18616E-02 -0.11750E-01
 -0.18845E-02  0.17175E-02 -0.21481E-01
 -0.18713E-02  0.90940E-03 -0.21504E-01
 -0.18846E-02  0.17175E-02 -0.11750E-01
 -0.18714E-02  0.90916E-03 -0.11750E-01
 -0.15871E-03 -0.19800E-02 -0.21493E-01
 -0.94089E-03 -0.23489E-02 -0.21462E-01
 -0.15844E-03 -0.19800E-02 -0.11750E-01
 -0.94029E-03 -0.23489E-02 -0.11750E-01
  0.78856E-03 -0.17074E-02 -0.21491E-01
  0.78922E-03 -0.17074E-02 -0.11750E-01
  0.17211E-02 -0.14894E-02 -0.21479E-01
  0.17211E-02 -0.14892E-02 -0.11750E-01
  0.32050E-02  0.76036E-03 -0.21387E-01
  0.28046E-02  0.12477E-02 -0.21424E-01
  0.32047E-02  0.75936E-03 -0.11750E-01
  0.28047E-02  0.12473E-02 -0.11750E-01
  0.23059E-02  0.18665E-02 -0.21438E-01
  0.23060E-02  0.18664E-02 -0.11750E-01
 -0.40614E-03  0.29038E-02 -0.21478E-01
 -0.40627E-03  0.29049E-02 -0.11750E-01
 -0.12092E-02  0.27207E-02 -0.21474E-01
 -0.12092E-02  0.27212E-02 -0.11750E-01
 -0.19448E-02  0.24642E-02 -0.21439E-01
 -0.19448E-02  0.24645E-02 -0.11750E-01
 -0.25029E-02  0.22359E-02 -0.21399E-01
 -0.26371E-02  0.16503E-02 -0.21449E-01
 -0.25029E-02  0.22359E-02 -0.11750E-01
 -0.26372E-02  0.16503E-02 -0.11750E-01
 -0.27671E-02  0.87493E-03 -0.21490E-01
 -0.27674E-02  0.87466E-03 -0.11750E-01
 -0.21123E-02 -0.21373E-02 -0.21433E-01
 -0.21122E-02 -0.21373E-02 -0.11750E-01
 -0.16087E-02 -0.26931E-02 -0.21419E-01
 -0.16087E-02 -0.26931E-02 -0.11750E-01
 -0.11939E-02 -0.31291E-02 -0.21383E-01
 -0.58641E-03 -0.30382E-02 -0.21432E-01
 -0.11937E-02 -0.31291E-02 -0.11750E-01
 -0.58606E-03 -0.30382E-02 -0.11750E-01
  0.20912E-03 -0.28748E-02 -0.21466E-01
  0.20952E-03 -0.28748E-02 -0.11750E-01
  0.10586E-02 -0.26423E-02 -0.21461E-01
  0.10589E-02 -0.26420E-02 -0.11750E-01
  0.18413E-02 -0.23707E-02 -0.21434E-01
  0.18413E-02 -0.23705E-02 -0.11750E-01
  0.24544E-02 -0.21445E-02 -0.21396E-01
  0.26022E-02 -0.15105E-02 -0.21440E-01
  0.24543E-02 -0.21439E-02 -0.11750E-01
  0.26021E-02 -0.15106E-02 -0.11750E-01
  0.37964E-02  0.93572E-03 -0.21285E-01
  0.39100E-02  0.00000E+00 -0.21302E-01
  0.37964E-02  0.93572E-03 -0.11750E-01
  0.39100E-02  0.00000E+00 -0.11750E-01
  0.34621E-02  0.18171E-02 -0.21300E-01
  0.34621E-02  0.18171E-02 -0.11750E-01
  0.29267E-02  0.25928E-02 -0.21287E-01
  0.29267E-02  0.25928E-02 -0.11750E-01
  0.22211E-02  0.32179E-02 -0.21289E-01
  0.22211E-02  0.32179E-02 -0.11750E-01
  0.13865E-02  0.36559E-02 -0.21287E-01
  0.13865E-02  0.36559E-02 -0.11750E-01
  0.47130E-03  0.38815E-02 -0.21297E-01
  0.47130E-03  0.38815E-02 -0.11750E-01
 -0.47130E-03  0.38815E-02 -0.21301E-01
 -0.47130E-03  0.38815E-02 -0.11750E-01
 -0.13865E-02  0.36559E-02 -0.21299E-01
 -0.13865E-02  0.36559E-02 -0.11750E-01
 -0.22211E-02  0.32179E-02 -0.21297E-01
 -0.22211E-02  0.32179E-02 -0.11750E-01
 -0.29267E-02  0.25928E-02 -0.21281E-01
 -0.29267E-02  0.25928E-02 -0.11750E-01
 -0.34621E-02  0.18171E-02 -0.21301E-01
 -0.34621E-02  0.18171E-02 -0.11750E-01
 -0.37964E-02  0.93572E-03 -0.21308E-01
 -0.37964E-02  0.93572E-03 -0.11750E-01
 -0.39100E-02  0.22152E-17 -0.21306E-01
 -0.39100E-02 -0.47884E-18 -0.11750E-01
 -0.37964E-02 -0.93572E-03 -0.21298E-01
 -0.37964E-02 -0.93572E-03 -0.11750E-01
 -0.34621E-02 -0.18171E-02 -0.21290E-01
 -0.34621E-02 -0.18171E-02 -0.11750E-01
 -0.29267E-02 -0.25928E-02 -0.21286E-01
 -0.29267E-02 -0.25928E-02 -0.11750E-01
 -0.22211E-02 -0.32179E-02 -0.21299E-01
 -0.22211E-02 -0.32179E-02 -0.11750E-01
 -0.13865E-02 -0.36559E-02 -0.21287E-01
 -0.13865E-02 -0.36559E-02 -0.11750E-01
 -0.47130E-03 -0.38815E-02 -0.21305E-01
 -0.47130E-03 -0.38815E-02 -0.11750E-01
  0.47130E-03 -0.38815E-02 -0.21299E-01
  0.47130E-03 -0.38815E-02 -0.11750E-01
  0.13865E-02 -0.36559E-02 -0.21293E-01
  0.13865E-02 -0.36559E-02 -0.11750E-01
  0.22211E-02 -0.32179E-02 -0.21303E-01
  0.22211E-02 -0.32179E-02 -0.11750E-01
  0.29267E-02 -0.25928E-02 -0.21289E-01
  0.29267E-02 -0.25928E-02 -0.11750E-01
  0.34621E-02 -0.18171E-02 -0.21303E-01
  0.34621E-02 -0.18171E-02 -0.11750E-01
  0.37964E-02 -0.93572E-03 -0.21303E-01
  0.37964E-02 -0.93572E-03 -0.11750E-01
  0.10376E-02  0.67348E-03 -0.24895E-01
  0.17450E-02  0.12314E-02 -0.24892E-01
  0.23175E-02  0.59203E-03 -0.24891E-01
  0.16696E-02 -0.33700E-03 -0.24896E-01
  0.30377E-02  0.14918E-03 -0.24886E-01
  0.27795E-02 -0.67594E-03 -0.24892E-01
  0.12849E-02  0.18414E-02 -0.24889E-01
  0.65115E-03  0.14586E-02 -0.24892E-01
  0.12731E-03  0.30048E-03 -0.24895E-01
 -0.12841E-03  0.11690E-02 -0.24896E-01
  0.94467E-03  0.22749E-02 -0.24887E-01
  0.11323E-02  0.28282E-02 -0.24885E-01
  0.17487E-02  0.24239E-02 -0.24886E-01
  0.40583E-03  0.21685E-02 -0.24891E-01
  0.39777E-03  0.29364E-02 -0.24890E-01
 -0.76338E-03 -0.10035E-02 -0.24896E-01
 -0.86615E-03  0.79778E-04 -0.24898E-01
  0.46074E-03 -0.70245E-03 -0.24896E-01
 -0.18303E-02 -0.71182E-03 -0.24891E-01
 -0.18439E-02  0.82873E-04 -0.24897E-01
 -0.27238E-02 -0.77848E-03 -0.24890E-01
 -0.28025E-02  0.40986E-04 -0.24895E-01
 -0.25366E-02 -0.15194E-02 -0.24886E-01
 -0.19292E-02 -0.13228E-02 -0.24888E-01
 -0.99349E-03  0.98983E-03 -0.24898E-01
 -0.14384E-02 -0.17324E-02 -0.24890E-01
 -0.31554E-03  0.20223E-02 -0.24896E-01
 -0.11064E-02  0.18614E-02 -0.24898E-01
 -0.18845E-02  0.17175E-02 -0.24893E-01
 -0.18712E-02  0.90964E-03 -0.24897E-01
 -0.15899E-03 -0.19800E-02 -0.24896E-01
 -0.94149E-03 -0.23489E-02 -0.24890E-01
  0.78790E-03 -0.17074E-02 -0.24895E-01
  0.17210E-02 -0.14896E-02 -0.24893E-01
  0.32053E-02  0.76137E-03 -0.24880E-01
  0.28046E-02  0.12481E-02 -0.24885E-01
  0.23058E-02  0.18665E-02 -0.24887E-01
 -0.40600E-03  0.29027E-02 -0.24894E-01
 -0.12092E-02  0.27202E-02 -0.24893E-01
 -0.19447E-02  0.24640E-02 -0.24887E-01
 -0.25028E-02  0.22359E-02 -0.24881E-01
 -0.26370E-02  0.16503E-02 -0.24888E-01
 -0.27668E-02  0.87519E-03 -0.24895E-01
 -0.21125E-02 -0.21373E-02 -0.24886E-01
 -0.16088E-02 -0.26932E-02 -0.24884E-01
 -0.11940E-02 -0.31291E-02 -0.24879E-01
 -0.58676E-03 -0.30382E-02 -0.24886E-01
  0.20871E-03 -0.28748E-02 -0.24891E-01
  0.10583E-02 -0.26426E-02 -0.24890E-01
  0.18413E-02 -0.23709E-02 -0.24886E-01
  0.24545E-02 -0.21450E-02 -0.24881E-01
  0.26022E-02 -0.15104E-02 -0.24887E-01
  0.37964E-02  0.93572E-03 -0.24869E-01
  0.39100E-02  0.00000E+00 -0.24872E-01
  0.34621E-02  0.18171E-02 -0.24872E-01
  0.29267E-02  0.25928E-02 -0.24870E-01
  0.22211E-02  0.32179E-02 -0.24870E-01
  0.13865E-02  0.36559E-02 -0.24870E-01
  0.47130E-03  0.38815E-02 -0.24872E-01
 -0.47130E-03  0.38815E-02 -0.24872E-01
 -0.13865E-02  0.36559E-02 -0.24871E-01
 -0.22211E-02  0.32179E-02 -0.24870E-01
 -0.29267E-02  0.25928E-02 -0.24868E-01
 -0.34621E-02  0.18171E-02 -0.24871E-01
 -0.37964E-02  0.93572E-03 -0.24873E-01
 -0.39100E-02 -0.47884E-18 -0.24873E-01
 -0.37964E-02 -0.93572E-03 -0.24872E-01
 -0.34621E-02 -0.18171E-02 -0.24870E-01
 -0.29267E-02 -0.25928E-02 -0.24870E-01
 -0.22211E-02 -0.32179E-02 -0.24872E-01
 -0.13865E-02 -0.36559E-02 -0.24869E-01
 -0.47130E-03 -0.38815E-02 -0.24873E-01
  0.47130E-03 -0.38815E-02 -0.24872E-01
  0.13865E-02 -0.36559E-02 -0.24871E-01
  0.22211E-02 -0.32179E-02 -0.24872E-01
  0.29267E-02 -0.25928E-02 -0.24870E-01
  0.34621E-02 -0.18171E-02 -0.24872E-01
  0.37964E-02 -0.93572E-03 -0.24873E-01
  0.10375E-02  0.67403E-03 -0.24275E-01
  0.17448E-02  0.12321E-02 -0.24275E-01
  0.23174E-02  0.59255E-03 -0.24275E-01
  0.16694E-02 -0.33624E-03 -0.24275E-01
  0.30377E-02  0.14955E-03 -0.24275E-01
  0.27798E-02 -0.67544E-03 -0.24275E-01
  0.12848E-02  0.18415E-02 -0.24275E-01
  0.65090E-03  0.14596E-02 -0.24275E-01
  0.12705E-03  0.30163E-03 -0.24275E-01
 -0.12859E-03  0.11707E-02 -0.24275E-01
  0.94434E-03  0.22750E-02 -0.24275E-01
  0.11320E-02  0.28277E-02 -0.24275E-01
  0.17483E-02  0.24241E-02 -0.24275E-01
  0.40577E-03  0.21685E-02 -0.24275E-01
  0.39776E-03  0.29361E-02 -0.24275E-01
 -0.76374E-03 -0.10036E-02 -0.24275E-01
 -0.86626E-03  0.80588E-04 -0.24275E-01
  0.46029E-03 -0.70173E-03 -0.24275E-01
 -0.18306E-02 -0.71168E-03 -0.24275E-01
 -0.18438E-02  0.82996E-04 -0.24275E-01
 -0.27238E-02 -0.77831E-03 -0.24275E-01
 -0.28022E-02  0.41259E-04 -0.24275E-01
 -0.25368E-02 -0.15194E-02 -0.24275E-01
 -0.19296E-02 -0.13227E-02 -0.24275E-01
 -0.99334E-03  0.99119E-03 -0.24275E-01
 -0.14387E-02 -0.17324E-02 -0.24275E-01
 -0.31534E-03  0.20226E-02 -0.24275E-01
 -0.11061E-02  0.18613E-02 -0.24275E-01
 -0.18844E-02  0.17175E-02 -0.24275E-01
 -0.18710E-02  0.90988E-03 -0.24275E-01
 -0.15926E-03 -0.19801E-02 -0.24275E-01
 -0.94209E-03 -0.23490E-02 -0.24275E-01
  0.78724E-03 -0.17074E-02 -0.24275E-01
  0.17210E-02 -0.14899E-02 -0.24275E-01
  0.32056E-02  0.76237E-03 -0.24275E-01
  0.28046E-02  0.12485E-02 -0.24275E-01
  0.23057E-02  0.18666E-02 -0.24275E-01
 -0.40586E-03  0.29017E-02 -0.24275E-01
 -0.12092E-02  0.27198E-02 -0.24275E-01
 -0.19447E-02  0.24638E-02 -0.24275E-01
 -0.25028E-02  0.22359E-02 -0.24275E-01
 -0.26369E-02  0.16503E-02 -0.24275E-01
 -0.27665E-02  0.87545E-03 -0.24275E-01
 -0.21126E-02 -0.21374E-02 -0.24275E-01
 -0.16088E-02 -0.26932E-02 -0.24275E-01
 -0.11941E-02 -0.31291E-02 -0.24275E-01
 -0.58711E-03 -0.30382E-02 -0.24275E-01
  0.20830E-03 -0.28748E-02 -0.24275E-01
  0.10580E-02 -0.26428E-02 -0.24275E-01
  0.18414E-02 -0.23711E-02 -0.24275E-01
  0.24546E-02 -0.21456E-02 -0.24275E-01
  0.26023E-02 -0.15103E-02 -0.24275E-01
  0.37964E-02  0.93572E-03 -0.24275E-01
  0.39100E-02  0.00000E+00 -0.24275E-01
  0.34621E-02  0.18171E-02 -0.24275E-01
  0.29267E-02  0.25928E-02 -0.24275E-01
  0.22211E-02  0.32179E-02 -0.24275E-01
  0.13865E-02  0.36559E-02 -0.24275E-01
  0.47130E-03  0.38815E-02 -0.24275E-01
 -0.47130E-03  0.38815E-02 -0.24275E-01
 -0.13865E-02  0.36559E-02 -0.24275E-01
 -0.22211E-02  0.32179E-02 -0.24275E-01
 -0.29267E-02  0.25928E-02 -0.24275E-01
 -0.34621E-02  0.18171E-02 -0.24275E-01
 -0.37964E-02  0.93572E-03 -0.24275E-01
 -0.39100E-02  0.39516E-17 -0.24275E-01
 -0.37964E-02 -0.93572E-03 -0.24275E-01
 -0.34621E-02 -0.18171E-02 -0.24275E-01
 -0.29267E-02 -0.25928E-02 -0.24275E-01
 -0.22211E-02 -0.32179E-02 -0.24275E-01
 -0.13865E-02 -0.36559E-02 -0.24275E-01
 -0.47130E-03 -0.38815E-02 -0.24275E-01
  0.47130E-03 -0.38815E-02 -0.24275E-01
  0.13865E-02 -0.36559E-02 -0.24275E-01
  0.22211E-02 -0.32179E-02 -0.24275E-01
  0.29267E-02 -0.25928E-02 -0.24275E-01
  0.34621E-02 -0.18171E-02 -0.24275E-01
  0.37964E-02 -0.93572E-03 -0.24275E-01
  0.10374E-02  0.67459E-03 -0.23296E-01
  0.17446E-02  0.12328E-02 -0.23296E-01
  0.23173E-02  0.59308E-03 -0.23296E-01
  0.16692E-02 -0.33549E-03 -0.23296E-01
  0.30376E-02  0.14991E-03 -0.23296E-01
  0.27801E-02 -0.67495E-03 -0.23296E-01
  0.12847E-02  0.18417E-02 -0.23296E-01
  0.65065E-03  0.14606E-02 -0.23296E-01
  0.12678E-03  0.30278E-03 -0.23296E-01
 -0.12878E-03  0.11725E-02 -0.23296E-01
  0.94401E-03  0.22752E-02 -0.23296E-01
  0.11316E-02  0.28273E-02 -0.23296E-01
  0.17479E-02  0.24242E-02 -0.23296E-01
  0.40572E-03  0.21686E-02 -0.23296E-01
  0.39774E-03  0.29359E-02 -0.23296E-01
 -0.76409E-03 -0.10038E-02 -0.23296E-01
 -0.86637E-03  0.81397E-04 -0.23296E-01
  0.45985E-03 -0.70100E-03 -0.23296E-01
 -0.18309E-02 -0.71154E-03 -0.23296E-01
 -0.18437E-02  0.83120E-04 -0.23296E-01
 -0.27237E-02 -0.77814E-03 -0.23296E-01
 -0.28020E-02  0.41533E-04 -0.23296E-01
 -0.25369E-02 -0.15193E-02 -0.23296E-01
 -0.19300E-02 -0.13227E-02 -0.23296E-01
 -0.99320E-03  0.99254E-03 -0.23296E-01
 -0.14391E-02 -0.17324E-02 -0.23296E-01
 -0.31514E-03  0.20228E-02 -0.23296E-01
 -0.11057E-02  0.18611E-02 -0.23296E-01
 -0.18844E-02  0.17175E-02 -0.23296E-01
 -0.18709E-02  0.91012E-03 -0.23296E-01
 -0.15954E-03 -0.19801E-02 -0.23296E-01
 -0.94269E-03 -0.23490E-02 -0.23296E-01
  0.78658E-03 -0.17074E-02 -0.23296E-01
  0.17209E-02 -0.14901E-02 -0.23296E-01
  0.32060E-02  0.76338E-03 -0.23296E-01
  0.28046E-02  0.12490E-02 -0.23296E-01
  0.23056E-02  0.18666E-02 -0.23296E-01
 -0.40572E-03  0.29006E-02 -0.23296E-01
 -0.12092E-02  0.27193E-02 -0.23296E-01
 -0.19446E-02  0.24636E-02 -0.23296E-01
 -0.25028E-02  0.22359E-02 -0.23296E-01
 -0.26368E-02  0.16503E-02 -0.23296E-01
 -0.27662E-02  0.87571E-03 -0.23296E-01
 -0.21128E-02 -0.21374E-02 -0.23296E-01
 -0.16088E-02 -0.26932E-02 -0.23296E-01
 -0.11942E-02 -0.31291E-02 -0.23296E-01
 -0.58746E-03 -0.30382E-02 -0.23296E-01
  0.20790E-03 -0.28748E-02 -0.23296E-01
  0.10577E-02 -0.26431E-02 -0.23296E-01
  0.18414E-02 -0.23713E-02 -0.23296E-01
  0.24548E-02 -0.21461E-02 -0.23296E-01
  0.26024E-02 -0.15102E-02 -0.23296E-01
  0.37964E-02  0.93572E-03 -0.23296E-01
  0.39100E-02  0.00000E+00 -0.23296E-01
  0.34621E-02  0.18171E-02 -0.23296E-01
  0.29267E-02  0.25928E-02 -0.23296E-01
  0.22211E-02  0.32179E-02 -0.23296E-01
  0.13865E-02  0.36559E-02 -0.23296E-01
  0.47130E-03  0.38815E-02 -0.23296E-01
 -0.47130E-03  0.38815E-02 -0.23296E-01
 -0.13865E-02  0.36559E-02 -0.23296E-01
 -0.22211E-02  0.32179E-02 -0.23296E-01
 -0.29267E-02  0.25928E-02 -0.23296E-01
 -0.34621E-02  0.18171E-02 -0.23296E-01
 -0.37964E-02  0.93572E-03 -0.23296E-01
 -0.39100E-02 -0.47884E-18 -0.23296E-01
 -0.37964E-02 -0.93572E-03 -0.23296E-01
 -0.34621E-02 -0.18171E-02 -0.23296E-01
 -0.29267E-02 -0.25928E-02 -0.23296E-01
 -0.22211E-02 -0.32179E-02 -0.23296E-01
 -0.13865E-02 -0.36559E-02 -0.23296E-01
 -0.47130E-03 -0.38815E-02 -0.23296E-01
  0.47130E-03 -0.38815E-02 -0.23296E-01
  0.13865E-02 -0.36559E-02 -0.23296E-01
  0.22211E-02 -0.32179E-02 -0.23296E-01
  0.29267E-02 -0.25928E-02 -0.23296E-01
  0.34621E-02 -0.18171E-02 -0.23296E-01
  0.37964E-02 -0.93572E-03 -0.23296E-01
  0.10373E-02  0.67514E-03 -0.22317E-01
  0.17445E-02  0.12334E-02 -0.22317E-01
  0.23172E-02  0.59360E-03 -0.22317E-01
  0.16689E-02 -0.33474E-03 -0.22317E-01
  0.30376E-02  0.15027E-03 -0.22317E-01
  0.27805E-02 -0.67446E-03 -0.22317E-01
  0.12846E-02  0.18419E-02 -0.22317E-01
  0.65041E-03  0.14616E-02 -0.22317E-01
  0.12652E-03  0.30393E-03 -0.22317E-01
 -0.12896E-03  0.11742E-02 -0.22317E-01
  0.94367E-03  0.22753E-02 -0.22317E-01
  0.11313E-02  0.28269E-02 -0.22317E-01
  0.17475E-02  0.24244E-02 -0.22317E-01
  0.40566E-03  0.21686E-02 -0.22317E-01
  0.39772E-03  0.29356E-02 -0.22317E-01
 -0.76444E-03 -0.10039E-02 -0.22317E-01
 -0.86648E-03  0.82206E-04 -0.22317E-01
  0.45940E-03 -0.70028E-03 -0.22317E-01
 -0.18312E-02 -0.71140E-03 -0.22317E-01
 -0.18436E-02  0.83243E-04 -0.22317E-01
 -0.27237E-02 -0.77797E-03 -0.22317E-01
 -0.28017E-02  0.41806E-04 -0.22317E-01
 -0.25371E-02 -0.15193E-02 -0.22317E-01
 -0.19305E-02 -0.13226E-02 -0.22317E-01
 -0.99305E-03  0.99390E-03 -0.22317E-01
 -0.14394E-02 -0.17323E-02 -0.22317E-01
 -0.31494E-03  0.20231E-02 -0.22317E-01
 -0.11054E-02  0.18610E-02 -0.22317E-01
 -0.18843E-02  0.17175E-02 -0.22317E-01
 -0.18708E-02  0.91036E-03 -0.22317E-01
 -0.15981E-03 -0.19801E-02 -0.22317E-01
 -0.94328E-03 -0.23490E-02 -0.22317E-01
  0.78592E-03 -0.17074E-02 -0.22317E-01
  0.17209E-02 -0.14904E-02 -0.22317E-01
  0.32063E-02  0.76439E-03 -0.22317E-01
  0.28045E-02  0.12494E-02 -0.22317E-01
  0.23055E-02  0.18666E-02 -0.22317E-01
 -0.40558E-03  0.28995E-02 -0.22317E-01
 -0.12092E-02  0.27188E-02 -0.22317E-01
 -0.19446E-02  0.24633E-02 -0.22317E-01
 -0.25027E-02  0.22359E-02 -0.22317E-01
 -0.26367E-02  0.16503E-02 -0.22317E-01
 -0.27658E-02  0.87597E-03 -0.22317E-01
 -0.21129E-02 -0.21374E-02 -0.22317E-01
 -0.16089E-02 -0.26932E-02 -0.22317E-01
 -0.11943E-02 -0.31291E-02 -0.22317E-01
 -0.58781E-03 -0.30382E-02 -0.22317E-01
  0.20749E-03 -0.28748E-02 -0.22317E-01
  0.10574E-02 -0.26434E-02 -0.22317E-01
  0.18415E-02 -0.23715E-02 -0.22317E-01
  0.24549E-02 -0.21467E-02 -0.22317E-01
  0.26025E-02 -0.15101E-02 -0.22317E-01
  0.37964E-02  0.93572E-03 -0.22317E-01
  0.39100E-02  0.00000E+00 -0.22317E-01
  0.34621E-02  0.18171E-02 -0.22317E-01
  0.29267E-02  0.25928E-02 -0.22317E-01
  0.22211E-02  0.32179E-02 -0.22317E-01
  0.13865E-02  0.36559E-02 -0.22317E-01
  0.47130E-03  0.38815E-02 -0.22317E-01
 -0.47130E-03  0.38815E-02 -0.22317E-01
 -0.13865E-02  0.36559E-02 -0.22317E-01
 -0.22211E-02  0.32179E-02 -0.22317E-01
 -0.29267E-02  0.25928E-02 -0.22317E-01
 -0.34621E-02  0.18171E-02 -0.22317E-01
 -0.37964E-02  0.93572E-03 -0.22317E-01
 -0.39100E-02 -0.47884E-18 -0.22317E-01
 -0.37964E-02 -0.93572E-03 -0.22317E-01
 -0.34621E-02 -0.18171E-02 -0.22317E-01
 -0.29267E-02 -0.25928E-02 -0.22317E-01
 -0.22211E-02 -0.32179E-02 -0.22317E-01
 -0.13865E-02 -0.36559E-02 -0.22317E-01
 -0.47130E-03 -0.38815E-02 -0.22317E-01
  0.47130E-03 -0.38815E-02 -0.22317E-01
  0.13865E-02 -0.36559E-02 -0.22317E-01
  0.22211E-02 -0.32179E-02 -0.22317E-01
  0.29267E-02 -0.25928E-02 -0.22317E-01
  0.34621E-02 -0.18171E-02 -0.22317E-01
  0.37964E-02 -0.93572E-03 -0.22317E-01
  0.10372E-02  0.67570E-03 -0.21337E-01
  0.17443E-02  0.12341E-02 -0.21337E-01
  0.23171E-02  0.59412E-03 -0.21337E-01
  0.16687E-02 -0.33398E-03 -0.21337E-01
  0.30376E-02  0.15064E-03 -0.21337E-01
  0.27808E-02 -0.67396E-03 -0.21337E-01
  0.12845E-02  0.18421E-02 -0.21337E-01
  0.65016E-03  0.14626E-02 -0.21337E-01
  0.12626E-03  0.30507E-03 -0.21337E-01
 -0.12915E-03  0.11760E-02 -0.21337E-01
  0.94334E-03  0.22754E-02 -0.21337E-01
  0.11310E-02  0.28264E-02 -0.21337E-01
  0.17471E-02  0.24245E-02 -0.21337E-01
  0.40561E-03  0.21686E-02 -0.21337E-01
  0.39770E-03  0.29353E-02 -0.21337E-01
 -0.76480E-03 -0.10040E-02 -0.21337E-01
 -0.86659E-03  0.83015E-04 -0.21337E-01
  0.45895E-03 -0.69955E-03 -0.21337E-01
 -0.18315E-02 -0.71126E-03 -0.21337E-01
 -0.18435E-02  0.83367E-04 -0.21337E-01
 -0.27237E-02 -0.77780E-03 -0.21337E-01
 -0.28014E-02  0.42080E-04 -0.21337E-01
 -0.25372E-02 -0.15192E-02 -0.21337E-01
 -0.19309E-02 -0.13224E-02 -0.21337E-01
 -0.99291E-03  0.99526E-03 -0.21337E-01
 -0.14398E-02 -0.17323E-02 -0.21337E-01
 -0.31474E-03  0.20234E-02 -0.21337E-01
 -0.11051E-02  0.18609E-02 -0.21337E-01
 -0.18843E-02  0.17175E-02 -0.21337E-01
 -0.18706E-02  0.91060E-03 -0.21337E-01
 -0.16009E-03 -0.19801E-02 -0.21337E-01
 -0.94388E-03 -0.23490E-02 -0.21337E-01
  0.78526E-03 -0.17074E-02 -0.21337E-01
  0.17208E-02 -0.14906E-02 -0.21337E-01
  0.32066E-02  0.76539E-03 -0.21337E-01
  0.28045E-02  0.12498E-02 -0.21337E-01
  0.23053E-02  0.18667E-02 -0.21337E-01
 -0.40545E-03  0.28984E-02 -0.21337E-01
 -0.12092E-02  0.27184E-02 -0.21337E-01
 -0.19446E-02  0.24631E-02 -0.21337E-01
 -0.25027E-02  0.22359E-02 -0.21337E-01
 -0.26366E-02  0.16503E-02 -0.21337E-01
 -0.27655E-02  0.87623E-03 -0.21337E-01
 -0.21130E-02 -0.21374E-02 -0.21337E-01
 -0.16089E-02 -0.26932E-02 -0.21337E-01
 -0.11944E-02 -0.31291E-02 -0.21337E-01
 -0.58816E-03 -0.30382E-02 -0.21337E-01
  0.20709E-03 -0.28748E-02 -0.21337E-01
  0.10571E-02 -0.26436E-02 -0.21337E-01
  0.18415E-02 -0.23717E-02 -0.21337E-01
  0.24550E-02 -0.21472E-02 -0.21337E-01
  0.26025E-02 -0.15100E-02 -0.21337E-01
  0.37964E-02  0.93572E-03 -0.21337E-01
  0.39100E-02  0.00000E+00 -0.21337E-01
  0.34621E-02  0.18171E-02 -0.21337E-01
  0.29267E-02  0.25928E-02 -0.21337E-01
  0.22211E-02  0.32179E-02 -0.21337E-01
  0.13865E-02  0.36559E-02 -0.21337E-01
  0.47130E-03  0.38815E-02 -0.21337E-01
 -0.47130E-03  0.38815E-02 -0.21337E-01
 -0.13865E-02  0.36559E-02 -0.21337E-01
 -0.22211E-02  0.32179E-02 -0.21337E-01
 -0.29267E-02  0.25928E-02 -0.21337E-01
 -0.34621E-02  0.18171E-02 -0.21337E-01
 -0.37964E-02  0.93572E-03 -0.21337E-01
 -0.39100E-02 -0.47884E-18 -0.21337E-01
 -0.37964E-02 -0.93572E-03 -0.21337E-01
 -0.34621E-02 -0.18171E-02 -0.21337E-01
 -0.29267E-02 -0.25928E-02 -0.21337E-01
 -0.22211E-02 -0.32179E-02 -0.21337E-01
 -0.13865E-02 -0.36559E-02 -0.21337E-01
 -0.47130E-03 -0.38815E-02 -0.21337E-01
  0.47130E-03 -0.38815E-02 -0.21337E-01
  0.13865E-02 -0.36559E-02 -0.21337E-01
  0.22211E-02 -0.32179E-02 -0.21337E-01
  0.29267E-02 -0.25928E-02 -0.21337E-01
  0.34621E-02 -0.18171E-02 -0.21337E-01
  0.37964E-02 -0.93572E-03 -0.21337E-01
  0.10371E-02  0.67625E-03 -0.20358E-01
  0.17441E-02  0.12348E-02 -0.20358E-01
  0.23169E-02  0.59465E-03 -0.20358E-01
  0.16685E-02 -0.33323E-03 -0.20358E-01
  0.30376E-02  0.15100E-03 -0.20358E-01
  0.27812E-02 -0.67347E-03 -0.20358E-01
  0.12844E-02  0.18423E-02 -0.20358E-01
  0.64992E-03  0.14636E-02 -0.20358E-01
  0.12600E-03  0.30622E-03 -0.20358E-01
 -0.12933E-03  0.11777E-02 -0.20358E-01
  0.94301E-03  0.22755E-02 -0.20358E-01
  0.11306E-02  0.28260E-02 -0.20358E-01
  0.17467E-02  0.24247E-02 -0.20358E-01
  0.40556E-03  0.21687E-02 -0.20358E-01
  0.39769E-03  0.29351E-02 -0.20358E-01
 -0.76515E-03 -0.10042E-02 -0.20358E-01
 -0.86670E-03  0.83825E-04 -0.20358E-01
  0.45850E-03 -0.69882E-03 -0.20358E-01
 -0.18318E-02 -0.71112E-03 -0.20358E-01
 -0.18434E-02  0.83490E-04 -0.20358E-01
 -0.27236E-02 -0.77763E-03 -0.20358E-01
 -0.28011E-02  0.42353E-04 -0.20358E-01
 -0.25374E-02 -0.15192E-02 -0.20358E-01
 -0.19313E-02 -0.13223E-02 -0.20358E-01
 -0.99277E-03  0.99661E-03 -0.20358E-01
 -0.14401E-02 -0.17322E-02 -0.20358E-01
 -0.31454E-03  0.20237E-02 -0.20358E-01
 -0.11047E-02  0.18607E-02 -0.20358E-01
 -0.18842E-02  0.17175E-02 -0.20358E-01
 -0.18705E-02  0.91084E-03 -0.20358E-01
 -0.16036E-03 -0.19801E-02 -0.20358E-01
 -0.94448E-03 -0.23491E-02 -0.20358E-01
  0.78460E-03 -0.17074E-02 -0.20358E-01
  0.17208E-02 -0.14909E-02 -0.20358E-01
  0.32070E-02  0.76640E-03 -0.20358E-01
  0.28045E-02  0.12503E-02 -0.20358E-01
  0.23052E-02  0.18667E-02 -0.20358E-01
 -0.40531E-03  0.28974E-02 -0.20358E-01
 -0.12092E-02  0.27179E-02 -0.20358E-01
 -0.19445E-02  0.24629E-02 -0.20358E-01
 -0.25027E-02  0.22359E-02 -0.20358E-01
 -0.26366E-02  0.16503E-02 -0.20358E-01
 -0.27652E-02  0.87650E-03 -0.20358E-01
 -0.21132E-02 -0.21374E-02 -0.20358E-01
 -0.16090E-02 -0.26933E-02 -0.20358E-01
 -0.11946E-02 -0.31291E-02 -0.20358E-01
 -0.58851E-03 -0.30382E-02 -0.20358E-01
  0.20668E-03 -0.28749E-02 -0.20358E-01
  0.10567E-02 -0.26439E-02 -0.20358E-01
  0.18416E-02 -0.23719E-02 -0.20358E-01
  0.24551E-02 -0.21478E-02 -0.20358E-01
  0.26026E-02 -0.15099E-02 -0.20358E-01
  0.37964E-02  0.93572E-03 -0.20358E-01
  0.39100E-02  0.00000E+00 -0.20358E-01
  0.34621E-02  0.18171E-02 -0.20358E-01
  0.29267E-02  0.25928E-02 -0.20358E-01
  0.22211E-02  0.32179E-02 -0.20358E-01
  0.13865E-02  0.36559E-02 -0.20358E-01
  0.47130E-03  0.38815E-02 -0.20358E-01
 -0.47130E-03  0.38815E-02 -0.20358E-01
 -0.13865E-02  0.36559E-02 -0.20358E-01
 -0.22211E-02  0.32179E-02 -0.20358E-01
 -0.29267E-02  0.25928E-02 -0.20358E-01
 -0.34621E-02  0.18171E-02 -0.20358E-01
 -0.37964E-02  0.93572E-03 -0.20358E-01
 -0.39100E-02 -0.47884E-18 -0.20358E-01
 -0.37964E-02 -0.93572E-03 -0.20358E-01
 -0.34621E-02 -0.18171E-02 -0.20358E-01
 -0.29267E-02 -0.25928E-02 -0.20358E-01
 -0.22211E-02 -0.32179E-02 -0.20358E-01
 -0.13865E-02 -0.36559E-02 -0.20358E-01
 -0.47130E-03 -0.38815E-02 -0.20358E-01
  0.47130E-03 -0.38815E-02 -0.20358E-01
  0.13865E-02 -0.36559E-02 -0.20358E-01
  0.22211E-02 -0.32179E-02 -0.20358E-01
  0.29267E-02 -0.25928E-02 -0.20358E-01
  0.34621E-02 -0.18171E-02 -0.20358E-01
  0.37964E-02 -0.93572E-03 -0.20358E-01
  0.10370E-02  0.67680E-03 -0.19379E-01
  0.17439E-02  0.12354E-02 -0.19379E-01
  0.23168E-02  0.59517E-03 -0.19379E-01
  0.16683E-02 -0.33247E-03 -0.19379E-01
  0.30375E-02  0.15136E-03 -0.19379E-01
  0.27815E-02 -0.67298E-03 -0.19379E-01
  0.12843E-02  0.18425E-02 -0.19379E-01
  0.64967E-03  0.14646E-02 -0.19379E-01
  0.12573E-03  0.30737E-03 -0.19379E-01
 -0.12952E-03  0.11795E-02 -0.19379E-01
  0.94268E-03  0.22757E-02 -0.19379E-01
  0.11303E-02  0.28255E-02 -0.19379E-01
  0.17463E-02  0.24248E-02 -0.19379E-01
  0.40550E-03  0.21687E-02 -0.19379E-01
  0.39767E-03  0.29348E-02 -0.19379E-01
 -0.76551E-03 -0.10043E-02 -0.19379E-01
 -0.86680E-03  0.84634E-04 -0.19379E-01
  0.45806E-03 -0.69810E-03 -0.19379E-01
 -0.18321E-02 -0.71098E-03 -0.19379E-01
 -0.18433E-02  0.83614E-04 -0.19379E-01
 -0.27236E-02 -0.77746E-03 -0.19379E-01
 -0.28009E-02  0.42626E-04 -0.19379E-01
 -0.25375E-02 -0.15191E-02 -0.19379E-01
 -0.19317E-02 -0.13223E-02 -0.19379E-01
 -0.99262E-03  0.99797E-03 -0.19379E-01
 -0.14405E-02 -0.17322E-02 -0.19379E-01
 -0.31434E-03  0.20240E-02 -0.19379E-01
 -0.11044E-02  0.18606E-02 -0.19379E-01
 -0.18842E-02  0.17175E-02 -0.19379E-01
 -0.18704E-02  0.91108E-03 -0.19379E-01
 -0.16064E-03 -0.19802E-02 -0.19379E-01
 -0.94508E-03 -0.23491E-02 -0.19379E-01
  0.78394E-03 -0.17074E-02 -0.19379E-01
  0.17208E-02 -0.14911E-02 -0.19379E-01
  0.32073E-02  0.76740E-03 -0.19379E-01
  0.28045E-02  0.12507E-02 -0.19379E-01
  0.23051E-02  0.18668E-02 -0.19379E-01
 -0.40517E-03  0.28963E-02 -0.19379E-01
 -0.12092E-02  0.27174E-02 -0.19379E-01
 -0.19445E-02  0.24627E-02 -0.19379E-01
 -0.25026E-02  0.22358E-02 -0.19379E-01
 -0.26365E-02  0.16503E-02 -0.19379E-01
 -0.27649E-02  0.87676E-03 -0.19379E-01
 -0.21133E-02 -0.21374E-02 -0.19379E-01
 -0.16090E-02 -0.26933E-02 -0.19379E-01
 -0.11947E-02 -0.31291E-02 -0.19379E-01
 -0.58886E-03 -0.30382E-02 -0.19379E-01
  0.20627E-03 -0.28749E-02 -0.19379E-01
  0.10564E-02 -0.26442E-02 -0.19379E-01
  0.18416E-02 -0.23721E-02 -0.19379E-01
  0.24553E-02 -0.21483E-02 -0.19379E-01
  0.26027E-02 -0.15097E-02 -0.19379E-01
  0.37964E-02  0.93572E-03 -0.19379E-01
  0.39100E-02  0.00000E+00 -0.19379E-01
  0.34621E-02  0.18171E-02 -0.19379E-01
  0.29267E-02  0.25928E-02 -0.19379E-01
  0.22211E-02  0.32179E-02 -0.19379E-01
  0.13865E-02  0.36559E-02 -0.19379E-01
  0.47130E-03  0.38815E-02 -0.19379E-01
 -0.47130E-03  0.38815E-02 -0.19379E-01
 -0.13865E-02  0.36559E-02 -0.19379E-01
 -0.22211E-02  0.32179E-02 -0.19379E-01
 -0.29267E-02  0.25928E-02 -0.19379E-01
 -0.34621E-02  0.18171E-02 -0.19379E-01
 -0.37964E-02  0.93572E-03 -0.19379E-01
 -0.39100E-02 -0.47884E-18 -0.19379E-01
 -0.37964E-02 -0.93572E-03 -0.19379E-01
 -0.34621E-02 -0.18171E-02 -0.19379E-01
 -0.29267E-02 -0.25928E-02 -0.19379E-01
 -0.22211E-02 -0.32179E-02 -0.19379E-01
 -0.13865E-02 -0.36559E-02 -0.19379E-01
 -0.47130E-03 -0.38815E-02 -0.19379E-01
  0.47130E-03 -0.38815E-02 -0.19379E-01
  0.13865E-02 -0.36559E-02 -0.19379E-01
  0.22211E-02 -0.32179E-02 -0.19379E-01
  0.29267E-02 -0.25928E-02 -0.19379E-01
  0.34621E-02 -0.18171E-02 -0.19379E-01
  0.37964E-02 -0.93572E-03 -0.19379E-01
  0.10368E-02  0.67736E-03 -0.18400E-01
  0.17438E-02  0.12361E-02 -0.18400E-01
  0.23167E-02  0.59570E-03 -0.18400E-01
  0.16681E-02 -0.33172E-03 -0.18400E-01
  0.30375E-02  0.15173E-03 -0.18400E-01
  0.27819E-02 -0.67248E-03 -0.18400E-01
  0.12842E-02  0.18427E-02 -0.18400E-01
  0.64943E-03  0.14656E-02 -0.18400E-01
  0.12547E-03  0.30852E-03 -0.18400E-01
 -0.12970E-03  0.11812E-02 -0.18400E-01
  0.94235E-03  0.22758E-02 -0.18400E-01
  0.11300E-02  0.28251E-02 -0.18400E-01
  0.17459E-02  0.24249E-02 -0.18400E-01
  0.40545E-03  0.21688E-02 -0.18400E-01
  0.39766E-03  0.29345E-02 -0.18400E-01
 -0.76586E-03 -0.10044E-02 -0.18400E-01
 -0.86691E-03  0.85443E-04 -0.18400E-01
  0.45761E-03 -0.69737E-03 -0.18400E-01
 -0.18324E-02 -0.71084E-03 -0.18400E-01
 -0.18432E-02  0.83737E-04 -0.18400E-01
 -0.27236E-02 -0.77729E-03 -0.18400E-01
 -0.28006E-02  0.42899E-04 -0.18400E-01
 -0.25377E-02 -0.15191E-02 -0.18400E-01
 -0.19322E-02 -0.13222E-02 -0.18400E-01
 -0.99248E-03  0.99932E-03 -0.18400E-01
 -0.14408E-02 -0.17322E-02 -0.18400E-01
 -0.31414E-03  0.20243E-02 -0.18400E-01
 -0.11040E-02  0.18605E-02 -0.18400E-01
 -0.18841E-02  0.17175E-02 -0.18400E-01
 -0.18703E-02  0.91132E-03 -0.18400E-01
 -0.16091E-03 -0.19802E-02 -0.18400E-01
 -0.94568E-03 -0.23491E-02 -0.18400E-01
  0.78328E-03 -0.17074E-02 -0.18400E-01
  0.17207E-02 -0.14914E-02 -0.18400E-01
  0.32076E-02  0.76841E-03 -0.18400E-01
  0.28044E-02  0.12511E-02 -0.18400E-01
  0.23050E-02  0.18668E-02 -0.18400E-01
 -0.40503E-03  0.28952E-02 -0.18400E-01
 -0.12092E-02  0.27170E-02 -0.18400E-01
 -0.19445E-02  0.24624E-02 -0.18400E-01
 -0.25026E-02  0.22358E-02 -0.18400E-01
 -0.26364E-02  0.16503E-02 -0.18400E-01
 -0.27646E-02  0.87702E-03 -0.18400E-01
 -0.21134E-02 -0.21374E-02 -0.18400E-01
 -0.16091E-02 -0.26933E-02 -0.18400E-01
 -0.11948E-02 -0.31291E-02 -0.18400E-01
 -0.58921E-03 -0.30382E-02 -0.18400E-01
  0.20587E-03 -0.28749E-02 -0.18400E-01
  0.10561E-02 -0.26444E-02 -0.18400E-01
  0.18416E-02 -0.23723E-02 -0.18400E-01
  0.24554E-02 -0.21489E-02 -0.18400E-01
  0.26027E-02 -0.15096E-02 -0.18400E-01
  0.37964E-02  0.93572E-03 -0.18400E-01
  0.39100E-02  0.00000E+00 -0.18400E-01
  0.34621E-02  0.18171E-02 -0.18400E-01
  0.29267E-02  0.25928E-02 -0.18400E-01
  0.22211E-02  0.32179E-02 -0.18400E-01
  0.13865E-02  0.36559E-02 -0.18400E-01
  0.47130E-03  0.38815E-02 -0.18400E-01
 -0.47130E-03  0.38815E-02 -0.18400E-01
 -0.13865E-02  0.36559E-02 -0.18400E-01
 -0.22211E-02  0.32179E-02 -0.18400E-01
 -0.29267E-02  0.25928E-02 -0.18400E-01
 -0.34621E-02  0.18171E-02 -0.18400E-01
 -0.37964E-02  0.93572E-03 -0.18400E-01
 -0.39100E-02 -0.47884E-18 -0.18400E-01
 -0.37964E-02 -0.93572E-03 -0.18400E-01
 -0.34621E-02 -0.18171E-02 -0.18400E-01
 -0.29267E-02 -0.25928E-02 -0.18400E-01
 -0.22211E-02 -0.32179E-02 -0.18400E-01
 -0.13865E-02 -0.36559E-02 -0.18400E-01
 -0.47130E-03 -0.38815E-02 -0.18400E-01
  0.47130E-03 -0.38815E-02 -0.18400E-01
  0.13865E-02 -0.36559E-02 -0.18400E-01
  0.22211E-02 -0.32179E-02 -0.18400E-01
  0.29267E-02 -0.25928E-02 -0.18400E-01
  0.34621E-02 -0.18171E-02 -0.18400E-01
  0.37964E-02 -0.93572E-03 -0.18400E-01
  0.10367E-02  0.67791E-03 -0.17421E-01
  0.17436E-02  0.12368E-02 -0.17421E-01
  0.23166E-02  0.59622E-03 -0.17421E-01
  0.16679E-02 -0.33096E-03 -0.17421E-01
  0.30375E-02  0.15209E-03 -0.17421E-01
  0.27822E-02 -0.67199E-03 -0.17421E-01
  0.12841E-02  0.18429E-02 -0.17421E-01
  0.64918E-03  0.14666E-02 -0.17421E-01
  0.12521E-03  0.30967E-03 -0.17421E-01
 -0.12989E-03  0.11830E-02 -0.17421E-01
  0.94202E-03  0.22759E-02 -0.17421E-01
  0.11296E-02  0.28247E-02 -0.17421E-01
  0.17455E-02  0.24251E-02 -0.17421E-01
  0.40539E-03  0.21688E-02 -0.17421E-01
  0.39764E-03  0.29343E-02 -0.17421E-01
 -0.76621E-03 -0.10046E-02 -0.17421E-01
 -0.86702E-03  0.86253E-04 -0.17421E-01
  0.45716E-03 -0.69665E-03 -0.17421E-01
 -0.18326E-02 -0.71070E-03 -0.17421E-01
 -0.18431E-02  0.83861E-04 -0.17421E-01
 -0.27235E-02 -0.77712E-03 -0.17421E-01
 -0.28003E-02  0.43173E-04 -0.17421E-01
 -0.25379E-02 -0.15190E-02 -0.17421E-01
 -0.19326E-02 -0.13220E-02 -0.17421E-01
 -0.99233E-03  0.10007E-02 -0.17421E-01
 -0.14412E-02 -0.17321E-02 -0.17421E-01
 -0.31394E-03  0.20245E-02 -0.17421E-01
 -0.11037E-02  0.18603E-02 -0.17421E-01
 -0.18841E-02  0.17175E-02 -0.17421E-01
 -0.18701E-02  0.91156E-03 -0.17421E-01
 -0.16119E-03 -0.19802E-02 -0.17421E-01
 -0.94628E-03 -0.23491E-02 -0.17421E-01
  0.78262E-03 -0.17074E-02 -0.17421E-01
  0.17207E-02 -0.14916E-02 -0.17421E-01
  0.32079E-02  0.76941E-03 -0.17421E-01
  0.28044E-02  0.12515E-02 -0.17421E-01
  0.23049E-02  0.18668E-02 -0.17421E-01
 -0.40490E-03  0.28942E-02 -0.17421E-01
 -0.12093E-02  0.27165E-02 -0.17421E-01
 -0.19444E-02  0.24622E-02 -0.17421E-01
 -0.25026E-02  0.22358E-02 -0.17421E-01
 -0.26363E-02  0.16503E-02 -0.17421E-01
 -0.27643E-02  0.87728E-03 -0.17421E-01
 -0.21136E-02 -0.21374E-02 -0.17421E-01
 -0.16091E-02 -0.26933E-02 -0.17421E-01
 -0.11949E-02 -0.31291E-02 -0.17421E-01
 -0.58956E-03 -0.30382E-02 -0.17421E-01
  0.20546E-03 -0.28749E-02 -0.17421E-01
  0.10558E-02 -0.26447E-02 -0.17421E-01
  0.18417E-02 -0.23725E-02 -0.17421E-01
  0.24555E-02 -0.21494E-02 -0.17421E-01
  0.26028E-02 -0.15095E-02 -0.17421E-01
  0.37964E-02  0.93572E-03 -0.17421E-01
  0.39100E-02  0.00000E+00 -0.17421E-01
  0.34621E-02  0.18171E-02 -0.17421E-01
  0.29267E-02  0.25928E-02 -0.17421E-01
  0.22211E-02  0.32179E-02 -0.17421E-01
  0.13865E-02  0.36559E-02 -0.17421E-01
  0.47130E-03  0.38815E-02 -0.17421E-01
 -0.47130E-03  0.38815E-02 -0.17421E-01
 -0.13865E-02  0.36559E-02 -0.17421E-01
 -0.22211E-02  0.32179E-02 -0.17421E-01
 -0.29267E-02  0.25928E-02 -0.17421E-01
 -0.34621E-02  0.18171E-02 -0.17421E-01
 -0.37964E-02  0.93572E-03 -0.17421E-01
 -0.39100E-02 -0.47884E-18 -0.17421E-01
 -0.37964E-02 -0.93572E-03 -0.17421E-01
 -0.34621E-02 -0.18171E-02 -0.17421E-01
 -0.29267E-02 -0.25928E-02 -0.17421E-01
 -0.22211E-02 -0.32179E-02 -0.17421E-01
 -0.13865E-02 -0.36559E-02 -0.17421E-01
 -0.47130E-03 -0.38815E-02 -0.17421E-01
  0.47130E-03 -0.38815E-02 -0.17421E-01
  0.13865E-02 -0.36559E-02 -0.17421E-01
  0.22211E-02 -0.32179E-02 -0.17421E-01
  0.29267E-02 -0.25928E-02 -0.17421E-01
  0.34621E-02 -0.18171E-02 -0.17421E-01
  0.37964E-02 -0.93572E-03 -0.17421E-01
  0.10366E-02  0.67847E-03 -0.16442E-01
  0.17434E-02  0.12374E-02 -0.16442E-01
  0.23164E-02  0.59674E-03 -0.16442E-01
  0.16677E-02 -0.33021E-03 -0.16442E-01
  0.30375E-02  0.15245E-03 -0.16442E-01
  0.27825E-02 -0.67150E-03 -0.16442E-01
  0.12840E-02  0.18430E-02 -0.16442E-01
  0.64894E-03  0.14676E-02 -0.16442E-01
  0.12495E-03  0.31081E-03 -0.16442E-01
 -0.13007E-03  0.11847E-02 -0.16442E-01
  0.94169E-03  0.22761E-02 -0.16442E-01
  0.11293E-02  0.28242E-02 -0.16442E-01
  0.17451E-02  0.24252E-02 -0.16442E-01
  0.40534E-03  0.21688E-02 -0.16442E-01
  0.39762E-03  0.29340E-02 -0.16442E-01
 -0.76657E-03 -0.10047E-02 -0.16442E-01
 -0.86713E-03  0.87062E-04 -0.16442E-01
  0.45671E-03 -0.69592E-03 -0.16442E-01
 -0.18329E-02 -0.71056E-03 -0.16442E-01
 -0.18430E-02  0.83985E-04 -0.16442E-01
 -0.27235E-02 -0.77695E-03 -0.16442E-01
 -0.28001E-02  0.43446E-04 -0.16442E-01
 -0.25380E-02 -0.15190E-02 -0.16442E-01
 -0.19330E-02 -0.13219E-02 -0.16442E-01
 -0.99219E-03  0.10020E-02 -0.16442E-01
 -0.14415E-02 -0.17321E-02 -0.16442E-01
 -0.31374E-03  0.20248E-02 -0.16442E-01
 -0.11033E-02  0.18602E-02 -0.16442E-01
 -0.18840E-02  0.17175E-02 -0.16442E-01
 -0.18700E-02  0.91180E-03 -0.16442E-01
 -0.16146E-03 -0.19803E-02 -0.16442E-01
 -0.94687E-03 -0.23491E-02 -0.16442E-01
  0.78195E-03 -0.17073E-02 -0.16442E-01
  0.17207E-02 -0.14919E-02 -0.16442E-01
  0.32083E-02  0.77042E-03 -0.16442E-01
  0.28044E-02  0.12520E-02 -0.16442E-01
  0.23048E-02  0.18669E-02 -0.16442E-01
 -0.40476E-03  0.28931E-02 -0.16442E-01
 -0.12093E-02  0.27160E-02 -0.16442E-01
 -0.19444E-02  0.24620E-02 -0.16442E-01
 -0.25026E-02  0.22358E-02 -0.16442E-01
 -0.26362E-02  0.16503E-02 -0.16442E-01
 -0.27640E-02  0.87754E-03 -0.16442E-01
 -0.21137E-02 -0.21374E-02 -0.16442E-01
 -0.16091E-02 -0.26933E-02 -0.16442E-01
 -0.11950E-02 -0.31291E-02 -0.16442E-01
 -0.58991E-03 -0.30382E-02 -0.16442E-01
  0.20505E-03 -0.28749E-02 -0.16442E-01
  0.10555E-02 -0.26450E-02 -0.16442E-01
  0.18417E-02 -0.23727E-02 -0.16442E-01
  0.24556E-02 -0.21500E-02 -0.16442E-01
  0.26029E-02 -0.15094E-02 -0.16442E-01
  0.37964E-02  0.93572E-03 -0.16442E-01
  0.39100E-02  0.00000E+00 -0.16442E-01
  0.34621E-02  0.18171E-02 -0.16442E-01
  0.29267E-02  0.25928E-02 -0.16442E-01
  0.22211E-02  0.32179E-02 -0.16442E-01
  0.13865E-02  0.36559E-02 -0.16442E-01
  0.47130E-03  0.38815E-02 -0.16442E-01
 -0.47130E-03  0.38815E-02 -0.16442E-01
 -0.13865E-02  0.36559E-02 -0.16442E-01
 -0.22211E-02  0.32179E-02 -0.16442E-01
 -0.29267E-02  0.25928E-02 -0.16442E-01
 -0.34621E-02  0.18171E-02 -0.16442E-01
 -0.37964E-02  0.93572E-03 -0.16442E-01
 -0.39100E-02  0.39516E-17 -0.16442E-01
 -0.37964E-02 -0.93572E-03 -0.16442E-01
 -0.34621E-02 -0.18171E-02 -0.16442E-01
 -0.29267E-02 -0.25928E-02 -0.16442E-01
 -0.22211E-02 -0.32179E-02 -0.16442E-01
 -0.13865E-02 -0.36559E-02 -0.16442E-01
 -0.47130E-03 -0.38815E-02 -0.16442E-01
  0.47130E-03 -0.38815E-02 -0.16442E-01
  0.13865E-02 -0.36559E-02 -0.16442E-01
  0.22211E-02 -0.32179E-02 -0.16442E-01
  0.29267E-02 -0.25928E-02 -0.16442E-01
  0.34621E-02 -0.18171E-02 -0.16442E-01
  0.37964E-02 -0.93572E-03 -0.16442E-01
  0.10365E-02  0.67902E-03 -0.15462E-01
  0.17432E-02  0.12381E-02 -0.15462E-01
  0.23163E-02  0.59727E-03 -0.15462E-01
  0.16675E-02 -0.32945E-03 -0.15462E-01
  0.30374E-02  0.15282E-03 -0.15462E-01
  0.27829E-02 -0.67100E-03 -0.15462E-01
  0.12839E-02  0.18432E-02 -0.15462E-01
  0.64869E-03  0.14686E-02 -0.15462E-01
  0.12468E-03  0.31196E-03 -0.15462E-01
 -0.13026E-03  0.11865E-02 -0.15462E-01
  0.94135E-03  0.22762E-02 -0.15462E-01
  0.11289E-02  0.28238E-02 -0.15462E-01
  0.17447E-02  0.24254E-02 -0.15462E-01
  0.40528E-03  0.21688E-02 -0.15462E-01
  0.39760E-03  0.29337E-02 -0.15462E-01
 -0.76692E-03 -0.10049E-02 -0.15462E-01
 -0.86724E-03  0.87871E-04 -0.15462E-01
  0.45626E-03 -0.69519E-03 -0.15462E-01
 -0.18332E-02 -0.71042E-03 -0.15462E-01
 -0.18430E-02  0.84108E-04 -0.15462E-01
 -0.27235E-02 -0.77678E-03 -0.15462E-01
 -0.27998E-02  0.43720E-04 -0.15462E-01
 -0.25382E-02 -0.15189E-02 -0.15462E-01
 -0.19334E-02 -0.13219E-02 -0.15462E-01
 -0.99205E-03  0.10034E-02 -0.15462E-01
 -0.14419E-02 -0.17320E-02 -0.15462E-01
 -0.31354E-03  0.20251E-02 -0.15462E-01
 -0.11030E-02  0.18601E-02 -0.15462E-01
 -0.18840E-02  0.17175E-02 -0.15462E-01
 -0.18699E-02  0.91204E-03 -0.15462E-01
 -0.16174E-03 -0.19803E-02 -0.15462E-01
 -0.94747E-03 -0.23492E-02 -0.15462E-01
  0.78129E-03 -0.17073E-02 -0.15462E-01
  0.17206E-02 -0.14921E-02 -0.15462E-01
  0.32086E-02  0.77142E-03 -0.15462E-01
  0.28044E-02  0.12524E-02 -0.15462E-01
  0.23047E-02  0.18669E-02 -0.15462E-01
 -0.40462E-03  0.28920E-02 -0.15462E-01
 -0.12093E-02  0.27155E-02 -0.15462E-01
 -0.19444E-02  0.24618E-02 -0.15462E-01
 -0.25025E-02  0.22358E-02 -0.15462E-01
 -0.26361E-02  0.16503E-02 -0.15462E-01
 -0.27637E-02  0.87781E-03 -0.15462E-01
 -0.21139E-02 -0.21374E-02 -0.15462E-01
 -0.16092E-02 -0.26934E-02 -0.15462E-01
 -0.11951E-02 -0.31291E-02 -0.15462E-01
 -0.59025E-03 -0.30382E-02 -0.15462E-01
  0.20465E-03 -0.28749E-02 -0.15462E-01
  0.10552E-02 -0.26452E-02 -0.15462E-01
  0.18418E-02 -0.23729E-02 -0.15462E-01
  0.24558E-02 -0.21505E-02 -0.15462E-01
  0.26030E-02 -0.15093E-02 -0.15462E-01
  0.37964E-02  0.93572E-03 -0.15462E-01
  0.39100E-02  0.00000E+00 -0.15462E-01
  0.34621E-02  0.18171E-02 -0.15462E-01
  0.29267E-02  0.25928E-02 -0.15462E-01
  0.22211E-02  0.32179E-02 -0.15462E-01
  0.13865E-02  0.36559E-02 -0.15462E-01
  0.47130E-03  0.38815E-02 -0.15462E-01
 -0.47130E-03  0.38815E-02 -0.15462E-01
 -0.13865E-02  0.36559E-02 -0.15462E-01
 -0.22211E-02  0.32179E-02 -0.15462E-01
 -0.29267E-02  0.25928E-02 -0.15462E-01
 -0.34621E-02  0.18171E-02 -0.15462E-01
 -0.37964E-02  0.93572E-03 -0.15462E-01
 -0.39100E-02 -0.47884E-18 -0.15462E-01
 -0.37964E-02 -0.93572E-03 -0.15462E-01
 -0.34621E-02 -0.18171E-02 -0.15462E-01
 -0.29267E-02 -0.25928E-02 -0.15462E-01
 -0.22211E-02 -0.32179E-02 -0.15462E-01
 -0.13865E-02 -0.36559E-02 -0.15462E-01
 -0.47130E-03 -0.38815E-02 -0.15462E-01
  0.47130E-03 -0.38815E-02 -0.15462E-01
  0.13865E-02 -0.36559E-02 -0.15462E-01
  0.22211E-02 -0.32179E-02 -0.15462E-01
  0.29267E-02 -0.25928E-02 -0.15462E-01
  0.34621E-02 -0.18171E-02 -0.15462E-01
  0.37964E-02 -0.93572E-03 -0.15462E-01
  0.10364E-02  0.67958E-03 -0.14483E-01
  0.17430E-02  0.12387E-02 -0.14483E-01
  0.23162E-02  0.59779E-03 -0.14483E-01
  0.16672E-02 -0.32870E-03 -0.14483E-01
  0.30374E-02  0.15318E-03 -0.14483E-01
  0.27832E-02 -0.67051E-03 -0.14483E-01
  0.12838E-02  0.18434E-02 -0.14483E-01
  0.64845E-03  0.14696E-02 -0.14483E-01
  0.12442E-03  0.31311E-03 -0.14483E-01
 -0.13044E-03  0.11882E-02 -0.14483E-01
  0.94102E-03  0.22763E-02 -0.14483E-01
  0.11286E-02  0.28233E-02 -0.14483E-01
  0.17443E-02  0.24255E-02 -0.14483E-01
  0.40523E-03  0.21689E-02 -0.14483E-01
  0.39759E-03  0.29335E-02 -0.14483E-01
 -0.76727E-03 -0.10050E-02 -0.14483E-01
 -0.86735E-03  0.88681E-04 -0.14483E-01
  0.45582E-03 -0.69447E-03 -0.14483E-01
 -0.18335E-02 -0.71028E-03 -0.14483E-01
 -0.18429E-02  0.84232E-04 -0.14483E-01
 -0.27235E-02 -0.77661E-03 -0.14483E-01
 -0.27995E-02  0.43993E-04 -0.14483E-01
 -0.25383E-02 -0.15189E-02 -0.14483E-01
 -0.19339E-02 -0.13218E-02 -0.14483E-01
 -0.99190E-03  0.10048E-02 -0.14483E-01
 -0.14422E-02 -0.17320E-02 -0.14483E-01
 -0.31334E-03  0.20254E-02 -0.14483E-01
 -0.11026E-02  0.18599E-02 -0.14483E-01
 -0.18839E-02  0.17175E-02 -0.14483E-01
 -0.18697E-02  0.91228E-03 -0.14483E-01
 -0.16201E-03 -0.19803E-02 -0.14483E-01
 -0.94807E-03 -0.23492E-02 -0.14483E-01
  0.78063E-03 -0.17073E-02 -0.14483E-01
  0.17206E-02 -0.14923E-02 -0.14483E-01
  0.32089E-02  0.77243E-03 -0.14483E-01
  0.28043E-02  0.12528E-02 -0.14483E-01
  0.23046E-02  0.18670E-02 -0.14483E-01
 -0.40448E-03  0.28910E-02 -0.14483E-01
 -0.12093E-02  0.27151E-02 -0.14483E-01
 -0.19443E-02  0.24615E-02 -0.14483E-01
 -0.25025E-02  0.22358E-02 -0.14483E-01
 -0.26360E-02  0.16503E-02 -0.14483E-01
 -0.27633E-02  0.87807E-03 -0.14483E-01
 -0.21140E-02 -0.21374E-02 -0.14483E-01
 -0.16092E-02 -0.26934E-02 -0.14483E-01
 -0.11953E-02 -0.31291E-02 -0.14483E-01
 -0.59060E-03 -0.30382E-02 -0.14483E-01
  0.20424E-03 -0.28749E-02 -0.14483E-01
  0.10549E-02 -0.26455E-02 -0.14483E-01
  0.18418E-02 -0.23732E-02 -0.14483E-01
  0.24559E-02 -0.21511E-02 -0.14483E-01
  0.26030E-02 -0.15092E-02 -0.14483E-01
  0.37964E-02  0.93572E-03 -0.14483E-01
  0.39100E-02  0.00000E+00 -0.14483E-01
  0.34621E-02  0.18171E-02 -0.14483E-01
  0.29267E-02  0.25928E-02 -0.14483E-01
  0.22211E-02  0.32179E-02 -0.14483E-01
  0.13865E-02  0.36559E-02 -0.14483E-01
  0.47130E-03  0.38815E-02 -0.14483E-01
 -0.47130E-03  0.38815E-02 -0.14483E-01
 -0.13865E-02  0.36559E-02 -0.14483E-01
 -0.22211E-02  0.32179E-02 -0.14483E-01
 -0.29267E-02  0.25928E-02 -0.14483E-01
 -0.34621E-02  0.18171E-02 -0.14483E-01
 -0.37964E-02  0.93572E-03 -0.14483E-01
 -0.39100E-02  0.22152E-17 -0.14483E-01
 -0.37964E-02 -0.93572E-03 -0.14483E-01
 -0.34621E-02 -0.18171E-02 -0.14483E-01
 -0.29267E-02 -0.25928E-02 -0.14483E-01
 -0.22211E-02 -0.32179E-02 -0.14483E-01
 -0.13865E-02 -0.36559E-02 -0.14483E-01
 -0.47130E-03 -0.38815E-02 -0.14483E-01
  0.47130E-03 -0.38815E-02 -0.14483E-01
  0.13865E-02 -0.36559E-02 -0.14483E-01
  0.22211E-02 -0.32179E-02 -0.14483E-01
  0.29267E-02 -0.25928E-02 -0.14483E-01
  0.34621E-02 -0.18171E-02 -0.14483E-01
  0.37964E-02 -0.93572E-03 -0.14483E-01
  0.10363E-02  0.68013E-03 -0.13504E-01
  0.17429E-02  0.12394E-02 -0.13504E-01
  0.23161E-02  0.59831E-03 -0.13504E-01
  0.16670E-02 -0.32794E-03 -0.13504E-01
  0.30374E-02  0.15354E-03 -0.13504E-01
  0.27836E-02 -0.67002E-03 -0.13504E-01
  0.12837E-02  0.18436E-02 -0.13504E-01
  0.64820E-03  0.14706E-02 -0.13504E-01
  0.12416E-03  0.31426E-03 -0.13504E-01
 -0.13063E-03  0.11900E-02 -0.13504E-01
  0.94069E-03  0.22765E-02 -0.13504E-01
  0.11282E-02  0.28229E-02 -0.13504E-01
  0.17439E-02  0.24257E-02 -0.13504E-01
  0.40518E-03  0.21689E-02 -0.13504E-01
  0.39757E-03  0.29332E-02 -0.13504E-01
 -0.76763E-03 -0.10051E-02 -0.13504E-01
 -0.86746E-03  0.89490E-04 -0.13504E-01
  0.45537E-03 -0.69374E-03 -0.13504E-01
 -0.18338E-02 -0.71013E-03 -0.13504E-01
 -0.18428E-02  0.84355E-04 -0.13504E-01
 -0.27234E-02 -0.77644E-03 -0.13504E-01
 -0.27992E-02  0.44266E-04 -0.13504E-01
 -0.25385E-02 -0.15188E-02 -0.13504E-01
 -0.19343E-02 -0.13216E-02 -0.13504E-01
 -0.99176E-03  0.10061E-02 -0.13504E-01
 -0.14425E-02 -0.17320E-02 -0.13504E-01
 -0.31314E-03  0.20257E-02 -0.13504E-01
 -0.11023E-02  0.18598E-02 -0.13504E-01
 -0.18839E-02  0.17175E-02 -0.13504E-01
 -0.18696E-02  0.91252E-03 -0.13504E-01
 -0.16229E-03 -0.19803E-02 -0.13504E-01
 -0.94867E-03 -0.23492E-02 -0.13504E-01
  0.77997E-03 -0.17073E-02 -0.13504E-01
  0.17205E-02 -0.14926E-02 -0.13504E-01
  0.32092E-02  0.77343E-03 -0.13504E-01
  0.28043E-02  0.12533E-02 -0.13504E-01
  0.23044E-02  0.18670E-02 -0.13504E-01
 -0.40434E-03  0.28899E-02 -0.13504E-01
 -0.12093E-02  0.27146E-02 -0.13504E-01
 -0.19443E-02  0.24613E-02 -0.13504E-01
 -0.25025E-02  0.22358E-02 -0.13504E-01
 -0.26359E-02  0.16503E-02 -0.13504E-01
 -0.27630E-02  0.87833E-03 -0.13504E-01
 -0.21141E-02 -0.21374E-02 -0.13504E-01
 -0.16093E-02 -0.26934E-02 -0.13504E-01
 -0.11954E-02 -0.31291E-02 -0.13504E-01
 -0.59095E-03 -0.30382E-02 -0.13504E-01
  0.20384E-03 -0.28750E-02 -0.13504E-01
  0.10546E-02 -0.26458E-02 -0.13504E-01
  0.18419E-02 -0.23734E-02 -0.13504E-01
  0.24560E-02 -0.21516E-02 -0.13504E-01
  0.26031E-02 -0.15091E-02 -0.13504E-01
  0.37964E-02  0.93572E-03 -0.13504E-01
  0.39100E-02  0.00000E+00 -0.13504E-01
  0.34621E-02  0.18171E-02 -0.13504E-01
  0.29267E-02  0.25928E-02 -0.13504E-01
  0.22211E-02  0.32179E-02 -0.13504E-01
  0.13865E-02  0.36559E-02 -0.13504E-01
  0.47130E-03  0.38815E-02 -0.13504E-01
 -0.47130E-03  0.38815E-02 -0.13504E-01
 -0.13865E-02  0.36559E-02 -0.13504E-01
 -0.22211E-02  0.32179E-02 -0.13504E-01
 -0.29267E-02  0.25928E-02 -0.13504E-01
 -0.34621E-02  0.18171E-02 -0.13504E-01
 -0.37964E-02  0.93572E-03 -0.13504E-01
 -0.39100E-02 -0.47884E-18 -0.13504E-01
 -0.37964E-02 -0.93572E-03 -0.13504E-01
 -0.34621E-02 -0.18171E-02 -0.13504E-01
 -0.29267E-02 -0.25928E-02 -0.13504E-01
 -0.22211E-02 -0.32179E-02 -0.13504E-01
 -0.13865E-02 -0.36559E-02 -0.13504E-01
 -0.47130E-03 -0.38815E-02 -0.13504E-01
  0.47130E-03 -0.38815E-02 -0.13504E-01
  0.13865E-02 -0.36559E-02 -0.13504E-01
  0.22211E-02 -0.32179E-02 -0.13504E-01
  0.29267E-02 -0.25928E-02 -0.13504E-01
  0.34621E-02 -0.18171E-02 -0.13504E-01
  0.37964E-02 -0.93572E-03 -0.13504E-01
  0.10362E-02  0.68068E-03 -0.12525E-01
  0.17427E-02  0.12401E-02 -0.12525E-01
  0.23160E-02  0.59884E-03 -0.12525E-01
  0.16668E-02 -0.32719E-03 -0.12525E-01
  0.30373E-02  0.15391E-03 -0.12525E-01
  0.27839E-02 -0.66953E-03 -0.12525E-01
  0.12836E-02  0.18438E-02 -0.12525E-01
  0.64796E-03  0.14716E-02 -0.12525E-01
  0.12390E-03  0.31541E-03 -0.12525E-01
 -0.13082E-03  0.11917E-02 -0.12525E-01
  0.94036E-03  0.22766E-02 -0.12525E-01
  0.11279E-02  0.28225E-02 -0.12525E-01
  0.17435E-02  0.24258E-02 -0.12525E-01
  0.40512E-03  0.21690E-02 -0.12525E-01
  0.39755E-03  0.29330E-02 -0.12525E-01
 -0.76798E-03 -0.10053E-02 -0.12525E-01
 -0.86756E-03  0.90299E-04 -0.12525E-01
  0.45492E-03 -0.69302E-03 -0.12525E-01
 -0.18341E-02 -0.70999E-03 -0.12525E-01
 -0.18427E-02  0.84479E-04 -0.12525E-01
 -0.27234E-02 -0.77627E-03 -0.12525E-01
 -0.27990E-02  0.44540E-04 -0.12525E-01
 -0.25386E-02 -0.15188E-02 -0.12525E-01
 -0.19347E-02 -0.13215E-02 -0.12525E-01
 -0.99161E-03  0.10075E-02 -0.12525E-01
 -0.14429E-02 -0.17319E-02 -0.12525E-01
 -0.31294E-03  0.20260E-02 -0.12525E-01
 -0.11019E-02  0.18597E-02 -0.12525E-01
 -0.18838E-02  0.17175E-02 -0.12525E-01
 -0.18695E-02  0.91276E-03 -0.12525E-01
 -0.16256E-03 -0.19804E-02 -0.12525E-01
 -0.94927E-03 -0.23493E-02 -0.12525E-01
  0.77931E-03 -0.17073E-02 -0.12525E-01
  0.17205E-02 -0.14928E-02 -0.12525E-01
  0.32096E-02  0.77444E-03 -0.12525E-01
  0.28043E-02  0.12537E-02 -0.12525E-01
  0.23043E-02  0.18670E-02 -0.12525E-01
 -0.40420E-03  0.28888E-02 -0.12525E-01
 -0.12093E-02  0.27141E-02 -0.12525E-01
 -0.19443E-02  0.24611E-02 -0.12525E-01
 -0.25024E-02  0.22358E-02 -0.12525E-01
 -0.26358E-02  0.16503E-02 -0.12525E-01
 -0.27627E-02  0.87859E-03 -0.12525E-01
 -0.21143E-02 -0.21374E-02 -0.12525E-01
 -0.16093E-02 -0.26934E-02 -0.12525E-01
 -0.11955E-02 -0.31291E-02 -0.12525E-01
 -0.59130E-03 -0.30382E-02 -0.12525E-01
  0.20343E-03 -0.28750E-02 -0.12525E-01
  0.10543E-02 -0.26460E-02 -0.12525E-01
  0.18419E-02 -0.23736E-02 -0.12525E-01
  0.24561E-02 -0.21521E-02 -0.12525E-01
  0.26032E-02 -0.15090E-02 -0.12525E-01
  0.37964E-02  0.93572E-03 -0.12525E-01
  0.39100E-02  0.00000E+00 -0.12525E-01
  0.34621E-02  0.18171E-02 -0.12525E-01
  0.29267E-02  0.25928E-02 -0.12525E-01
  0.22211E-02  0.32179E-02 -0.12525E-01
  0.13865E-02  0.36559E-02 -0.12525E-01
  0.47130E-03  0.38815E-02 -0.12525E-01
 -0.47130E-03  0.38815E-02 -0.12525E-01
 -0.13865E-02  0.36559E-02 -0.12525E-01
 -0.22211E-02  0.32179E-02 -0.12525E-01
 -0.29267E-02  0.25928E-02 -0.12525E-01
 -0.34621E-02  0.18171E-02 -0.12525E-01
 -0.37964E-02  0.93572E-03 -0.12525E-01
 -0.39100E-02  0.22152E-17 -0.12525E-01
 -0.37964E-02 -0.93572E-03 -0.12525E-01
 -0.34621E-02 -0.18171E-02 -0.12525E-01
 -0.29267E-02 -0.25928E-02 -0.12525E-01
 -0.22211E-02 -0.32179E-02 -0.12525E-01
 -0.13865E-02 -0.36559E-02 -0.12525E-01
 -0.47130E-03 -0.38815E-02 -0.12525E-01
  0.47130E-03 -0.38815E-02 -0.12525E-01
  0.13865E-02 -0.36559E-02 -0.12525E-01
  0.22211E-02 -0.32179E-02 -0.12525E-01
  0.29267E-02 -0.25928E-02 -0.12525E-01
  0.34621E-02 -0.18171E-02 -0.12525E-01
  0.37964E-02 -0.93572E-03 -0.12525E-01
  0.10360E-02  0.68124E-03 -0.11546E-01
  0.17425E-02  0.12407E-02 -0.11546E-01
  0.23158E-02  0.59936E-03 -0.11546E-01
  0.16666E-02 -0.32643E-03 -0.11546E-01
  0.30373E-02  0.15427E-03 -0.11546E-01
  0.27842E-02 -0.66903E-03 -0.11546E-01
  0.12835E-02  0.18440E-02 -0.11546E-01
  0.64771E-03  0.14727E-02 -0.11546E-01
  0.12363E-03  0.31656E-03 -0.11546E-01
 -0.13100E-03  0.11935E-02 -0.11546E-01
  0.94003E-03  0.22767E-02 -0.11546E-01
  0.11276E-02  0.28220E-02 -0.11546E-01
  0.17432E-02  0.24260E-02 -0.11546E-01
  0.40507E-03  0.21690E-02 -0.11546E-01
  0.39754E-03  0.29327E-02 -0.11546E-01
 -0.76834E-03 -0.10054E-02 -0.11546E-01
 -0.86767E-03  0.91108E-04 -0.11546E-01
  0.45447E-03 -0.69229E-03 -0.11546E-01
 -0.18344E-02 -0.70985E-03 -0.11546E-01
 -0.18426E-02  0.84602E-04 -0.11546E-01
 -0.27234E-02 -0.77610E-03 -0.11546E-01
 -0.27987E-02  0.44813E-04 -0.11546E-01
 -0.25388E-02 -0.15187E-02 -0.11546E-01
 -0.19352E-02 -0.13215E-02 -0.11546E-01
 -0.99147E-03  0.10088E-02 -0.11546E-01
 -0.14433E-02 -0.17319E-02 -0.11546E-01
 -0.31274E-03  0.20262E-02 -0.11546E-01
 -0.11016E-02  0.18595E-02 -0.11546E-01
 -0.18838E-02  0.17175E-02 -0.11546E-01
 -0.18694E-02  0.91300E-03 -0.11546E-01
 -0.16284E-03 -0.19804E-02 -0.11546E-01
 -0.94986E-03 -0.23493E-02 -0.11546E-01
  0.77865E-03 -0.17073E-02 -0.11546E-01
  0.17205E-02 -0.14931E-02 -0.11546E-01
  0.32099E-02  0.77544E-03 -0.11546E-01
  0.28042E-02  0.12541E-02 -0.11546E-01
  0.23042E-02  0.18671E-02 -0.11546E-01
 -0.40407E-03  0.28877E-02 -0.11546E-01
 -0.12093E-02  0.27137E-02 -0.11546E-01
 -0.19442E-02  0.24609E-02 -0.11546E-01
 -0.25024E-02  0.22358E-02 -0.11546E-01
 -0.26358E-02  0.16503E-02 -0.11546E-01
 -0.27624E-02  0.87885E-03 -0.11546E-01
 -0.21144E-02 -0.21374E-02 -0.11546E-01
 -0.16094E-02 -0.26934E-02 -0.11546E-01
 -0.11956E-02 -0.31291E-02 -0.11546E-01
 -0.59165E-03 -0.30382E-02 -0.11546E-01
  0.20302E-03 -0.28750E-02 -0.11546E-01
  0.10540E-02 -0.26463E-02 -0.11546E-01
  0.18419E-02 -0.23738E-02 -0.11546E-01
  0.24563E-02 -0.21527E-02 -0.11546E-01
  0.26033E-02 -0.15088E-02 -0.11546E-01
  0.37964E-02  0.93572E-03 -0.11546E-01
  0.39100E-02  0.00000E+00 -0.11546E-01
  0.34621E-02  0.18171E-02 -0.11546E-01
  0.29267E-02  0.25928E-02 -0.11546E-01
  0.22211E-02  0.32179E-02 -0.11546E-01
  0.13865E-02  0.36559E-02 -0.11546E-01
  0.47130E-03  0.38815E-02 -0.11546E-01
 -0.47130E-03  0.38815E-02 -0.11546E-01
 -0.13865E-02  0.36559E-02 -0.11546E-01
 -0.22211E-02  0.32179E-02 -0.11546E-01
 -0.29267E-02  0.25928E-02 -0.11546E-01
 -0.34621E-02  0.18171E-02 -0.11546E-01
 -0.37964E-02  0.93572E-03 -0.11546E-01
 -0.39100E-02 -0.47884E-18 -0.11546E-01
 -0.37964E-02 -0.93572E-03 -0.11546E-01
 -0.34621E-02 -0.18171E-02 -0.11546E-01
 -0.29267E-02 -0.25928E-02 -0.11546E-01
 -0.22211E-02 -0.32179E-02 -0.11546E-01
 -0.13865E-02 -0.36559E-02 -0.11546E-01
 -0.47130E-03 -0.38815E-02 -0.11546E-01
  0.47130E-03 -0.38815E-02 -0.11546E-01
  0.13865E-02 -0.36559E-02 -0.11546E-01
  0.22211E-02 -0.32179E-02 -0.11546E-01
  0.29267E-02 -0.25928E-02 -0.11546E-01
  0.34621E-02 -0.18171E-02 -0.11546E-01
  0.37964E-02 -0.93572E-03 -0.11546E-01
  0.10359E-02  0.68179E-03 -0.10567E-01
  0.17423E-02  0.12414E-02 -0.10567E-01
  0.23157E-02  0.59988E-03 -0.10567E-01
  0.16664E-02 -0.32568E-03 -0.10567E-01
  0.30373E-02  0.15463E-03 -0.10567E-01
  0.27846E-02 -0.66854E-03 -0.10567E-01
  0.12834E-02  0.18442E-02 -0.10567E-01
  0.64747E-03  0.14736E-02 -0.10567E-01
  0.12337E-03  0.31770E-03 -0.10567E-01
 -0.13118E-03  0.11952E-02 -0.10567E-01
  0.93970E-03  0.22768E-02 -0.10567E-01
  0.11272E-02  0.28216E-02 -0.10567E-01
  0.17428E-02  0.24261E-02 -0.10567E-01
  0.40501E-03  0.21690E-02 -0.10567E-01
  0.39752E-03  0.29324E-02 -0.10567E-01
 -0.76869E-03 -0.10056E-02 -0.10567E-01
 -0.86778E-03  0.91918E-04 -0.10567E-01
  0.45402E-03 -0.69156E-03 -0.10567E-01
 -0.18347E-02 -0.70971E-03 -0.10567E-01
 -0.18425E-02  0.84726E-04 -0.10567E-01
 -0.27234E-02 -0.77593E-03 -0.10567E-01
 -0.27984E-02  0.45086E-04 -0.10567E-01
 -0.25389E-02 -0.15187E-02 -0.10567E-01
 -0.19356E-02 -0.13213E-02 -0.10567E-01
 -0.99133E-03  0.10102E-02 -0.10567E-01
 -0.14436E-02 -0.17318E-02 -0.10567E-01
 -0.31254E-03  0.20265E-02 -0.10567E-01
 -0.11013E-02  0.18594E-02 -0.10567E-01
 -0.18837E-02  0.17175E-02 -0.10567E-01
 -0.18692E-02  0.91324E-03 -0.10567E-01
 -0.16311E-03 -0.19804E-02 -0.10567E-01
 -0.95046E-03 -0.23493E-02 -0.10567E-01
  0.77799E-03 -0.17073E-02 -0.10567E-01
  0.17204E-02 -0.14933E-02 -0.10567E-01
  0.32102E-02  0.77645E-03 -0.10567E-01
  0.28042E-02  0.12545E-02 -0.10567E-01
  0.23041E-02  0.18671E-02 -0.10567E-01
 -0.40393E-03  0.28867E-02 -0.10567E-01
 -0.12093E-02  0.27132E-02 -0.10567E-01
 -0.19442E-02  0.24606E-02 -0.10567E-01
 -0.25024E-02  0.22358E-02 -0.10567E-01
 -0.26357E-02  0.16503E-02 -0.10567E-01
 -0.27621E-02  0.87912E-03 -0.10567E-01
 -0.21146E-02 -0.21374E-02 -0.10567E-01
 -0.16094E-02 -0.26935E-02 -0.10567E-01
 -0.11957E-02 -0.31291E-02 -0.10567E-01
 -0.59200E-03 -0.30381E-02 -0.10567E-01
  0.20262E-03 -0.28750E-02 -0.10567E-01
  0.10536E-02 -0.26466E-02 -0.10567E-01
  0.18420E-02 -0.23740E-02 -0.10567E-01
  0.24564E-02 -0.21533E-02 -0.10567E-01
  0.26033E-02 -0.15087E-02 -0.10567E-01
  0.37964E-02  0.93572E-03 -0.10567E-01
  0.39100E-02  0.00000E+00 -0.10567E-01
  0.34621E-02  0.18171E-02 -0.10567E-01
  0.29267E-02  0.25928E-02 -0.10567E-01
  0.22211E-02  0.32179E-02 -0.10567E-01
  0.13865E-02  0.36559E-02 -0.10567E-01
  0.47130E-03  0.38815E-02 -0.10567E-01
 -0.47130E-03  0.38815E-02 -0.10567E-01
 -0.13865E-02  0.36559E-02 -0.10567E-01
 -0.22211E-02  0.32179E-02 -0.10567E-01
 -0.29267E-02  0.25928E-02 -0.10567E-01
 -0.34621E-02  0.18171E-02 -0.10567E-01
 -0.37964E-02  0.93572E-03 -0.10567E-01
 -0.39100E-02 -0.47884E-18 -0.10567E-01
 -0.37964E-02 -0.93572E-03 -0.10567E-01
 -0.34621E-02 -0.18171E-02 -0.10567E-01
 -0.29267E-02 -0.25928E-02 -0.10567E-01
 -0.22211E-02 -0.32179E-02 -0.10567E-01
 -0.13865E-02 -0.36559E-02 -0.10567E-01
 -0.47130E-03 -0.38815E-02 -0.10567E-01
  0.47130E-03 -0.38815E-02 -0.10567E-01
  0.13865E-02 -0.36559E-02 -0.10567E-01
  0.22211E-02 -0.32179E-02 -0.10567E-01
  0.29267E-02 -0.25928E-02 -0.10567E-01
  0.34621E-02 -0.18171E-02 -0.10567E-01
  0.37964E-02 -0.93572E-03 -0.10567E-01
  0.10358E-02  0.68235E-03 -0.95874E-02
  0.17422E-02  0.12421E-02 -0.95874E-02
  0.23156E-02  0.60041E-03 -0.95874E-02
  0.16662E-02 -0.32493E-03 -0.95874E-02
  0.30373E-02  0.15500E-03 -0.95874E-02
  0.27849E-02 -0.66805E-03 -0.95874E-02
  0.12833E-02  0.18444E-02 -0.95874E-02
  0.64722E-03  0.14747E-02 -0.95874E-02
  0.12311E-03  0.31885E-03 -0.95874E-02
 -0.13137E-03  0.11970E-02 -0.95874E-02
  0.93937E-03  0.22770E-02 -0.95874E-02
  0.11269E-02  0.28211E-02 -0.95874E-02
  0.17424E-02  0.24262E-02 -0.95874E-02
  0.40496E-03  0.21691E-02 -0.95874E-02
  0.39750E-03  0.29322E-02 -0.95874E-02
 -0.76904E-03 -0.10057E-02 -0.95874E-02
 -0.86789E-03  0.92727E-04 -0.95874E-02
  0.45358E-03 -0.69084E-03 -0.95874E-02
 -0.18350E-02 -0.70957E-03 -0.95874E-02
 -0.18424E-02  0.84849E-04 -0.95874E-02
 -0.27233E-02 -0.77576E-03 -0.95874E-02
 -0.27981E-02  0.45359E-04 -0.95874E-02
 -0.25391E-02 -0.15186E-02 -0.95874E-02
 -0.19360E-02 -0.13212E-02 -0.95874E-02
 -0.99118E-03  0.10115E-02 -0.95874E-02
 -0.14440E-02 -0.17318E-02 -0.95874E-02
 -0.31234E-03  0.20268E-02 -0.95874E-02
 -0.11009E-02  0.18593E-02 -0.95874E-02
 -0.18836E-02  0.17175E-02 -0.95874E-02
 -0.18691E-02  0.91347E-03 -0.95874E-02
 -0.16339E-03 -0.19804E-02 -0.95874E-02
 -0.95106E-03 -0.23493E-02 -0.95874E-02
  0.77733E-03 -0.17073E-02 -0.95874E-02
  0.17204E-02 -0.14936E-02 -0.95874E-02
  0.32105E-02  0.77745E-03 -0.95874E-02
  0.28042E-02  0.12550E-02 -0.95874E-02
  0.23040E-02  0.18671E-02 -0.95874E-02
 -0.40379E-03  0.28856E-02 -0.95874E-02
 -0.12093E-02  0.27127E-02 -0.95874E-02
 -0.19441E-02  0.24604E-02 -0.95874E-02
 -0.25023E-02  0.22358E-02 -0.95874E-02
 -0.26356E-02  0.16503E-02 -0.95874E-02
 -0.27618E-02  0.87938E-03 -0.95874E-02
 -0.21147E-02 -0.21374E-02 -0.95874E-02
 -0.16094E-02 -0.26935E-02 -0.95874E-02
 -0.11958E-02 -0.31291E-02 -0.95874E-02
 -0.59235E-03 -0.30381E-02 -0.95874E-02
  0.20221E-03 -0.28750E-02 -0.95874E-02
  0.10533E-02 -0.26468E-02 -0.95874E-02
  0.18420E-02 -0.23742E-02 -0.95874E-02
  0.24565E-02 -0.21538E-02 -0.95874E-02
  0.26034E-02 -0.15086E-02 -0.95874E-02
  0.37964E-02  0.93572E-03 -0.95874E-02
  0.39100E-02  0.00000E+00 -0.95874E-02
  0.34621E-02  0.18171E-02 -0.95874E-02
  0.29267E-02  0.25928E-02 -0.95874E-02
  0.22211E-02  0.32179E-02 -0.95874E-02
  0.13865E-02  0.36559E-02 -0.95874E-02
  0.47130E-03  0.38815E-02 -0.95874E-02
 -0.47130E-03  0.38815E-02 -0.95874E-02
 -0.13865E-02  0.36559E-02 -0.95874E-02
 -0.22211E-02  0.32179E-02 -0.95874E-02
 -0.29267E-02  0.25928E-02 -0.95874E-02
 -0.34621E-02  0.18171E-02 -0.95874E-02
 -0.37964E-02  0.93572E-03 -0.95874E-02
 -0.39100E-02 -0.47884E-18 -0.95874E-02
 -0.37964E-02 -0.93572E-03 -0.95874E-02
 -0.34621E-02 -0.18171E-02 -0.95874E-02
 -0.29267E-02 -0.25928E-02 -0.95874E-02
 -0.22211E-02 -0.32179E-02 -0.95874E-02
 -0.13865E-02 -0.36559E-02 -0.95874E-02
 -0.47130E-03 -0.38815E-02 -0.95874E-02
  0.47130E-03 -0.38815E-02 -0.95874E-02
  0.13865E-02 -0.36559E-02 -0.95874E-02
  0.22211E-02 -0.32179E-02 -0.95874E-02
  0.29267E-02 -0.25928E-02 -0.95874E-02
  0.34621E-02 -0.18171E-02 -0.95874E-02
  0.37964E-02 -0.93572E-03 -0.95874E-02
  0.10357E-02  0.68290E-03 -0.86082E-02
  0.17420E-02  0.12427E-02 -0.86082E-02
  0.23155E-02  0.60093E-03 -0.86082E-02
  0.16660E-02 -0.32417E-03 -0.86082E-02
  0.30372E-02  0.15536E-03 -0.86082E-02
  0.27853E-02 -0.66755E-03 -0.86082E-02
  0.12832E-02  0.18445E-02 -0.86082E-02
  0.64698E-03  0.14757E-02 -0.86082E-02
  0.12285E-03  0.32000E-03 -0.86082E-02
 -0.13155E-03  0.11987E-02 -0.86082E-02
  0.93903E-03  0.22771E-02 -0.86082E-02
  0.11266E-02  0.28207E-02 -0.86082E-02
  0.17420E-02  0.24264E-02 -0.86082E-02
  0.40490E-03  0.21691E-02 -0.86082E-02
  0.39749E-03  0.29319E-02 -0.86082E-02
 -0.76940E-03 -0.10058E-02 -0.86082E-02
 -0.86800E-03  0.93536E-04 -0.86082E-02
  0.45313E-03 -0.69011E-03 -0.86082E-02
 -0.18353E-02 -0.70943E-03 -0.86082E-02
 -0.18423E-02  0.84973E-04 -0.86082E-02
 -0.27233E-02 -0.77559E-03 -0.86082E-02
 -0.27979E-02  0.45633E-04 -0.86082E-02
 -0.25393E-02 -0.15186E-02 -0.86082E-02
 -0.19365E-02 -0.13212E-02 -0.86082E-02
 -0.99104E-03  0.10129E-02 -0.86082E-02
 -0.14443E-02 -0.17318E-02 -0.86082E-02
 -0.31214E-03  0.20271E-02 -0.86082E-02
 -0.11006E-02  0.18592E-02 -0.86082E-02
 -0.18836E-02  0.17175E-02 -0.86082E-02
 -0.18690E-02  0.91371E-03 -0.86082E-02
 -0.16366E-03 -0.19805E-02 -0.86082E-02
 -0.95166E-03 -0.23493E-02 -0.86082E-02
  0.77667E-03 -0.17073E-02 -0.86082E-02
  0.17203E-02 -0.14938E-02 -0.86082E-02
  0.32109E-02  0.77846E-03 -0.86082E-02
  0.28042E-02  0.12554E-02 -0.86082E-02
  0.23039E-02  0.18672E-02 -0.86082E-02
 -0.40365E-03  0.28845E-02 -0.86082E-02
 -0.12093E-02  0.27122E-02 -0.86082E-02
 -0.19441E-02  0.24602E-02 -0.86082E-02
 -0.25023E-02  0.22358E-02 -0.86082E-02
 -0.26355E-02  0.16502E-02 -0.86082E-02
 -0.27615E-02  0.87964E-03 -0.86082E-02
 -0.21148E-02 -0.21374E-02 -0.86082E-02
 -0.16095E-02 -0.26935E-02 -0.86082E-02
 -0.11960E-02 -0.31291E-02 -0.86082E-02
 -0.59270E-03 -0.30381E-02 -0.86082E-02
  0.20180E-03 -0.28750E-02 -0.86082E-02
  0.10530E-02 -0.26471E-02 -0.86082E-02
  0.18421E-02 -0.23744E-02 -0.86082E-02
  0.24566E-02 -0.21543E-02 -0.86082E-02
  0.26035E-02 -0.15085E-02 -0.86082E-02
  0.37964E-02  0.93572E-03 -0.86082E-02
  0.39100E-02  0.00000E+00 -0.86082E-02
  0.34621E-02  0.18171E-02 -0.86082E-02
  0.29267E-02  0.25928E-02 -0.86082E-02
  0.22211E-02  0.32179E-02 -0.86082E-02
  0.13865E-02  0.36559E-02 -0.86082E-02
  0.47130E-03  0.38815E-02 -0.86082E-02
 -0.47130E-03  0.38815E-02 -0.86082E-02
 -0.13865E-02  0.36559E-02 -0.86082E-02
 -0.22211E-02  0.32179E-02 -0.86082E-02
 -0.29267E-02  0.25928E-02 -0.86082E-02
 -0.34621E-02  0.18171E-02 -0.86082E-02
 -0.37964E-02  0.93572E-03 -0.86082E-02
 -0.39100E-02 -0.47884E-18 -0.86082E-02
 -0.37964E-02 -0.93572E-03 -0.86082E-02
 -0.34621E-02 -0.18171E-02 -0.86082E-02
 -0.29267E-02 -0.25928E-02 -0.86082E-02
 -0.22211E-02 -0.32179E-02 -0.86082E-02
 -0.13865E-02 -0.36559E-02 -0.86082E-02
 -0.47130E-03 -0.38815E-02 -0.86082E-02
  0.47130E-03 -0.38815E-02 -0.86082E-02
  0.13865E-02 -0.36559E-02 -0.86082E-02
  0.22211E-02 -0.32179E-02 -0.86082E-02
  0.29267E-02 -0.25928E-02 -0.86082E-02
  0.34621E-02 -0.18171E-02 -0.86082E-02
  0.37964E-02 -0.93572E-03 -0.86082E-02
  0.10356E-02  0.68346E-03 -0.76290E-02
  0.17418E-02  0.12434E-02 -0.76290E-02
  0.23153E-02  0.60145E-03 -0.76290E-02
  0.16657E-02 -0.32342E-03 -0.76290E-02
  0.30372E-02  0.15572E-03 -0.76290E-02
  0.27856E-02 -0.66706E-03 -0.76290E-02
  0.12830E-02  0.18447E-02 -0.76290E-02
  0.64673E-03  0.14767E-02 -0.76290E-02
  0.12259E-03  0.32115E-03 -0.76290E-02
 -0.13174E-03  0.12005E-02 -0.76290E-02
  0.93870E-03  0.22772E-02 -0.76290E-02
  0.11262E-02  0.28203E-02 -0.76290E-02
  0.17416E-02  0.24265E-02 -0.76290E-02
  0.40485E-03  0.21691E-02 -0.76290E-02
  0.39747E-03  0.29316E-02 -0.76290E-02
 -0.76975E-03 -0.10060E-02 -0.76290E-02
 -0.86811E-03  0.94345E-04 -0.76290E-02
  0.45268E-03 -0.68939E-03 -0.76290E-02
 -0.18356E-02 -0.70929E-03 -0.76290E-02
 -0.18422E-02  0.85096E-04 -0.76290E-02
 -0.27233E-02 -0.77542E-03 -0.76290E-02
 -0.27976E-02  0.45906E-04 -0.76290E-02
 -0.25394E-02 -0.15185E-02 -0.76290E-02
 -0.19369E-02 -0.13211E-02 -0.76290E-02
 -0.99090E-03  0.10142E-02 -0.76290E-02
 -0.14446E-02 -0.17317E-02 -0.76290E-02
 -0.31194E-03  0.20274E-02 -0.76290E-02
 -0.11002E-02  0.18590E-02 -0.76290E-02
 -0.18835E-02  0.17175E-02 -0.76290E-02
 -0.18689E-02  0.91395E-03 -0.76290E-02
 -0.16394E-03 -0.19805E-02 -0.76290E-02
 -0.95226E-03 -0.23494E-02 -0.76290E-02
  0.77601E-03 -0.17073E-02 -0.76290E-02
  0.17203E-02 -0.14941E-02 -0.76290E-02
  0.32112E-02  0.77946E-03 -0.76290E-02
  0.28042E-02  0.12558E-02 -0.76290E-02
  0.23038E-02  0.18672E-02 -0.76290E-02
 -0.40352E-03  0.28835E-02 -0.76290E-02
 -0.12093E-02  0.27118E-02 -0.76290E-02
 -0.19441E-02  0.24600E-02 -0.76290E-02
 -0.25023E-02  0.22358E-02 -0.76290E-02
 -0.26354E-02  0.16502E-02 -0.76290E-02
 -0.27612E-02  0.87990E-03 -0.76290E-02
 -0.21150E-02 -0.21374E-02 -0.76290E-02
 -0.16095E-02 -0.26935E-02 -0.76290E-02
 -0.11961E-02 -0.31291E-02 -0.76290E-02
 -0.59305E-03 -0.30381E-02 -0.76290E-02
  0.20140E-03 -0.28750E-02 -0.76290E-02
  0.10527E-02 -0.26474E-02 -0.76290E-02
  0.18421E-02 -0.23746E-02 -0.76290E-02
  0.24568E-02 -0.21549E-02 -0.76290E-02
  0.26036E-02 -0.15084E-02 -0.76290E-02
  0.37964E-02  0.93572E-03 -0.76290E-02
  0.39100E-02  0.00000E+00 -0.76290E-02
  0.34621E-02  0.18171E-02 -0.76290E-02
  0.29267E-02  0.25928E-02 -0.76290E-02
  0.22211E-02  0.32179E-02 -0.76290E-02
  0.13865E-02  0.36559E-02 -0.76290E-02
  0.47130E-03  0.38815E-02 -0.76290E-02
 -0.47130E-03  0.38815E-02 -0.76290E-02
 -0.13865E-02  0.36559E-02 -0.76290E-02
 -0.22211E-02  0.32179E-02 -0.76290E-02
 -0.29267E-02  0.25928E-02 -0.76290E-02
 -0.34621E-02  0.18171E-02 -0.76290E-02
 -0.37964E-02  0.93572E-03 -0.76290E-02
 -0.39100E-02  0.22152E-17 -0.76290E-02
 -0.37964E-02 -0.93572E-03 -0.76290E-02
 -0.34621E-02 -0.18171E-02 -0.76290E-02
 -0.29267E-02 -0.25928E-02 -0.76290E-02
 -0.22211E-02 -0.32179E-02 -0.76290E-02
 -0.13865E-02 -0.36559E-02 -0.76290E-02
 -0.47130E-03 -0.38815E-02 -0.76290E-02
  0.47130E-03 -0.38815E-02 -0.76290E-02
  0.13865E-02 -0.36559E-02 -0.76290E-02
  0.22211E-02 -0.32179E-02 -0.76290E-02
  0.29267E-02 -0.25928E-02 -0.76290E-02
  0.34621E-02 -0.18171E-02 -0.76290E-02
  0.37964E-02 -0.93572E-03 -0.76290E-02
  0.10355E-02  0.68401E-03 -0.66499E-02
  0.17416E-02  0.12440E-02 -0.66499E-02
  0.23152E-02  0.60198E-03 -0.66499E-02
  0.16655E-02 -0.32266E-03 -0.66499E-02
  0.30372E-02  0.15609E-03 -0.66499E-02
  0.27860E-02 -0.66657E-03 -0.66499E-02
  0.12829E-02  0.18449E-02 -0.66499E-02
  0.64649E-03  0.14777E-02 -0.66499E-02
  0.12232E-03  0.32230E-03 -0.66499E-02
 -0.13193E-03  0.12022E-02 -0.66499E-02
  0.93837E-03  0.22774E-02 -0.66499E-02
  0.11259E-02  0.28198E-02 -0.66499E-02
  0.17412E-02  0.24267E-02 -0.66499E-02
  0.40480E-03  0.21692E-02 -0.66499E-02
  0.39745E-03  0.29314E-02 -0.66499E-02
 -0.77011E-03 -0.10061E-02 -0.66499E-02
 -0.86822E-03  0.95155E-04 -0.66499E-02
  0.45223E-03 -0.68866E-03 -0.66499E-02
 -0.18359E-02 -0.70915E-03 -0.66499E-02
 -0.18421E-02  0.85220E-04 -0.66499E-02
 -0.27232E-02 -0.77525E-03 -0.66499E-02
 -0.27973E-02  0.46180E-04 -0.66499E-02
 -0.25396E-02 -0.15185E-02 -0.66499E-02
 -0.19373E-02 -0.13210E-02 -0.66499E-02
 -0.99075E-03  0.10156E-02 -0.66499E-02
 -0.14450E-02 -0.17317E-02 -0.66499E-02
 -0.31173E-03  0.20277E-02 -0.66499E-02
 -0.10999E-02  0.18589E-02 -0.66499E-02
 -0.18835E-02  0.17175E-02 -0.66499E-02
 -0.18687E-02  0.91419E-03 -0.66499E-02
 -0.16421E-03 -0.19805E-02 -0.66499E-02
 -0.95285E-03 -0.23494E-02 -0.66499E-02
  0.77535E-03 -0.17073E-02 -0.66499E-02
  0.17202E-02 -0.14943E-02 -0.66499E-02
  0.32115E-02  0.78047E-03 -0.66499E-02
  0.28041E-02  0.12563E-02 -0.66499E-02
  0.23037E-02  0.18672E-02 -0.66499E-02
 -0.40338E-03  0.28824E-02 -0.66499E-02
 -0.12093E-02  0.27113E-02 -0.66499E-02
 -0.19440E-02  0.24597E-02 -0.66499E-02
 -0.25023E-02  0.22358E-02 -0.66499E-02
 -0.26353E-02  0.16502E-02 -0.66499E-02
 -0.27609E-02  0.88016E-03 -0.66499E-02
 -0.21151E-02 -0.21374E-02 -0.66499E-02
 -0.16096E-02 -0.26935E-02 -0.66499E-02
 -0.11962E-02 -0.31291E-02 -0.66499E-02
 -0.59340E-03 -0.30381E-02 -0.66499E-02
  0.20099E-03 -0.28751E-02 -0.66499E-02
  0.10524E-02 -0.26476E-02 -0.66499E-02
  0.18422E-02 -0.23748E-02 -0.66499E-02
  0.24569E-02 -0.21554E-02 -0.66499E-02
  0.26036E-02 -0.15083E-02 -0.66499E-02
  0.37964E-02  0.93572E-03 -0.66499E-02
  0.39100E-02  0.00000E+00 -0.66499E-02
  0.34621E-02  0.18171E-02 -0.66499E-02
  0.29267E-02  0.25928E-02 -0.66499E-02
  0.22211E-02  0.32179E-02 -0.66499E-02
  0.13865E-02  0.36559E-02 -0.66499E-02
  0.47130E-03  0.38815E-02 -0.66499E-02
 -0.47130E-03  0.38815E-02 -0.66499E-02
 -0.13865E-02  0.36559E-02 -0.66499E-02
 -0.22211E-02  0.32179E-02 -0.66499E-02
 -0.29267E-02  0.25928E-02 -0.66499E-02
 -0.34621E-02  0.18171E-02 -0.66499E-02
 -0.37964E-02  0.93572E-03 -0.66499E-02
 -0.39100E-02 -0.47884E-18 -0.66499E-02
 -0.37964E-02 -0.93572E-03 -0.66499E-02
 -0.34621E-02 -0.18171E-02 -0.66499E-02
 -0.29267E-02 -0.25928E-02 -0.66499E-02
 -0.22211E-02 -0.32179E-02 -0.66499E-02
 -0.13865E-02 -0.36559E-02 -0.66499E-02
 -0.47130E-03 -0.38815E-02 -0.66499E-02
  0.47130E-03 -0.38815E-02 -0.66499E-02
  0.13865E-02 -0.36559E-02 -0.66499E-02
  0.22211E-02 -0.32179E-02 -0.66499E-02
  0.29267E-02 -0.25928E-02 -0.66499E-02
  0.34621E-02 -0.18171E-02 -0.66499E-02
  0.37964E-02 -0.93572E-03 -0.66499E-02
  0.10354E-02  0.68457E-03 -0.56707E-02
  0.17414E-02  0.12447E-02 -0.56707E-02
  0.23151E-02  0.60250E-03 -0.56707E-02
  0.16653E-02 -0.32191E-03 -0.56707E-02
  0.30372E-02  0.15645E-03 -0.56707E-02
  0.27863E-02 -0.66607E-03 -0.56707E-02
  0.12829E-02  0.18451E-02 -0.56707E-02
  0.64624E-03  0.14787E-02 -0.56707E-02
  0.12206E-03  0.32345E-03 -0.56707E-02
 -0.13211E-03  0.12040E-02 -0.56707E-02
  0.93804E-03  0.22775E-02 -0.56707E-02
  0.11255E-02  0.28194E-02 -0.56707E-02
  0.17408E-02  0.24268E-02 -0.56707E-02
  0.40474E-03  0.21692E-02 -0.56707E-02
  0.39744E-03  0.29311E-02 -0.56707E-02
 -0.77046E-03 -0.10062E-02 -0.56707E-02
 -0.86832E-03  0.95964E-04 -0.56707E-02
  0.45179E-03 -0.68793E-03 -0.56707E-02
 -0.18362E-02 -0.70901E-03 -0.56707E-02
 -0.18420E-02  0.85343E-04 -0.56707E-02
 -0.27232E-02 -0.77507E-03 -0.56707E-02
 -0.27970E-02  0.46453E-04 -0.56707E-02
 -0.25397E-02 -0.15184E-02 -0.56707E-02
 -0.19377E-02 -0.13209E-02 -0.56707E-02
 -0.99061E-03  0.10169E-02 -0.56707E-02
 -0.14453E-02 -0.17316E-02 -0.56707E-02
 -0.31153E-03  0.20280E-02 -0.56707E-02
 -0.10995E-02  0.18588E-02 -0.56707E-02
 -0.18834E-02  0.17175E-02 -0.56707E-02
 -0.18686E-02  0.91443E-03 -0.56707E-02
 -0.16449E-03 -0.19806E-02 -0.56707E-02
 -0.95345E-03 -0.23494E-02 -0.56707E-02
  0.77469E-03 -0.17073E-02 -0.56707E-02
  0.17202E-02 -0.14945E-02 -0.56707E-02
  0.32119E-02  0.78148E-03 -0.56707E-02
  0.28041E-02  0.12567E-02 -0.56707E-02
  0.23036E-02  0.18673E-02 -0.56707E-02
 -0.40324E-03  0.28813E-02 -0.56707E-02
 -0.12093E-02  0.27108E-02 -0.56707E-02
 -0.19440E-02  0.24595E-02 -0.56707E-02
 -0.25022E-02  0.22358E-02 -0.56707E-02
 -0.26352E-02  0.16502E-02 -0.56707E-02
 -0.27606E-02  0.88043E-03 -0.56707E-02
 -0.21152E-02 -0.21374E-02 -0.56707E-02
 -0.16096E-02 -0.26936E-02 -0.56707E-02
 -0.11963E-02 -0.31291E-02 -0.56707E-02
 -0.59375E-03 -0.30381E-02 -0.56707E-02
  0.20059E-03 -0.28751E-02 -0.56707E-02
  0.10521E-02 -0.26479E-02 -0.56707E-02
  0.18422E-02 -0.23750E-02 -0.56707E-02
  0.24570E-02 -0.21560E-02 -0.56707E-02
  0.26037E-02 -0.15082E-02 -0.56707E-02
  0.37964E-02  0.93572E-03 -0.56707E-02
  0.39100E-02  0.00000E+00 -0.56707E-02
  0.34621E-02  0.18171E-02 -0.56707E-02
  0.29267E-02  0.25928E-02 -0.56707E-02
  0.22211E-02  0.32179E-02 -0.56707E-02
  0.13865E-02  0.36559E-02 -0.56707E-02
  0.47130E-03  0.38815E-02 -0.56707E-02
 -0.47130E-03  0.38815E-02 -0.56707E-02
 -0.13865E-02  0.36559E-02 -0.56707E-02
 -0.22211E-02  0.32179E-02 -0.56707E-02
 -0.29267E-02  0.25928E-02 -0.56707E-02
 -0.34621E-02  0.18171E-02 -0.56707E-02
 -0.37964E-02  0.93572E-03 -0.56707E-02
 -0.39100E-02 -0.47884E-18 -0.56707E-02
 -0.37964E-02 -0.93572E-03 -0.56707E-02
 -0.34621E-02 -0.18171E-02 -0.56707E-02
 -0.29267E-02 -0.25928E-02 -0.56707E-02
 -0.22211E-02 -0.32179E-02 -0.56707E-02
 -0.13865E-02 -0.36559E-02 -0.56707E-02
 -0.47130E-03 -0.38815E-02 -0.56707E-02
  0.47130E-03 -0.38815E-02 -0.56707E-02
  0.13865E-02 -0.36559E-02 -0.56707E-02
  0.22211E-02 -0.32179E-02 -0.56707E-02
  0.29267E-02 -0.25928E-02 -0.56707E-02
  0.34621E-02 -0.18171E-02 -0.56707E-02
  0.37964E-02 -0.93572E-03 -0.56707E-02
  0.10352E-02  0.68512E-03 -0.46916E-02
  0.17413E-02  0.12454E-02 -0.46916E-02
  0.23150E-02  0.60302E-03 -0.46916E-02
  0.16651E-02 -0.32115E-03 -0.46916E-02
  0.30371E-02  0.15681E-03 -0.46916E-02
  0.27866E-02 -0.66558E-03 -0.46916E-02
  0.12827E-02  0.18453E-02 -0.46916E-02
  0.64600E-03  0.14797E-02 -0.46916E-02
  0.12180E-03  0.32459E-03 -0.46916E-02
 -0.13230E-03  0.12058E-02 -0.46916E-02
  0.93771E-03  0.22776E-02 -0.46916E-02
  0.11252E-02  0.28189E-02 -0.46916E-02
  0.17404E-02  0.24270E-02 -0.46916E-02
  0.40469E-03  0.21693E-02 -0.46916E-02
  0.39742E-03  0.29308E-02 -0.46916E-02
 -0.77081E-03 -0.10064E-02 -0.46916E-02
 -0.86843E-03  0.96773E-04 -0.46916E-02
  0.45134E-03 -0.68721E-03 -0.46916E-02
 -0.18365E-02 -0.70887E-03 -0.46916E-02
 -0.18419E-02  0.85467E-04 -0.46916E-02
 -0.27232E-02 -0.77490E-03 -0.46916E-02
 -0.27968E-02  0.46726E-04 -0.46916E-02
 -0.25399E-02 -0.15184E-02 -0.46916E-02
 -0.19382E-02 -0.13208E-02 -0.46916E-02
 -0.99046E-03  0.10183E-02 -0.46916E-02
 -0.14457E-02 -0.17316E-02 -0.46916E-02
 -0.31133E-03  0.20283E-02 -0.46916E-02
 -0.10992E-02  0.18586E-02 -0.46916E-02
 -0.18834E-02  0.17175E-02 -0.46916E-02
 -0.18685E-02  0.91467E-03 -0.46916E-02
 -0.16476E-03 -0.19806E-02 -0.46916E-02
 -0.95405E-03 -0.23494E-02 -0.46916E-02
  0.77402E-03 -0.17073E-02 -0.46916E-02
  0.17202E-02 -0.14948E-02 -0.46916E-02
  0.32122E-02  0.78248E-03 -0.46916E-02
  0.28041E-02  0.12571E-02 -0.46916E-02
  0.23034E-02  0.18673E-02 -0.46916E-02
 -0.40310E-03  0.28802E-02 -0.46916E-02
 -0.12093E-02  0.27103E-02 -0.46916E-02
 -0.19440E-02  0.24593E-02 -0.46916E-02
 -0.25022E-02  0.22358E-02 -0.46916E-02
 -0.26351E-02  0.16502E-02 -0.46916E-02
 -0.27602E-02  0.88069E-03 -0.46916E-02
 -0.21154E-02 -0.21374E-02 -0.46916E-02
 -0.16097E-02 -0.26936E-02 -0.46916E-02
 -0.11964E-02 -0.31291E-02 -0.46916E-02
 -0.59409E-03 -0.30381E-02 -0.46916E-02
  0.20018E-03 -0.28751E-02 -0.46916E-02
  0.10518E-02 -0.26482E-02 -0.46916E-02
  0.18422E-02 -0.23752E-02 -0.46916E-02
  0.24571E-02 -0.21565E-02 -0.46916E-02
  0.26038E-02 -0.15081E-02 -0.46916E-02
  0.37964E-02  0.93572E-03 -0.46916E-02
  0.39100E-02  0.00000E+00 -0.46916E-02
  0.34621E-02  0.18171E-02 -0.46916E-02
  0.29267E-02  0.25928E-02 -0.46916E-02
  0.22211E-02  0.32179E-02 -0.46916E-02
  0.13865E-02  0.36559E-02 -0.46916E-02
  0.47130E-03  0.38815E-02 -0.46916E-02
 -0.47130E-03  0.38815E-02 -0.46916E-02
 -0.13865E-02  0.36559E-02 -0.46916E-02
 -0.22211E-02  0.32179E-02 -0.46916E-02
 -0.29267E-02  0.25928E-02 -0.46916E-02
 -0.34621E-02  0.18171E-02 -0.46916E-02
 -0.37964E-02  0.93572E-03 -0.46916E-02
 -0.39100E-02 -0.47884E-18 -0.46916E-02
 -0.37964E-02 -0.93572E-03 -0.46916E-02
 -0.34621E-02 -0.18171E-02 -0.46916E-02
 -0.29267E-02 -0.25928E-02 -0.46916E-02
 -0.22211E-02 -0.32179E-02 -0.46916E-02
 -0.13865E-02 -0.36559E-02 -0.46916E-02
 -0.47130E-03 -0.38815E-02 -0.46916E-02
  0.47130E-03 -0.38815E-02 -0.46916E-02
  0.13865E-02 -0.36559E-02 -0.46916E-02
  0.22211E-02 -0.32179E-02 -0.46916E-02
  0.29267E-02 -0.25928E-02 -0.46916E-02
  0.34621E-02 -0.18171E-02 -0.46916E-02
  0.37964E-02 -0.93572E-03 -0.46916E-02
  0.10351E-02  0.68567E-03 -0.37124E-02
  0.17411E-02  0.12460E-02 -0.37124E-02
  0.23149E-02  0.60355E-03 -0.37124E-02
  0.16649E-02 -0.32040E-03 -0.37124E-02
  0.30371E-02  0.15718E-03 -0.37124E-02
  0.27870E-02 -0.66509E-03 -0.37124E-02
  0.12826E-02  0.18455E-02 -0.37124E-02
  0.64575E-03  0.14807E-02 -0.37124E-02
  0.12154E-03  0.32574E-03 -0.37124E-02
 -0.13248E-03  0.12075E-02 -0.37124E-02
  0.93738E-03  0.22777E-02 -0.37124E-02
  0.11249E-02  0.28185E-02 -0.37124E-02
  0.17400E-02  0.24271E-02 -0.37124E-02
  0.40463E-03  0.21693E-02 -0.37124E-02
  0.39740E-03  0.29306E-02 -0.37124E-02
 -0.77117E-03 -0.10065E-02 -0.37124E-02
 -0.86854E-03  0.97583E-04 -0.37124E-02
  0.45089E-03 -0.68648E-03 -0.37124E-02
 -0.18368E-02 -0.70873E-03 -0.37124E-02
 -0.18418E-02  0.85591E-04 -0.37124E-02
 -0.27232E-02 -0.77474E-03 -0.37124E-02
 -0.27965E-02  0.47000E-04 -0.37124E-02
 -0.25400E-02 -0.15183E-02 -0.37124E-02
 -0.19386E-02 -0.13207E-02 -0.37124E-02
 -0.99032E-03  0.10197E-02 -0.37124E-02
 -0.14460E-02 -0.17316E-02 -0.37124E-02
 -0.31113E-03  0.20285E-02 -0.37124E-02
 -0.10988E-02  0.18585E-02 -0.37124E-02
 -0.18833E-02  0.17175E-02 -0.37124E-02
 -0.18683E-02  0.91491E-03 -0.37124E-02
 -0.16504E-03 -0.19806E-02 -0.37124E-02
 -0.95465E-03 -0.23495E-02 -0.37124E-02
  0.77336E-03 -0.17073E-02 -0.37124E-02
  0.17201E-02 -0.14950E-02 -0.37124E-02
  0.32125E-02  0.78348E-03 -0.37124E-02
  0.28041E-02  0.12576E-02 -0.37124E-02
  0.23033E-02  0.18674E-02 -0.37124E-02
 -0.40296E-03  0.28792E-02 -0.37124E-02
 -0.12093E-02  0.27099E-02 -0.37124E-02
 -0.19439E-02  0.24591E-02 -0.37124E-02
 -0.25022E-02  0.22358E-02 -0.37124E-02
 -0.26350E-02  0.16502E-02 -0.37124E-02
 -0.27599E-02  0.88095E-03 -0.37124E-02
 -0.21155E-02 -0.21374E-02 -0.37124E-02
 -0.16097E-02 -0.26936E-02 -0.37124E-02
 -0.11965E-02 -0.31290E-02 -0.37124E-02
 -0.59444E-03 -0.30381E-02 -0.37124E-02
  0.19977E-03 -0.28751E-02 -0.37124E-02
  0.10515E-02 -0.26484E-02 -0.37124E-02
  0.18423E-02 -0.23754E-02 -0.37124E-02
  0.24573E-02 -0.21571E-02 -0.37124E-02
  0.26039E-02 -0.15080E-02 -0.37124E-02
  0.37964E-02  0.93572E-03 -0.37124E-02
  0.39100E-02  0.00000E+00 -0.37124E-02
  0.34621E-02  0.18171E-02 -0.37124E-02
  0.29267E-02  0.25928E-02 -0.37124E-02
  0.22211E-02  0.32179E-02 -0.37124E-02
  0.13865E-02  0.36559E-02 -0.37124E-02
  0.47130E-03  0.38815E-02 -0.37124E-02
 -0.47130E-03  0.38815E-02 -0.37124E-02
 -0.13865E-02  0.36559E-02 -0.37124E-02
 -0.22211E-02  0.32179E-02 -0.37124E-02
 -0.29267E-02  0.25928E-02 -0.37124E-02
 -0.34621E-02  0.18171E-02 -0.37124E-02
 -0.37964E-02  0.93572E-03 -0.37124E-02
 -0.39100E-02  0.47884E-18 -0.37124E-02
 -0.37964E-02 -0.93572E-03 -0.37124E-02
 -0.34621E-02 -0.18171E-02 -0.37124E-02
 -0.29267E-02 -0.25928E-02 -0.37124E-02
 -0.22211E-02 -0.32179E-02 -0.37124E-02
 -0.13865E-02 -0.36559E-02 -0.37124E-02
 -0.47130E-03 -0.38815E-02 -0.37124E-02
  0.47130E-03 -0.38815E-02 -0.37124E-02
  0.13865E-02 -0.36559E-02 -0.37124E-02
  0.22211E-02 -0.32179E-02 -0.37124E-02
  0.29267E-02 -0.25928E-02 -0.37124E-02
  0.34621E-02 -0.18171E-02 -0.37124E-02
  0.37964E-02 -0.93572E-03 -0.37124E-02
  
CELLS       3486               17724
       1       0
       1       1
       1       2
       1       3
       1       4
       1       5
       1       6
       1       7
       1       8
       1       9
       1      10
       1      11
       1      12
       1      13
       1      14
       1      15
       1      16
       1      17
       1      18
       1      19
       1      20
       1      21
       1      22
       1      23
       1      24
       1      25
       1      26
       1      27
       1      28
       1      29
       1      30
       1      31
       1      32
       1      33
       1      34
       1      35
       1      36
       1      37
       1      38
       1      39
       1      40
       1      41
       1      42
       1      43
       1      44
       1      45
       1      46
       1      47
       1      48
       1      49
       1      50
       1      51
       1      52
       1      53
       1      54
       1      55
       1      56
       1      57
       1      58
       1      59
       1      60
       1      61
       1      62
       1      63
       1      64
       1      65
       1      66
       1      67
       1      68
       1      69
       1      70
       1      71
       1      72
       1      73
       1      74
       1      75
       1      76
       1      77
       1      78
       1      79
       1      80
       1      81
       1      82
       1      83
       1      84
       1      85
       1      86
       1      87
       1      88
       1      89
       1      90
       1      91
       1      92
       1      93
       1      94
       1      95
       1      96
       1      97
       1      98
       1      99
       1     100
       1     101
       1     102
       1     103
       1     104
       1     105
       1     106
       1     107
       1     108
       1     109
       1     110
       1     111
       1     112
       1     113
       1     114
       1     115
       1     116
       1     117
       1     118
       1     119
       1     120
       1     121
       1     122
       1     123
       1     124
       1     125
       1     126
       1     127
       1     128
       1     129
       1     130
       1     131
       1     132
       1     133
       1     134
       1     135
       1     136
       1     137
       1     138
       1     139
       1     140
       1     141
       1     142
       1     143
       1     144
       1     145
       1     146
       1     147
       1     148
       1     149
       1     150
       1     151
       1     152
       1     153
       1     154
       1     155
       1     156
       1     157
       1     158
       1     159
       1     160
       1     161
       1     162
       1     163
       1     164
       1     165
       1     166
       1     167
       1     168
       1     169
       1     170
       1     171
       1     172
       1     173
       1     174
       1     175
       1     176
       1     177
       1     178
       1     179
       1     180
       1     181
       1     182
       1     183
       1     184
       1     185
       1     186
       1     187
       1     188
       1     189
       1     190
       1     191
       1     192
       1     193
       1     194
       1     195
       1     196
       1     197
       1     198
       1     199
       1     200
       1     201
       1     202
       1     203
       1     204
       1     205
       1     206
       1     207
       1     208
       1     209
       1     210
       1     211
       1     212
       1     213
       1     214
       1     215
       1     216
       1     217
       1     218
       1     219
       1     220
       1     221
       1     222
       1     223
       1     224
       1     225
       1     226
       1     227
       1     228
       1     229
       1     230
       1     231
       1     232
       1     233
       1     234
       1     235
       1     236
       1     237
       1     238
       1     239
       1     240
       1     241
       1     242
       1     243
       1     244
       1     245
       1     246
       1     247
       1     248
       1     249
       1     250
       1     251
       1     252
       1     253
       1     254
       1     255
       1     256
       1     257
       1     258
       1     259
       1     260
       1     261
       1     262
       1     263
       1     264
       1     265
       1     266
       1     267
       1     268
       1     269
       1     270
       1     271
       1     272
       1     273
       1     274
       1     275
       1     276
       1     277
       1     278
       1     279
       1     280
       1     281
       1     282
       1     283
       1     284
       1     285
       1     286
       1     287
       1     288
       1     289
       1     290
       1     291
       1     292
       1     293
       1     294
       1     295
       1     296
       1     297
       1     298
       1     299
       1     300
       1     301
       1     302
       1     303
       1     304
       1     305
       1     306
       1     307
       1     308
       1     309
       1     310
       1     311
       1     312
       1     313
       1     314
       1     315
       1     316
       1     317
       1     318
       1     319
       1     320
       1     321
       1     322
       1     323
       1     324
       1     325
       1     326
       1     327
       1     328
       1     329
       1     330
       1     331
       1     332
       1     333
       1     334
       1     335
       1     336
       1     337
       1     338
       1     339
       1     340
       1     341
       1     342
       1     343
       1     344
       1     345
       1     346
       1     347
       1     348
       1     349
       1     350
       1     351
       1     352
       1     353
       1     354
       1     355
       1     356
       1     357
       1     358
       1     359
       1     360
       1     361
       1     362
       1     363
       1     364
       1     365
       1     366
       1     367
       1     368
       1     369
       1     370
       1     371
       1     372
       1     373
       1     374
       1     375
       1     376
       1     377
       1     378
       1     379
       1     380
       1     381
       1     382
       1     383
       1     384
       1     385
       1     386
       1     387
       1     388
       1     389
       1     390
       1     391
       1     392
       1     393
       1     394
       1     395
       1     396
       1     397
       1     398
       1     399
       1     400
       1     401
       1     402
       1     403
       1     404
       1     405
       1     406
       1     407
       1     408
       1     409
       1     410
       1     411
       1     412
       1     413
       1     414
       1     415
       1     416
       1     417
       1     418
       1     419
       1     420
       1     421
       1     422
       1     423
       1     424
       1     425
       1     426
       1     427
       1     428
       1     429
       1     430
       1     431
       1     432
       1     433
       1     434
       1     435
       1     436
       1     437
       1     438
       1     439
       1     440
       1     441
       1     442
       1     443
       1     444
       1     445
       1     446
       1     447
       1     448
       1     449
       1     450
       1     451
       1     452
       1     453
       1     454
       1     455
       1     456
       1     457
       1     458
       1     459
       1     460
       1     461
       1     462
       1     463
       1     464
       1     465
       1     466
       1     467
       1     468
       1     469
       1     470
       1     471
       1     472
       1     473
       1     474
       1     475
       1     476
       1     477
       1     478
       1     479
       1     480
       1     481
       1     482
       1     483
       1     484
       1     485
       1     486
       1     487
       1     488
       1     489
       1     490
       1     491
       1     492
       1     493
       1     494
       1     495
       1     496
       1     497
       1     498
       1     499
       1     500
       1     501
       1     502
       1     503
       1     504
       1     505
       1     506
       1     507
       1     508
       1     509
       1     510
       1     511
       1     512
       1     513
       1     514
       1     515
       1     516
       1     517
       1     518
       1     519
       1     520
       1     521
       1     522
       1     523
       1     524
       1     525
       1     526
       1     527
       1     528
       1     529
       1     530
       1     531
       1     532
       1     533
       1     534
       1     535
       1     536
       1     537
       1     538
       1     539
       1     540
       1     541
       1     542
       1     543
       1     544
       1     545
       1     546
       1     547
       1     548
       1     549
       1     550
       1     551
       1     552
       1     553
       1     554
       1     555
       1     556
       1     557
       1     558
       1     559
       1     560
       1     561
       1     562
       1     563
       1     564
       1     565
       1     566
       1     567
       1     568
       1     569
       1     570
       1     571
       1     572
       1     573
       1     574
       1     575
       1     576
       1     577
       1     578
       1     579
       1     580
       1     581
       1     582
       1     583
       1     584
       1     585
       1     586
       1     587
       1     588
       1     589
       1     590
       1     591
       1     592
       1     593
       1     594
       1     595
       1     596
       1     597
       1     598
       1     599
       1     600
       1     601
       1     602
       1     603
       1     604
       1     605
       1     606
       1     607
       1     608
       1     609
       1     610
       1     611
       1     612
       1     613
       1     614
       1     615
       1     616
       1     617
       1     618
       1     619
       1     620
       1     621
       1     622
       1     623
       1     624
       1     625
       1     626
       1     627
       1     628
       1     629
       1     630
       1     631
       1     632
       1     633
       1     634
       1     635
       1     636
       1     637
       1     638
       1     639
       1     640
       1     641
       1     642
       1     643
       1     644
       1     645
       1     646
       1     647
       1     648
       1     649
       1     650
       1     651
       1     652
       1     653
       1     654
       1     655
       1     656
       1     657
       1     658
       1     659
       1     660
       1     661
       1     662
       1     663
       1     664
       1     665
       1     666
       1     667
       1     668
       1     669
       1     670
       1     671
       1     672
       1     673
       1     674
       1     675
       1     676
       1     677
       1     678
       1     679
       1     680
       1     681
       1     682
       1     683
       1     684
       1     685
       1     686
       1     687
       1     688
       1     689
       1     690
       1     691
       1     692
       1     693
       1     694
       1     695
       1     696
       1     697
       1     698
       1     699
       1     700
       1     701
       1     702
       1     703
       1     704
       1     705
       1     706
       1     707
       1     708
       1     709
       1     710
       1     711
       1     712
       1     713
       1     714
       1     715
       1     716
       1     717
       1     718
       1     719
       1     720
       1     721
       1     722
       1     723
       1     724
       1     725
       1     726
       1     727
       1     728
       1     729
       1     730
       1     731
       1     732
       1     733
       1     734
       1     735
       1     736
       1     737
       1     738
       1     739
       1     740
       1     741
       1     742
       1     743
       1     744
       1     745
       1     746
       1     747
       1     748
       1     749
       1     750
       1     751
       1     752
       1     753
       1     754
       1     755
       1     756
       1     757
       1     758
       1     759
       1     760
       1     761
       1     762
       1     763
       1     764
       1     765
       1     766
       1     767
       1     768
       1     769
       1     770
       1     771
       1     772
       1     773
       1     774
       1     775
       1     776
       1     777
       1     778
       1     779
       1     780
       1     781
       1     782
       1     783
       1     784
       1     785
       1     786
       1     787
       1     788
       1     789
       1     790
       1     791
       1     792
       1     793
       1     794
       1     795
       1     796
       1     797
       1     798
       1     799
       1     800
       1     801
       1     802
       1     803
       1     804
       1     805
       1     806
       1     807
       1     808
       1     809
       1     810
       1     811
       1     812
       1     813
       1     814
       1     815
       1     816
       1     817
       1     818
       1     819
       1     820
       1     821
       1     822
       1     823
       1     824
       1     825
       1     826
       1     827
       1     828
       1     829
       1     830
       1     831
       1     832
       1     833
       1     834
       1     835
       1     836
       1     837
       1     838
       1     839
       1     840
       1     841
       1     842
       1     843
       1     844
       1     845
       1     846
       1     847
       1     848
       1     849
       1     850
       1     851
       1     852
       1     853
       1     854
       1     855
       1     856
       1     857
       1     858
       1     859
       1     860
       1     861
       1     862
       1     863
       1     864
       1     865
       1     866
       1     867
       1     868
       1     869
       1     870
       1     871
       1     872
       1     873
       1     874
       1     875
       1     876
       1     877
       1     878
       1     879
       1     880
       1     881
       1     882
       1     883
       1     884
       1     885
       1     886
       1     887
       1     888
       1     889
       1     890
       1     891
       1     892
       1     893
       1     894
       1     895
       1     896
       1     897
       1     898
       1     899
       1     900
       1     901
       1     902
       1     903
       1     904
       1     905
       1     906
       1     907
       1     908
       1     909
       1     910
       1     911
       1     912
       1     913
       1     914
       1     915
       1     916
       1     917
       1     918
       1     919
       1     920
       1     921
       1     922
       1     923
       1     924
       1     925
       1     926
       1     927
       1     928
       1     929
       1     930
       1     931
       1     932
       1     933
       1     934
       1     935
       1     936
       1     937
       1     938
       1     939
       1     940
       1     941
       1     942
       1     943
       1     944
       1     945
       1     946
       1     947
       1     948
       1     949
       1     950
       1     951
       1     952
       1     953
       1     954
       1     955
       1     956
       1     957
       1     958
       1     959
       1     960
       1     961
       1     962
       1     963
       1     964
       1     965
       1     966
       1     967
       1     968
       1     969
       1     970
       1     971
       1     972
       1     973
       1     974
       1     975
       1     976
       1     977
       1     978
       1     979
       1     980
       1     981
       1     982
       1     983
       1     984
       1     985
       1     986
       1     987
       1     988
       1     989
       1     990
       1     991
       1     992
       1     993
       1     994
       1     995
       1     996
       1     997
       1     998
       1     999
       1    1000
       1    1001
       1    1002
       1    1003
       1    1004
       1    1005
       1    1006
       1    1007
       1    1008
       1    1009
       1    1010
       1    1011
       1    1012
       1    1013
       1    1014
       1    1015
       1    1016
       1    1017
       1    1018
       1    1019
       1    1020
       1    1021
       1    1022
       1    1023
       1    1024
       1    1025
       1    1026
       1    1027
       1    1028
       1    1029
       1    1030
       1    1031
       1    1032
       1    1033
       1    1034
       1    1035
       1    1036
       1    1037
       1    1038
       1    1039
       1    1040
       1    1041
       1    1042
       1    1043
       1    1044
       1    1045
       1    1046
       1    1047
       1    1048
       1    1049
       1    1050
       1    1051
       1    1052
       1    1053
       1    1054
       1    1055
       1    1056
       1    1057
       1    1058
       1    1059
       1    1060
       1    1061
       1    1062
       1    1063
       1    1064
       1    1065
       1    1066
       1    1067
       1    1068
       1    1069
       1    1070
       1    1071
       1    1072
       1    1073
       1    1074
       1    1075
       1    1076
       1    1077
       1    1078
       1    1079
       1    1080
       1    1081
       1    1082
       1    1083
       1    1084
       1    1085
       1    1086
       1    1087
       1    1088
       1    1089
       1    1090
       1    1091
       1    1092
       1    1093
       1    1094
       1    1095
       1    1096
       1    1097
       1    1098
       1    1099
       1    1100
       1    1101
       1    1102
       1    1103
       1    1104
       1    1105
       1    1106
       1    1107
       1    1108
       1    1109
       1    1110
       1    1111
       1    1112
       1    1113
       1    1114
       1    1115
       1    1116
       1    1117
       1    1118
       1    1119
       1    1120
       1    1121
       1    1122
       1    1123
       1    1124
       1    1125
       1    1126
       1    1127
       1    1128
       1    1129
       1    1130
       1    1131
       1    1132
       1    1133
       1    1134
       1    1135
       1    1136
       1    1137
       1    1138
       1    1139
       1    1140
       1    1141
       1    1142
       1    1143
       1    1144
       1    1145
       1    1146
       1    1147
       1    1148
       1    1149
       1    1150
       1    1151
       1    1152
       1    1153
       1    1154
       1    1155
       1    1156
       1    1157
       1    1158
       1    1159
       1    1160
       1    1161
       1    1162
       1    1163
       1    1164
       1    1165
       1    1166
       1    1167
       1    1168
       1    1169
       1    1170
       1    1171
       1    1172
       1    1173
       1    1174
       1    1175
       1    1176
       1    1177
       1    1178
       1    1179
       1    1180
       1    1181
       1    1182
       1    1183
       1    1184
       1    1185
       1    1186
       1    1187
       1    1188
       1    1189
       1    1190
       1    1191
       1    1192
       1    1193
       1    1194
       1    1195
       1    1196
       1    1197
       1    1198
       1    1199
       1    1200
       1    1201
       1    1202
       1    1203
       1    1204
       1    1205
       1    1206
       1    1207
       1    1208
       1    1209
       1    1210
       1    1211
       1    1212
       1    1213
       1    1214
       1    1215
       1    1216
       1    1217
       1    1218
       1    1219
       1    1220
       1    1221
       1    1222
       1    1223
       1    1224
       1    1225
       1    1226
       1    1227
       1    1228
       1    1229
       1    1230
       1    1231
       1    1232
       1    1233
       1    1234
       1    1235
       1    1236
       1    1237
       1    1238
       1    1239
       1    1240
       1    1241
       1    1242
       1    1243
       1    1244
       1    1245
       1    1246
       1    1247
       1    1248
       1    1249
       1    1250
       1    1251
       1    1252
       1    1253
       1    1254
       1    1255
       1    1256
       1    1257
       1    1258
       1    1259
       1    1260
       1    1261
       1    1262
       1    1263
       1    1264
       1    1265
       1    1266
       1    1267
       1    1268
       1    1269
       1    1270
       1    1271
       1    1272
       1    1273
       1    1274
       1    1275
       1    1276
       1    1277
       1    1278
       1    1279
       1    1280
       1    1281
       1    1282
       1    1283
       1    1284
       1    1285
       1    1286
       1    1287
       1    1288
       1    1289
       1    1290
       1    1291
       1    1292
       1    1293
       1    1294
       1    1295
       1    1296
       1    1297
       1    1298
       1    1299
       1    1300
       1    1301
       1    1302
       1    1303
       1    1304
       1    1305
       1    1306
       1    1307
       1    1308
       1    1309
       1    1310
       1    1311
       1    1312
       1    1313
       1    1314
       1    1315
       1    1316
       1    1317
       1    1318
       1    1319
       1    1320
       1    1321
       1    1322
       1    1323
       1    1324
       1    1325
       1    1326
       1    1327
       1    1328
       1    1329
       1    1330
       1    1331
       1    1332
       1    1333
       1    1334
       1    1335
       1    1336
       1    1337
       1    1338
       1    1339
       1    1340
       1    1341
       1    1342
       1    1343
       1    1344
       1    1345
       1    1346
       1    1347
       1    1348
       1    1349
       1    1350
       1    1351
       1    1352
       1    1353
       1    1354
       1    1355
       1    1356
       1    1357
       1    1358
       1    1359
       1    1360
       1    1361
       1    1362
       1    1363
       1    1364
       1    1365
       1    1366
       1    1367
       1    1368
       1    1369
       1    1370
       1    1371
       1    1372
       1    1373
       1    1374
       1    1375
       1    1376
       1    1377
       1    1378
       1    1379
       1    1380
       1    1381
       1    1382
       1    1383
       1    1384
       1    1385
       1    1386
       1    1387
       1    1388
       1    1389
       1    1390
       1    1391
       1    1392
       1    1393
       1    1394
       1    1395
       1    1396
       1    1397
       1    1398
       1    1399
       1    1400
       1    1401
       1    1402
       1    1403
       1    1404
       1    1405
       1    1406
       1    1407
       1    1408
       1    1409
       1    1410
       1    1411
       1    1412
       1    1413
       1    1414
       1    1415
       1    1416
       1    1417
       1    1418
       1    1419
       1    1420
       1    1421
       1    1422
       1    1423
       1    1424
       1    1425
       1    1426
       1    1427
       1    1428
       1    1429
       1    1430
       1    1431
       1    1432
       1    1433
       1    1434
       1    1435
       1    1436
       1    1437
       1    1438
       1    1439
       1    1440
       1    1441
       1    1442
       1    1443
       1    1444
       1    1445
       1    1446
       1    1447
       1    1448
       1    1449
       1    1450
       1    1451
       1    1452
       1    1453
       1    1454
       1    1455
       1    1456
       1    1457
       1    1458
       1    1459
       1    1460
       1    1461
       1    1462
       1    1463
       1    1464
       1    1465
       1    1466
       1    1467
       1    1468
       1    1469
       1    1470
       1    1471
       1    1472
       1    1473
       1    1474
       1    1475
       1    1476
       1    1477
       1    1478
       1    1479
       1    1480
       1    1481
       1    1482
       1    1483
       1    1484
       1    1485
       1    1486
       1    1487
       1    1488
       1    1489
       1    1490
       1    1491
       1    1492
       1    1493
       1    1494
       1    1495
       1    1496
       1    1497
       1    1498
       1    1499
       1    1500
       1    1501
       1    1502
       1    1503
       1    1504
       1    1505
       1    1506
       1    1507
       1    1508
       1    1509
       1    1510
       1    1511
       1    1512
       1    1513
       1    1514
       1    1515
       1    1516
       1    1517
       1    1518
       1    1519
       1    1520
       1    1521
       1    1522
       1    1523
       1    1524
       1    1525
       1    1526
       1    1527
       1    1528
       1    1529
       1    1530
       1    1531
       1    1532
       1    1533
       1    1534
       1    1535
       1    1536
       1    1537
       1    1538
       1    1539
       1    1540
       1    1541
       1    1542
       1    1543
       1    1544
       1    1545
       1    1546
       1    1547
       1    1548
       1    1549
       1    1550
       1    1551
       1    1552
       1    1553
       1    1554
       1    1555
       1    1556
       1    1557
       1    1558
       1    1559
       1    1560
       1    1561
       1    1562
       1    1563
       1    1564
       1    1565
       1    1566
       1    1567
       1    1568
       1    1569
       1    1570
       1    1571
       1    1572
       1    1573
       1    1574
       1    1575
       1    1576
       1    1577
       1    1578
       1    1579
       1    1580
       1    1581
       1    1582
       1    1583
       1    1584
       1    1585
       1    1586
       1    1587
       1    1588
       1    1589
       1    1590
       1    1591
       1    1592
       1    1593
       1    1594
       1    1595
       1    1596
       1    1597
       1    1598
       1    1599
       1    1600
       1    1601
       1    1602
       1    1603
       1    1604
       1    1605
       1    1606
       1    1607
       1    1608
       1    1609
       1    1610
       1    1611
       1    1612
       1    1613
       1    1614
       1    1615
       1    1616
       1    1617
       1    1618
       1    1619
       1    1620
       1    1621
       1    1622
       1    1623
       1    1624
       1    1625
       1    1626
       1    1627
       1    1628
       1    1629
       1    1630
       1    1631
       1    1632
       1    1633
       1    1634
       1    1635
       1    1636
       1    1637
       1    1638
       1    1639
       1    1640
       1    1641
       1    1642
       1    1643
       1    1644
       1    1645
       1    1646
       1    1647
       1    1648
       1    1649
       1    1650
       1    1651
       1    1652
       1    1653
       1    1654
       1    1655
       1    1656
       1    1657
       1    1658
       1    1659
       1    1660
       1    1661
       1    1662
       1    1663
       1    1664
       1    1665
       1    1666
       1    1667
       1    1668
       1    1669
       1    1670
       1    1671
       1    1672
       1    1673
       1    1674
       1    1675
       1    1676
       1    1677
       1    1678
       1    1679
       1    1680
       1    1681
       1    1682
       1    1683
       1    1684
       1    1685
       1    1686
       1    1687
       1    1688
       1    1689
       1    1690
       1    1691
       1    1692
       1    1693
       1    1694
       1    1695
       1    1696
       1    1697
       1    1698
       1    1699
       1    1700
       1    1701
       1    1702
       1    1703
       1    1704
       1    1705
       1    1706
       1    1707
       1    1708
       1    1709
       1    1710
       1    1711
       1    1712
       1    1713
       1    1714
       1    1715
       1    1716
       1    1717
       1    1718
       1    1719
       1    1720
       1    1721
       1    1722
       1    1723
       1    1724
       1    1725
       1    1726
       1    1727
       1    1728
       1    1729
       1    1730
       1    1731
       1    1732
       1    1733
       1    1734
       1    1735
       1    1736
       1    1737
       1    1738
       1    1739
       1    1740
       1    1741
       1    1742
       1    1743
       1    1744
       1    1745
       1    1746
       1    1747
       1    1748
       1    1749
       1    1750
       1    1751
       1    1752
       1    1753
       1    1754
       1    1755
       1    1756
       1    1757
       1    1758
       1    1759
       1    1760
       1    1761
       1    1762
       1    1763
       1    1764
       1    1765
       1    1766
       1    1767
       1    1768
       1    1769
       1    1770
       1    1771
       1    1772
       1    1773
       1    1774
       1    1775
       1    1776
       1    1777
       1    1778
       1    1779
       1    1780
       1    1781
       1    1782
       1    1783
       1    1784
       1    1785
       1    1786
       1    1787
       1    1788
       1    1789
       1    1790
       1    1791
       1    1792
       1    1793
       1    1794
       1    1795
       1    1796
       1    1797
       1    1798
       1    1799
       1    1800
       1    1801
       1    1802
       1    1803
       1    1804
       1    1805
       1    1806
       1    1807
       1    1808
       1    1809
       1    1810
       1    1811
       1    1812
       1    1813
       1    1814
       1    1815
       1    1816
       1    1817
       1    1818
       1    1819
       1    1820
       1    1821
       1    1822
       1    1823
       1    1824
       1    1825
       1    1826
       1    1827
       1    1828
       1    1829
       1    1830
       1    1831
       1    1832
       1    1833
       1    1834
       1    1835
       1    1836
       1    1837
       1    1838
       1    1839
       1    1840
       1    1841
       1    1842
       1    1843
       1    1844
       1    1845
       1    1846
       1    1847
       1    1848
       1    1849
       1    1850
       1    1851
       1    1852
       1    1853
       1    1854
       1    1855
       1    1856
       1    1857
       1    1858
       1    1859
       1    1860
       1    1861
       1    1862
       1    1863
       1    1864
       1    1865
       1    1866
       1    1867
       1    1868
       1    1869
       1    1870
       1    1871
       1    1872
       1    1873
       1    1874
       1    1875
       1    1876
       1    1877
       1    1878
       1    1879
       1    1880
       1    1881
       1    1882
       1    1883
       1    1884
       1    1885
       1    1886
       1    1887
       1    1888
       1    1889
       1    1890
       1    1891
       1    1892
       1    1893
       1    1894
       1    1895
       1    1896
       1    1897
       1    1898
       1    1899
       1    1900
       1    1901
       1    1902
       1    1903
       1    1904
       1    1905
       1    1906
       1    1907
       1    1908
       1    1909
       1    1910
       1    1911
       1    1912
       1    1913
       1    1914
       1    1915
       1    1916
       1    1917
       1    1918
       1    1919
       1    1920
       1    1921
       1    1922
       1    1923
       1    1924
       1    1925
       1    1926
       1    1927
       1    1928
       1    1929
       1    1930
       1    1931
       1    1932
       1    1933
       1    1934
       1    1935
       1    1936
       1    1937
       1    1938
       1    1939
       1    1940
       1    1941
       1    1942
       1    1943
       1    1944
       1    1945
       1    1946
       1    1947
       1    1948
       1    1949
       8       0       1       2       3       4       5       6       7
       8       2       8       9       3       6      10      11       7
       8      12       1       0      13      14       5       4      15
       8       0      16      17      13       4      18      19      15
       8      20      21      22      12      23      24      25      14
       8      26      27      21      20      28      29      24      23
       8      13      26      20      12      15      28      23      14
       8      30      31      16      32      33      34      18      35
       8      36      37      31      30      38      39      34      33
       8      40      41      37      36      42      43      39      38
       8      44      40      36      45      46      42      38      47
       8      48      17      16      31      49      19      18      34
       8      30      50      45      36      33      51      47      38
       8       0       3      32      16       4       7      35      18
       8      52      26      13      17      53      28      15      19
       8      54      52      17      48      55      53      19      49
       8      56      54      48      57      58      55      49      59
       8      37      57      48      31      39      59      49      34
       8      60      61      50      30      62      63      51      33
       8      64      60      30      32      65      62      33      35
       8      66      64      32       3      67      65      35       7
       8      68       8       2      69      70      10       6      71
       8      72      69       2       1      73      71       6       5
       8      22      72       1      12      25      73       5      14
       8      74      27      26      52      75      29      28      53
       8      76      74      52      54      77      75      53      55
       8      78      76      54      56      79      77      55      58
       8      80      78      56      81      82      79      58      83
       8      84      81      56      57      85      83      58      59
       8      41      84      57      37      43      85      59      39
       8      86      44      45      50      87      46      47      51
       8      88      86      50      61      89      87      51      63
       8      90      88      61      91      92      89      63      93
       8      94      91      61      60      95      93      63      62
       8      96      94      60      64      97      95      62      65
       8      98      96      64      66      99      97      65      67
       8     100      98      66     101     102      99      67     103
       8       9     101      66       3      11     103      67       7
       8     104     105       8      68     106     107      10      70
       8     108     104      68      69     109     106      70      71
       8     110     108      69      72     111     109      71      73
       8     112     110      72      22     113     111      73      25
       8     114     112      22      21     115     113      25      24
       8     116     114      21      27     117     115      24      29
       8     118     116      27      74     119     117      29      75
       8     120     118      74      76     121     119      75      77
       8     122     120      76      78     123     121      77      79
       8     124     122      78      80     125     123      79      82
       8     126     124      80      81     127     125      82      83
       8     128     126      81      84     129     127      83      85
       8     130     128      84      41     131     129      85      43
       8     132     130      41      40     133     131      43      42
       8     134     132      40      44     135     133      42      46
       8     136     134      44      86     137     135      46      87
       8     138     136      86      88     139     137      87      89
       8     140     138      88      90     141     139      89      92
       8     142     140      90      91     143     141      92      93
       8     144     142      91      94     145     143      93      95
       8     146     144      94      96     147     145      95      97
       8     148     146      96      98     149     147      97      99
       8     150     148      98     100     151     149      99     102
       8     152     150     100     101     153     151     102     103
       8     154     152     101       9     155     153     103      11
       8     105     154       9       8     107     155      11      10
       8     156     157     158     159       0       1       2       3
       8     158     160     161     159       2       8       9       3
       8     162     157     156     163      12       1       0      13
       8     156     164     165     163       0      16      17      13
       8     166     167     168     162      20      21      22      12
       8     169     170     167     166      26      27      21      20
       8     163     169     166     162      13      26      20      12
       8     171     172     164     173      30      31      16      32
       8     174     175     172     171      36      37      31      30
       8     176     177     175     174      40      41      37      36
       8     178     176     174     179      44      40      36      45
       8     180     165     164     172      48      17      16      31
       8     171     181     179     174      30      50      45      36
       8     156     159     173     164       0       3      32      16
       8     182     169     163     165      52      26      13      17
       8     183     182     165     180      54      52      17      48
       8     184     183     180     185      56      54      48      57
       8     175     185     180     172      37      57      48      31
       8     186     187     181     171      60      61      50      30
       8     188     186     171     173      64      60      30      32
       8     189     188     173     159      66      64      32       3
       8     190     160     158     191      68       8       2      69
       8     192     191     158     157      72      69       2       1
       8     168     192     157     162      22      72       1      12
       8     193     170     169     182      74      27      26      52
       8     194     193     182     183      76      74      52      54
       8     195     194     183     184      78      76      54      56
       8     196     195     184     197      80      78      56      81
       8     198     197     184     185      84      81      56      57
       8     177     198     185     175      41      84      57      37
       8     199     178     179     181      86      44      45      50
       8     200     199     181     187      88      86      50      61
       8     201     200     187     202      90      88      61      91
       8     203     202     187     186      94      91      61      60
       8     204     203     186     188      96      94      60      64
       8     205     204     188     189      98      96      64      66
       8     206     205     189     207     100      98      66     101
       8     161     207     189     159       9     101      66       3
       8     208     209     160     190     104     105       8      68
       8     210     208     190     191     108     104      68      69
       8     211     210     191     192     110     108      69      72
       8     212     211     192     168     112     110      72      22
       8     213     212     168     167     114     112      22      21
       8     214     213     167     170     116     114      21      27
       8     215     214     170     193     118     116      27      74
       8     216     215     193     194     120     118      74      76
       8     217     216     194     195     122     120      76      78
       8     218     217     195     196     124     122      78      80
       8     219     218     196     197     126     124      80      81
       8     220     219     197     198     128     126      81      84
       8     221     220     198     177     130     128      84      41
       8     222     221     177     176     132     130      41      40
       8     223     222     176     178     134     132      40      44
       8     224     223     178     199     136     134      44      86
       8     225     224     199     200     138     136      86      88
       8     226     225     200     201     140     138      88      90
       8     227     226     201     202     142     140      90      91
       8     228     227     202     203     144     142      91      94
       8     229     228     203     204     146     144      94      96
       8     230     229     204     205     148     146      96      98
       8     231     230     205     206     150     148      98     100
       8     232     231     206     207     152     150     100     101
       8     233     232     207     161     154     152     101       9
       8     209     233     161     160     105     154       9       8
       8     234     235     236     237     156     157     158     159
       8     236     238     239     237     158     160     161     159
       8     240     235     234     241     162     157     156     163
       8     234     242     243     241     156     164     165     163
       8     244     245     246     240     166     167     168     162
       8     247     248     245     244     169     170     167     166
       8     241     247     244     240     163     169     166     162
       8     249     250     242     251     171     172     164     173
       8     252     253     250     249     174     175     172     171
       8     254     255     253     252     176     177     175     174
       8     256     254     252     257     178     176     174     179
       8     258     243     242     250     180     165     164     172
       8     249     259     257     252     171     181     179     174
       8     234     237     251     242     156     159     173     164
       8     260     247     241     243     182     169     163     165
       8     261     260     243     258     183     182     165     180
       8     262     261     258     263     184     183     180     185
       8     253     263     258     250     175     185     180     172
       8     264     265     259     249     186     187     181     171
       8     266     264     249     251     188     186     171     173
       8     267     266     251     237     189     188     173     159
       8     268     238     236     269     190     160     158     191
       8     270     269     236     235     192     191     158     157
       8     246     270     235     240     168     192     157     162
       8     271     248     247     260     193     170     169     182
       8     272     271     260     261     194     193     182     183
       8     273     272     261     262     195     194     183     184
       8     274     273     262     275     196     195     184     197
       8     276     275     262     263     198     197     184     185
       8     255     276     263     253     177     198     185     175
       8     277     256     257     259     199     178     179     181
       8     278     277     259     265     200     199     181     187
       8     279     278     265     280     201     200     187     202
       8     281     280     265     264     203     202     187     186
       8     282     281     264     266     204     203     186     188
       8     283     282     266     267     205     204     188     189
       8     284     283     267     285     206     205     189     207
       8     239     285     267     237     161     207     189     159
       8     286     287     238     268     208     209     160     190
       8     288     286     268     269     210     208     190     191
       8     289     288     269     270     211     210     191     192
       8     290     289     270     246     212     211     192     168
       8     291     290     246     245     213     212     168     167
       8     292     291     245     248     214     213     167     170
       8     293     292     248     271     215     214     170     193
       8     294     293     271     272     216     215     193     194
       8     295     294     272     273     217     216     194     195
       8     296     295     273     274     218     217     195     196
       8     297     296     274     275     219     218     196     197
       8     298     297     275     276     220     219     197     198
       8     299     298     276     255     221     220     198     177
       8     300     299     255     254     222     221     177     176
       8     301     300     254     256     223     222     176     178
       8     302     301     256     277     224     223     178     199
       8     303     302     277     278     225     224     199     200
       8     304     303     278     279     226     225     200     201
       8     305     304     279     280     227     226     201     202
       8     306     305     280     281     228     227     202     203
       8     307     306     281     282     229     228     203     204
       8     308     307     282     283     230     229     204     205
       8     309     308     283     284     231     230     205     206
       8     310     309     284     285     232     231     206     207
       8     311     310     285     239     233     232     207     161
       8     287     311     239     238     209     233     161     160
       8     312     313     314     315     234     235     236     237
       8     314     316     317     315     236     238     239     237
       8     318     313     312     319     240     235     234     241
       8     312     320     321     319     234     242     243     241
       8     322     323     324     318     244     245     246     240
       8     325     326     323     322     247     248     245     244
       8     319     325     322     318     241     247     244     240
       8     327     328     320     329     249     250     242     251
       8     330     331     328     327     252     253     250     249
       8     332     333     331     330     254     255     253     252
       8     334     332     330     335     256     254     252     257
       8     336     321     320     328     258     243     242     250
       8     327     337     335     330     249     259     257     252
       8     312     315     329     320     234     237     251     242
       8     338     325     319     321     260     247     241     243
       8     339     338     321     336     261     260     243     258
       8     340     339     336     341     262     261     258     263
       8     331     341     336     328     253     263     258     250
       8     342     343     337     327     264     265     259     249
       8     344     342     327     329     266     264     249     251
       8     345     344     329     315     267     266     251     237
       8     346     316     314     347     268     238     236     269
       8     348     347     314     313     270     269     236     235
       8     324     348     313     318     246     270     235     240
       8     349     326     325     338     271     248     247     260
       8     350     349     338     339     272     271     260     261
       8     351     350     339     340     273     272     261     262
       8     352     351     340     353     274     273     262     275
       8     354     353     340     341     276     275     262     263
       8     333     354     341     331     255     276     263     253
       8     355     334     335     337     277     256     257     259
       8     356     355     337     343     278     277     259     265
       8     357     356     343     358     279     278     265     280
       8     359     358     343     342     281     280     265     264
       8     360     359     342     344     282     281     264     266
       8     361     360     344     345     283     282     266     267
       8     362     361     345     363     284     283     267     285
       8     317     363     345     315     239     285     267     237
       8     364     365     316     346     286     287     238     268
       8     366     364     346     347     288     286     268     269
       8     367     366     347     348     289     288     269     270
       8     368     367     348     324     290     289     270     246
       8     369     368     324     323     291     290     246     245
       8     370     369     323     326     292     291     245     248
       8     371     370     326     349     293     292     248     271
       8     372     371     349     350     294     293     271     272
       8     373     372     350     351     295     294     272     273
       8     374     373     351     352     296     295     273     274
       8     375     374     352     353     297     296     274     275
       8     376     375     353     354     298     297     275     276
       8     377     376     354     333     299     298     276     255
       8     378     377     333     332     300     299     255     254
       8     379     378     332     334     301     300     254     256
       8     380     379     334     355     302     301     256     277
       8     381     380     355     356     303     302     277     278
       8     382     381     356     357     304     303     278     279
       8     383     382     357     358     305     304     279     280
       8     384     383     358     359     306     305     280     281
       8     385     384     359     360     307     306     281     282
       8     386     385     360     361     308     307     282     283
       8     387     386     361     362     309     308     283     284
       8     388     387     362     363     310     309     284     285
       8     389     388     363     317     311     310     285     239
       8     365     389     317     316     287     311     239     238
       8     390     391     392     393     312     313     314     315
       8     392     394     395     393     314     316     317     315
       8     396     391     390     397     318     313     312     319
       8     390     398     399     397     312     320     321     319
       8     400     401     402     396     322     323     324     318
       8     403     404     401     400     325     326     323     322
       8     397     403     400     396     319     325     322     318
       8     405     406     398     407     327     328     320     329
       8     408     409     406     405     330     331     328     327
       8     410     411     409     408     332     333     331     330
       8     412     410     408     413     334     332     330     335
       8     414     399     398     406     336     321     320     328
       8     405     415     413     408     327     337     335     330
       8     390     393     407     398     312     315     329     320
       8     416     403     397     399     338     325     319     321
       8     417     416     399     414     339     338     321     336
       8     418     417     414     419     340     339     336     341
       8     409     419     414     406     331     341     336     328
       8     420     421     415     405     342     343     337     327
       8     422     420     405     407     344     342     327     329
       8     423     422     407     393     345     344     329     315
       8     424     394     392     425     346     316     314     347
       8     426     425     392     391     348     347     314     313
       8     402     426     391     396     324     348     313     318
       8     427     404     403     416     349     326     325     338
       8     428     427     416     417     350     349     338     339
       8     429     428     417     418     351     350     339     340
       8     430     429     418     431     352     351     340     353
       8     432     431     418     419     354     353     340     341
       8     411     432     419     409     333     354     341     331
       8     433     412     413     415     355     334     335     337
       8     434     433     415     421     356     355     337     343
       8     435     434     421     436     357     356     343     358
       8     437     436     421     420     359     358     343     342
       8     438     437     420     422     360     359     342     344
       8     439     438     422     423     361     360     344     345
       8     440     439     423     441     362     361     345     363
       8     395     441     423     393     317     363     345     315
       8     442     443     394     424     364     365     316     346
       8     444     442     424     425     366     364     346     347
       8     445     444     425     426     367     366     347     348
       8     446     445     426     402     368     367     348     324
       8     447     446     402     401     369     368     324     323
       8     448     447     401     404     370     369     323     326
       8     449     448     404     427     371     370     326     349
       8     450     449     427     428     372     371     349     350
       8     451     450     428     429     373     372     350     351
       8     452     451     429     430     374     373     351     352
       8     453     452     430     431     375     374     352     353
       8     454     453     431     432     376     375     353     354
       8     455     454     432     411     377     376     354     333
       8     456     455     411     410     378     377     333     332
       8     457     456     410     412     379     378     332     334
       8     458     457     412     433     380     379     334     355
       8     459     458     433     434     381     380     355     356
       8     460     459     434     435     382     381     356     357
       8     461     460     435     436     383     382     357     358
       8     462     461     436     437     384     383     358     359
       8     463     462     437     438     385     384     359     360
       8     464     463     438     439     386     385     360     361
       8     465     464     439     440     387     386     361     362
       8     466     465     440     441     388     387     362     363
       8     467     466     441     395     389     388     363     317
       8     443     467     395     394     365     389     317     316
       8     468     469     470     471     390     391     392     393
       8     470     472     473     471     392     394     395     393
       8     474     469     468     475     396     391     390     397
       8     468     476     477     475     390     398     399     397
       8     478     479     480     474     400     401     402     396
       8     481     482     479     478     403     404     401     400
       8     475     481     478     474     397     403     400     396
       8     483     484     476     485     405     406     398     407
       8     486     487     484     483     408     409     406     405
       8     488     489     487     486     410     411     409     408
       8     490     488     486     491     412     410     408     413
       8     492     477     476     484     414     399     398     406
       8     483     493     491     486     405     415     413     408
       8     468     471     485     476     390     393     407     398
       8     494     481     475     477     416     403     397     399
       8     495     494     477     492     417     416     399     414
       8     496     495     492     497     418     417     414     419
       8     487     497     492     484     409     419     414     406
       8     498     499     493     483     420     421     415     405
       8     500     498     483     485     422     420     405     407
       8     501     500     485     471     423     422     407     393
       8     502     472     470     503     424     394     392     425
       8     504     503     470     469     426     425     392     391
       8     480     504     469     474     402     426     391     396
       8     505     482     481     494     427     404     403     416
       8     506     505     494     495     428     427     416     417
       8     507     506     495     496     429     428     417     418
       8     508     507     496     509     430     429     418     431
       8     510     509     496     497     432     431     418     419
       8     489     510     497     487     411     432     419     409
       8     511     490     491     493     433     412     413     415
       8     512     511     493     499     434     433     415     421
       8     513     512     499     514     435     434     421     436
       8     515     514     499     498     437     436     421     420
       8     516     515     498     500     438     437     420     422
       8     517     516     500     501     439     438     422     423
       8     518     517     501     519     440     439     423     441
       8     473     519     501     471     395     441     423     393
       8     520     521     472     502     442     443     394     424
       8     522     520     502     503     444     442     424     425
       8     523     522     503     504     445     444     425     426
       8     524     523     504     480     446     445     426     402
       8     525     524     480     479     447     446     402     401
       8     526     525     479     482     448     447     401     404
       8     527     526     482     505     449     448     404     427
       8     528     527     505     506     450     449     427     428
       8     529     528     506     507     451     450     428     429
       8     530     529     507     508     452     451     429     430
       8     531     530     508     509     453     452     430     431
       8     532     531     509     510     454     453     431     432
       8     533     532     510     489     455     454     432     411
       8     534     533     489     488     456     455     411     410
       8     535     534     488     490     457     456     410     412
       8     536     535     490     511     458     457     412     433
       8     537     536     511     512     459     458     433     434
       8     538     537     512     513     460     459     434     435
       8     539     538     513     514     461     460     435     436
       8     540     539     514     515     462     461     436     437
       8     541     540     515     516     463     462     437     438
       8     542     541     516     517     464     463     438     439
       8     543     542     517     518     465     464     439     440
       8     544     543     518     519     466     465     440     441
       8     545     544     519     473     467     466     441     395
       8     521     545     473     472     443     467     395     394
       8     546     547     548     549     468     469     470     471
       8     548     550     551     549     470     472     473     471
       8     552     547     546     553     474     469     468     475
       8     546     554     555     553     468     476     477     475
       8     556     557     558     552     478     479     480     474
       8     559     560     557     556     481     482     479     478
       8     553     559     556     552     475     481     478     474
       8     561     562     554     563     483     484     476     485
       8     564     565     562     561     486     487     484     483
       8     566     567     565     564     488     489     487     486
       8     568     566     564     569     490     488     486     491
       8     570     555     554     562     492     477     476     484
       8     561     571     569     564     483     493     491     486
       8     546     549     563     554     468     471     485     476
       8     572     559     553     555     494     481     475     477
       8     573     572     555     570     495     494     477     492
       8     574     573     570     575     496     495     492     497
       8     565     575     570     562     487     497     492     484
       8     576     577     571     561     498     499     493     483
       8     578     576     561     563     500     498     483     485
       8     579     578     563     549     501     500     485     471
       8     580     550     548     581     502     472     470     503
       8     582     581     548     547     504     503     470     469
       8     558     582     547     552     480     504     469     474
       8     583     560     559     572     505     482     481     494
       8     584     583     572     573     506     505     494     495
       8     585     584     573     574     507     506     495     496
       8     586     585     574     587     508     507     496     509
       8     588     587     574     575     510     509     496     497
       8     567     588     575     565     489     510     497     487
       8     589     568     569     571     511     490     491     493
       8     590     589     571     577     512     511     493     499
       8     591     590     577     592     513     512     499     514
       8     593     592     577     576     515     514     499     498
       8     594     593     576     578     516     515     498     500
       8     595     594     578     579     517     516     500     501
       8     596     595     579     597     518     517     501     519
       8     551     597     579     549     473     519     501     471
       8     598     599     550     580     520     521     472     502
       8     600     598     580     581     522     520     502     503
       8     601     600     581     582     523     522     503     504
       8     602     601     582     558     524     523     504     480
       8     603     602     558     557     525     524     480     479
       8     604     603     557     560     526     525     479     482
       8     605     604     560     583     527     526     482     505
       8     606     605     583     584     528     527     505     506
       8     607     606     584     585     529     528     506     507
       8     608     607     585     586     530     529     507     508
       8     609     608     586     587     531     530     508     509
       8     610     609     587     588     532     531     509     510
       8     611     610     588     567     533     532     510     489
       8     612     611     567     566     534     533     489     488
       8     613     612     566     568     535     534     488     490
       8     614     613     568     589     536     535     490     511
       8     615     614     589     590     537     536     511     512
       8     616     615     590     591     538     537     512     513
       8     617     616     591     592     539     538     513     514
       8     618     617     592     593     540     539     514     515
       8     619     618     593     594     541     540     515     516
       8     620     619     594     595     542     541     516     517
       8     621     620     595     596     543     542     517     518
       8     622     621     596     597     544     543     518     519
       8     623     622     597     551     545     544     519     473
       8     599     623     551     550     521     545     473     472
       8     624     625     626     627     546     547     548     549
       8     626     628     629     627     548     550     551     549
       8     630     625     624     631     552     547     546     553
       8     624     632     633     631     546     554     555     553
       8     634     635     636     630     556     557     558     552
       8     637     638     635     634     559     560     557     556
       8     631     637     634     630     553     559     556     552
       8     639     640     632     641     561     562     554     563
       8     642     643     640     639     564     565     562     561
       8     644     645     643     642     566     567     565     564
       8     646     644     642     647     568     566     564     569
       8     648     633     632     640     570     555     554     562
       8     639     649     647     642     561     571     569     564
       8     624     627     641     632     546     549     563     554
       8     650     637     631     633     572     559     553     555
       8     651     650     633     648     573     572     555     570
       8     652     651     648     653     574     573     570     575
       8     643     653     648     640     565     575     570     562
       8     654     655     649     639     576     577     571     561
       8     656     654     639     641     578     576     561     563
       8     657     656     641     627     579     578     563     549
       8     658     628     626     659     580     550     548     581
       8     660     659     626     625     582     581     548     547
       8     636     660     625     630     558     582     547     552
       8     661     638     637     650     583     560     559     572
       8     662     661     650     651     584     583     572     573
       8     663     662     651     652     585     584     573     574
       8     664     663     652     665     586     585     574     587
       8     666     665     652     653     588     587     574     575
       8     645     666     653     643     567     588     575     565
       8     667     646     647     649     589     568     569     571
       8     668     667     649     655     590     589     571     577
       8     669     668     655     670     591     590     577     592
       8     671     670     655     654     593     592     577     576
       8     672     671     654     656     594     593     576     578
       8     673     672     656     657     595     594     578     579
       8     674     673     657     675     596     595     579     597
       8     629     675     657     627     551     597     579     549
       8     676     677     628     658     598     599     550     580
       8     678     676     658     659     600     598     580     581
       8     679     678     659     660     601     600     581     582
       8     680     679     660     636     602     601     582     558
       8     681     680     636     635     603     602     558     557
       8     682     681     635     638     604     603     557     560
       8     683     682     638     661     605     604     560     583
       8     684     683     661     662     606     605     583     584
       8     685     684     662     663     607     606     584     585
       8     686     685     663     664     608     607     585     586
       8     687     686     664     665     609     608     586     587
       8     688     687     665     666     610     609     587     588
       8     689     688     666     645     611     610     588     567
       8     690     689     645     644     612     611     567     566
       8     691     690     644     646     613     612     566     568
       8     692     691     646     667     614     613     568     589
       8     693     692     667     668     615     614     589     590
       8     694     693     668     669     616     615     590     591
       8     695     694     669     670     617     616     591     592
       8     696     695     670     671     618     617     592     593
       8     697     696     671     672     619     618     593     594
       8     698     697     672     673     620     619     594     595
       8     699     698     673     674     621     620     595     596
       8     700     699     674     675     622     621     596     597
       8     701     700     675     629     623     622     597     551
       8     677     701     629     628     599     623     551     550
       8     702     703     704     705     624     625     626     627
       8     704     706     707     705     626     628     629     627
       8     708     703     702     709     630     625     624     631
       8     702     710     711     709     624     632     633     631
       8     712     713     714     708     634     635     636     630
       8     715     716     713     712     637     638     635     634
       8     709     715     712     708     631     637     634     630
       8     717     718     710     719     639     640     632     641
       8     720     721     718     717     642     643     640     639
       8     722     723     721     720     644     645     643     642
       8     724     722     720     725     646     644     642     647
       8     726     711     710     718     648     633     632     640
       8     717     727     725     720     639     649     647     642
       8     702     705     719     710     624     627     641     632
       8     728     715     709     711     650     637     631     633
       8     729     728     711     726     651     650     633     648
       8     730     729     726     731     652     651     648     653
       8     721     731     726     718     643     653     648     640
       8     732     733     727     717     654     655     649     639
       8     734     732     717     719     656     654     639     641
       8     735     734     719     705     657     656     641     627
       8     736     706     704     737     658     628     626     659
       8     738     737     704     703     660     659     626     625
       8     714     738     703     708     636     660     625     630
       8     739     716     715     728     661     638     637     650
       8     740     739     728     729     662     661     650     651
       8     741     740     729     730     663     662     651     652
       8     742     741     730     743     664     663     652     665
       8     744     743     730     731     666     665     652     653
       8     723     744     731     721     645     666     653     643
       8     745     724     725     727     667     646     647     649
       8     746     745     727     733     668     667     649     655
       8     747     746     733     748     669     668     655     670
       8     749     748     733     732     671     670     655     654
       8     750     749     732     734     672     671     654     656
       8     751     750     734     735     673     672     656     657
       8     752     751     735     753     674     673     657     675
       8     707     753     735     705     629     675     657     627
       8     754     755     706     736     676     677     628     658
       8     756     754     736     737     678     676     658     659
       8     757     756     737     738     679     678     659     660
       8     758     757     738     714     680     679     660     636
       8     759     758     714     713     681     680     636     635
       8     760     759     713     716     682     681     635     638
       8     761     760     716     739     683     682     638     661
       8     762     761     739     740     684     683     661     662
       8     763     762     740     741     685     684     662     663
       8     764     763     741     742     686     685     663     664
       8     765     764     742     743     687     686     664     665
       8     766     765     743     744     688     687     665     666
       8     767     766     744     723     689     688     666     645
       8     768     767     723     722     690     689     645     644
       8     769     768     722     724     691     690     644     646
       8     770     769     724     745     692     691     646     667
       8     771     770     745     746     693     692     667     668
       8     772     771     746     747     694     693     668     669
       8     773     772     747     748     695     694     669     670
       8     774     773     748     749     696     695     670     671
       8     775     774     749     750     697     696     671     672
       8     776     775     750     751     698     697     672     673
       8     777     776     751     752     699     698     673     674
       8     778     777     752     753     700     699     674     675
       8     779     778     753     707     701     700     675     629
       8     755     779     707     706     677     701     629     628
       8     780     781     782     783     702     703     704     705
       8     782     784     785     783     704     706     707     705
       8     786     781     780     787     708     703     702     709
       8     780     788     789     787     702     710     711     709
       8     790     791     792     786     712     713     714     708
       8     793     794     791     790     715     716     713     712
       8     787     793     790     786     709     715     712     708
       8     795     796     788     797     717     718     710     719
       8     798     799     796     795     720     721     718     717
       8     800     801     799     798     722     723     721     720
       8     802     800     798     803     724     722     720     725
       8     804     789     788     796     726     711     710     718
       8     795     805     803     798     717     727     725     720
       8     780     783     797     788     702     705     719     710
       8     806     793     787     789     728     715     709     711
       8     807     806     789     804     729     728     711     726
       8     808     807     804     809     730     729     726     731
       8     799     809     804     796     721     731     726     718
       8     810     811     805     795     732     733     727     717
       8     812     810     795     797     734     732     717     719
       8     813     812     797     783     735     734     719     705
       8     814     784     782     815     736     706     704     737
       8     816     815     782     781     738     737     704     703
       8     792     816     781     786     714     738     703     708
       8     817     794     793     806     739     716     715     728
       8     818     817     806     807     740     739     728     729
       8     819     818     807     808     741     740     729     730
       8     820     819     808     821     742     741     730     743
       8     822     821     808     809     744     743     730     731
       8     801     822     809     799     723     744     731     721
       8     823     802     803     805     745     724     725     727
       8     824     823     805     811     746     745     727     733
       8     825     824     811     826     747     746     733     748
       8     827     826     811     810     749     748     733     732
       8     828     827     810     812     750     749     732     734
       8     829     828     812     813     751     750     734     735
       8     830     829     813     831     752     751     735     753
       8     785     831     813     783     707     753     735     705
       8     832     833     784     814     754     755     706     736
       8     834     832     814     815     756     754     736     737
       8     835     834     815     816     757     756     737     738
       8     836     835     816     792     758     757     738     714
       8     837     836     792     791     759     758     714     713
       8     838     837     791     794     760     759     713     716
       8     839     838     794     817     761     760     716     739
       8     840     839     817     818     762     761     739     740
       8     841     840     818     819     763     762     740     741
       8     842     841     819     820     764     763     741     742
       8     843     842     820     821     765     764     742     743
       8     844     843     821     822     766     765     743     744
       8     845     844     822     801     767     766     744     723
       8     846     845     801     800     768     767     723     722
       8     847     846     800     802     769     768     722     724
       8     848     847     802     823     770     769     724     745
       8     849     848     823     824     771     770     745     746
       8     850     849     824     825     772     771     746     747
       8     851     850     825     826     773     772     747     748
       8     852     851     826     827     774     773     748     749
       8     853     852     827     828     775     774     749     750
       8     854     853     828     829     776     775     750     751
       8     855     854     829     830     777     776     751     752
       8     856     855     830     831     778     777     752     753
       8     857     856     831     785     779     778     753     707
       8     833     857     785     784     755     779     707     706
       8     858     859     860     861     780     781     782     783
       8     860     862     863     861     782     784     785     783
       8     864     859     858     865     786     781     780     787
       8     858     866     867     865     780     788     789     787
       8     868     869     870     864     790     791     792     786
       8     871     872     869     868     793     794     791     790
       8     865     871     868     864     787     793     790     786
       8     873     874     866     875     795     796     788     797
       8     876     877     874     873     798     799     796     795
       8     878     879     877     876     800     801     799     798
       8     880     878     876     881     802     800     798     803
       8     882     867     866     874     804     789     788     796
       8     873     883     881     876     795     805     803     798
       8     858     861     875     866     780     783     797     788
       8     884     871     865     867     806     793     787     789
       8     885     884     867     882     807     806     789     804
       8     886     885     882     887     808     807     804     809
       8     877     887     882     874     799     809     804     796
       8     888     889     883     873     810     811     805     795
       8     890     888     873     875     812     810     795     797
       8     891     890     875     861     813     812     797     783
       8     892     862     860     893     814     784     782     815
       8     894     893     860     859     816     815     782     781
       8     870     894     859     864     792     816     781     786
       8     895     872     871     884     817     794     793     806
       8     896     895     884     885     818     817     806     807
       8     897     896     885     886     819     818     807     808
       8     898     897     886     899     820     819     808     821
       8     900     899     886     887     822     821     808     809
       8     879     900     887     877     801     822     809     799
       8     901     880     881     883     823     802     803     805
       8     902     901     883     889     824     823     805     811
       8     903     902     889     904     825     824     811     826
       8     905     904     889     888     827     826     811     810
       8     906     905     888     890     828     827     810     812
       8     907     906     890     891     829     828     812     813
       8     908     907     891     909     830     829     813     831
       8     863     909     891     861     785     831     813     783
       8     910     911     862     892     832     833     784     814
       8     912     910     892     893     834     832     814     815
       8     913     912     893     894     835     834     815     816
       8     914     913     894     870     836     835     816     792
       8     915     914     870     869     837     836     792     791
       8     916     915     869     872     838     837     791     794
       8     917     916     872     895     839     838     794     817
       8     918     917     895     896     840     839     817     818
       8     919     918     896     897     841     840     818     819
       8     920     919     897     898     842     841     819     820
       8     921     920     898     899     843     842     820     821
       8     922     921     899     900     844     843     821     822
       8     923     922     900     879     845     844     822     801
       8     924     923     879     878     846     845     801     800
       8     925     924     878     880     847     846     800     802
       8     926     925     880     901     848     847     802     823
       8     927     926     901     902     849     848     823     824
       8     928     927     902     903     850     849     824     825
       8     929     928     903     904     851     850     825     826
       8     930     929     904     905     852     851     826     827
       8     931     930     905     906     853     852     827     828
       8     932     931     906     907     854     853     828     829
       8     933     932     907     908     855     854     829     830
       8     934     933     908     909     856     855     830     831
       8     935     934     909     863     857     856     831     785
       8     911     935     863     862     833     857     785     784
       8     936     937     938     939     858     859     860     861
       8     938     940     941     939     860     862     863     861
       8     942     937     936     943     864     859     858     865
       8     936     944     945     943     858     866     867     865
       8     946     947     948     942     868     869     870     864
       8     949     950     947     946     871     872     869     868
       8     943     949     946     942     865     871     868     864
       8     951     952     944     953     873     874     866     875
       8     954     955     952     951     876     877     874     873
       8     956     957     955     954     878     879     877     876
       8     958     956     954     959     880     878     876     881
       8     960     945     944     952     882     867     866     874
       8     951     961     959     954     873     883     881     876
       8     936     939     953     944     858     861     875     866
       8     962     949     943     945     884     871     865     867
       8     963     962     945     960     885     884     867     882
       8     964     963     960     965     886     885     882     887
       8     955     965     960     952     877     887     882     874
       8     966     967     961     951     888     889     883     873
       8     968     966     951     953     890     888     873     875
       8     969     968     953     939     891     890     875     861
       8     970     940     938     971     892     862     860     893
       8     972     971     938     937     894     893     860     859
       8     948     972     937     942     870     894     859     864
       8     973     950     949     962     895     872     871     884
       8     974     973     962     963     896     895     884     885
       8     975     974     963     964     897     896     885     886
       8     976     975     964     977     898     897     886     899
       8     978     977     964     965     900     899     886     887
       8     957     978     965     955     879     900     887     877
       8     979     958     959     961     901     880     881     883
       8     980     979     961     967     902     901     883     889
       8     981     980     967     982     903     902     889     904
       8     983     982     967     966     905     904     889     888
       8     984     983     966     968     906     905     888     890
       8     985     984     968     969     907     906     890     891
       8     986     985     969     987     908     907     891     909
       8     941     987     969     939     863     909     891     861
       8     988     989     940     970     910     911     862     892
       8     990     988     970     971     912     910     892     893
       8     991     990     971     972     913     912     893     894
       8     992     991     972     948     914     913     894     870
       8     993     992     948     947     915     914     870     869
       8     994     993     947     950     916     915     869     872
       8     995     994     950     973     917     916     872     895
       8     996     995     973     974     918     917     895     896
       8     997     996     974     975     919     918     896     897
       8     998     997     975     976     920     919     897     898
       8     999     998     976     977     921     920     898     899
       8    1000     999     977     978     922     921     899     900
       8    1001    1000     978     957     923     922     900     879
       8    1002    1001     957     956     924     923     879     878
       8    1003    1002     956     958     925     924     878     880
       8    1004    1003     958     979     926     925     880     901
       8    1005    1004     979     980     927     926     901     902
       8    1006    1005     980     981     928     927     902     903
       8    1007    1006     981     982     929     928     903     904
       8    1008    1007     982     983     930     929     904     905
       8    1009    1008     983     984     931     930     905     906
       8    1010    1009     984     985     932     931     906     907
       8    1011    1010     985     986     933     932     907     908
       8    1012    1011     986     987     934     933     908     909
       8    1013    1012     987     941     935     934     909     863
       8     989    1013     941     940     911     935     863     862
       8    1014    1015    1016    1017     936     937     938     939
       8    1016    1018    1019    1017     938     940     941     939
       8    1020    1015    1014    1021     942     937     936     943
       8    1014    1022    1023    1021     936     944     945     943
       8    1024    1025    1026    1020     946     947     948     942
       8    1027    1028    1025    1024     949     950     947     946
       8    1021    1027    1024    1020     943     949     946     942
       8    1029    1030    1022    1031     951     952     944     953
       8    1032    1033    1030    1029     954     955     952     951
       8    1034    1035    1033    1032     956     957     955     954
       8    1036    1034    1032    1037     958     956     954     959
       8    1038    1023    1022    1030     960     945     944     952
       8    1029    1039    1037    1032     951     961     959     954
       8    1014    1017    1031    1022     936     939     953     944
       8    1040    1027    1021    1023     962     949     943     945
       8    1041    1040    1023    1038     963     962     945     960
       8    1042    1041    1038    1043     964     963     960     965
       8    1033    1043    1038    1030     955     965     960     952
       8    1044    1045    1039    1029     966     967     961     951
       8    1046    1044    1029    1031     968     966     951     953
       8    1047    1046    1031    1017     969     968     953     939
       8    1048    1018    1016    1049     970     940     938     971
       8    1050    1049    1016    1015     972     971     938     937
       8    1026    1050    1015    1020     948     972     937     942
       8    1051    1028    1027    1040     973     950     949     962
       8    1052    1051    1040    1041     974     973     962     963
       8    1053    1052    1041    1042     975     974     963     964
       8    1054    1053    1042    1055     976     975     964     977
       8    1056    1055    1042    1043     978     977     964     965
       8    1035    1056    1043    1033     957     978     965     955
       8    1057    1036    1037    1039     979     958     959     961
       8    1058    1057    1039    1045     980     979     961     967
       8    1059    1058    1045    1060     981     980     967     982
       8    1061    1060    1045    1044     983     982     967     966
       8    1062    1061    1044    1046     984     983     966     968
       8    1063    1062    1046    1047     985     984     968     969
       8    1064    1063    1047    1065     986     985     969     987
       8    1019    1065    1047    1017     941     987     969     939
       8    1066    1067    1018    1048     988     989     940     970
       8    1068    1066    1048    1049     990     988     970     971
       8    1069    1068    1049    1050     991     990     971     972
       8    1070    1069    1050    1026     992     991     972     948
       8    1071    1070    1026    1025     993     992     948     947
       8    1072    1071    1025    1028     994     993     947     950
       8    1073    1072    1028    1051     995     994     950     973
       8    1074    1073    1051    1052     996     995     973     974
       8    1075    1074    1052    1053     997     996     974     975
       8    1076    1075    1053    1054     998     997     975     976
       8    1077    1076    1054    1055     999     998     976     977
       8    1078    1077    1055    1056    1000     999     977     978
       8    1079    1078    1056    1035    1001    1000     978     957
       8    1080    1079    1035    1034    1002    1001     957     956
       8    1081    1080    1034    1036    1003    1002     956     958
       8    1082    1081    1036    1057    1004    1003     958     979
       8    1083    1082    1057    1058    1005    1004     979     980
       8    1084    1083    1058    1059    1006    1005     980     981
       8    1085    1084    1059    1060    1007    1006     981     982
       8    1086    1085    1060    1061    1008    1007     982     983
       8    1087    1086    1061    1062    1009    1008     983     984
       8    1088    1087    1062    1063    1010    1009     984     985
       8    1089    1088    1063    1064    1011    1010     985     986
       8    1090    1089    1064    1065    1012    1011     986     987
       8    1091    1090    1065    1019    1013    1012     987     941
       8    1067    1091    1019    1018     989    1013     941     940
       8    1092    1093    1094    1095    1014    1015    1016    1017
       8    1094    1096    1097    1095    1016    1018    1019    1017
       8    1098    1093    1092    1099    1020    1015    1014    1021
       8    1092    1100    1101    1099    1014    1022    1023    1021
       8    1102    1103    1104    1098    1024    1025    1026    1020
       8    1105    1106    1103    1102    1027    1028    1025    1024
       8    1099    1105    1102    1098    1021    1027    1024    1020
       8    1107    1108    1100    1109    1029    1030    1022    1031
       8    1110    1111    1108    1107    1032    1033    1030    1029
       8    1112    1113    1111    1110    1034    1035    1033    1032
       8    1114    1112    1110    1115    1036    1034    1032    1037
       8    1116    1101    1100    1108    1038    1023    1022    1030
       8    1107    1117    1115    1110    1029    1039    1037    1032
       8    1092    1095    1109    1100    1014    1017    1031    1022
       8    1118    1105    1099    1101    1040    1027    1021    1023
       8    1119    1118    1101    1116    1041    1040    1023    1038
       8    1120    1119    1116    1121    1042    1041    1038    1043
       8    1111    1121    1116    1108    1033    1043    1038    1030
       8    1122    1123    1117    1107    1044    1045    1039    1029
       8    1124    1122    1107    1109    1046    1044    1029    1031
       8    1125    1124    1109    1095    1047    1046    1031    1017
       8    1126    1096    1094    1127    1048    1018    1016    1049
       8    1128    1127    1094    1093    1050    1049    1016    1015
       8    1104    1128    1093    1098    1026    1050    1015    1020
       8    1129    1106    1105    1118    1051    1028    1027    1040
       8    1130    1129    1118    1119    1052    1051    1040    1041
       8    1131    1130    1119    1120    1053    1052    1041    1042
       8    1132    1131    1120    1133    1054    1053    1042    1055
       8    1134    1133    1120    1121    1056    1055    1042    1043
       8    1113    1134    1121    1111    1035    1056    1043    1033
       8    1135    1114    1115    1117    1057    1036    1037    1039
       8    1136    1135    1117    1123    1058    1057    1039    1045
       8    1137    1136    1123    1138    1059    1058    1045    1060
       8    1139    1138    1123    1122    1061    1060    1045    1044
       8    1140    1139    1122    1124    1062    1061    1044    1046
       8    1141    1140    1124    1125    1063    1062    1046    1047
       8    1142    1141    1125    1143    1064    1063    1047    1065
       8    1097    1143    1125    1095    1019    1065    1047    1017
       8    1144    1145    1096    1126    1066    1067    1018    1048
       8    1146    1144    1126    1127    1068    1066    1048    1049
       8    1147    1146    1127    1128    1069    1068    1049    1050
       8    1148    1147    1128    1104    1070    1069    1050    1026
       8    1149    1148    1104    1103    1071    1070    1026    1025
       8    1150    1149    1103    1106    1072    1071    1025    1028
       8    1151    1150    1106    1129    1073    1072    1028    1051
       8    1152    1151    1129    1130    1074    1073    1051    1052
       8    1153    1152    1130    1131    1075    1074    1052    1053
       8    1154    1153    1131    1132    1076    1075    1053    1054
       8    1155    1154    1132    1133    1077    1076    1054    1055
       8    1156    1155    1133    1134    1078    1077    1055    1056
       8    1157    1156    1134    1113    1079    1078    1056    1035
       8    1158    1157    1113    1112    1080    1079    1035    1034
       8    1159    1158    1112    1114    1081    1080    1034    1036
       8    1160    1159    1114    1135    1082    1081    1036    1057
       8    1161    1160    1135    1136    1083    1082    1057    1058
       8    1162    1161    1136    1137    1084    1083    1058    1059
       8    1163    1162    1137    1138    1085    1084    1059    1060
       8    1164    1163    1138    1139    1086    1085    1060    1061
       8    1165    1164    1139    1140    1087    1086    1061    1062
       8    1166    1165    1140    1141    1088    1087    1062    1063
       8    1167    1166    1141    1142    1089    1088    1063    1064
       8    1168    1167    1142    1143    1090    1089    1064    1065
       8    1169    1168    1143    1097    1091    1090    1065    1019
       8    1145    1169    1097    1096    1067    1091    1019    1018
       8    1170    1171    1172    1173    1092    1093    1094    1095
       8    1172    1174    1175    1173    1094    1096    1097    1095
       8    1176    1171    1170    1177    1098    1093    1092    1099
       8    1170    1178    1179    1177    1092    1100    1101    1099
       8    1180    1181    1182    1176    1102    1103    1104    1098
       8    1183    1184    1181    1180    1105    1106    1103    1102
       8    1177    1183    1180    1176    1099    1105    1102    1098
       8    1185    1186    1178    1187    1107    1108    1100    1109
       8    1188    1189    1186    1185    1110    1111    1108    1107
       8    1190    1191    1189    1188    1112    1113    1111    1110
       8    1192    1190    1188    1193    1114    1112    1110    1115
       8    1194    1179    1178    1186    1116    1101    1100    1108
       8    1185    1195    1193    1188    1107    1117    1115    1110
       8    1170    1173    1187    1178    1092    1095    1109    1100
       8    1196    1183    1177    1179    1118    1105    1099    1101
       8    1197    1196    1179    1194    1119    1118    1101    1116
       8    1198    1197    1194    1199    1120    1119    1116    1121
       8    1189    1199    1194    1186    1111    1121    1116    1108
       8    1200    1201    1195    1185    1122    1123    1117    1107
       8    1202    1200    1185    1187    1124    1122    1107    1109
       8    1203    1202    1187    1173    1125    1124    1109    1095
       8    1204    1174    1172    1205    1126    1096    1094    1127
       8    1206    1205    1172    1171    1128    1127    1094    1093
       8    1182    1206    1171    1176    1104    1128    1093    1098
       8    1207    1184    1183    1196    1129    1106    1105    1118
       8    1208    1207    1196    1197    1130    1129    1118    1119
       8    1209    1208    1197    1198    1131    1130    1119    1120
       8    1210    1209    1198    1211    1132    1131    1120    1133
       8    1212    1211    1198    1199    1134    1133    1120    1121
       8    1191    1212    1199    1189    1113    1134    1121    1111
       8    1213    1192    1193    1195    1135    1114    1115    1117
       8    1214    1213    1195    1201    1136    1135    1117    1123
       8    1215    1214    1201    1216    1137    1136    1123    1138
       8    1217    1216    1201    1200    1139    1138    1123    1122
       8    1218    1217    1200    1202    1140    1139    1122    1124
       8    1219    1218    1202    1203    1141    1140    1124    1125
       8    1220    1219    1203    1221    1142    1141    1125    1143
       8    1175    1221    1203    1173    1097    1143    1125    1095
       8    1222    1223    1174    1204    1144    1145    1096    1126
       8    1224    1222    1204    1205    1146    1144    1126    1127
       8    1225    1224    1205    1206    1147    1146    1127    1128
       8    1226    1225    1206    1182    1148    1147    1128    1104
       8    1227    1226    1182    1181    1149    1148    1104    1103
       8    1228    1227    1181    1184    1150    1149    1103    1106
       8    1229    1228    1184    1207    1151    1150    1106    1129
       8    1230    1229    1207    1208    1152    1151    1129    1130
       8    1231    1230    1208    1209    1153    1152    1130    1131
       8    1232    1231    1209    1210    1154    1153    1131    1132
       8    1233    1232    1210    1211    1155    1154    1132    1133
       8    1234    1233    1211    1212    1156    1155    1133    1134
       8    1235    1234    1212    1191    1157    1156    1134    1113
       8    1236    1235    1191    1190    1158    1157    1113    1112
       8    1237    1236    1190    1192    1159    1158    1112    1114
       8    1238    1237    1192    1213    1160    1159    1114    1135
       8    1239    1238    1213    1214    1161    1160    1135    1136
       8    1240    1239    1214    1215    1162    1161    1136    1137
       8    1241    1240    1215    1216    1163    1162    1137    1138
       8    1242    1241    1216    1217    1164    1163    1138    1139
       8    1243    1242    1217    1218    1165    1164    1139    1140
       8    1244    1243    1218    1219    1166    1165    1140    1141
       8    1245    1244    1219    1220    1167    1166    1141    1142
       8    1246    1245    1220    1221    1168    1167    1142    1143
       8    1247    1246    1221    1175    1169    1168    1143    1097
       8    1223    1247    1175    1174    1145    1169    1097    1096
       8    1248    1249    1250    1251    1170    1171    1172    1173
       8    1250    1252    1253    1251    1172    1174    1175    1173
       8    1254    1249    1248    1255    1176    1171    1170    1177
       8    1248    1256    1257    1255    1170    1178    1179    1177
       8    1258    1259    1260    1254    1180    1181    1182    1176
       8    1261    1262    1259    1258    1183    1184    1181    1180
       8    1255    1261    1258    1254    1177    1183    1180    1176
       8    1263    1264    1256    1265    1185    1186    1178    1187
       8    1266    1267    1264    1263    1188    1189    1186    1185
       8    1268    1269    1267    1266    1190    1191    1189    1188
       8    1270    1268    1266    1271    1192    1190    1188    1193
       8    1272    1257    1256    1264    1194    1179    1178    1186
       8    1263    1273    1271    1266    1185    1195    1193    1188
       8    1248    1251    1265    1256    1170    1173    1187    1178
       8    1274    1261    1255    1257    1196    1183    1177    1179
       8    1275    1274    1257    1272    1197    1196    1179    1194
       8    1276    1275    1272    1277    1198    1197    1194    1199
       8    1267    1277    1272    1264    1189    1199    1194    1186
       8    1278    1279    1273    1263    1200    1201    1195    1185
       8    1280    1278    1263    1265    1202    1200    1185    1187
       8    1281    1280    1265    1251    1203    1202    1187    1173
       8    1282    1252    1250    1283    1204    1174    1172    1205
       8    1284    1283    1250    1249    1206    1205    1172    1171
       8    1260    1284    1249    1254    1182    1206    1171    1176
       8    1285    1262    1261    1274    1207    1184    1183    1196
       8    1286    1285    1274    1275    1208    1207    1196    1197
       8    1287    1286    1275    1276    1209    1208    1197    1198
       8    1288    1287    1276    1289    1210    1209    1198    1211
       8    1290    1289    1276    1277    1212    1211    1198    1199
       8    1269    1290    1277    1267    1191    1212    1199    1189
       8    1291    1270    1271    1273    1213    1192    1193    1195
       8    1292    1291    1273    1279    1214    1213    1195    1201
       8    1293    1292    1279    1294    1215    1214    1201    1216
       8    1295    1294    1279    1278    1217    1216    1201    1200
       8    1296    1295    1278    1280    1218    1217    1200    1202
       8    1297    1296    1280    1281    1219    1218    1202    1203
       8    1298    1297    1281    1299    1220    1219    1203    1221
       8    1253    1299    1281    1251    1175    1221    1203    1173
       8    1300    1301    1252    1282    1222    1223    1174    1204
       8    1302    1300    1282    1283    1224    1222    1204    1205
       8    1303    1302    1283    1284    1225    1224    1205    1206
       8    1304    1303    1284    1260    1226    1225    1206    1182
       8    1305    1304    1260    1259    1227    1226    1182    1181
       8    1306    1305    1259    1262    1228    1227    1181    1184
       8    1307    1306    1262    1285    1229    1228    1184    1207
       8    1308    1307    1285    1286    1230    1229    1207    1208
       8    1309    1308    1286    1287    1231    1230    1208    1209
       8    1310    1309    1287    1288    1232    1231    1209    1210
       8    1311    1310    1288    1289    1233    1232    1210    1211
       8    1312    1311    1289    1290    1234    1233    1211    1212
       8    1313    1312    1290    1269    1235    1234    1212    1191
       8    1314    1313    1269    1268    1236    1235    1191    1190
       8    1315    1314    1268    1270    1237    1236    1190    1192
       8    1316    1315    1270    1291    1238    1237    1192    1213
       8    1317    1316    1291    1292    1239    1238    1213    1214
       8    1318    1317    1292    1293    1240    1239    1214    1215
       8    1319    1318    1293    1294    1241    1240    1215    1216
       8    1320    1319    1294    1295    1242    1241    1216    1217
       8    1321    1320    1295    1296    1243    1242    1217    1218
       8    1322    1321    1296    1297    1244    1243    1218    1219
       8    1323    1322    1297    1298    1245    1244    1219    1220
       8    1324    1323    1298    1299    1246    1245    1220    1221
       8    1325    1324    1299    1253    1247    1246    1221    1175
       8    1301    1325    1253    1252    1223    1247    1175    1174
       8    1326    1327    1328    1329    1248    1249    1250    1251
       8    1328    1330    1331    1329    1250    1252    1253    1251
       8    1332    1327    1326    1333    1254    1249    1248    1255
       8    1326    1334    1335    1333    1248    1256    1257    1255
       8    1336    1337    1338    1332    1258    1259    1260    1254
       8    1339    1340    1337    1336    1261    1262    1259    1258
       8    1333    1339    1336    1332    1255    1261    1258    1254
       8    1341    1342    1334    1343    1263    1264    1256    1265
       8    1344    1345    1342    1341    1266    1267    1264    1263
       8    1346    1347    1345    1344    1268    1269    1267    1266
       8    1348    1346    1344    1349    1270    1268    1266    1271
       8    1350    1335    1334    1342    1272    1257    1256    1264
       8    1341    1351    1349    1344    1263    1273    1271    1266
       8    1326    1329    1343    1334    1248    1251    1265    1256
       8    1352    1339    1333    1335    1274    1261    1255    1257
       8    1353    1352    1335    1350    1275    1274    1257    1272
       8    1354    1353    1350    1355    1276    1275    1272    1277
       8    1345    1355    1350    1342    1267    1277    1272    1264
       8    1356    1357    1351    1341    1278    1279    1273    1263
       8    1358    1356    1341    1343    1280    1278    1263    1265
       8    1359    1358    1343    1329    1281    1280    1265    1251
       8    1360    1330    1328    1361    1282    1252    1250    1283
       8    1362    1361    1328    1327    1284    1283    1250    1249
       8    1338    1362    1327    1332    1260    1284    1249    1254
       8    1363    1340    1339    1352    1285    1262    1261    1274
       8    1364    1363    1352    1353    1286    1285    1274    1275
       8    1365    1364    1353    1354    1287    1286    1275    1276
       8    1366    1365    1354    1367    1288    1287    1276    1289
       8    1368    1367    1354    1355    1290    1289    1276    1277
       8    1347    1368    1355    1345    1269    1290    1277    1267
       8    1369    1348    1349    1351    1291    1270    1271    1273
       8    1370    1369    1351    1357    1292    1291    1273    1279
       8    1371    1370    1357    1372    1293    1292    1279    1294
       8    1373    1372    1357    1356    1295    1294    1279    1278
       8    1374    1373    1356    1358    1296    1295    1278    1280
       8    1375    1374    1358    1359    1297    1296    1280    1281
       8    1376    1375    1359    1377    1298    1297    1281    1299
       8    1331    1377    1359    1329    1253    1299    1281    1251
       8    1378    1379    1330    1360    1300    1301    1252    1282
       8    1380    1378    1360    1361    1302    1300    1282    1283
       8    1381    1380    1361    1362    1303    1302    1283    1284
       8    1382    1381    1362    1338    1304    1303    1284    1260
       8    1383    1382    1338    1337    1305    1304    1260    1259
       8    1384    1383    1337    1340    1306    1305    1259    1262
       8    1385    1384    1340    1363    1307    1306    1262    1285
       8    1386    1385    1363    1364    1308    1307    1285    1286
       8    1387    1386    1364    1365    1309    1308    1286    1287
       8    1388    1387    1365    1366    1310    1309    1287    1288
       8    1389    1388    1366    1367    1311    1310    1288    1289
       8    1390    1389    1367    1368    1312    1311    1289    1290
       8    1391    1390    1368    1347    1313    1312    1290    1269
       8    1392    1391    1347    1346    1314    1313    1269    1268
       8    1393    1392    1346    1348    1315    1314    1268    1270
       8    1394    1393    1348    1369    1316    1315    1270    1291
       8    1395    1394    1369    1370    1317    1316    1291    1292
       8    1396    1395    1370    1371    1318    1317    1292    1293
       8    1397    1396    1371    1372    1319    1318    1293    1294
       8    1398    1397    1372    1373    1320    1319    1294    1295
       8    1399    1398    1373    1374    1321    1320    1295    1296
       8    1400    1399    1374    1375    1322    1321    1296    1297
       8    1401    1400    1375    1376    1323    1322    1297    1298
       8    1402    1401    1376    1377    1324    1323    1298    1299
       8    1403    1402    1377    1331    1325    1324    1299    1253
       8    1379    1403    1331    1330    1301    1325    1253    1252
       8    1404    1405    1406    1407    1326    1327    1328    1329
       8    1406    1408    1409    1407    1328    1330    1331    1329
       8    1410    1405    1404    1411    1332    1327    1326    1333
       8    1404    1412    1413    1411    1326    1334    1335    1333
       8    1414    1415    1416    1410    1336    1337    1338    1332
       8    1417    1418    1415    1414    1339    1340    1337    1336
       8    1411    1417    1414    1410    1333    1339    1336    1332
       8    1419    1420    1412    1421    1341    1342    1334    1343
       8    1422    1423    1420    1419    1344    1345    1342    1341
       8    1424    1425    1423    1422    1346    1347    1345    1344
       8    1426    1424    1422    1427    1348    1346    1344    1349
       8    1428    1413    1412    1420    1350    1335    1334    1342
       8    1419    1429    1427    1422    1341    1351    1349    1344
       8    1404    1407    1421    1412    1326    1329    1343    1334
       8    1430    1417    1411    1413    1352    1339    1333    1335
       8    1431    1430    1413    1428    1353    1352    1335    1350
       8    1432    1431    1428    1433    1354    1353    1350    1355
       8    1423    1433    1428    1420    1345    1355    1350    1342
       8    1434    1435    1429    1419    1356    1357    1351    1341
       8    1436    1434    1419    1421    1358    1356    1341    1343
       8    1437    1436    1421    1407    1359    1358    1343    1329
       8    1438    1408    1406    1439    1360    1330    1328    1361
       8    1440    1439    1406    1405    1362    1361    1328    1327
       8    1416    1440    1405    1410    1338    1362    1327    1332
       8    1441    1418    1417    1430    1363    1340    1339    1352
       8    1442    1441    1430    1431    1364    1363    1352    1353
       8    1443    1442    1431    1432    1365    1364    1353    1354
       8    1444    1443    1432    1445    1366    1365    1354    1367
       8    1446    1445    1432    1433    1368    1367    1354    1355
       8    1425    1446    1433    1423    1347    1368    1355    1345
       8    1447    1426    1427    1429    1369    1348    1349    1351
       8    1448    1447    1429    1435    1370    1369    1351    1357
       8    1449    1448    1435    1450    1371    1370    1357    1372
       8    1451    1450    1435    1434    1373    1372    1357    1356
       8    1452    1451    1434    1436    1374    1373    1356    1358
       8    1453    1452    1436    1437    1375    1374    1358    1359
       8    1454    1453    1437    1455    1376    1375    1359    1377
       8    1409    1455    1437    1407    1331    1377    1359    1329
       8    1456    1457    1408    1438    1378    1379    1330    1360
       8    1458    1456    1438    1439    1380    1378    1360    1361
       8    1459    1458    1439    1440    1381    1380    1361    1362
       8    1460    1459    1440    1416    1382    1381    1362    1338
       8    1461    1460    1416    1415    1383    1382    1338    1337
       8    1462    1461    1415    1418    1384    1383    1337    1340
       8    1463    1462    1418    1441    1385    1384    1340    1363
       8    1464    1463    1441    1442    1386    1385    1363    1364
       8    1465    1464    1442    1443    1387    1386    1364    1365
       8    1466    1465    1443    1444    1388    1387    1365    1366
       8    1467    1466    1444    1445    1389    1388    1366    1367
       8    1468    1467    1445    1446    1390    1389    1367    1368
       8    1469    1468    1446    1425    1391    1390    1368    1347
       8    1470    1469    1425    1424    1392    1391    1347    1346
       8    1471    1470    1424    1426    1393    1392    1346    1348
       8    1472    1471    1426    1447    1394    1393    1348    1369
       8    1473    1472    1447    1448    1395    1394    1369    1370
       8    1474    1473    1448    1449    1396    1395    1370    1371
       8    1475    1474    1449    1450    1397    1396    1371    1372
       8    1476    1475    1450    1451    1398    1397    1372    1373
       8    1477    1476    1451    1452    1399    1398    1373    1374
       8    1478    1477    1452    1453    1400    1399    1374    1375
       8    1479    1478    1453    1454    1401    1400    1375    1376
       8    1480    1479    1454    1455    1402    1401    1376    1377
       8    1481    1480    1455    1409    1403    1402    1377    1331
       8    1457    1481    1409    1408    1379    1403    1331    1330
       8    1482    1483    1484    1485    1404    1405    1406    1407
       8    1484    1486    1487    1485    1406    1408    1409    1407
       8    1488    1483    1482    1489    1410    1405    1404    1411
       8    1482    1490    1491    1489    1404    1412    1413    1411
       8    1492    1493    1494    1488    1414    1415    1416    1410
       8    1495    1496    1493    1492    1417    1418    1415    1414
       8    1489    1495    1492    1488    1411    1417    1414    1410
       8    1497    1498    1490    1499    1419    1420    1412    1421
       8    1500    1501    1498    1497    1422    1423    1420    1419
       8    1502    1503    1501    1500    1424    1425    1423    1422
       8    1504    1502    1500    1505    1426    1424    1422    1427
       8    1506    1491    1490    1498    1428    1413    1412    1420
       8    1497    1507    1505    1500    1419    1429    1427    1422
       8    1482    1485    1499    1490    1404    1407    1421    1412
       8    1508    1495    1489    1491    1430    1417    1411    1413
       8    1509    1508    1491    1506    1431    1430    1413    1428
       8    1510    1509    1506    1511    1432    1431    1428    1433
       8    1501    1511    1506    1498    1423    1433    1428    1420
       8    1512    1513    1507    1497    1434    1435    1429    1419
       8    1514    1512    1497    1499    1436    1434    1419    1421
       8    1515    1514    1499    1485    1437    1436    1421    1407
       8    1516    1486    1484    1517    1438    1408    1406    1439
       8    1518    1517    1484    1483    1440    1439    1406    1405
       8    1494    1518    1483    1488    1416    1440    1405    1410
       8    1519    1496    1495    1508    1441    1418    1417    1430
       8    1520    1519    1508    1509    1442    1441    1430    1431
       8    1521    1520    1509    1510    1443    1442    1431    1432
       8    1522    1521    1510    1523    1444    1443    1432    1445
       8    1524    1523    1510    1511    1446    1445    1432    1433
       8    1503    1524    1511    1501    1425    1446    1433    1423
       8    1525    1504    1505    1507    1447    1426    1427    1429
       8    1526    1525    1507    1513    1448    1447    1429    1435
       8    1527    1526    1513    1528    1449    1448    1435    1450
       8    1529    1528    1513    1512    1451    1450    1435    1434
       8    1530    1529    1512    1514    1452    1451    1434    1436
       8    1531    1530    1514    1515    1453    1452    1436    1437
       8    1532    1531    1515    1533    1454    1453    1437    1455
       8    1487    1533    1515    1485    1409    1455    1437    1407
       8    1534    1535    1486    1516    1456    1457    1408    1438
       8    1536    1534    1516    1517    1458    1456    1438    1439
       8    1537    1536    1517    1518    1459    1458    1439    1440
       8    1538    1537    1518    1494    1460    1459    1440    1416
       8    1539    1538    1494    1493    1461    1460    1416    1415
       8    1540    1539    1493    1496    1462    1461    1415    1418
       8    1541    1540    1496    1519    1463    1462    1418    1441
       8    1542    1541    1519    1520    1464    1463    1441    1442
       8    1543    1542    1520    1521    1465    1464    1442    1443
       8    1544    1543    1521    1522    1466    1465    1443    1444
       8    1545    1544    1522    1523    1467    1466    1444    1445
       8    1546    1545    1523    1524    1468    1467    1445    1446
       8    1547    1546    1524    1503    1469    1468    1446    1425
       8    1548    1547    1503    1502    1470    1469    1425    1424
       8    1549    1548    1502    1504    1471    1470    1424    1426
       8    1550    1549    1504    1525    1472    1471    1426    1447
       8    1551    1550    1525    1526    1473    1472    1447    1448
       8    1552    1551    1526    1527    1474    1473    1448    1449
       8    1553    1552    1527    1528    1475    1474    1449    1450
       8    1554    1553    1528    1529    1476    1475    1450    1451
       8    1555    1554    1529    1530    1477    1476    1451    1452
       8    1556    1555    1530    1531    1478    1477    1452    1453
       8    1557    1556    1531    1532    1479    1478    1453    1454
       8    1558    1557    1532    1533    1480    1479    1454    1455
       8    1559    1558    1533    1487    1481    1480    1455    1409
       8    1535    1559    1487    1486    1457    1481    1409    1408
       8    1560    1561    1562    1563    1482    1483    1484    1485
       8    1562    1564    1565    1563    1484    1486    1487    1485
       8    1566    1561    1560    1567    1488    1483    1482    1489
       8    1560    1568    1569    1567    1482    1490    1491    1489
       8    1570    1571    1572    1566    1492    1493    1494    1488
       8    1573    1574    1571    1570    1495    1496    1493    1492
       8    1567    1573    1570    1566    1489    1495    1492    1488
       8    1575    1576    1568    1577    1497    1498    1490    1499
       8    1578    1579    1576    1575    1500    1501    1498    1497
       8    1580    1581    1579    1578    1502    1503    1501    1500
       8    1582    1580    1578    1583    1504    1502    1500    1505
       8    1584    1569    1568    1576    1506    1491    1490    1498
       8    1575    1585    1583    1578    1497    1507    1505    1500
       8    1560    1563    1577    1568    1482    1485    1499    1490
       8    1586    1573    1567    1569    1508    1495    1489    1491
       8    1587    1586    1569    1584    1509    1508    1491    1506
       8    1588    1587    1584    1589    1510    1509    1506    1511
       8    1579    1589    1584    1576    1501    1511    1506    1498
       8    1590    1591    1585    1575    1512    1513    1507    1497
       8    1592    1590    1575    1577    1514    1512    1497    1499
       8    1593    1592    1577    1563    1515    1514    1499    1485
       8    1594    1564    1562    1595    1516    1486    1484    1517
       8    1596    1595    1562    1561    1518    1517    1484    1483
       8    1572    1596    1561    1566    1494    1518    1483    1488
       8    1597    1574    1573    1586    1519    1496    1495    1508
       8    1598    1597    1586    1587    1520    1519    1508    1509
       8    1599    1598    1587    1588    1521    1520    1509    1510
       8    1600    1599    1588    1601    1522    1521    1510    1523
       8    1602    1601    1588    1589    1524    1523    1510    1511
       8    1581    1602    1589    1579    1503    1524    1511    1501
       8    1603    1582    1583    1585    1525    1504    1505    1507
       8    1604    1603    1585    1591    1526    1525    1507    1513
       8    1605    1604    1591    1606    1527    1526    1513    1528
       8    1607    1606    1591    1590    1529    1528    1513    1512
       8    1608    1607    1590    1592    1530    1529    1512    1514
       8    1609    1608    1592    1593    1531    1530    1514    1515
       8    1610    1609    1593    1611    1532    1531    1515    1533
       8    1565    1611    1593    1563    1487    1533    1515    1485
       8    1612    1613    1564    1594    1534    1535    1486    1516
       8    1614    1612    1594    1595    1536    1534    1516    1517
       8    1615    1614    1595    1596    1537    1536    1517    1518
       8    1616    1615    1596    1572    1538    1537    1518    1494
       8    1617    1616    1572    1571    1539    1538    1494    1493
       8    1618    1617    1571    1574    1540    1539    1493    1496
       8    1619    1618    1574    1597    1541    1540    1496    1519
       8    1620    1619    1597    1598    1542    1541    1519    1520
       8    1621    1620    1598    1599    1543    1542    1520    1521
       8    1622    1621    1599    1600    1544    1543    1521    1522
       8    1623    1622    1600    1601    1545    1544    1522    1523
       8    1624    1623    1601    1602    1546    1545    1523    1524
       8    1625    1624    1602    1581    1547    1546    1524    1503
       8    1626    1625    1581    1580    1548    1547    1503    1502
       8    1627    1626    1580    1582    1549    1548    1502    1504
       8    1628    1627    1582    1603    1550    1549    1504    1525
       8    1629    1628    1603    1604    1551    1550    1525    1526
       8    1630    1629    1604    1605    1552    1551    1526    1527
       8    1631    1630    1605    1606    1553    1552    1527    1528
       8    1632    1631    1606    1607    1554    1553    1528    1529
       8    1633    1632    1607    1608    1555    1554    1529    1530
       8    1634    1633    1608    1609    1556    1555    1530    1531
       8    1635    1634    1609    1610    1557    1556    1531    1532
       8    1636    1635    1610    1611    1558    1557    1532    1533
       8    1637    1636    1611    1565    1559    1558    1533    1487
       8    1613    1637    1565    1564    1535    1559    1487    1486
       8    1638    1639    1640    1641    1560    1561    1562    1563
       8    1640    1642    1643    1641    1562    1564    1565    1563
       8    1644    1639    1638    1645    1566    1561    1560    1567
       8    1638    1646    1647    1645    1560    1568    1569    1567
       8    1648    1649    1650    1644    1570    1571    1572    1566
       8    1651    1652    1649    1648    1573    1574    1571    1570
       8    1645    1651    1648    1644    1567    1573    1570    1566
       8    1653    1654    1646    1655    1575    1576    1568    1577
       8    1656    1657    1654    1653    1578    1579    1576    1575
       8    1658    1659    1657    1656    1580    1581    1579    1578
       8    1660    1658    1656    1661    1582    1580    1578    1583
       8    1662    1647    1646    1654    1584    1569    1568    1576
       8    1653    1663    1661    1656    1575    1585    1583    1578
       8    1638    1641    1655    1646    1560    1563    1577    1568
       8    1664    1651    1645    1647    1586    1573    1567    1569
       8    1665    1664    1647    1662    1587    1586    1569    1584
       8    1666    1665    1662    1667    1588    1587    1584    1589
       8    1657    1667    1662    1654    1579    1589    1584    1576
       8    1668    1669    1663    1653    1590    1591    1585    1575
       8    1670    1668    1653    1655    1592    1590    1575    1577
       8    1671    1670    1655    1641    1593    1592    1577    1563
       8    1672    1642    1640    1673    1594    1564    1562    1595
       8    1674    1673    1640    1639    1596    1595    1562    1561
       8    1650    1674    1639    1644    1572    1596    1561    1566
       8    1675    1652    1651    1664    1597    1574    1573    1586
       8    1676    1675    1664    1665    1598    1597    1586    1587
       8    1677    1676    1665    1666    1599    1598    1587    1588
       8    1678    1677    1666    1679    1600    1599    1588    1601
       8    1680    1679    1666    1667    1602    1601    1588    1589
       8    1659    1680    1667    1657    1581    1602    1589    1579
       8    1681    1660    1661    1663    1603    1582    1583    1585
       8    1682    1681    1663    1669    1604    1603    1585    1591
       8    1683    1682    1669    1684    1605    1604    1591    1606
       8    1685    1684    1669    1668    1607    1606    1591    1590
       8    1686    1685    1668    1670    1608    1607    1590    1592
       8    1687    1686    1670    1671    1609    1608    1592    1593
       8    1688    1687    1671    1689    1610    1609    1593    1611
       8    1643    1689    1671    1641    1565    1611    1593    1563
       8    1690    1691    1642    1672    1612    1613    1564    1594
       8    1692    1690    1672    1673    1614    1612    1594    1595
       8    1693    1692    1673    1674    1615    1614    1595    1596
       8    1694    1693    1674    1650    1616    1615    1596    1572
       8    1695    1694    1650    1649    1617    1616    1572    1571
       8    1696    1695    1649    1652    1618    1617    1571    1574
       8    1697    1696    1652    1675    1619    1618    1574    1597
       8    1698    1697    1675    1676    1620    1619    1597    1598
       8    1699    1698    1676    1677    1621    1620    1598    1599
       8    1700    1699    1677    1678    1622    1621    1599    1600
       8    1701    1700    1678    1679    1623    1622    1600    1601
       8    1702    1701    1679    1680    1624    1623    1601    1602
       8    1703    1702    1680    1659    1625    1624    1602    1581
       8    1704    1703    1659    1658    1626    1625    1581    1580
       8    1705    1704    1658    1660    1627    1626    1580    1582
       8    1706    1705    1660    1681    1628    1627    1582    1603
       8    1707    1706    1681    1682    1629    1628    1603    1604
       8    1708    1707    1682    1683    1630    1629    1604    1605
       8    1709    1708    1683    1684    1631    1630    1605    1606
       8    1710    1709    1684    1685    1632    1631    1606    1607
       8    1711    1710    1685    1686    1633    1632    1607    1608
       8    1712    1711    1686    1687    1634    1633    1608    1609
       8    1713    1712    1687    1688    1635    1634    1609    1610
       8    1714    1713    1688    1689    1636    1635    1610    1611
       8    1715    1714    1689    1643    1637    1636    1611    1565
       8    1691    1715    1643    1642    1613    1637    1565    1564
       8    1716    1717    1718    1719    1638    1639    1640    1641
       8    1718    1720    1721    1719    1640    1642    1643    1641
       8    1722    1717    1716    1723    1644    1639    1638    1645
       8    1716    1724    1725    1723    1638    1646    1647    1645
       8    1726    1727    1728    1722    1648    1649    1650    1644
       8    1729    1730    1727    1726    1651    1652    1649    1648
       8    1723    1729    1726    1722    1645    1651    1648    1644
       8    1731    1732    1724    1733    1653    1654    1646    1655
       8    1734    1735    1732    1731    1656    1657    1654    1653
       8    1736    1737    1735    1734    1658    1659    1657    1656
       8    1738    1736    1734    1739    1660    1658    1656    1661
       8    1740    1725    1724    1732    1662    1647    1646    1654
       8    1731    1741    1739    1734    1653    1663    1661    1656
       8    1716    1719    1733    1724    1638    1641    1655    1646
       8    1742    1729    1723    1725    1664    1651    1645    1647
       8    1743    1742    1725    1740    1665    1664    1647    1662
       8    1744    1743    1740    1745    1666    1665    1662    1667
       8    1735    1745    1740    1732    1657    1667    1662    1654
       8    1746    1747    1741    1731    1668    1669    1663    1653
       8    1748    1746    1731    1733    1670    1668    1653    1655
       8    1749    1748    1733    1719    1671    1670    1655    1641
       8    1750    1720    1718    1751    1672    1642    1640    1673
       8    1752    1751    1718    1717    1674    1673    1640    1639
       8    1728    1752    1717    1722    1650    1674    1639    1644
       8    1753    1730    1729    1742    1675    1652    1651    1664
       8    1754    1753    1742    1743    1676    1675    1664    1665
       8    1755    1754    1743    1744    1677    1676    1665    1666
       8    1756    1755    1744    1757    1678    1677    1666    1679
       8    1758    1757    1744    1745    1680    1679    1666    1667
       8    1737    1758    1745    1735    1659    1680    1667    1657
       8    1759    1738    1739    1741    1681    1660    1661    1663
       8    1760    1759    1741    1747    1682    1681    1663    1669
       8    1761    1760    1747    1762    1683    1682    1669    1684
       8    1763    1762    1747    1746    1685    1684    1669    1668
       8    1764    1763    1746    1748    1686    1685    1668    1670
       8    1765    1764    1748    1749    1687    1686    1670    1671
       8    1766    1765    1749    1767    1688    1687    1671    1689
       8    1721    1767    1749    1719    1643    1689    1671    1641
       8    1768    1769    1720    1750    1690    1691    1642    1672
       8    1770    1768    1750    1751    1692    1690    1672    1673
       8    1771    1770    1751    1752    1693    1692    1673    1674
       8    1772    1771    1752    1728    1694    1693    1674    1650
       8    1773    1772    1728    1727    1695    1694    1650    1649
       8    1774    1773    1727    1730    1696    1695    1649    1652
       8    1775    1774    1730    1753    1697    1696    1652    1675
       8    1776    1775    1753    1754    1698    1697    1675    1676
       8    1777    1776    1754    1755    1699    1698    1676    1677
       8    1778    1777    1755    1756    1700    1699    1677    1678
       8    1779    1778    1756    1757    1701    1700    1678    1679
       8    1780    1779    1757    1758    1702    1701    1679    1680
       8    1781    1780    1758    1737    1703    1702    1680    1659
       8    1782    1781    1737    1736    1704    1703    1659    1658
       8    1783    1782    1736    1738    1705    1704    1658    1660
       8    1784    1783    1738    1759    1706    1705    1660    1681
       8    1785    1784    1759    1760    1707    1706    1681    1682
       8    1786    1785    1760    1761    1708    1707    1682    1683
       8    1787    1786    1761    1762    1709    1708    1683    1684
       8    1788    1787    1762    1763    1710    1709    1684    1685
       8    1789    1788    1763    1764    1711    1710    1685    1686
       8    1790    1789    1764    1765    1712    1711    1686    1687
       8    1791    1790    1765    1766    1713    1712    1687    1688
       8    1792    1791    1766    1767    1714    1713    1688    1689
       8    1793    1792    1767    1721    1715    1714    1689    1643
       8    1769    1793    1721    1720    1691    1715    1643    1642
       8    1794    1795    1796    1797    1716    1717    1718    1719
       8    1796    1798    1799    1797    1718    1720    1721    1719
       8    1800    1795    1794    1801    1722    1717    1716    1723
       8    1794    1802    1803    1801    1716    1724    1725    1723
       8    1804    1805    1806    1800    1726    1727    1728    1722
       8    1807    1808    1805    1804    1729    1730    1727    1726
       8    1801    1807    1804    1800    1723    1729    1726    1722
       8    1809    1810    1802    1811    1731    1732    1724    1733
       8    1812    1813    1810    1809    1734    1735    1732    1731
       8    1814    1815    1813    1812    1736    1737    1735    1734
       8    1816    1814    1812    1817    1738    1736    1734    1739
       8    1818    1803    1802    1810    1740    1725    1724    1732
       8    1809    1819    1817    1812    1731    1741    1739    1734
       8    1794    1797    1811    1802    1716    1719    1733    1724
       8    1820    1807    1801    1803    1742    1729    1723    1725
       8    1821    1820    1803    1818    1743    1742    1725    1740
       8    1822    1821    1818    1823    1744    1743    1740    1745
       8    1813    1823    1818    1810    1735    1745    1740    1732
       8    1824    1825    1819    1809    1746    1747    1741    1731
       8    1826    1824    1809    1811    1748    1746    1731    1733
       8    1827    1826    1811    1797    1749    1748    1733    1719
       8    1828    1798    1796    1829    1750    1720    1718    1751
       8    1830    1829    1796    1795    1752    1751    1718    1717
       8    1806    1830    1795    1800    1728    1752    1717    1722
       8    1831    1808    1807    1820    1753    1730    1729    1742
       8    1832    1831    1820    1821    1754    1753    1742    1743
       8    1833    1832    1821    1822    1755    1754    1743    1744
       8    1834    1833    1822    1835    1756    1755    1744    1757
       8    1836    1835    1822    1823    1758    1757    1744    1745
       8    1815    1836    1823    1813    1737    1758    1745    1735
       8    1837    1816    1817    1819    1759    1738    1739    1741
       8    1838    1837    1819    1825    1760    1759    1741    1747
       8    1839    1838    1825    1840    1761    1760    1747    1762
       8    1841    1840    1825    1824    1763    1762    1747    1746
       8    1842    1841    1824    1826    1764    1763    1746    1748
       8    1843    1842    1826    1827    1765    1764    1748    1749
       8    1844    1843    1827    1845    1766    1765    1749    1767
       8    1799    1845    1827    1797    1721    1767    1749    1719
       8    1846    1847    1798    1828    1768    1769    1720    1750
       8    1848    1846    1828    1829    1770    1768    1750    1751
       8    1849    1848    1829    1830    1771    1770    1751    1752
       8    1850    1849    1830    1806    1772    1771    1752    1728
       8    1851    1850    1806    1805    1773    1772    1728    1727
       8    1852    1851    1805    1808    1774    1773    1727    1730
       8    1853    1852    1808    1831    1775    1774    1730    1753
       8    1854    1853    1831    1832    1776    1775    1753    1754
       8    1855    1854    1832    1833    1777    1776    1754    1755
       8    1856    1855    1833    1834    1778    1777    1755    1756
       8    1857    1856    1834    1835    1779    1778    1756    1757
       8    1858    1857    1835    1836    1780    1779    1757    1758
       8    1859    1858    1836    1815    1781    1780    1758    1737
       8    1860    1859    1815    1814    1782    1781    1737    1736
       8    1861    1860    1814    1816    1783    1782    1736    1738
       8    1862    1861    1816    1837    1784    1783    1738    1759
       8    1863    1862    1837    1838    1785    1784    1759    1760
       8    1864    1863    1838    1839    1786    1785    1760    1761
       8    1865    1864    1839    1840    1787    1786    1761    1762
       8    1866    1865    1840    1841    1788    1787    1762    1763
       8    1867    1866    1841    1842    1789    1788    1763    1764
       8    1868    1867    1842    1843    1790    1789    1764    1765
       8    1869    1868    1843    1844    1791    1790    1765    1766
       8    1870    1869    1844    1845    1792    1791    1766    1767
       8    1871    1870    1845    1799    1793    1792    1767    1721
       8    1847    1871    1799    1798    1769    1793    1721    1720
       8    1872    1873    1874    1875    1794    1795    1796    1797
       8    1874    1876    1877    1875    1796    1798    1799    1797
       8    1878    1873    1872    1879    1800    1795    1794    1801
       8    1872    1880    1881    1879    1794    1802    1803    1801
       8    1882    1883    1884    1878    1804    1805    1806    1800
       8    1885    1886    1883    1882    1807    1808    1805    1804
       8    1879    1885    1882    1878    1801    1807    1804    1800
       8    1887    1888    1880    1889    1809    1810    1802    1811
       8    1890    1891    1888    1887    1812    1813    1810    1809
       8    1892    1893    1891    1890    1814    1815    1813    1812
       8    1894    1892    1890    1895    1816    1814    1812    1817
       8    1896    1881    1880    1888    1818    1803    1802    1810
       8    1887    1897    1895    1890    1809    1819    1817    1812
       8    1872    1875    1889    1880    1794    1797    1811    1802
       8    1898    1885    1879    1881    1820    1807    1801    1803
       8    1899    1898    1881    1896    1821    1820    1803    1818
       8    1900    1899    1896    1901    1822    1821    1818    1823
       8    1891    1901    1896    1888    1813    1823    1818    1810
       8    1902    1903    1897    1887    1824    1825    1819    1809
       8    1904    1902    1887    1889    1826    1824    1809    1811
       8    1905    1904    1889    1875    1827    1826    1811    1797
       8    1906    1876    1874    1907    1828    1798    1796    1829
       8    1908    1907    1874    1873    1830    1829    1796    1795
       8    1884    1908    1873    1878    1806    1830    1795    1800
       8    1909    1886    1885    1898    1831    1808    1807    1820
       8    1910    1909    1898    1899    1832    1831    1820    1821
       8    1911    1910    1899    1900    1833    1832    1821    1822
       8    1912    1911    1900    1913    1834    1833    1822    1835
       8    1914    1913    1900    1901    1836    1835    1822    1823
       8    1893    1914    1901    1891    1815    1836    1823    1813
       8    1915    1894    1895    1897    1837    1816    1817    1819
       8    1916    1915    1897    1903    1838    1837    1819    1825
       8    1917    1916    1903    1918    1839    1838    1825    1840
       8    1919    1918    1903    1902    1841    1840    1825    1824
       8    1920    1919    1902    1904    1842    1841    1824    1826
       8    1921    1920    1904    1905    1843    1842    1826    1827
       8    1922    1921    1905    1923    1844    1843    1827    1845
       8    1877    1923    1905    1875    1799    1845    1827    1797
       8    1924    1925    1876    1906    1846    1847    1798    1828
       8    1926    1924    1906    1907    1848    1846    1828    1829
       8    1927    1926    1907    1908    1849    1848    1829    1830
       8    1928    1927    1908    1884    1850    1849    1830    1806
       8    1929    1928    1884    1883    1851    1850    1806    1805
       8    1930    1929    1883    1886    1852    1851    1805    1808
       8    1931    1930    1886    1909    1853    1852    1808    1831
       8    1932    1931    1909    1910    1854    1853    1831    1832
       8    1933    1932    1910    1911    1855    1854    1832    1833
       8    1934    1933    1911    1912    1856    1855    1833    1834
       8    1935    1934    1912    1913    1857    1856    1834    1835
       8    1936    1935    1913    1914    1858    1857    1835    1836
       8    1937    1936    1914    1893    1859    1858    1836    1815
       8    1938    1937    1893    1892    1860    1859    1815    1814
       8    1939    1938    1892    1894    1861    1860    1814    1816
       8    1940    1939    1894    1915    1862    1861    1816    1837
       8    1941    1940    1915    1916    1863    1862    1837    1838
       8    1942    1941    1916    1917    1864    1863    1838    1839
       8    1943    1942    1917    1918    1865    1864    1839    1840
       8    1944    1943    1918    1919    1866    1865    1840    1841
       8    1945    1944    1919    1920    1867    1866    1841    1842
       8    1946    1945    1920    1921    1868    1867    1842    1843
       8    1947    1946    1921    1922    1869    1868    1843    1844
       8    1948    1947    1922    1923    1870    1869    1844    1845
       8    1949    1948    1923    1877    1871    1870    1845    1799
       8    1925    1949    1877    1876    1847    1871    1799    1798
  
CELL_TYPES    3486
       1
       1
       1
       1
       1
       1
       1
       1
       1
       1
       1
       1
       1
       1
       1
       1
       1
       1
       1
       1
       1
       1
       1
       1
       1
       1
       1
       1
       1
       1
       1
       1
       1
       1
       1
       1
       1
       1
       1
       1
       1
       1
       1
       1
       1
       1
       1
       1
       1
       1
       1
       1
       1
       1
       1
       1
       1
       1
       1
       1
       1
       1
       1
       1
       1
       1
       1
       1
       1
       1
       1
       1
       1
       1
       1
       1
       1
       1
       1
       1
       1
       1
       1
       1
       1
       1
       1
       1
       1
       1
       1
       1
       1
       1
       1
       1
       1
       1
       1
       1
       1
       1
       1
       1
       1
       1
       1
       1
       1
       1
       1
       1
       1
       1
       1
       1
       1
       1
       1
       1
       1
       1
       1
       1
       1
       1
       1
       1
       1
       1
       1
       1
       1
       1
       1
       1
       1
       1
       1
       1
       1
       1
       1
       1
       1
       1
       1
       1
       1
       1
       1
       1
       1
       1
       1
       1
       1
       1
       1
       1
       1
       1
       1
       1
       1
       1
       1
       1
       1
       1
       1
       1
       1
       1
       1
       1
       1
       1
       1
       1
       1
       1
       1
       1
       1
       1
       1
       1
       1
       1
       1
       1
       1
       1
       1
       1
       1
       1
       1
       1
       1
       1
       1
       1
       1
       1
       1
       1
       1
       1
       1
       1
       1
       1
       1
       1
       1
       1
       1
       1
       1
       1
       1
       1
       1
       1
       1
       1
       1
       1
       1
       1
       1
       1
       1
       1
       1
       1
       1
       1
       1
       1
       1
       1
       1
       1
       1
       1
       1
       1
       1
       1
       1
       1
       1
       1
       1
       1
       1
       1
       1
       1
       1
       1
       1
       1
       1
       1
       1
       1
       1
       1
       1
       1
       1
       1
       1
       1
       1
       1
       1
       1
       1
       1
       1
       1
       1
       1
       1
       1
       1
       1
       1
       1
       1
       1
       1
       1
       1
       1
       1
       1
       1
       1
       1
       1
       1
       1
       1
       1
       1
       1
       1
       1
       1
       1
       1
       1
       1
       1
       1
       1
       1
       1
       1
       1
       1
       1
       1
       1
       1
       1
       1
       1
       1
       1
       1
       1
       1
       1
       1
       1
       1
       1
       1
       1
       1
       1
       1
       1
       1
       1
       1
       1
       1
       1
       1
       1
       1
       1
       1
       1
       1
       1
       1
       1
       1
       1
       1
       1
       1
       1
       1
       1
       1
       1
       1
       1
       1
       1
       1
       1
       1
       1
       1
       1
       1
       1
       1
       1
       1
       1
       1
       1
       1
       1
       1
       1
       1
       1
       1
       1
       1
       1
       1
       1
       1
       1
       1
       1
       1
       1
       1
       1
       1
       1
       1
       1
       1
       1
       1
       1
       1
       1
       1
       1
       1
       1
       1
       1
       1
       1
       1
       1
       1
       1
       1
       1
       1
       1
       1
       1
       1
       1
       1
       1
       1
       1
       1
       1
       1
       1
       1
       1
       1
       1
       1
       1
       1
       1
       1
       1
       1
       1
       1
       1
       1
       1
       1
       1
       1
       1
       1
       1
       1
       1
       1
       1
       1
       1
       1
       1
       1
       1
       1
       1
       1
       1
       1
       1
       1
       1
       1
       1
       1
       1
       1
       1
       1
       1
       1
       1
       1
       1
       1
       1
       1
       1
       1
       1
       1
       1
       1
       1
       1
       1
       1
       1
       1
       1
       1
       1
       1
       1
       1
       1
       1
       1
       1
       1
       1
       1
       1
       1
       1
       1
       1
       1
       1
       1
       1
       1
       1
       1
       1
       1
       1
       1
       1
       1
       1
       1
       1
       1
       1
       1
       1
       1
       1
       1
       1
       1
       1
       1
       1
       1
       1
       1
       1
       1
       1
       1
       1
       1
       1
       1
       1
       1
       1
       1
       1
       1
       1
       1
       1
       1
       1
       1
       1
       1
       1
       1
       1
       1
       1
       1
       1
       1
       1
       1
       1
       1
       1
       1
       1
       1
       1
       1
       1
       1
       1
       1
       1
       1
       1
       1
       1
       1
       1
       1
       1
       1
       1
       1
       1
       1
       1
       1
       1
       1
       1
       1
       1
       1
       1
       1
       1
       1
       1
       1
       1
       1
       1
       1
       1
       1
       1
       1
       1
       1
       1
       1
       1
       1
       1
       1
       1
       1
       1
       1
       1
       1
       1
       1
       1
       1
       1
       1
       1
       1
       1
       1
       1
       1
       1
       1
       1
       1
       1
       1
       1
       1
       1
       1
       1
       1
       1
       1
       1
       1
       1
       1
       1
       1
       1
       1
       1
       1
       1
       1
       1
       1
       1
       1
       1
       1
       1
       1
       1
       1
       1
       1
       1
       1
       1
       1
       1
       1
       1
       1
       1
       1
       1
       1
       1
       1
       1
       1
       1
       1
       1
       1
       1
       1
       1
       1
       1
       1
       1
       1
       1
       1
       1
       1
       1
       1
       1
       1
       1
       1
       1
       1
       1
       1
       1
       1
       1
       1
       1
       1
       1
       1
       1
       1
       1
       1
       1
       1
       1
       1
       1
       1
       1
       1
       1
       1
       1
       1
       1
       1
       1
       1
       1
       1
       1
       1
       1
       1
       1
       1
       1
       1
       1
       1
       1
       1
       1
       1
       1
       1
       1
       1
       1
       1
       1
       1
       1
       1
       1
       1
       1
       1
       1
       1
       1
       1
       1
       1
       1
       1
       1
       1
       1
       1
       1
       1
       1
       1
       1
       1
       1
       1
       1
       1
       1
       1
       1
       1
       1
       1
       1
       1
       1
       1
       1
       1
       1
       1
       1
       1
       1
       1
       1
       1
       1
       1
       1
       1
       1
       1
       1
       1
       1
       1
       1
       1
       1
       1
       1
       1
       1
       1
       1
       1
       1
       1
       1
       1
       1
       1
       1
       1
       1
       1
       1
       1
       1
       1
       1
       1
       1
       1
       1
       1
       1
       1
       1
       1
       1
       1
       1
       1
       1
       1
       1
       1
       1
       1
       1
       1
       1
       1
       1
       1
       1
       1
       1
       1
       1
       1
       1
       1
       1
       1
       1
       1
       1
       1
       1
       1
       1
       1
       1
       1
       1
       1
       1
       1
       1
       1
       1
       1
       1
       1
       1
       1
       1
       1
       1
       1
       1
       1
       1
       1
       1
       1
       1
       1
       1
       1
       1
       1
       1
       1
       1
       1
       1
       1
       1
       1
       1
       1
       1
       1
       1
       1
       1
       1
       1
       1
       1
       1
       1
       1
       1
       1
       1
       1
       1
       1
       1
       1
       1
       1
       1
       1
       1
       1
       1
       1
       1
       1
       1
       1
       1
       1
       1
       1
       1
       1
       1
       1
       1
       1
       1
       1
       1
       1
       1
       1
       1
       1
       1
       1
       1
       1
       1
       1
       1
       1
       1
       1
       1
       1
       1
       1
       1
       1
       1
       1
       1
       1
       1
       1
       1
       1
       1
       1
       1
       1
       1
       1
       1
       1
       1
       1
       1
       1
       1
       1
       1
       1
       1
       1
       1
       1
       1
       1
       1
       1
       1
       1
       1
       1
       1
       1
       1
       1
       1
       1
       1
       1
       1
       1
       1
       1
       1
       1
       1
       1
       1
       1
       1
       1
       1
       1
       1
       1
       1
       1
       1
       1
       1
       1
       1
       1
       1
       1
       1
       1
       1
       1
       1
       1
       1
       1
       1
       1
       1
       1
       1
       1
       1
       1
       1
       1
       1
       1
       1
       1
       1
       1
       1
       1
       1
       1
       1
       1
       1
       1
       1
       1
       1
       1
       1
       1
       1
       1
       1
       1
       1
       1
       1
       1
       1
       1
       1
       1
       1
       1
       1
       1
       1
       1
       1
       1
       1
       1
       1
       1
       1
       1
       1
       1
       1
       1
       1
       1
       1
       1
       1
       1
       1
       1
       1
       1
       1
       1
       1
       1
       1
       1
       1
       1
       1
       1
       1
       1
       1
       1
       1
       1
       1
       1
       1
       1
       1
       1
       1
       1
       1
       1
       1
       1
       1
       1
       1
       1
       1
       1
       1
       1
       1
       1
       1
       1
       1
       1
       1
       1
       1
       1
       1
       1
       1
       1
       1
       1
       1
       1
       1
       1
       1
       1
       1
       1
       1
       1
       1
       1
       1
       1
       1
       1
       1
       1
       1
       1
       1
       1
       1
       1
       1
       1
       1
       1
       1
       1
       1
       1
       1
       1
       1
       1
       1
       1
       1
       1
       1
       1
       1
       1
       1
       1
       1
       1
       1
       1
       1
       1
       1
       1
       1
       1
       1
       1
       1
       1
       1
       1
       1
       1
       1
       1
       1
       1
       1
       1
       1
       1
       1
       1
       1
       1
       1
       1
       1
       1
       1
       1
       1
       1
       1
       1
       1
       1
       1
       1
       1
       1
       1
       1
       1
       1
       1
       1
       1
       1
       1
       1
       1
       1
       1
       1
       1
       1
       1
       1
       1
       1
       1
       1
       1
       1
       1
       1
       1
       1
       1
       1
       1
       1
       1
       1
       1
       1
       1
       1
       1
       1
       1
       1
       1
       1
       1
       1
       1
       1
       1
       1
       1
       1
       1
       1
       1
       1
       1
       1
       1
       1
       1
       1
       1
       1
       1
       1
       1
       1
       1
       1
       1
       1
       1
       1
       1
       1
       1
       1
       1
       1
       1
       1
       1
       1
       1
       1
       1
       1
       1
       1
       1
       1
       1
       1
       1
       1
       1
       1
       1
       1
       1
       1
       1
       1
       1
       1
       1
       1
       1
       1
       1
       1
       1
       1
       1
       1
       1
       1
       1
       1
       1
       1
       1
       1
       1
       1
       1
       1
       1
       1
       1
       1
       1
       1
       1
       1
       1
       1
       1
       1
       1
       1
       1
       1
       1
       1
       1
       1
       1
       1
       1
       1
       1
       1
       1
       1
       1
       1
       1
       1
       1
       1
       1
       1
       1
       1
       1
       1
       1
       1
       1
       1
       1
       1
       1
       1
       1
       1
       1
       1
       1
       1
       1
       1
       1
       1
       1
       1
       1
       1
       1
       1
       1
       1
       1
       1
       1
       1
       1
       1
       1
       1
       1
       1
       1
       1
       1
       1
       1
       1
       1
       1
       1
       1
       1
       1
       1
       1
       1
       1
       1
       1
       1
       1
       1
       1
       1
       1
       1
       1
       1
       1
       1
       1
       1
       1
       1
       1
       1
       1
       1
       1
       1
       1
       1
       1
       1
       1
       1
       1
       1
       1
       1
       1
       1
       1
       1
       1
       1
       1
       1
       1
       1
       1
       1
       1
       1
       1
       1
       1
       1
       1
       1
       1
       1
       1
       1
       1
       1
       1
       1
       1
       1
       1
       1
       1
       1
       1
       1
       1
       1
       1
       1
       1
       1
       1
       1
       1
       1
       1
       1
       1
       1
       1
       1
       1
       1
       1
       1
       1
       1
       1
       1
       1
       1
       1
       1
       1
       1
       1
       1
       1
       1
       1
       1
       1
       1
       1
       1
       1
       1
       1
       1
       1
       1
       1
       1
       1
       1
       1
       1
       1
       1
       1
       1
       1
       1
       1
       1
       1
       1
       1
       1
       1
       1
       1
       1
       1
       1
       1
       1
       1
       1
       1
       1
       1
       1
       1
       1
       1
       1
       1
       1
       1
       1
       1
       1
       1
       1
       1
       1
       1
       1
       1
       1
       1
       1
       1
       1
       1
       1
       1
       1
       1
       1
       1
       1
       1
       1
       1
       1
       1
       1
       1
       1
       1
       1
       1
       1
       1
       1
       1
       1
       1
       1
       1
       1
       1
       1
       1
       1
       1
       1
       1
       1
       1
       1
       1
       1
       1
       1
       1
       1
       1
       1
       1
       1
       1
       1
       1
       1
       1
       1
       1
       1
       1
       1
       1
       1
       1
       1
       1
       1
       1
       1
       1
       1
       1
       1
       1
       1
       1
       1
       1
       1
       1
       1
       1
       1
       1
       1
       1
       1
       1
       1
       1
       1
       1
       1
       1
       1
       1
       1
       1
       1
       1
       1
       1
       1
       1
       1
       1
       1
       1
       1
       1
       1
       1
       1
       1
       1
       1
       1
       1
       1
       1
       1
       1
       1
       1
       1
       1
       1
       1
       1
       1
       1
       1
       1
       1
       1
       1
       1
       1
       1
       1
       1
       1
       1
       1
       1
       1
       1
       1
       1
       1
       1
       1
       1
       1
       1
       1
       1
       1
       1
       1
       1
       1
       1
       1
       1
       1
       1
       1
       1
       1
       1
       1
       1
       1
       1
       1
       1
       1
       1
       1
       1
       1
       1
       1
       1
       1
       1
       1
       1
       1
       1
       1
       1
       1
       1
       1
       1
       1
       1
       1
       1
       1
       1
       1
       1
       1
       1
       1
       1
       1
       1
       1
       1
       1
       1
       1
       1
       1
       1
       1
       1
       1
       1
       1
       1
       1
       1
       1
       1
       1
       1
       1
       1
       1
      12
      12
      12
      12
      12
      12
      12
      12
      12
      12
      12
      12
      12
      12
      12
      12
      12
      12
      12
      12
      12
      12
      12
      12
      12
      12
      12
      12
      12
      12
      12
      12
      12
      12
      12
      12
      12
      12
      12
      12
      12
      12
      12
      12
      12
      12
      12
      12
      12
      12
      12
      12
      12
      12
      12
      12
      12
      12
      12
      12
      12
      12
      12
      12
      12
      12
      12
      12
      12
      12
      12
      12
      12
      12
      12
      12
      12
      12
      12
      12
      12
      12
      12
      12
      12
      12
      12
      12
      12
      12
      12
      12
      12
      12
      12
      12
      12
      12
      12
      12
      12
      12
      12
      12
      12
      12
      12
      12
      12
      12
      12
      12
      12
      12
      12
      12
      12
      12
      12
      12
      12
      12
      12
      12
      12
      12
      12
      12
      12
      12
      12
      12
      12
      12
      12
      12
      12
      12
      12
      12
      12
      12
      12
      12
      12
      12
      12
      12
      12
      12
      12
      12
      12
      12
      12
      12
      12
      12
      12
      12
      12
      12
      12
      12
      12
      12
      12
      12
      12
      12
      12
      12
      12
      12
      12
      12
      12
      12
      12
      12
      12
      12
      12
      12
      12
      12
      12
      12
      12
      12
      12
      12
      12
      12
      12
      12
      12
      12
      12
      12
      12
      12
      12
      12
      12
      12
      12
      12
      12
      12
      12
      12
      12
      12
      12
      12
      12
      12
      12
      12
      12
      12
      12
      12
      12
      12
      12
      12
      12
      12
      12
      12
      12
      12
      12
      12
      12
      12
      12
      12
      12
      12
      12
      12
      12
      12
      12
      12
      12
      12
      12
      12
      12
      12
      12
      12
      12
      12
      12
      12
      12
      12
      12
      12
      12
      12
      12
      12
      12
      12
      12
      12
      12
      12
      12
      12
      12
      12
      12
      12
      12
      12
      12
      12
      12
      12
      12
      12
      12
      12
      12
      12
      12
      12
      12
      12
      12
      12
      12
      12
      12
      12
      12
      12
      12
      12
      12
      12
      12
      12
      12
      12
      12
      12
      12
      12
      12
      12
      12
      12
      12
      12
      12
      12
      12
      12
      12
      12
      12
      12
      12
      12
      12
      12
      12
      12
      12
      12
      12
      12
      12
      12
      12
      12
      12
      12
      12
      12
      12
      12
      12
      12
      12
      12
      12
      12
      12
      12
      12
      12
      12
      12
      12
      12
      12
      12
      12
      12
      12
      12
      12
      12
      12
      12
      12
      12
      12
      12
      12
      12
      12
      12
      12
      12
      12
      12
      12
      12
      12
      12
      12
      12
      12
      12
      12
      12
      12
      12
      12
      12
      12
      12
      12
      12
      12
      12
      12
      12
      12
      12
      12
      12
      12
      12
      12
      12
      12
      12
      12
      12
      12
      12
      12
      12
      12
      12
      12
      12
      12
      12
      12
      12
      12
      12
      12
      12
      12
      12
      12
      12
      12
      12
      12
      12
      12
      12
      12
      12
      12
      12
      12
      12
      12
      12
      12
      12
      12
      12
      12
      12
      12
      12
      12
      12
      12
      12
      12
      12
      12
      12
      12
      12
      12
      12
      12
      12
      12
      12
      12
      12
      12
      12
      12
      12
      12
      12
      12
      12
      12
      12
      12
      12
      12
      12
      12
      12
      12
      12
      12
      12
      12
      12
      12
      12
      12
      12
      12
      12
      12
      12
      12
      12
      12
      12
      12
      12
      12
      12
      12
      12
      12
      12
      12
      12
      12
      12
      12
      12
      12
      12
      12
      12
      12
      12
      12
      12
      12
      12
      12
      12
      12
      12
      12
      12
      12
      12
      12
      12
      12
      12
      12
      12
      12
      12
      12
      12
      12
      12
      12
      12
      12
      12
      12
      12
      12
      12
      12
      12
      12
      12
      12
      12
      12
      12
      12
      12
      12
      12
      12
      12
      12
      12
      12
      12
      12
      12
      12
      12
      12
      12
      12
      12
      12
      12
      12
      12
      12
      12
      12
      12
      12
      12
      12
      12
      12
      12
      12
      12
      12
      12
      12
      12
      12
      12
      12
      12
      12
      12
      12
      12
      12
      12
      12
      12
      12
      12
      12
      12
      12
      12
      12
      12
      12
      12
      12
      12
      12
      12
      12
      12
      12
      12
      12
      12
      12
      12
      12
      12
      12
      12
      12
      12
      12
      12
      12
      12
      12
      12
      12
      12
      12
      12
      12
      12
      12
      12
      12
      12
      12
      12
      12
      12
      12
      12
      12
      12
      12
      12
      12
      12
      12
      12
      12
      12
      12
      12
      12
      12
      12
      12
      12
      12
      12
      12
      12
      12
      12
      12
      12
      12
      12
      12
      12
      12
      12
      12
      12
      12
      12
      12
      12
      12
      12
      12
      12
      12
      12
      12
      12
      12
      12
      12
      12
      12
      12
      12
      12
      12
      12
      12
      12
      12
      12
      12
      12
      12
      12
      12
      12
      12
      12
      12
      12
      12
      12
      12
      12
      12
      12
      12
      12
      12
      12
      12
      12
      12
      12
      12
      12
      12
      12
      12
      12
      12
      12
      12
      12
      12
      12
      12
      12
      12
      12
      12
      12
      12
      12
      12
      12
      12
      12
      12
      12
      12
      12
      12
      12
      12
      12
      12
      12
      12
      12
      12
      12
      12
      12
      12
      12
      12
      12
      12
      12
      12
      12
      12
      12
      12
      12
      12
      12
      12
      12
      12
      12
      12
      12
      12
      12
      12
      12
      12
      12
      12
      12
      12
      12
      12
      12
      12
      12
      12
      12
      12
      12
      12
      12
      12
      12
      12
      12
      12
      12
      12
      12
      12
      12
      12
      12
      12
      12
      12
      12
      12
      12
      12
      12
      12
      12
      12
      12
      12
      12
      12
      12
      12
      12
      12
      12
      12
      12
      12
      12
      12
      12
      12
      12
      12
      12
      12
      12
      12
      12
      12
      12
      12
      12
      12
      12
      12
      12
      12
      12
      12
      12
      12
      12
      12
      12
      12
      12
      12
      12
      12
      12
      12
      12
      12
      12
      12
      12
      12
      12
      12
      12
      12
      12
      12
      12
      12
      12
      12
      12
      12
      12
      12
      12
      12
      12
      12
      12
      12
      12
      12
      12
      12
      12
      12
      12
      12
      12
      12
      12
      12
      12
      12
      12
      12
      12
      12
      12
      12
      12
      12
      12
      12
      12
      12
      12
      12
      12
      12
      12
      12
      12
      12
      12
      12
      12
      12
      12
      12
      12
      12
      12
      12
      12
      12
      12
      12
      12
      12
      12
      12
      12
      12
      12
      12
      12
      12
      12
      12
      12
      12
      12
      12
      12
      12
      12
      12
      12
      12
      12
      12
      12
      12
      12
      12
      12
      12
      12
      12
      12
      12
      12
      12
      12
      12
      12
      12
      12
      12
      12
      12
      12
      12
      12
      12
      12
      12
      12
      12
      12
      12
      12
      12
      12
      12
      12
      12
      12
      12
      12
      12
      12
      12
      12
      12
      12
      12
      12
      12
      12
      12
      12
      12
      12
      12
      12
      12
      12
      12
      12
      12
      12
      12
      12
      12
      12
      12
      12
      12
      12
      12
      12
      12
      12
      12
      12
      12
      12
      12
      12
      12
      12
      12
      12
      12
      12
      12
      12
      12
      12
      12
      12
      12
      12
      12
      12
      12
      12
      12
      12
      12
      12
      12
      12
      12
      12
      12
      12
      12
      12
      12
      12
      12
      12
      12
      12
      12
      12
      12
      12
      12
      12
      12
      12
      12
      12
      12
      12
      12
      12
      12
      12
      12
      12
      12
      12
      12
      12
      12
      12
      12
      12
      12
      12
      12
      12
      12
      12
      12
      12
      12
      12
      12
      12
      12
      12
      12
      12
      12
      12
      12
      12
      12
      12
      12
      12
      12
      12
      12
      12
      12
      12
      12
      12
      12
      12
      12
      12
      12
      12
      12
      12
      12
      12
      12
      12
      12
      12
      12
      12
      12
      12
      12
      12
      12
      12
      12
      12
      12
      12
      12
      12
      12
      12
      12
      12
      12
      12
      12
      12
      12
      12
      12
      12
      12
      12
      12
      12
      12
      12
      12
      12
      12
      12
      12
      12
      12
      12
      12
      12
      12
      12
      12
      12
      12
      12
      12
      12
      12
      12
      12
      12
      12
      12
      12
      12
      12
      12
      12
      12
      12
      12
      12
      12
      12
      12
      12
      12
      12
      12
      12
      12
      12
      12
      12
      12
      12
      12
      12
      12
      12
      12
      12
      12
      12
      12
      12
      12
      12
      12
      12
      12
      12
      12
      12
      12
      12
      12
      12
      12
      12
      12
      12
      12
      12
      12
      12
      12
      12
      12
      12
      12
      12
      12
      12
      12
      12
      12
      12
      12
      12
      12
      12
      12
      12
      12
      12
      12
      12
      12
      12
      12
      12
      12
      12
      12
      12
      12
      12
      12
      12
      12
      12
      12
      12
      12
      12
      12
      12
      12
      12
      12
      12
      12
      12
      12
      12
      12
      12
      12
      12
      12
      12
      12
      12
      12
      12
      12
      12
      12
      12
      12
      12
      12
      12
      12
      12
      12
      12
      12
      12
      12
      12
      12
      12
      12
      12
      12
      12
      12
      12
      12
      12
      12
      12
      12
      12
      12
      12
      12
      12
      12
      12
      12
      12
      12
      12
      12
      12
      12
      12
      12
      12
      12
      12
      12
      12
      12
      12
      12
      12
      12
      12
      12
      12
      12
      12
      12
      12
      12
      12
      12
      12
      12
      12
      12
      12
      12
      12
      12
      12
      12
      12
      12
      12
      12
      12
      12
      12
      12
      12
      12
      12
      12
      12
      12
      12
      12
      12
      12
      12
      12
      12
      12
      12
      12
      12
      12
      12
      12
      12
      12
      12
      12
      12
      12
      12
      12
      12
      12
      12
      12
      12
      12
      12
      12
      12
      12
      12
      12
      12
      12
      12
      12
      12
      12
      12
      12
      12
      12
      12
      12
      12
      12
      12
      12
      12
      12
      12
      12
      12
      12
      12
      12
      12
      12
      12
      12
      12
      12
      12
      12
      12
      12
      12
      12
      12
      12
      12
      12
      12
      12
      12
      12
      12
      12
      12
      12
      12
      12
      12
      12
      12
  
  
POINT_DATA       1950
  
SCALARS                  material_type  double 1
LOOKUP_TABLE default
                   2
                   2
                   2
                   2
                   2
                   2
                   2
                   2
                   2
                   2
                   2
                   2
                   2
                   2
                   2
                   2
                   2
                   2
                   2
                   2
                   2
                   2
                   2
                   2
                   2
                   2
                   2
                   2
                   2
                   2
                   2
                   2
                   2
                   2
                   2
                   2
                   2
                   2
                   2
                   2
                   2
                   2
                   2
                   2
                   2
                   2
                   2
                   2
                   2
                   2
                   2
                   2
                   2
                   2
                   2
                   2
                   2
                   2
                   2
                   2
                   2
                   2
                   2
                   2
                   2
                   2
                   2
                   2
                   2
                   2
                   2
                   2
                   2
                   2
                   2
                   2
                   2
                   2
                   2
                   2
                   2
                   2
                   2
                   2
                   2
                   2
                   2
                   2
                   2
                   2
                   2
                   2
                   2
                   2
                   2
                   2
                   2
                   2
                   2
                   2
                   2
                   2
                   2
                   2
                   2
                   2
                   2
                   2
                   2
                   2
                   2
                   2
                   2
                   2
                   2
                   2
                   2
                   2
                   2
                   2
                   2
                   2
                   2
                   2
                   2
                   2
                   2
                   2
                   2
                   2
                   2
                   2
                   2
                   2
                   2
                   2
                   2
                   2
                   2
                   2
                   2
                   2
                   2
                   2
                   2
                   2
                   2
                   2
                   2
                   2
                   2
                   2
                   2
                   2
                   2
                   2
                   2
                   2
                   2
                   2
                   2
                   2
                   2
                   2
                   2
                   2
                   2
                   2
                   2
                   2
                   2
                   2
                   2
                   2
                   2
                   2
                   2
                   2
                   2
                   2
                   2
                   2
                   2
                   2
                   2
                   2
                   2
                   2
                   2
                   2
                   2
                   2
                   2
                   2
                   2
                   2
                   2
                   2
                   2
                   2
                   2
                   2
                   2
                   2
                   2
                   2
                   2
                   2
                   2
                   2
                   2
                   2
                   2
                   2
                   2
                   2
                   2
                   2
                   2
                   2
                   2
                   2
                   2
                   2
                   2
                   2
                   2
                   2
                   2
                   2
                   2
                   2
                   2
                   2
                   2
                   2
                   2
                   2
                   2
                   2
                   2
                   2
                   2
                   2
                   2
                   2
                   2
                   2
                   2
                   2
                   2
                   2
                   2
                   2
                   2
                   2
                   2
                   2
                   2
                   2
                   2
                   2
                   2
                   2
                   2
                   2
                   2
                   2
                   2
                   2
                   2
                   2
                   2
                   2
                   2
                   2
                   2
                   2
                   2
                   2
                   2
                   2
                   2
                   2
                   2
                   2
                   2
                   2
                   2
                   2
                   2
                   2
                   2
                   2
                   2
                   2
                   2
                   2
                   2
                   2
                   2
                   2
                   2
                   2
                   2
                   2
                   2
                   2
                   2
                   2
                   2
                   2
                   2
                   2
                   2
                   2
                   2
                   2
                   2
                   2
                   2
                   2
                   2
                   2
                   2
                   2
                   2
                   2
                   2
                   2
                   2
                   2
                   2
                   2
                   2
                   2
                   2
                   2
                   2
                   2
                   2
                   2
                   2
                   2
                   2
                   2
                   2
                   2
                   2
                   2
                   2
                   2
                   2
                   2
                   2
                   2
                   2
                   2
                   2
                   2
                   2
                   2
                   2
                   2
                   2
                   2
                   2
                   2
                   2
                   2
                   2
                   2
                   2
                   2
                   2
                   2
                   2
                   2
                   2
                   2
                   2
                   2
                   2
                   2
                   2
                   2
                   2
                   2
                   2
                   2
                   2
                   2
                   2
                   2
                   2
                   2
                   2
                   2
                   2
                   2
                   2
                   2
                   2
                   2
                   2
                   2
                   2
                   2
                   2
                   2
                   2
                   2
                   2
                   2
                   2
                   2
                   2
                   2
                   2
                   2
                   2
                   2
                   2
                   2
                   2
                   2
                   2
                   2
                   2
                   2
                   2
                   2
                   2
                   2
                   2
                   2
                   2
                   2
                   2
                   2
                   2
                   2
                   2
                   2
                   2
                   2
                   2
                   2
                   2
                   2
                   2
                   2
                   2
                   2
                   2
                   2
                   2
                   2
                   2
                   2
                   2
                   2
                   2
                   2
                   2
                   2
                   2
                   2
                   2
                   2
                   2
                   2
                   2
                   2
                   2
                   2
                   2
                   2
                   2
                   2
                   2
                   2
                   2
                   2
                   2
                   2
                   2
                   2
                   2
                   2
                   2
                   2
                   2
                   2
                   2
                   2
                   2
                   2
                   2
                   2
                   2
                   2
                   2
                   2
                   2
                   2
                   2
                   2
                   2
                   2
                   2
                   2
                   2
                   2
                   2
                   2
                   2
                   2
                   2
                   2
                   2
                   2
                   2
                   2
                   2
                   2
                   2
                   2
                   2
                   2
                   2
                   2
                   2
                   2
                   2
                   2
                   2
                   2
                   2
                   2
                   2
                   2
                   2
                   2
                   2
                   2
                   2
                   2
                   2
                   2
                   2
                   2
                   2
                   2
                   2
                   2
                   2
                   2
                   2
                   2
                   2
                   2
                   2
                   2
                   2
                   2
                   2
                   2
                   2
                   2
                   2
                   2
                   2
                   2
                   2
                   2
                   2
                   2
                   2
                   2
                   2
                   2
                   2
                   2
                   2
                   2
                   2
                   2
                   2
                   2
                   2
                   2
                   2
                   2
                   2
                   2
                   2
                   2
                   2
                   2
                   2
                   2
                   2
                   2
                   2
                   2
                   2
                   2
                   2
                   2
                   2
                   2
                   2
                   2
                   2
                   2
                   2
                   2
                   2
                   2
                   2
                   2
                   2
                   2
                   2
                   2
                   2
                   2
                   2
                   2
                   2
                   2
                   2
                   2
                   2
                   2
                   2
                   2
                   2
                   2
                   2
                   2
                   2
                   2
                   2
                   2
                   2
                   2
                   2
                   2
                   2
                   2
                   2
                   2
                   2
                   2
                   2
                   2
                   2
                   2
                   2
                   2
                   2
                   2
                   2
                   2
                   2
                   2
                   2
                   2
                   2
                   2
                   2
                   2
                   2
                   2
                   2
                   2
                   2
                   2
                   2
                   2
                   2
                   2
                   2
                   2
                   2
                   2
                   2
                   2
                   2
                   2
                   2
                   2
                   2
                   2
                   2
                   2
                   2
                   2
                   2
                   2
                   2
                   2
                   2
                   2
                   2
                   2
                   2
                   2
                   2
                   2
                   2
                   2
                   2
                   2
                   2
                   2
                   2
                   2
                   2
                   2
                   2
                   2
                   2
                   2
                   2
                   2
                   2
                   2
                   2
                   2
                   2
                   2
                   2
                   2
                   2
                   2
                   2
                   2
                   2
                   2
                   2
                   2
                   2
                   2
                   2
                   2
                   2
                   2
                   2
                   2
                   2
                   2
                   2
                   2
                   2
                   2
                   2
                   2
                   2
                   2
                   2
                   2
                   2
                   2
                   2
                   2
                   2
                   2
                   2
                   2
                   2
                   2
                   2
                   2
                   2
                   2
                   2
                   2
                   2
                   2
                   2
                   2
                   2
                   2
                   2
                   2
                   2
                   2
                   2
                   2
                   2
                   2
                   2
                   2
                   2
                   2
                   2
                   2
                   2
                   2
                   2
                   2
                   2
                   2
                   2
                   2
                   2
                   2
                   2
                   2
                   2
                   2
                   2
                   2
                   2
                   2
                   2
                   2
                   2
                   2
                   2
                   2
                   2
                   2
                   2
                   2
                   2
                   2
                   2
                   2
                   2
                   2
                   2
                   2
                   2
                   2
                   2
                   2
                   2
                   2
                   2
                   2
                   2
                   2
                   2
                   2
                   2
                   2
                   2
                   2
                   2
                   2
                   2
                   2
                   2
                   2
                   2
                   2
                   2
                   2
                   2
                   2
                   2
                   2
                   2
                   2
                   2
                   2
                   2
                   2
                   2
                   2
                   2
                   2
                   2
                   2
                   2
                   2
                   2
                   2
                   2
                   2
                   2
                   2
                   2
                   2
                   2
                   2
                   2
                   2
                   2
                   2
                   2
                   2
                   2
                   2
                   2
                   2
                   2
                   2
                   2
                   2
                   2
                   2
                   2
                   2
                   2
                   2
                   2
                   2
                   2
                   2
                   2
                   2
                   2
                   2
                   2
                   2
                   2
                   2
                   2
                   2
                   2
                   2
                   2
                   2
                   2
                   2
                   2
                   2
                   2
                   2
                   2
                   2
                   2
                   2
                   2
                   2
                   2
                   2
                   2
                   2
                   2
                   2
                   2
                   2
                   2
                   2
                   2
                   2
                   2
                   2
                   2
                   2
                   2
                   2
                   2
                   2
                   2
                   2
                   2
                   2
                   2
                   2
                   2
                   2
                   2
                   2
                   2
                   2
                   2
                   2
                   2
                   2
                   2
                   2
                   2
                   2
                   2
                   2
                   2
                   2
                   2
                   2
                   2
                   2
                   2
                   2
                   2
                   2
                   2
                   2
                   2
                   2
                   2
                   2
                   2
                   2
                   2
                   2
                   2
                   2
                   2
                   2
                   2
                   2
                   2
                   2
                   2
                   2
                   2
                   2
                   2
                   2
                   2
                   2
                   2
                   2
                   2
                   2
                   2
                   2
                   2
                   2
                   2
                   2
                   2
                   2
                   2
                   2
                   2
                   2
                   2
                   2
                   2
                   2
                   2
                   2
                   2
                   2
                   2
                   2
                   2
                   2
                   2
                   2
                   2
                   2
                   2
                   2
                   2
                   2
                   2
                   2
                   2
                   2
                   2
                   2
                   2
                   2
                   2
                   2
                   2
                   2
                   2
                   2
                   2
                   2
                   2
                   2
                   2
                   2
                   2
                   2
                   2
                   2
                   2
                   2
                   2
                   2
                   2
                   2
                   2
                   2
                   2
                   2
                   2
                   2
                   2
                   2
                   2
                   2
                   2
                   2
                   2
                   2
                   2
                   2
                   2
                   2
                   2
                   2
                   2
                   2
                   2
                   2
                   2
                   2
                   2
                   2
                   2
                   2
                   2
                   2
                   2
                   2
                   2
                   2
                   2
                   2
                   2
                   2
                   2
                   2
                   2
                   2
                   2
                   2
                   2
                   2
                   2
                   2
                   2
                   2
                   2
                   2
                   2
                   2
                   2
                   2
                   2
                   2
                   2
                   2
                   2
                   2
                   2
                   2
                   2
                   2
                   2
                   2
                   2
                   2
                   2
                   2
                   2
                   2
                   2
                   2
                   2
                   2
                   2
                   2
                   2
                   2
                   2
                   2
                   2
                   2
                   2
                   2
                   2
                   2
                   2
                   2
                   2
                   2
                   2
                   2
                   2
                   2
                   2
                   2
                   2
                   2
                   2
                   2
                   2
                   2
                   2
                   2
                   2
                   2
                   2
                   2
                   2
                   2
                   2
                   2
                   2
                   2
                   2
                   2
                   2
                   2
                   2
                   2
                   2
                   2
                   2
                   2
                   2
                   2
                   2
                   2
                   2
                   2
                   2
                   2
                   2
                   2
                   2
                   2
                   2
                   2
                   2
                   2
                   2
                   2
                   2
                   2
                   2
                   2
                   2
                   2
                   2
                   2
                   2
                   2
                   2
                   2
                   2
                   2
                   2
                   2
                   2
                   2
                   2
                   2
                   2
                   2
                   2
                   2
                   2
                   2
                   2
                   2
                   2
                   2
                   2
                   2
                   2
                   2
                   2
                   2
                   2
                   2
                   2
                   2
                   2
                   2
                   2
                   2
                   2
                   2
                   2
                   2
                   2
                   2
                   2
                   2
                   2
                   2
                   2
                   2
                   2
                   2
                   2
                   2
                   2
                   2
                   2
                   2
                   2
                   2
                   2
                   2
                   2
                   2
                   2
                   2
                   2
                   2
                   2
                   2
                   2
                   2
                   2
                   2
                   2
                   2
                   2
                   2
                   2
                   2
                   2
                   2
                   2
                   2
                   2
                   2
                   2
                   2
                   2
                   2
                   2
                   2
                   2
                   2
                   2
                   2
                   2
                   2
                   2
                   2
                   2
                   2
                   2
                   2
                   2
                   2
                   2
                   2
                   2
                   2
                   2
                   2
                   2
                   2
                   2
                   2
                   2
                   2
                   2
                   2
                   2
                   2
                   2
                   2
                   2
                   2
                   2
                   2
                   2
                   2
                   2
                   2
                   2
                   2
                   2
                   2
                   2
                   2
                   2
                   2
                   2
                   2
                   2
                   2
                   2
                   2
                   2
                   2
                   2
                   2
                   2
                   2
                   2
                   2
                   2
                   2
                   2
                   2
                   2
                   2
                   2
                   2
                   2
                   2
                   2
                   2
                   2
                   2
                   2
                   2
                   2
                   2
                   2
                   2
                   2
                   2
                   2
                   2
                   2
                   2
                   2
                   2
                   2
                   2
                   2
                   2
                   2
                   2
                   2
                   2
                   2
                   2
                   2
                   2
                   2
                   2
                   2
                   2
                   2
                   2
                   2
                   2
                   2
                   2
                   2
                   2
                   2
                   2
                   2
                   2
                   2
                   2
                   2
                   2
                   2
                   2
                   2
                   2
                   2
                   2
                   2
                   2
                   2
                   2
                   2
                   2
                   2
                   2
                   2
                   2
                   2
                   2
                   2
                   2
                   2
                   2
                   2
                   2
                   2
                   2
                   2
                   2
                   2
                   2
                   2
                   2
                   2
                   2
                   2
                   2
                   2
                   2
                   2
                   2
                   2
                   2
                   2
                   2
                   2
                   2
                   2
                   2
                   2
                   2
                   2
                   2
                   2
                   2
                   2
                   2
                   2
                   2
                   2
                   2
                   2
                   2
                   2
                   2
                   2
                   2
                   2
                   2
                   2
                   2
                   2
                   2
                   2
                   2
                   2
                   2
                   2
                   2
                   2
                   2
                   2
                   2
                   2
                   2
                   2
                   2
                   2
                   2
                   2
                   2
                   2
                   2
                   2
                   2
                   2
                   2
                   2
                   2
                   2
                   2
                   2
                   2
                   2
                   2
                   2
                   2
                   2
                   2
                   2
                   2
                   2
                   2
                   2
                   2
                   2
                   2
                   2
                   2
                   2
                   2
                   2
                   2
                   2
                   2
                   2
                   2
                   2
                   2
                   2
                   2
                   2
                   2
                   2
                   2
                   2
                   2
                   2
                   2
                   2
                   2
                   2
                   2
                   2
                   2
                   2
                   2
                   2
                   2
                   2
                   2
                   2
                   2
                   2
                   2
                   2
                   2
                   2
                   2
                   2
                   2
                   2
                   2
                   2
                   2
                   2
                   2
                   2
                   2
                   2
                   2
                   2
                   2
                   2
                   2
                   2
                   2
                   2
                   2
                   2
                   2
                   2
                   2
                   2
                   2
                   2
                   2
                   2
                   2
                   2
                   2
                   2
                   2
                   2
                   2
                   2
                   2
                   2
                   2
                   2
                   2
                   2
                   2
                   2
                   2
                   2
                   2
                   2
                   2
                   2
                   2
                   2
                   2
                   2
                   2
                   2
                   2
                   2
                   2
                   2
                   2
                   2
                   2
                   2
                   2
                   2
                   2
                   2
                   2
                   2
                   2
                   2
                   2
                   2
                   2
                   2
                   2
                   2
                   2
                   2
                   2
                   2
                   2
                   2
                   2
                   2
                   2
                   2
                   2
                   2
                   2
                   2
                   2
                   2
                   2
                   2
                   2
                   2
                   2
                   2
                   2
                   2
                   2
                   2
                   2
                   2
                   2
                   2
                   2
                   2
                   2
                   2
                   2
                   2
                   2
                   2
                   2
                   2
                   2
                   2
                   2
                   2
                   2
                   2
                   2
                   2
                   2
                   2
                   2
                   2
                   2
                   2
                   2
                   2
                   2
                   2
                   2
                   2
                   2
                   2
                   2
                   2
                   2
                   2
                   2
                   2
                   2
                   2
                   2
                   2
                   2
                   2
                   2
                   2
                   2
                   2
                   2
                   2
                   2
                   2
                   2
                   2
                   2
                   2
                   2
                   2
                   2
                   2
                   2
                   2
                   2
                   2
                   2
                   2
                   2
                   2
                   2
                   2
                   2
                   2
                   2
                   2
                   2
                   2
                   2
                   2
                   2
                   2
                   2
                   2
                   2
                   2
                   2
                   2
                   2
                   2
                   2
                   2
                   2
                   2
                   2
                   2
                   2
                   2
                   2
                   2
                   2
                   2
                   2
                   2
                   2
                   2
                   2
                   2
                   2
                   2
                   2
                   2
                   2
                   2
                   2
                   2
                   2
                   2
                   2
                   2
                   2
                   2
                   2
                   2
                   2
                   2
                   2
                   2
                   2
                   2
                   2
                   2
                   2
                   2
                   2
                   2
                   2
                   2
                   2
                   2
                   2
                   2
                   2
                   2
                   2
                   2
                   2
                   2
                   2
                   2
                   2
                   2
                   2
                   2
                   2
                   2
                   2
                   2
                   2
                   2
                   2
                   2
                   2
                   2
                   2
                   2
                   2
                   2
                   2
                   2
                   2
                   2
                   2
                   2
                   2
                   2
                   2
                   2
                   2
                   2
                   2
                   2
                   2
                   2
                   2
                   2
                   2
                   2
                   2
                   2
                   2
                   2
                   2
                   2
                   2
                   2
                   2
                   2
                   2
                   2
                   2
                   2
                   2
                   2
                   2
                   2
                   2
                   2
                   2
                   2
                   2
                   2
                   2
                   2
                   2
                   2
                   2
                   2
                   2
                   2
                   2
                   2
                   2
                   2
                   2
                   2
                   2
                   2
                   2
                   2
                   2
                   2
                   2
  
SCALARS                        node_id  double 1
LOOKUP_TABLE default
                   1
                   2
                   3
                   4
                   5
                   6
                   7
                   8
                   9
                  10
                  11
                  12
                  13
                  14
                  15
                  16
                  17
                  18
                  19
                  20
                  21
                  22
                  23
                  24
                  25
                  26
                  27
                  28
                  29
                  30
                  31
                  32
                  33
                  34
                  35
                  36
                  37
                  38
                  39
                  40
                  41
                  42
                  43
                  44
                  45
                  46
                  47
                  48
                  49
                  50
                  51
                  52
                  53
                  54
                  55
                  56
                  57
                  58
                  59
                  60
                  61
                  62
                  63
                  64
                  65
                  66
                  67
                  68
                  69
                  70
                  71
                  72
                  73
                  74
                  75
                  76
                  77
                  78
                  79
                  80
                  81
                  82
                  83
                  84
                  85
                  86
                  87
                  88
                  89
                  90
                  91
                  92
                  93
                  94
                  95
                  96
                  97
                  98
                  99
                 100
                 101
                 102
                 103
                 104
                 105
                 106
                 107
                 108
                 109
                 110
                 111
                 112
                 113
                 114
                 115
                 116
                 117
                 118
                 119
                 120
                 121
                 122
                 123
                 124
                 125
                 126
                 127
                 128
                 129
                 130
                 131
                 132
                 133
                 134
                 135
                 136
                 137
                 138
                 139
                 140
                 141
                 142
                 143
                 144
                 145
                 146
                 147
                 148
                 149
                 150
                 151
                 152
                 153
                 154
                 155
                 156
                 157
                 158
                 159
                 160
                 161
                 162
                 163
                 164
                 165
                 166
                 167
                 168
                 169
                 170
                 171
                 172
                 173
                 174
                 175
                 176
                 177
                 178
                 179
                 180
                 181
                 182
                 183
                 184
                 185
                 186
                 187
                 188
                 189
                 190
                 191
                 192
                 193
                 194
                 195
                 196
                 197
                 198
                 199
                 200
                 201
                 202
                 203
                 204
                 205
                 206
                 207
                 208
                 209
                 210
                 211
                 212
                 213
                 214
                 215
                 216
                 217
                 218
                 219
                 220
                 221
                 222
                 223
                 224
                 225
                 226
                 227
                 228
                 229
                 230
                 231
                 232
                 233
                 234
                 235
                 236
                 237
                 238
                 239
                 240
                 241
                 242
                 243
                 244
                 245
                 246
                 247
                 248
                 249
                 250
                 251
                 252
                 253
                 254
                 255
                 256
                 257
                 258
                 259
                 260
                 261
                 262
                 263
                 264
                 265
                 266
                 267
                 268
                 269
                 270
                 271
                 272
                 273
                 274
                 275
                 276
                 277
                 278
                 279
                 280
                 281
                 282
                 283
                 284
                 285
                 286
                 287
                 288
                 289
                 290
                 291
                 292
                 293
                 294
                 295
                 296
                 297
                 298
                 299
                 300
                 301
                 302
                 303
                 304
                 305
                 306
                 307
                 308
                 309
                 310
                 311
                 312
                 313
                 314
                 315
                 316
                 317
                 318
                 319
                 320
                 321
                 322
                 323
                 324
                 325
                 326
                 327
                 328
                 329
                 330
                 331
                 332
                 333
                 334
                 335
                 336
                 337
                 338
                 339
                 340
                 341
                 342
                 343
                 344
                 345
                 346
                 347
                 348
                 349
                 350
                 351
                 352
                 353
                 354
                 355
                 356
                 357
                 358
                 359
                 360
                 361
                 362
                 363
                 364
                 365
                 366
                 367
                 368
                 369
                 370
                 371
                 372
                 373
                 374
                 375
                 376
                 377
                 378
                 379
                 380
                 381
                 382
                 383
                 384
                 385
                 386
                 387
                 388
                 389
                 390
                 391
                 392
                 393
                 394
                 395
                 396
                 397
                 398
                 399
                 400
                 401
                 402
                 403
                 404
                 405
                 406
                 407
                 408
                 409
                 410
                 411
                 412
                 413
                 414
                 415
                 416
                 417
                 418
                 419
                 420
                 421
                 422
                 423
                 424
                 425
                 426
                 427
                 428
                 429
                 430
                 431
                 432
                 433
                 434
                 435
                 436
                 437
                 438
                 439
                 440
                 441
                 442
                 443
                 444
                 445
                 446
                 447
                 448
                 449
                 450
                 451
                 452
                 453
                 454
                 455
                 456
                 457
                 458
                 459
                 460
                 461
                 462
                 463
                 464
                 465
                 466
                 467
                 468
                 469
                 470
                 471
                 472
                 473
                 474
                 475
                 476
                 477
                 478
                 479
                 480
                 481
                 482
                 483
                 484
                 485
                 486
                 487
                 488
                 489
                 490
                 491
                 492
                 493
                 494
                 495
                 496
                 497
                 498
                 499
                 500
                 501
                 502
                 503
                 504
                 505
                 506
                 507
                 508
                 509
                 510
                 511
                 512
                 513
                 514
                 515
                 516
                 517
                 518
                 519
                 520
                 521
                 522
                 523
                 524
                 525
                 526
                 527
                 528
                 529
                 530
                 531
                 532
                 533
                 534
                 535
                 536
                 537
                 538
                 539
                 540
                 541
                 542
                 543
                 544
                 545
                 546
                 547
                 548
                 549
                 550
                 551
                 552
                 553
                 554
                 555
                 556
                 557
                 558
                 559
                 560
                 561
                 562
                 563
                 564
                 565
                 566
                 567
                 568
                 569
                 570
                 571
                 572
                 573
                 574
                 575
                 576
                 577
                 578
                 579
                 580
                 581
                 582
                 583
                 584
                 585
                 586
                 587
                 588
                 589
                 590
                 591
                 592
                 593
                 594
                 595
                 596
                 597
                 598
                 599
                 600
                 601
                 602
                 603
                 604
                 605
                 606
                 607
                 608
                 609
                 610
                 611
                 612
                 613
                 614
                 615
                 616
                 617
                 618
                 619
                 620
                 621
                 622
                 623
                 624
                 625
                 626
                 627
                 628
                 629
                 630
                 631
                 632
                 633
                 634
                 635
                 636
                 637
                 638
                 639
                 640
                 641
                 642
                 643
                 644
                 645
                 646
                 647
                 648
                 649
                 650
                 651
                 652
                 653
                 654
                 655
                 656
                 657
                 658
                 659
                 660
                 661
                 662
                 663
                 664
                 665
                 666
                 667
                 668
                 669
                 670
                 671
                 672
                 673
                 674
                 675
                 676
                 677
                 678
                 679
                 680
                 681
                 682
                 683
                 684
                 685
                 686
                 687
                 688
                 689
                 690
                 691
                 692
                 693
                 694
                 695
                 696
                 697
                 698
                 699
                 700
                 701
                 702
                 703
                 704
                 705
                 706
                 707
                 708
                 709
                 710
                 711
                 712
                 713
                 714
                 715
                 716
                 717
                 718
                 719
                 720
                 721
                 722
                 723
                 724
                 725
                 726
                 727
                 728
                 729
                 730
                 731
                 732
                 733
                 734
                 735
                 736
                 737
                 738
                 739
                 740
                 741
                 742
                 743
                 744
                 745
                 746
                 747
                 748
                 749
                 750
                 751
                 752
                 753
                 754
                 755
                 756
                 757
                 758
                 759
                 760
                 761
                 762
                 763
                 764
                 765
                 766
                 767
                 768
                 769
                 770
                 771
                 772
                 773
                 774
                 775
                 776
                 777
                 778
                 779
                 780
                 781
                 782
                 783
                 784
                 785
                 786
                 787
                 788
                 789
                 790
                 791
                 792
                 793
                 794
                 795
                 796
                 797
                 798
                 799
                 800
                 801
                 802
                 803
                 804
                 805
                 806
                 807
                 808
                 809
                 810
                 811
                 812
                 813
                 814
                 815
                 816
                 817
                 818
                 819
                 820
                 821
                 822
                 823
                 824
                 825
                 826
                 827
                 828
                 829
                 830
                 831
                 832
                 833
                 834
                 835
                 836
                 837
                 838
                 839
                 840
                 841
                 842
                 843
                 844
                 845
                 846
                 847
                 848
                 849
                 850
                 851
                 852
                 853
                 854
                 855
                 856
                 857
                 858
                 859
                 860
                 861
                 862
                 863
                 864
                 865
                 866
                 867
                 868
                 869
                 870
                 871
                 872
                 873
                 874
                 875
                 876
                 877
                 878
                 879
                 880
                 881
                 882
                 883
                 884
                 885
                 886
                 887
                 888
                 889
                 890
                 891
                 892
                 893
                 894
                 895
                 896
                 897
                 898
                 899
                 900
                 901
                 902
                 903
                 904
                 905
                 906
                 907
                 908
                 909
                 910
                 911
                 912
                 913
                 914
                 915
                 916
                 917
                 918
                 919
                 920
                 921
                 922
                 923
                 924
                 925
                 926
                 927
                 928
                 929
                 930
                 931
                 932
                 933
                 934
                 935
                 936
                 937
                 938
                 939
                 940
                 941
                 942
                 943
                 944
                 945
                 946
                 947
                 948
                 949
                 950
                 951
                 952
                 953
                 954
                 955
                 956
                 957
                 958
                 959
                 960
                 961
                 962
                 963
                 964
                 965
                 966
                 967
                 968
                 969
                 970
                 971
                 972
                 973
                 974
                 975
                 976
                 977
                 978
                 979
                 980
                 981
                 982
                 983
                 984
                 985
                 986
                 987
                 988
                 989
                 990
                 991
                 992
                 993
                 994
                 995
                 996
                 997
                 998
                 999
                1000
                1001
                1002
                1003
                1004
                1005
                1006
                1007
                1008
                1009
                1010
                1011
                1012
                1013
                1014
                1015
                1016
                1017
                1018
                1019
                1020
                1021
                1022
                1023
                1024
                1025
                1026
                1027
                1028
                1029
                1030
                1031
                1032
                1033
                1034
                1035
                1036
                1037
                1038
                1039
                1040
                1041
                1042
                1043
                1044
                1045
                1046
                1047
                1048
                1049
                1050
                1051
                1052
                1053
                1054
                1055
                1056
                1057
                1058
                1059
                1060
                1061
                1062
                1063
                1064
                1065
                1066
                1067
                1068
                1069
                1070
                1071
                1072
                1073
                1074
                1075
                1076
                1077
                1078
                1079
                1080
                1081
                1082
                1083
                1084
                1085
                1086
                1087
                1088
                1089
                1090
                1091
                1092
                1093
                1094
                1095
                1096
                1097
                1098
                1099
                1100
                1101
                1102
                1103
                1104
                1105
                1106
                1107
                1108
                1109
                1110
                1111
                1112
                1113
                1114
                1115
                1116
                1117
                1118
                1119
                1120
                1121
                1122
                1123
                1124
                1125
                1126
                1127
                1128
                1129
                1130
                1131
                1132
                1133
                1134
                1135
                1136
                1137
                1138
                1139
                1140
                1141
                1142
                1143
                1144
                1145
                1146
                1147
                1148
                1149
                1150
                1151
                1152
                1153
                1154
                1155
                1156
                1157
                1158
                1159
                1160
                1161
                1162
                1163
                1164
                1165
                1166
                1167
                1168
                1169
                1170
                1171
                1172
                1173
                1174
                1175
                1176
                1177
                1178
                1179
                1180
                1181
                1182
                1183
                1184
                1185
                1186
                1187
                1188
                1189
                1190
                1191
                1192
                1193
                1194
                1195
                1196
                1197
                1198
                1199
                1200
                1201
                1202
                1203
                1204
                1205
                1206
                1207
                1208
                1209
                1210
                1211
                1212
                1213
                1214
                1215
                1216
                1217
                1218
                1219
                1220
                1221
                1222
                1223
                1224
                1225
                1226
                1227
                1228
                1229
                1230
                1231
                1232
                1233
                1234
                1235
                1236
                1237
                1238
                1239
                1240
                1241
                1242
                1243
                1244
                1245
                1246
                1247
                1248
                1249
                1250
                1251
                1252
                1253
                1254
                1255
                1256
                1257
                1258
                1259
                1260
                1261
                1262
                1263
                1264
                1265
                1266
                1267
                1268
                1269
                1270
                1271
                1272
                1273
                1274
                1275
                1276
                1277
                1278
                1279
                1280
                1281
                1282
                1283
                1284
                1285
                1286
                1287
                1288
                1289
                1290
                1291
                1292
                1293
                1294
                1295
                1296
                1297
                1298
                1299
                1300
                1301
                1302
                1303
                1304
                1305
                1306
                1307
                1308
                1309
                1310
                1311
                1312
                1313
                1314
                1315
                1316
                1317
                1318
                1319
                1320
                1321
                1322
                1323
                1324
                1325
                1326
                1327
                1328
                1329
                1330
                1331
                1332
                1333
                1334
                1335
                1336
                1337
                1338
                1339
                1340
                1341
                1342
                1343
                1344
                1345
                1346
                1347
                1348
                1349
                1350
                1351
                1352
                1353
                1354
                1355
                1356
                1357
                1358
                1359
                1360
                1361
                1362
                1363
                1364
                1365
                1366
                1367
                1368
                1369
                1370
                1371
                1372
                1373
                1374
                1375
                1376
                1377
                1378
                1379
                1380
                1381
                1382
                1383
                1384
                1385
                1386
                1387
                1388
                1389
                1390
                1391
                1392
                1393
                1394
                1395
                1396
                1397
                1398
                1399
                1400
                1401
                1402
                1403
                1404
                1405
                1406
                1407
                1408
                1409
                1410
                1411
                1412
                1413
                1414
                1415
                1416
                1417
                1418
                1419
                1420
                1421
                1422
                1423
                1424
                1425
                1426
                1427
                1428
                1429
                1430
                1431
                1432
                1433
                1434
                1435
                1436
                1437
                1438
                1439
                1440
                1441
                1442
                1443
                1444
                1445
                1446
                1447
                1448
                1449
                1450
                1451
                1452
                1453
                1454
                1455
                1456
                1457
                1458
                1459
                1460
                1461
                1462
                1463
                1464
                1465
                1466
                1467
                1468
                1469
                1470
                1471
                1472
                1473
                1474
                1475
                1476
                1477
                1478
                1479
                1480
                1481
                1482
                1483
                1484
                1485
                1486
                1487
                1488
                1489
                1490
                1491
                1492
                1493
                1494
                1495
                1496
                1497
                1498
                1499
                1500
                1501
                1502
                1503
                1504
                1505
                1506
                1507
                1508
                1509
                1510
                1511
                1512
                1513
                1514
                1515
                1516
                1517
                1518
                1519
                1520
                1521
                1522
                1523
                1524
                1525
                1526
                1527
                1528
                1529
                1530
                1531
                1532
                1533
                1534
                1535
                1536
                1537
                1538
                1539
                1540
                1541
                1542
                1543
                1544
                1545
                1546
                1547
                1548
                1549
                1550
                1551
                1552
                1553
                1554
                1555
                1556
                1557
                1558
                1559
                1560
                1561
                1562
                1563
                1564
                1565
                1566
                1567
                1568
                1569
                1570
                1571
                1572
                1573
                1574
                1575
                1576
                1577
                1578
                1579
                1580
                1581
                1582
                1583
                1584
                1585
                1586
                1587
                1588
                1589
                1590
                1591
                1592
                1593
                1594
                1595
                1596
                1597
                1598
                1599
                1600
                1601
                1602
                1603
                1604
                1605
                1606
                1607
                1608
                1609
                1610
                1611
                1612
                1613
                1614
                1615
                1616
                1617
                1618
                1619
                1620
                1621
                1622
                1623
                1624
                1625
                1626
                1627
                1628
                1629
                1630
                1631
                1632
                1633
                1634
                1635
                1636
                1637
                1638
                1639
                1640
                1641
                1642
                1643
                1644
                1645
                1646
                1647
                1648
                1649
                1650
                1651
                1652
                1653
                1654
                1655
                1656
                1657
                1658
                1659
                1660
                1661
                1662
                1663
                1664
                1665
                1666
                1667
                1668
                1669
                1670
                1671
                1672
                1673
                1674
                1675
                1676
                1677
                1678
                1679
                1680
                1681
                1682
                1683
                1684
                1685
                1686
                1687
                1688
                1689
                1690
                1691
                1692
                1693
                1694
                1695
                1696
                1697
                1698
                1699
                1700
                1701
                1702
                1703
                1704
                1705
                1706
                1707
                1708
                1709
                1710
                1711
                1712
                1713
                1714
                1715
                1716
                1717
                1718
                1719
                1720
                1721
                1722
                1723
                1724
                1725
                1726
                1727
                1728
                1729
                1730
                1731
                1732
                1733
                1734
                1735
                1736
                1737
                1738
                1739
                1740
                1741
                1742
                1743
                1744
                1745
                1746
                1747
                1748
                1749
                1750
                1751
                1752
                1753
                1754
                1755
                1756
                1757
                1758
                1759
                1760
                1761
                1762
                1763
                1764
                1765
                1766
                1767
                1768
                1769
                1770
                1771
                1772
                1773
                1774
                1775
                1776
                1777
                1778
                1779
                1780
                1781
                1782
                1783
                1784
                1785
                1786
                1787
                1788
                1789
                1790
                1791
                1792
                1793
                1794
                1795
                1796
                1797
                1798
                1799
                1800
                1801
                1802
                1803
                1804
                1805
                1806
                1807
                1808
                1809
                1810
                1811
                1812
                1813
                1814
                1815
                1816
                1817
                1818
                1819
                1820
                1821
                1822
                1823
                1824
                1825
                1826
                1827
                1828
                1829
                1830
                1831
                1832
                1833
                1834
                1835
                1836
                1837
                1838
                1839
                1840
                1841
                1842
                1843
                1844
                1845
                1846
                1847
                1848
                1849
                1850
                1851
                1852
                1853
                1854
                1855
                1856
                1857
                1858
                1859
                1860
                1861
                1862
                1863
                1864
                1865
                1866
                1867
                1868
                1869
                1870
                1871
                1872
                1873
                1874
                1875
                1876
                1877
                1878
                1879
                1880
                1881
                1882
                1883
                1884
                1885
                1886
                1887
                1888
                1889
                1890
                1891
                1892
                1893
                1894
                1895
                1896
                1897
                1898
                1899
                1900
                1901
                1902
                1903
                1904
                1905
                1906
                1907
                1908
                1909
                1910
                1911
                1912
                1913
                1914
                1915
                1916
                1917
                1918
                1919
                1920
                1921
                1922
                1923
                1924
                1925
                1926
                1927
                1928
                1929
                1930
                1931
                1932
                1933
                1934
                1935
                1936
                1937
                1938
                1939
                1940
                1941
                1942
                1943
                1944
                1945
                1946
                1947
                1948
                1949
                1950
  
SCALARS                         bodyid  double 1
LOOKUP_TABLE default
                   1
                   1
                   1
                   1
                   1
                   1
                   1
                   1
                   1
                   1
                   1
                   1
                   1
                   1
                   1
                   1
                   1
                   1
                   1
                   1
                   1
                   1
                   1
                   1
                   1
                   1
                   1
                   1
                   1
                   1
                   1
                   1
                   1
                   1
                   1
                   1
                   1
                   1
                   1
                   1
                   1
                   1
                   1
                   1
                   1
                   1
                   1
                   1
                   1
                   1
                   1
                   1
                   1
                   1
                   1
                   1
                   1
                   1
                   1
                   1
                   1
                   1
                   1
                   1
                   1
                   1
                   1
                   1
                   1
                   1
                   1
                   1
                   1
                   1
                   1
                   1
                   1
                   1
                   1
                   1
                   1
                   1
                   1
                   1
                   1
                   1
                   1
                   1
                   1
                   1
                   1
                   1
                   1
                   1
                   1
                   1
                   1
                   1
                   1
                   1
                   1
                   1
                   1
                   1
                   1
                   1
                   1
                   1
                   1
                   1
                   1
                   1
                   1
                   1
                   1
                   1
                   1
                   1
                   1
                   1
                   1
                   1
                   1
                   1
                   1
                   1
                   1
                   1
                   1
                   1
                   1
                   1
                   1
                   1
                   1
                   1
                   1
                   1
                   1
                   1
                   1
                   1
                   1
                   1
                   1
                   1
                   1
                   1
                   1
                   1
                   1
                   1
                   1
                   1
                   1
                   1
                   1
                   1
                   1
                   1
                   1
                   1
                   1
                   1
                   1
                   1
                   1
                   1
                   1
                   1
                   1
                   1
                   1
                   1
                   1
                   1
                   1
                   1
                   1
                   1
                   1
                   1
                   1
                   1
                   1
                   1
                   1
                   1
                   1
                   1
                   1
                   1
                   1
                   1
                   1
                   1
                   1
                   1
                   1
                   1
                   1
                   1
                   1
                   1
                   1
                   1
                   1
                   1
                   1
                   1
                   1
                   1
                   1
                   1
                   1
                   1
                   1
                   1
                   1
                   1
                   1
                   1
                   1
                   1
                   1
                   1
                   1
                   1
                   1
                   1
                   1
                   1
                   1
                   1
                   1
                   1
                   1
                   1
                   1
                   1
                   1
                   1
                   1
                   1
                   1
                   1
                   1
                   1
                   1
                   1
                   1
                   1
                   1
                   1
                   1
                   1
                   1
                   1
                   1
                   1
                   1
                   1
                   1
                   1
                   1
                   1
                   1
                   1
                   1
                   1
                   1
                   1
                   1
                   1
                   1
                   1
                   1
                   1
                   1
                   1
                   1
                   1
                   1
                   1
                   1
                   1
                   1
                   1
                   1
                   1
                   1
                   1
                   1
                   1
                   1
                   1
                   1
                   1
                   1
                   1
                   1
                   1
                   1
                   1
                   1
                   1
                   1
                   1
                   1
                   1
                   1
                   1
                   1
                   1
                   1
                   1
                   1
                   1
                   1
                   1
                   1
                   1
                   1
                   1
                   1
                   1
                   1
                   1
                   1
                   1
                   1
                   1
                   1
                   1
                   1
                   1
                   1
                   1
                   1
                   1
                   1
                   1
                   1
                   1
                   1
                   1
                   1
                   1
                   1
                   1
                   1
                   1
                   1
                   1
                   1
                   1
                   1
                   1
                   1
                   1
                   1
                   1
                   1
                   1
                   1
                   1
                   1
                   1
                   1
                   1
                   1
                   1
                   1
                   1
                   1
                   1
                   1
                   1
                   1
                   1
                   1
                   1
                   1
                   1
                   1
                   1
                   1
                   1
                   1
                   1
                   1
                   1
                   1
                   1
                   1
                   1
                   1
                   1
                   1
                   1
                   1
                   1
                   1
                   1
                   1
                   1
                   1
                   1
                   1
                   1
                   1
                   1
                   1
                   1
                   1
                   1
                   1
                   1
                   1
                   1
                   1
                   1
                   1
                   1
                   1
                   1
                   1
                   1
                   1
                   1
                   1
                   1
                   1
                   1
                   1
                   1
                   1
                   1
                   1
                   1
                   1
                   1
                   1
                   1
                   1
                   1
                   1
                   1
                   1
                   1
                   1
                   1
                   1
                   1
                   1
                   1
                   1
                   1
                   1
                   1
                   1
                   1
                   1
                   1
                   1
                   1
                   1
                   1
                   1
                   1
                   1
                   1
                   1
                   1
                   1
                   1
                   1
                   1
                   1
                   1
                   1
                   1
                   1
                   1
                   1
                   1
                   1
                   1
                   1
                   1
                   1
                   1
                   1
                   1
                   1
                   1
                   1
                   1
                   1
                   1
                   1
                   1
                   1
                   1
                   1
                   1
                   1
                   1
                   1
                   1
                   1
                   1
                   1
                   1
                   1
                   1
                   1
                   1
                   1
                   1
                   1
                   1
                   1
                   1
                   1
                   1
                   1
                   1
                   1
                   1
                   1
                   1
                   1
                   1
                   1
                   1
                   1
                   1
                   1
                   1
                   1
                   1
                   1
                   1
                   1
                   1
                   1
                   1
                   1
                   1
                   1
                   1
                   1
                   1
                   1
                   1
                   1
                   1
                   1
                   1
                   1
                   1
                   1
                   1
                   1
                   1
                   1
                   1
                   1
                   1
                   1
                   1
                   1
                   1
                   1
                   1
                   1
                   1
                   1
                   1
                   1
                   1
                   1
                   1
                   1
                   1
                   1
                   1
                   1
                   1
                   1
                   1
                   1
                   1
                   1
                   1
                   1
                   1
                   1
                   1
                   1
                   1
                   1
                   1
                   1
                   1
                   1
                   1
                   1
                   1
                   1
                   1
                   1
                   1
                   1
                   1
                   1
                   1
                   1
                   1
                   1
                   1
                   1
                   1
                   1
                   1
                   1
                   1
                   1
                   1
                   1
                   1
                   1
                   1
                   1
                   1
                   1
                   1
                   1
                   1
                   1
                   1
                   1
                   1
                   1
                   1
                   1
                   1
                   1
                   1
                   1
                   1
                   1
                   1
                   1
                   1
                   1
                   1
                   1
                   1
                   1
                   1
                   1
                   1
                   1
                   1
                   1
                   1
                   1
                   1
                   1
                   1
                   1
                   1
                   1
                   1
                   1
                   1
                   1
                   1
                   1
                   1
                   1
                   1
                   1
                   1
                   1
                   1
                   1
                   1
                   1
                   1
                   1
                   1
                   1
                   1
                   1
                   1
                   1
                   1
                   1
                   1
                   1
                   1
                   1
                   1
                   1
                   1
                   1
                   1
                   1
                   1
                   1
                   1
                   1
                   1
                   1
                   1
                   1
                   1
                   1
                   1
                   1
                   1
                   1
                   1
                   1
                   1
                   1
                   1
                   1
                   1
                   1
                   1
                   1
                   1
                   1
                   1
                   1
                   1
                   1
                   1
                   1
                   1
                   1
                   1
                   1
                   1
                   1
                   1
                   1
                   1
                   1
                   1
                   1
                   1
                   1
                   1
                   1
                   1
                   1
                   1
                   1
                   1
                   1
                   1
                   1
                   1
                   1
                   1
                   1
                   1
                   1
                   1
                   1
                   1
                   1
                   1
                   1
                   1
                   1
                   1
                   1
                   1
                   1
                   1
                   1
                   1
                   1
                   1
                   1
                   1
                   1
                   1
                   1
                   1
                   1
                   1
                   1
                   1
                   1
                   1
                   1
                   1
                   1
                   1
                   1
                   1
                   1
                   1
                   1
                   1
                   1
                   1
                   1
                   1
                   1
                   1
                   1
                   1
                   1
                   1
                   1
                   1
                   1
                   1
                   1
                   1
                   1
                   1
                   1
                   1
                   1
                   1
                   1
                   1
                   1
                   1
                   1
                   1
                   1
                   1
                   1
                   1
                   1
                   1
                   1
                   1
                   1
                   1
                   1
                   1
                   1
                   1
                   1
                   1
                   1
                   1
                   1
                   1
                   1
                   1
                   1
                   1
                   1
                   1
                   1
                   1
                   1
                   1
                   1
                   1
                   1
                   1
                   1
                   1
                   1
                   1
                   1
                   1
                   1
                   1
                   1
                   1
                   1
                   1
                   1
                   1
                   1
                   1
                   1
                   1
                   1
                   1
                   1
                   1
                   1
                   1
                   1
                   1
                   1
                   1
                   1
                   1
                   1
                   1
                   1
                   1
                   1
                   1
                   1
                   1
                   1
                   1
                   1
                   1
                   1
                   1
                   1
                   1
                   1
                   1
                   1
                   1
                   1
                   1
                   1
                   1
                   1
                   1
                   1
                   1
                   1
                   1
                   1
                   1
                   1
                   1
                   1
                   1
                   1
                   1
                   1
                   1
                   1
                   1
                   1
                   1
                   1
                   1
                   1
                   1
                   1
                   1
                   1
                   1
                   1
                   1
                   1
                   1
                   1
                   1
                   1
                   1
                   1
                   1
                   1
                   1
                   1
                   1
                   1
                   1
                   1
                   1
                   1
                   1
                   1
                   1
                   1
                   1
                   1
                   1
                   1
                   1
                   1
                   1
                   1
                   1
                   1
                   1
                   1
                   1
                   1
                   1
                   1
                   1
                   1
                   1
                   1
                   1
                   1
                   1
                   1
                   1
                   1
                   1
                   1
                   1
                   1
                   1
                   1
                   1
                   1
                   1
                   1
                   1
                   1
                   1
                   1
                   1
                   1
                   1
                   1
                   1
                   1
                   1
                   1
                   1
                   1
                   1
                   1
                   1
                   1
                   1
                   1
                   1
                   1
                   1
                   1
                   1
                   1
                   1
                   1
                   1
                   1
                   1
                   1
                   1
                   1
                   1
                   1
                   1
                   1
                   1
                   1
                   1
                   1
                   1
                   1
                   1
                   1
                   1
                   1
                   1
                   1
                   1
                   1
                   1
                   1
                   1
                   1
                   1
                   1
                   1
                   1
                   1
                   1
                   1
                   1
                   1
                   1
                   1
                   1
                   1
                   1
                   1
                   1
                   1
                   1
                   1
                   1
                   1
                   1
                   1
                   1
                   1
                   1
                   1
                   1
                   1
                   1
                   1
                   1
                   1
                   1
                   1
                   1
                   1
                   1
                   1
                   1
                   1
                   1
                   1
                   1
                   1
                   1
                   1
                   1
                   1
                   1
                   1
                   1
                   1
                   1
                   1
                   1
                   1
                   1
                   1
                   1
                   1
                   1
                   1
                   1
                   1
                   1
                   1
                   1
                   1
                   1
                   1
                   1
                   1
                   1
                   1
                   1
                   1
                   1
                   1
                   1
                   1
                   1
                   1
                   1
                   1
                   1
                   1
                   1
                   1
                   1
                   1
                   1
                   1
                   1
                   1
                   1
                   1
                   1
                   1
                   1
                   1
                   1
                   1
                   1
                   1
                   1
                   1
                   1
                   1
                   1
                   1
                   1
                   1
                   1
                   1
                   1
                   1
                   1
                   1
                   1
                   1
                   1
                   1
                   1
                   1
                   1
                   1
                   1
                   1
                   1
                   1
                   1
                   1
                   1
                   1
                   1
                   1
                   1
                   1
                   1
                   1
                   1
                   1
                   1
                   1
                   1
                   1
                   1
                   1
                   1
                   1
                   1
                   1
                   1
                   1
                   1
                   1
                   1
                   1
                   1
                   1
                   1
                   1
                   1
                   1
                   1
                   1
                   1
                   1
                   1
                   1
                   1
                   1
                   1
                   1
                   1
                   1
                   1
                   1
                   1
                   1
                   1
                   1
                   1
                   1
                   1
                   1
                   1
                   1
                   1
                   1
                   1
                   1
                   1
                   1
                   1
                   1
                   1
                   1
                   1
                   1
                   1
                   1
                   1
                   1
                   1
                   1
                   1
                   1
                   1
                   1
                   1
                   1
                   1
                   1
                   1
                   1
                   1
                   1
                   1
                   1
                   1
                   1
                   1
                   1
                   1
                   1
                   1
                   1
                   1
                   1
                   1
                   1
                   1
                   1
                   1
                   1
                   1
                   1
                   1
                   1
                   1
                   1
                   1
                   1
                   1
                   1
                   1
                   1
                   1
                   1
                   1
                   1
                   1
                   1
                   1
                   1
                   1
                   1
                   1
                   1
                   1
                   1
                   1
                   1
                   1
                   1
                   1
                   1
                   1
                   1
                   1
                   1
                   1
                   1
                   1
                   1
                   1
                   1
                   1
                   1
                   1
                   1
                   1
                   1
                   1
                   1
                   1
                   1
                   1
                   1
                   1
                   1
                   1
                   1
                   1
                   1
                   1
                   1
                   1
                   1
                   1
                   1
                   1
                   1
                   1
                   1
                   1
                   1
                   1
                   1
                   1
                   1
                   1
                   1
                   1
                   1
                   1
                   1
                   1
                   1
                   1
                   1
                   1
                   1
                   1
                   1
                   1
                   1
                   1
                   1
                   1
                   1
                   1
                   1
                   1
                   1
                   1
                   1
                   1
                   1
                   1
                   1
                   1
                   1
                   1
                   1
                   1
                   1
                   1
                   1
                   1
                   1
                   1
                   1
                   1
                   1
                   1
                   1
                   1
                   1
                   1
                   1
                   1
                   1
                   1
                   1
                   1
                   1
                   1
                   1
                   1
                   1
                   1
                   1
                   1
                   1
                   1
                   1
                   1
                   1
                   1
                   1
                   1
                   1
                   1
                   1
                   1
                   1
                   1
                   1
                   1
                   1
                   1
                   1
                   1
                   1
                   1
                   1
                   1
                   1
                   1
                   1
                   1
                   1
                   1
                   1
                   1
                   1
                   1
                   1
                   1
                   1
                   1
                   1
                   1
                   1
                   1
                   1
                   1
                   1
                   1
                   1
                   1
                   1
                   1
                   1
                   1
                   1
                   1
                   1
                   1
                   1
                   1
                   1
                   1
                   1
                   1
                   1
                   1
                   1
                   1
                   1
                   1
                   1
                   1
                   1
                   1
                   1
                   1
                   1
                   1
                   1
                   1
                   1
                   1
                   1
                   1
                   1
                   1
                   1
                   1
                   1
                   1
                   1
                   1
                   1
                   1
                   1
                   1
                   1
                   1
                   1
                   1
                   1
                   1
                   1
                   1
                   1
                   1
                   1
                   1
                   1
                   1
                   1
                   1
                   1
                   1
                   1
                   1
                   1
                   1
                   1
                   1
                   1
                   1
                   1
                   1
                   1
                   1
                   1
                   1
                   1
                   1
                   1
                   1
                   1
                   1
                   1
                   1
                   1
                   1
                   1
                   1
                   1
                   1
                   1
                   1
                   1
                   1
                   1
                   1
                   1
                   1
                   1
                   1
                   1
                   1
                   1
                   1
                   1
                   1
                   1
                   1
                   1
                   1
                   1
                   1
                   1
                   1
                   1
                   1
                   1
                   1
                   1
                   1
                   1
                   1
                   1
                   1
                   1
                   1
                   1
                   1
                   1
                   1
                   1
                   1
                   1
                   1
                   1
                   1
                   1
                   1
                   1
                   1
                   1
                   1
                   1
                   1
                   1
                   1
                   1
                   1
                   1
                   1
                   1
                   1
                   1
                   1
                   1
                   1
                   1
                   1
                   1
                   1
                   1
                   1
                   1
                   1
                   1
                   1
                   1
                   1
                   1
                   1
                   1
                   1
                   1
                   1
                   1
                   1
                   1
                   1
                   1
                   1
                   1
                   1
                   1
                   1
                   1
                   1
                   1
                   1
                   1
                   1
                   1
                   1
                   1
                   1
                   1
                   1
                   1
                   1
                   1
                   1
                   1
                   1
                   1
                   1
                   1
                   1
                   1
                   1
                   1
                   1
                   1
                   1
                   1
                   1
                   1
                   1
                   1
                   1
                   1
                   1
                   1
                   1
                   1
                   1
                   1
                   1
                   1
                   1
                   1
                   1
                   1
                   1
                   1
                   1
                   1
                   1
                   1
                   1
                   1
                   1
                   1
                   1
                   1
                   1
                   1
                   1
                   1
                   1
                   1
                   1
                   1
                   1
                   1
                   1
                   1
                   1
                   1
                   1
                   1
                   1
                   1
                   1
                   1
                   1
                   1
                   1
                   1
                   1
                   1
                   1
                   1
                   1
                   1
                   1
                   1
                   1
                   1
                   1
                   1
                   1
                   1
                   1
                   1
                   1
                   1
                   1
                   1
                   1
                   1
                   1
                   1
                   1
                   1
                   1
                   1
                   1
                   1
                   1
                   1
                   1
                   1
                   1
                   1
                   1
                   1
                   1
                   1
                   1
                   1
                   1
                   1
                   1
                   1
                   1
                   1
                   1
                   1
                   1
                   1
                   1
                   1
                   1
                   1
                   1
                   1
                   1
                   1
                   1
                   1
                   1
                   1
                   1
                   1
                   1
                   1
                   1
                   1
                   1
                   1
                   1
                   1
                   1
                   1
                   1
                   1
                   1
                   1
                   1
                   1
                   1
                   1
                   1
                   1
                   1
                   1
                   1
                   1
                   1
                   1
                   1
                   1
                   1
                   1
                   1
                   1
                   1
                   1
                   1
                   1
                   1
                   1
                   1
                   1
                   1
                   1
                   1
                   1
                   1
                   1
                   1
                   1
                   1
                   1
                   1
                   1
                   1
                   1
                   1
                   1
                   1
                   1
                   1
                   1
                   1
                   1
                   1
                   1
                   1
                   1
                   1
                   1
                   1
                   1
                   1
                   1
                   1
                   1
                   1
                   1
                   1
                   1
                   1
                   1
                   1
                   1
                   1
                   1
                   1
                   1
                   1
                   1
                   1
                   1
                   1
                   1
                   1
                   1
                   1
                   1
                   1
                   1
                   1
                   1
                   1
                   1
                   1
                   1
                   1
                   1
                   1
                   1
                   1
                   1
                   1
                   1
                   1
                   1
                   1
                   1
                   1
                   1
                   1
                   1
  
SCALARS                  material_type  double 1
LOOKUP_TABLE default
                   2
                   2
                   2
                   2
                   2
                   2
                   2
                   2
                   2
                   2
                   2
                   2
                   2
                   2
                   2
                   2
                   2
                   2
                   2
                   2
                   2
                   2
                   2
                   2
                   2
                   2
                   2
                   2
                   2
                   2
                   2
                   2
                   2
                   2
                   2
                   2
                   2
                   2
                   2
                   2
                   2
                   2
                   2
                   2
                   2
                   2
                   2
                   2
                   2
                   2
                   2
                   2
                   2
                   2
                   2
                   2
                   2
                   2
                   2
                   2
                   2
                   2
                   2
                   2
                   2
                   2
                   2
                   2
                   2
                   2
                   2
                   2
                   2
                   2
                   2
                   2
                   2
                   2
                   2
                   2
                   2
                   2
                   2
                   2
                   2
                   2
                   2
                   2
                   2
                   2
                   2
                   2
                   2
                   2
                   2
                   2
                   2
                   2
                   2
                   2
                   2
                   2
                   2
                   2
                   2
                   2
                   2
                   2
                   2
                   2
                   2
                   2
                   2
                   2
                   2
                   2
                   2
                   2
                   2
                   2
                   2
                   2
                   2
                   2
                   2
                   2
                   2
                   2
                   2
                   2
                   2
                   2
                   2
                   2
                   2
                   2
                   2
                   2
                   2
                   2
                   2
                   2
                   2
                   2
                   2
                   2
                   2
                   2
                   2
                   2
                   2
                   2
                   2
                   2
                   2
                   2
                   2
                   2
                   2
                   2
                   2
                   2
                   2
                   2
                   2
                   2
                   2
                   2
                   2
                   2
                   2
                   2
                   2
                   2
                   2
                   2
                   2
                   2
                   2
                   2
                   2
                   2
                   2
                   2
                   2
                   2
                   2
                   2
                   2
                   2
                   2
                   2
                   2
                   2
                   2
                   2
                   2
                   2
                   2
                   2
                   2
                   2
                   2
                   2
                   2
                   2
                   2
                   2
                   2
                   2
                   2
                   2
                   2
                   2
                   2
                   2
                   2
                   2
                   2
                   2
                   2
                   2
                   2
                   2
                   2
                   2
                   2
                   2
                   2
                   2
                   2
                   2
                   2
                   2
                   2
                   2
                   2
                   2
                   2
                   2
                   2
                   2
                   2
                   2
                   2
                   2
                   2
                   2
                   2
                   2
                   2
                   2
                   2
                   2
                   2
                   2
                   2
                   2
                   2
                   2
                   2
                   2
                   2
                   2
                   2
                   2
                   2
                   2
                   2
                   2
                   2
                   2
                   2
                   2
                   2
                   2
                   2
                   2
                   2
                   2
                   2
                   2
                   2
                   2
                   2
                   2
                   2
                   2
                   2
                   2
                   2
                   2
                   2
                   2
                   2
                   2
                   2
                   2
                   2
                   2
                   2
                   2
                   2
                   2
                   2
                   2
                   2
                   2
                   2
                   2
                   2
                   2
                   2
                   2
                   2
                   2
                   2
                   2
                   2
                   2
                   2
                   2
                   2
                   2
                   2
                   2
                   2
                   2
                   2
                   2
                   2
                   2
                   2
                   2
                   2
                   2
                   2
                   2
                   2
                   2
                   2
                   2
                   2
                   2
                   2
                   2
                   2
                   2
                   2
                   2
                   2
                   2
                   2
                   2
                   2
                   2
                   2
                   2
                   2
                   2
                   2
                   2
                   2
                   2
                   2
                   2
                   2
                   2
                   2
                   2
                   2
                   2
                   2
                   2
                   2
                   2
                   2
                   2
                   2
                   2
                   2
                   2
                   2
                   2
                   2
                   2
                   2
                   2
                   2
                   2
                   2
                   2
                   2
                   2
                   2
                   2
                   2
                   2
                   2
                   2
                   2
                   2
                   2
                   2
                   2
                   2
                   2
                   2
                   2
                   2
                   2
                   2
                   2
                   2
                   2
                   2
                   2
                   2
                   2
                   2
                   2
                   2
                   2
                   2
                   2
                   2
                   2
                   2
                   2
                   2
                   2
                   2
                   2
                   2
                   2
                   2
                   2
                   2
                   2
                   2
                   2
                   2
                   2
                   2
                   2
                   2
                   2
                   2
                   2
                   2
                   2
                   2
                   2
                   2
                   2
                   2
                   2
                   2
                   2
                   2
                   2
                   2
                   2
                   2
                   2
                   2
                   2
                   2
                   2
                   2
                   2
                   2
                   2
                   2
                   2
                   2
                   2
                   2
                   2
                   2
                   2
                   2
                   2
                   2
                   2
                   2
                   2
                   2
                   2
                   2
                   2
                   2
                   2
                   2
                   2
                   2
                   2
                   2
                   2
                   2
                   2
                   2
                   2
                   2
                   2
                   2
                   2
                   2
                   2
                   2
                   2
                   2
                   2
                   2
                   2
                   2
                   2
                   2
                   2
                   2
                   2
                   2
                   2
                   2
                   2
                   2
                   2
                   2
                   2
                   2
                   2
                   2
                   2
                   2
                   2
                   2
                   2
                   2
                   2
                   2
                   2
                   2
                   2
                   2
                   2
                   2
                   2
                   2
                   2
                   2
                   2
                   2
                   2
                   2
                   2
                   2
                   2
                   2
                   2
                   2
                   2
                   2
                   2
                   2
                   2
                   2
                   2
                   2
                   2
                   2
                   2
                   2
                   2
                   2
                   2
                   2
                   2
                   2
                   2
                   2
                   2
                   2
                   2
                   2
                   2
                   2
                   2
                   2
                   2
                   2
                   2
                   2
                   2
                   2
                   2
                   2
                   2
                   2
                   2
                   2
                   2
                   2
                   2
                   2
                   2
                   2
                   2
                   2
                   2
                   2
                   2
                   2
                   2
                   2
                   2
                   2
                   2
                   2
                   2
                   2
                   2
                   2
                   2
                   2
                   2
                   2
                   2
                   2
                   2
                   2
                   2
                   2
                   2
                   2
                   2
                   2
                   2
                   2
                   2
                   2
                   2
                   2
                   2
                   2
                   2
                   2
                   2
                   2
                   2
                   2
                   2
                   2
                   2
                   2
                   2
                   2
                   2
                   2
                   2
                   2
                   2
                   2
                   2
                   2
                   2
                   2
                   2
                   2
                   2
                   2
                   2
                   2
                   2
                   2
                   2
                   2
                   2
                   2
                   2
                   2
                   2
                   2
                   2
                   2
                   2
                   2
                   2
                   2
                   2
                   2
                   2
                   2
                   2
                   2
                   2
                   2
                   2
                   2
                   2
                   2
                   2
                   2
                   2
                   2
                   2
                   2
                   2
                   2
                   2
                   2
                   2
                   2
                   2
                   2
                   2
                   2
                   2
                   2
                   2
                   2
                   2
                   2
                   2
                   2
                   2
                   2
                   2
                   2
                   2
                   2
                   2
                   2
                   2
                   2
                   2
                   2
                   2
                   2
                   2
                   2
                   2
                   2
                   2
                   2
                   2
                   2
                   2
                   2
                   2
                   2
                   2
                   2
                   2
                   2
                   2
                   2
                   2
                   2
                   2
                   2
                   2
                   2
                   2
                   2
                   2
                   2
                   2
                   2
                   2
                   2
                   2
                   2
                   2
                   2
                   2
                   2
                   2
                   2
                   2
                   2
                   2
                   2
                   2
                   2
                   2
                   2
                   2
                   2
                   2
                   2
                   2
                   2
                   2
                   2
                   2
                   2
                   2
                   2
                   2
                   2
                   2
                   2
                   2
                   2
                   2
                   2
                   2
                   2
                   2
                   2
                   2
                   2
                   2
                   2
                   2
                   2
                   2
                   2
                   2
                   2
                   2
                   2
                   2
                   2
                   2
                   2
                   2
                   2
                   2
                   2
                   2
                   2
                   2
                   2
                   2
                   2
                   2
                   2
                   2
                   2
                   2
                   2
                   2
                   2
                   2
                   2
                   2
                   2
                   2
                   2
                   2
                   2
                   2
                   2
                   2
                   2
                   2
                   2
                   2
                   2
                   2
                   2
                   2
                   2
                   2
                   2
                   2
                   2
                   2
                   2
                   2
                   2
                   2
                   2
                   2
                   2
                   2
                   2
                   2
                   2
                   2
                   2
                   2
                   2
                   2
                   2
                   2
                   2
                   2
                   2
                   2
                   2
                   2
                   2
                   2
                   2
                   2
                   2
                   2
                   2
                   2
                   2
                   2
                   2
                   2
                   2
                   2
                   2
                   2
                   2
                   2
                   2
                   2
                   2
                   2
                   2
                   2
                   2
                   2
                   2
                   2
                   2
                   2
                   2
                   2
                   2
                   2
                   2
                   2
                   2
                   2
                   2
                   2
                   2
                   2
                   2
                   2
                   2
                   2
                   2
                   2
                   2
                   2
                   2
                   2
                   2
                   2
                   2
                   2
                   2
                   2
                   2
                   2
                   2
                   2
                   2
                   2
                   2
                   2
                   2
                   2
                   2
                   2
                   2
                   2
                   2
                   2
                   2
                   2
                   2
                   2
                   2
                   2
                   2
                   2
                   2
                   2
                   2
                   2
                   2
                   2
                   2
                   2
                   2
                   2
                   2
                   2
                   2
                   2
                   2
                   2
                   2
                   2
                   2
                   2
                   2
                   2
                   2
                   2
                   2
                   2
                   2
                   2
                   2
                   2
                   2
                   2
                   2
                   2
                   2
                   2
                   2
                   2
                   2
                   2
                   2
                   2
                   2
                   2
                   2
                   2
                   2
                   2
                   2
                   2
                   2
                   2
                   2
                   2
                   2
                   2
                   2
                   2
                   2
                   2
                   2
                   2
                   2
                   2
                   2
                   2
                   2
                   2
                   2
                   2
                   2
                   2
                   2
                   2
                   2
                   2
                   2
                   2
                   2
                   2
                   2
                   2
                   2
                   2
                   2
                   2
                   2
                   2
                   2
                   2
                   2
                   2
                   2
                   2
                   2
                   2
                   2
                   2
                   2
                   2
                   2
                   2
                   2
                   2
                   2
                   2
                   2
                   2
                   2
                   2
                   2
                   2
                   2
                   2
                   2
                   2
                   2
                   2
                   2
                   2
                   2
                   2
                   2
                   2
                   2
                   2
                   2
                   2
                   2
                   2
                   2
                   2
                   2
                   2
                   2
                   2
                   2
                   2
                   2
                   2
                   2
                   2
                   2
                   2
                   2
                   2
                   2
                   2
                   2
                   2
                   2
                   2
                   2
                   2
                   2
                   2
                   2
                   2
                   2
                   2
                   2
                   2
                   2
                   2
                   2
                   2
                   2
                   2
                   2
                   2
                   2
                   2
                   2
                   2
                   2
                   2
                   2
                   2
                   2
                   2
                   2
                   2
                   2
                   2
                   2
                   2
                   2
                   2
                   2
                   2
                   2
                   2
                   2
                   2
                   2
                   2
                   2
                   2
                   2
                   2
                   2
                   2
                   2
                   2
                   2
                   2
                   2
                   2
                   2
                   2
                   2
                   2
                   2
                   2
                   2
                   2
                   2
                   2
                   2
                   2
                   2
                   2
                   2
                   2
                   2
                   2
                   2
                   2
                   2
                   2
                   2
                   2
                   2
                   2
                   2
                   2
                   2
                   2
                   2
                   2
                   2
                   2
                   2
                   2
                   2
                   2
                   2
                   2
                   2
                   2
                   2
                   2
                   2
                   2
                   2
                   2
                   2
                   2
                   2
                   2
                   2
                   2
                   2
                   2
                   2
                   2
                   2
                   2
                   2
                   2
                   2
                   2
                   2
                   2
                   2
                   2
                   2
                   2
                   2
                   2
                   2
                   2
                   2
                   2
                   2
                   2
                   2
                   2
                   2
                   2
                   2
                   2
                   2
                   2
                   2
                   2
                   2
                   2
                   2
                   2
                   2
                   2
                   2
                   2
                   2
                   2
                   2
                   2
                   2
                   2
                   2
                   2
                   2
                   2
                   2
                   2
                   2
                   2
                   2
                   2
                   2
                   2
                   2
                   2
                   2
                   2
                   2
                   2
                   2
                   2
                   2
                   2
                   2
                   2
                   2
                   2
                   2
                   2
                   2
                   2
                   2
                   2
                   2
                   2
                   2
                   2
                   2
                   2
                   2
                   2
                   2
                   2
                   2
                   2
                   2
                   2
                   2
                   2
                   2
                   2
                   2
                   2
                   2
                   2
                   2
                   2
                   2
                   2
                   2
                   2
                   2
                   2
                   2
                   2
                   2
                   2
                   2
                   2
                   2
                   2
                   2
                   2
                   2
                   2
                   2
                   2
                   2
                   2
                   2
                   2
                   2
                   2
                   2
                   2
                   2
                   2
                   2
                   2
                   2
                   2
                   2
                   2
                   2
                   2
                   2
                   2
                   2
                   2
                   2
                   2
                   2
                   2
                   2
                   2
                   2
                   2
                   2
                   2
                   2
                   2
                   2
                   2
                   2
                   2
                   2
                   2
                   2
                   2
                   2
                   2
                   2
                   2
                   2
                   2
                   2
                   2
                   2
                   2
                   2
                   2
                   2
                   2
                   2
                   2
                   2
                   2
                   2
                   2
                   2
                   2
                   2
                   2
                   2
                   2
                   2
                   2
                   2
                   2
                   2
                   2
                   2
                   2
                   2
                   2
                   2
                   2
                   2
                   2
                   2
                   2
                   2
                   2
                   2
                   2
                   2
                   2
                   2
                   2
                   2
                   2
                   2
                   2
                   2
                   2
                   2
                   2
                   2
                   2
                   2
                   2
                   2
                   2
                   2
                   2
                   2
                   2
                   2
                   2
                   2
                   2
                   2
                   2
                   2
                   2
                   2
                   2
                   2
                   2
                   2
                   2
                   2
                   2
                   2
                   2
                   2
                   2
                   2
                   2
                   2
                   2
                   2
                   2
                   2
                   2
                   2
                   2
                   2
                   2
                   2
                   2
                   2
                   2
                   2
                   2
                   2
                   2
                   2
                   2
                   2
                   2
                   2
                   2
                   2
                   2
                   2
                   2
                   2
                   2
                   2
                   2
                   2
                   2
                   2
                   2
                   2
                   2
                   2
                   2
                   2
                   2
                   2
                   2
                   2
                   2
                   2
                   2
                   2
                   2
                   2
                   2
                   2
                   2
                   2
                   2
                   2
                   2
                   2
                   2
                   2
                   2
                   2
                   2
                   2
                   2
                   2
                   2
                   2
                   2
                   2
                   2
                   2
                   2
                   2
                   2
                   2
                   2
                   2
                   2
                   2
                   2
                   2
                   2
                   2
                   2
                   2
                   2
                   2
                   2
                   2
                   2
                   2
                   2
                   2
                   2
                   2
                   2
                   2
                   2
                   2
                   2
                   2
                   2
                   2
                   2
                   2
                   2
                   2
                   2
                   2
                   2
                   2
                   2
                   2
                   2
                   2
                   2
                   2
                   2
                   2
                   2
                   2
                   2
                   2
                   2
                   2
                   2
                   2
                   2
                   2
                   2
                   2
                   2
                   2
                   2
                   2
                   2
                   2
                   2
                   2
                   2
                   2
                   2
                   2
                   2
                   2
                   2
                   2
                   2
                   2
                   2
                   2
                   2
                   2
                   2
                   2
                   2
                   2
                   2
                   2
                   2
                   2
                   2
                   2
                   2
                   2
                   2
                   2
                   2
                   2
                   2
                   2
                   2
                   2
                   2
                   2
                   2
                   2
                   2
                   2
                   2
                   2
                   2
                   2
                   2
                   2
                   2
                   2
                   2
                   2
                   2
                   2
                   2
                   2
                   2
                   2
                   2
                   2
                   2
                   2
                   2
                   2
                   2
                   2
                   2
                   2
                   2
                   2
                   2
                   2
                   2
                   2
                   2
                   2
                   2
                   2
                   2
                   2
                   2
                   2
                   2
                   2
                   2
                   2
                   2
                   2
                   2
                   2
                   2
                   2
                   2
                   2
                   2
                   2
                   2
                   2
                   2
                   2
                   2
                   2
                   2
                   2
                   2
                   2
                   2
                   2
                   2
                   2
                   2
                   2
                   2
                   2
                   2
                   2
                   2
                   2
                   2
                   2
                   2
                   2
                   2
                   2
                   2
                   2
                   2
                   2
                   2
                   2
                   2
                   2
                   2
                   2
                   2
                   2
                   2
                   2
                   2
                   2
                   2
                   2
                   2
                   2
                   2
                   2
                   2
                   2
                   2
                   2
                   2
                   2
                   2
                   2
                   2
                   2
                   2
                   2
                   2
                   2
                   2
                   2
                   2
                   2
                   2
                   2
                   2
                   2
                   2
                   2
                   2
                   2
                   2
                   2
                   2
                   2
                   2
                   2
                   2
                   2
                   2
                   2
                   2
                   2
                   2
                   2
                   2
                   2
                   2
                   2
                   2
                   2
                   2
                   2
                   2
                   2
                   2
                   2
                   2
                   2
                   2
                   2
                   2
                   2
                   2
                   2
                   2
                   2
                   2
                   2
                   2
                   2
                   2
                   2
                   2
                   2
                   2
                   2
                   2
                   2
                   2
                   2
                   2
                   2
                   2
                   2
                   2
                   2
                   2
                   2
                   2
                   2
                   2
                   2
                   2
                   2
                   2
                   2
                   2
                   2
                   2
                   2
                   2
                   2
                   2
                   2
                   2
                   2
                   2
                   2
                   2
                   2
                   2
                   2
                   2
                   2
                   2
                   2
                   2
                   2
                   2
                   2
                   2
                   2
                   2
                   2
                   2
                   2
                   2
                   2
                   2
                   2
                   2
                   2
                   2
                   2
                   2
                   2
                   2
                   2
                   2
                   2
                   2
                   2
                   2
                   2
                   2
                   2
                   2
                   2
                   2
                   2
                   2
                   2
                   2
                   2
                   2
                   2
                   2
                   2
                   2
                   2
                   2
                   2
                   2
                   2
                   2
                   2
                   2
                   2
                   2
                   2
                   2
                   2
                   2
                   2
                   2
                   2
  
SCALARS                       fixity_x  double 1
LOOKUP_TABLE default
                   0
                   0
                   0
                   0
                   0
                   0
                   0
                   0
                   0
                   0
                   0
                   0
                   0
                   0
                   0
                   0
                   0
                   0
                   0
                   0
                   0
                   0
                   0
                   0
                   0
                   0
                   0
                   0
                   0
                   0
                   0
                   0
                   0
                   0
                   0
                   0
                   0
                   0
                   0
                   0
                   0
                   0
                   0
                   0
                   0
                   0
                   0
                   0
                   0
                   0
                   0
                   0
                   0
                   0
                   0
                   0
                   0
                   0
                   0
                   0
                   0
                   0
                   0
                   0
                   0
                   0
                   0
                   0
                   0
                   0
                   0
                   0
                   0
                   0
                   0
                   0
                   0
                   0
                   0
                   0
                   0
                   0
                   0
                   0
                   0
                   0
                   0
                   0
                   0
                   0
                   0
                   0
                   0
                   0
                   0
                   0
                   0
                   0
                   0
                   0
                   0
                   0
                   0
                   0
                   0
                   0
                   0
                   0
                   0
                   0
                   0
                   0
                   0
                   0
                   0
                   0
                   0
                   0
                   0
                   0
                   0
                   0
                   0
                   0
                   0
                   0
                   0
                   0
                   0
                   0
                   0
                   0
                   0
                   0
                   0
                   0
                   0
                   0
                   0
                   0
                   0
                   0
                   0
                   0
                   0
                   0
                   0
                   0
                   0
                   0
                   0
                   0
                   0
                   0
                   0
                   0
                   0
                   0
                   0
                   0
                   0
                   0
                   0
                   0
                   0
                   0
                   0
                   0
                   0
                   0
                   0
                   0
                   0
                   0
                   0
                   0
                   0
                   0
                   0
                   0
                   0
                   0
                   0
                   0
                   0
                   0
                   0
                   0
                   0
                   0
                   0
                   0
                   0
                   0
                   0
                   0
                   0
                   0
                   0
                   0
                   0
                   0
                   0
                   0
                   0
                   0
                   0
                   0
                   0
                   0
                   0
                   0
                   0
                   0
                   0
                   0
                   0
                   0
                   0
                   0
                   0
                   0
                   0
                   0
                   0
                   0
                   0
                   0
                   0
                   0
                   0
                   0
                   0
                   0
                   0
                   0
                   0
                   0
                   0
                   0
                   0
                   0
                   0
                   0
                   0
                   0
                   0
                   0
                   0
                   0
                   0
                   0
                   0
                   0
                   0
                   0
                   0
                   0
                   0
                   0
                   0
                   0
                   0
                   0
                   0
                   0
                   0
                   0
                   0
                   0
                   0
                   0
                   0
                   0
                   0
                   0
                   0
                   0
                   0
                   0
                   0
                   0
                   0
                   0
                   0
                   0
                   0
                   0
                   0
                   0
                   0
                   0
                   0
                   0
                   0
                   0
                   0
                   0
                   0
                   0
                   0
                   0
                   0
                   0
                   0
                   0
                   0
                   0
                   0
                   0
                   0
                   0
                   0
                   0
                   0
                   0
                   0
                   0
                   0
                   0
                   0
                   0
                   0
                   0
                   0
                   0
                   0
                   0
                   0
                   0
                   0
                   0
                   0
                   0
                   0
                   0
                   0
                   0
                   0
                   0
                   0
                   0
                   0
                   0
                   0
                   0
                   0
                   0
                   0
                   0
                   0
                   0
                   0
                   0
                   0
                   0
                   0
                   0
                   0
                   0
                   0
                   0
                   0
                   0
                   0
                   0
                   0
                   0
                   0
                   0
                   0
                   0
                   0
                   0
                   0
                   0
                   0
                   0
                   0
                   0
                   0
                   0
                   0
                   0
                   0
                   0
                   0
                   0
                   0
                   0
                   0
                   0
                   0
                   0
                   0
                   0
                   0
                   0
                   0
                   0
                   0
                   0
                   0
                   0
                   0
                   0
                   0
                   0
                   0
                   0
                   0
                   0
                   0
                   0
                   0
                   0
                   0
                   0
                   0
                   0
                   0
                   0
                   0
                   0
                   0
                   0
                   0
                   0
                   0
                   0
                   0
                   0
                   0
                   0
                   0
                   0
                   0
                   0
                   0
                   0
                   0
                   0
                   0
                   0
                   0
                   0
                   0
                   0
                   0
                   0
                   0
                   0
                   0
                   0
                   0
                   0
                   0
                   0
                   0
                   0
                   0
                   0
                   0
                   0
                   0
                   0
                   0
                   0
                   0
                   0
                   0
                   0
                   0
                   0
                   0
                   0
                   0
                   0
                   0
                   0
                   0
                   0
                   0
                   0
                   0
                   0
                   0
                   0
                   0
                   0
                   0
                   0
                   0
                   0
                   0
                   0
                   0
                   0
                   0
                   0
                   0
                   0
                   0
                   0
                   0
                   0
                   0
                   0
                   0
                   0
                   0
                   0
                   0
                   0
                   0
                   0
                   0
                   0
                   0
                   0
                   0
                   0
                   0
                   0
                   0
                   0
                   0
                   0
                   0
                   0
                   0
                   0
                   0
                   0
                   0
                   0
                   0
                   0
                   0
                   0
                   0
                   0
                   0
                   0
                   0
                   0
                   0
                   0
                   0
                   0
                   0
                   0
                   0
                   0
                   0
                   0
                   0
                   0
                   0
                   0
                   0
                   0
                   0
                   0
                   0
                   0
                   0
                   0
                   0
                   0
                   0
                   0
                   0
                   0
                   0
                   0
                   0
                   0
                   0
                   0
                   0
                   0
                   0
                   0
                   0
                   0
                   0
                   0
                   0
                   0
                   0
                   0
                   0
                   0
                   0
                   0
                   0
                   0
                   0
                   0
                   0
                   0
                   0
                   0
                   0
                   0
                   0
                   0
                   0
                   0
                   0
                   0
                   0
                   0
                   0
                   0
                   0
                   0
                   0
                   0
                   0
                   0
                   0
                   0
                   0
                   0
                   0
                   0
                   0
                   0
                   0
                   0
                   0
                   0
                   0
                   0
                   0
                   0
                   0
                   0
                   0
                   0
                   0
                   0
                   0
                   0
                   0
                   0
                   0
                   0
                   0
                   0
                   0
                   0
                   0
                   0
                   0
                   0
                   0
                   0
                   0
                   0
                   0
                   0
                   0
                   0
                   0
                   0
                   0
                   0
                   0
                   0
                   0
                   0
                   0
                   0
                   0
                   0
                   0
                   0
                   0
                   0
                   0
                   0
                   0
                   0
                   0
                   0
                   0
                   0
                   0
                   0
                   0
                   0
                   0
                   0
                   0
                   0
                   0
                   0
                   0
                   0
                   0
                   0
                   0
                   0
                   0
                   0
                   0
                   0
                   0
                   0
                   0
                   0
                   0
                   0
                   0
                   0
                   0
                   0
                   0
                   0
                   0
                   0
                   0
                   0
                   0
                   0
                   0
                   0
                   0
                   0
                   0
                   0
                   0
                   0
                   0
                   0
                   0
                   0
                   0
                   0
                   0
                   0
                   0
                   0
                   0
                   0
                   0
                   0
                   0
                   0
                   0
                   0
                   0
                   0
                   0
                   0
                   0
                   0
                   0
                   0
                   0
                   0
                   0
                   0
                   0
                   0
                   0
                   0
                   0
                   0
                   0
                   0
                   0
                   0
                   0
                   0
                   0
                   0
                   0
                   0
                   0
                   0
                   0
                   0
                   0
                   0
                   0
                   0
                   0
                   0
                   0
                   0
                   0
                   0
                   0
                   0
                   0
                   0
                   0
                   0
                   0
                   0
                   0
                   0
                   0
                   0
                   0
                   0
                   0
                   0
                   0
                   0
                   0
                   0
                   0
                   0
                   0
                   0
                   0
                   0
                   0
                   0
                   0
                   0
                   0
                   0
                   0
                   0
                   0
                   0
                   0
                   0
                   0
                   0
                   0
                   0
                   0
                   0
                   0
                   0
                   0
                   0
                   0
                   0
                   0
                   0
                   0
                   0
                   0
                   0
                   0
                   0
                   0
                   0
                   0
                   0
                   0
                   0
                   0
                   0
                   0
                   0
                   0
                   0
                   0
                   0
                   0
                   0
                   0
                   0
                   0
                   0
                   0
                   0
                   0
                   0
                   0
                   0
                   0
                   0
                   0
                   0
                   0
                   0
                   0
                   0
                   0
                   0
                   0
                   0
                   0
                   0
                   0
                   0
                   0
                   0
                   0
                   0
                   0
                   0
                   0
                   0
                   0
                   0
                   0
                   0
                   0
                   0
                   0
                   0
                   0
                   0
                   0
                   0
                   0
                   0
                   0
                   0
                   0
                   0
                   0
                   0
                   0
                   0
                   0
                   0
                   0
                   0
                   0
                   0
                   0
                   0
                   0
                   0
                   0
                   0
                   0
                   0
                   0
                   0
                   0
                   0
                   0
                   0
                   0
                   0
                   0
                   0
                   0
                   0
                   0
                   0
                   0
                   0
                   0
                   0
                   0
                   0
                   0
                   0
                   0
                   0
                   0
                   0
                   0
                   0
                   0
                   0
                   0
                   0
                   0
                   0
                   0
                   0
                   0
                   0
                   0
                   0
                   0
                   0
                   0
                   0
                   0
                   0
                   0
                   0
                   0
                   0
                   0
                   0
                   0
                   0
                   0
                   0
                   0
                   0
                   0
                   0
                   0
                   0
                   0
                   0
                   0
                   0
                   0
                   0
                   0
                   0
                   0
                   0
                   0
                   0
                   0
                   0
                   0
                   0
                   0
                   0
                   0
                   0
                   0
                   0
                   0
                   0
                   0
                   0
                   0
                   0
                   0
                   0
                   0
                   0
                   0
                   0
                   0
                   0
                   0
                   0
                   0
                   0
                   0
                   0
                   0
                   0
                   0
                   0
                   0
                   0
                   0
                   0
                   0
                   0
                   0
                   0
                   0
                   0
                   0
                   0
                   0
                   0
                   0
                   0
                   0
                   0
                   0
                   0
                   0
                   0
                   0
                   0
                   0
                   0
                   0
                   0
                   0
                   0
                   0
                   0
                   0
                   0
                   0
                   0
                   0
                   0
                   0
                   0
                   0
                   0
                   0
                   0
                   0
                   0
                   0
                   0
                   0
                   0
                   0
                   0
                   0
                   0
                   0
                   0
                   0
                   0
                   0
                   0
                   0
                   0
                   0
                   0
                   0
                   0
                   0
                   0
                   0
                   0
                   0
                   0
                   0
                   0
                   0
                   0
                   0
                   0
                   0
                   0
                   0
                   0
                   0
                   0
                   0
                   0
                   0
                   0
                   0
                   0
                   0
                   0
                   0
                   0
                   0
                   0
                   0
                   0
                   0
                   0
                   0
                   0
                   0
                   0
                   0
                   0
                   0
                   0
                   0
                   0
                   0
                   0
                   0
                   0
                   0
                   0
                   0
                   0
                   0
                   0
                   0
                   0
                   0
                   0
                   0
                   0
                   0
                   0
                   0
                   0
                   0
                   0
                   0
                   0
                   0
                   0
                   0
                   0
                   0
                   0
                   0
                   0
                   0
                   0
                   0
                   0
                   0
                   0
                   0
                   0
                   0
                   0
                   0
                   0
                   0
                   0
                   0
                   0
                   0
                   0
                   0
                   0
                   0
                   0
                   0
                   0
                   0
                   0
                   0
                   0
                   0
                   0
                   0
                   0
                   0
                   0
                   0
                   0
                   0
                   0
                   0
                   0
                   0
                   0
                   0
                   0
                   0
                   0
                   0
                   0
                   0
                   0
                   0
                   0
                   0
                   0
                   0
                   0
                   0
                   0
                   0
                   0
                   0
                   0
                   0
                   0
                   0
                   0
                   0
                   0
                   0
                   0
                   0
                   0
                   0
                   0
                   0
                   0
                   0
                   0
                   0
                   0
                   0
                   0
                   0
                   0
                   0
                   0
                   0
                   0
                   0
                   0
                   0
                   0
                   0
                   0
                   0
                   0
                   0
                   0
                   0
                   0
                   0
                   0
                   0
                   0
                   0
                   0
                   0
                   0
                   0
                   0
                   0
                   0
                   0
                   0
                   0
                   0
                   0
                   0
                   0
                   0
                   0
                   0
                   0
                   0
                   0
                   0
                   0
                   0
                   0
                   0
                   0
                   0
                   0
                   0
                   0
                   0
                   0
                   0
                   0
                   0
                   0
                   0
                   0
                   0
                   0
                   0
                   0
                   0
                   0
                   0
                   0
                   0
                   0
                   0
                   0
                   0
                   0
                   0
                   0
                   0
                   0
                   0
                   0
                   0
                   0
                   0
                   0
                   0
                   0
                   0
                   0
                   0
                   0
                   0
                   0
                   0
                   0
                   0
                   0
                   0
                   0
                   0
                   0
                   0
                   0
                   0
                   0
                   0
                   0
                   0
                   0
                   0
                   0
                   0
                   0
                   0
                   0
                   0
                   0
                   0
                   0
                   0
                   0
                   0
                   0
                   0
                   0
                   0
                   0
                   0
                   0
                   0
                   0
                   0
                   0
                   0
                   0
                   0
                   0
                   0
                   0
                   0
                   0
                   0
                   0
                   0
                   0
                   0
                   0
                   0
                   0
                   0
                   0
                   0
                   0
                   0
                   0
                   0
                   0
                   0
                   0
                   0
                   0
                   0
                   0
                   0
                   0
                   0
                   0
                   0
                   0
                   0
                   0
                   0
                   0
                   0
                   0
                   0
                   0
                   0
                   0
                   0
                   0
                   0
                   0
                   0
                   0
                   0
                   0
                   0
                   0
                   0
                   0
                   0
                   0
                   0
                   0
                   0
                   0
                   0
                   0
                   0
                   0
                   0
                   0
                   0
                   0
                   0
                   0
                   0
                   0
                   0
                   0
                   0
                   0
                   0
                   0
                   0
                   0
                   0
                   0
                   0
                   0
                   0
                   0
                   0
                   0
                   0
                   0
                   0
                   0
                   0
                   0
                   0
                   0
                   0
                   0
                   0
                   0
                   0
                   0
                   0
                   0
                   0
                   0
                   0
                   0
                   0
                   0
                   0
                   0
                   0
                   0
                   0
                   0
                   0
                   0
                   0
                   0
                   0
                   0
                   0
                   0
                   0
                   0
                   0
                   0
                   0
                   0
                   0
                   0
                   0
                   0
                   0
                   0
                   0
                   0
                   0
                   0
                   0
                   0
                   0
                   0
                   0
                   0
                   0
                   0
                   0
                   0
                   0
                   0
                   0
                   0
                   0
                   0
                   0
                   0
                   0
                   0
                   0
                   0
                   0
                   0
                   0
                   0
                   0
                   0
                   0
                   0
                   0
                   0
                   0
                   0
                   0
                   0
                   0
                   0
                   0
                   0
                   0
                   0
                   0
                   0
                   0
                   0
                   0
                   0
                   0
                   0
                   0
                   0
                   0
                   0
                   0
                   0
                   0
                   0
                   0
                   0
                   0
                   0
                   0
                   0
                   0
                   0
                   0
                   0
                   0
                   0
                   0
                   0
                   0
                   0
                   0
                   0
                   0
                   0
                   0
                   0
                   0
                   0
                   0
                   0
                   0
                   0
                   0
                   0
                   0
                   0
                   0
                   0
                   0
                   0
                   0
                   0
                   0
                   0
                   0
                   0
                   0
                   0
                   0
                   0
                   0
                   0
                   0
                   0
                   0
                   0
                   0
                   0
                   0
                   0
                   0
                   0
                   0
                   0
                   0
                   0
                   0
                   0
                   0
                   0
                   0
                   0
                   0
                   0
                   0
                   0
                   0
                   0
                   0
                   0
                   0
                   0
                   0
                   0
                   0
                   0
                   0
                   0
                   0
                   0
                   0
                   0
                   0
                   0
                   0
                   0
                   0
                   0
                   0
                   0
                   0
                   0
                   0
                   0
                   0
                   0
                   0
                   0
                   0
                   0
                   0
                   0
                   0
                   0
                   0
                   0
                   0
                   0
                   0
                   0
                   0
                   0
                   0
                   0
                   0
                   0
                   0
                   0
                   0
                   0
                   0
                   0
                   0
                   0
                   0
                   0
                   0
                   0
                   0
                   0
                   0
                   0
                   0
                   0
                   0
                   0
                   0
                   0
                   0
                   0
                   0
                   0
                   0
                   0
                   0
                   0
                   0
                   0
                   0
                   0
                   0
                   0
                   0
                   0
                   0
                   0
                   0
                   0
                   0
                   0
                   0
                   0
                   0
                   0
                   0
                   0
                   0
                   0
                   0
                   0
                   0
                   0
                   0
                   0
                   0
                   0
                   0
                   0
                   0
                   0
                   0
                   0
                   0
                   0
                   0
                   0
                   0
                   0
                   0
                   0
                   0
                   0
                   0
                   0
                   0
                   0
                   0
                   0
                   0
                   0
                   0
                   0
                   0
                   0
                   0
                   0
                   0
                   0
                   0
                   0
                   0
                   0
                   0
                   0
                   0
                   0
                   0
                   0
                   0
                   0
                   0
                   0
                   0
                   0
                   0
                   0
                   0
                   0
                   0
                   0
                   0
                   0
                   0
                   0
                   0
                   0
                   0
                   0
                   0
                   0
                   0
                   0
                   0
                   0
                   0
                   0
                   0
                   0
                   0
                   0
                   0
                   0
                   0
                   0
                   0
                   0
                   0
                   0
                   0
                   0
                   0
                   0
                   0
                   0
                   0
                   0
                   0
                   0
                   0
                   0
                   0
                   0
                   0
                   0
                   0
                   0
                   0
                   0
                   0
                   0
                   0
                   0
                   0
                   0
                   0
                   0
                   0
                   0
                   0
                   0
                   0
                   0
                   0
                   0
                   0
                   0
                   0
                   0
                   0
                   0
                   0
                   0
                   0
                   0
                   0
                   0
                   0
                   0
                   0
                   0
                   0
                   0
                   0
                   0
                   0
                   0
                   0
                   0
                   0
                   0
                   0
                   0
                   0
                   0
                   0
                   0
                   0
                   0
                   0
                   0
                   0
                   0
                   0
                   0
                   0
                   0
                   0
  
SCALARS                       fixity_y  double 1
LOOKUP_TABLE default
                   0
                   0
                   0
                   0
                   0
                   0
                   0
                   0
                   0
                   0
                   0
                   0
                   0
                   0
                   0
                   0
                   0
                   0
                   0
                   0
                   0
                   0
                   0
                   0
                   0
                   0
                   0
                   0
                   0
                   0
                   0
                   0
                   0
                   0
                   0
                   0
                   0
                   0
                   0
                   0
                   0
                   0
                   0
                   0
                   0
                   0
                   0
                   0
                   0
                   0
                   0
                   0
                   0
                   0
                   0
                   0
                   0
                   0
                   0
                   0
                   0
                   0
                   0
                   0
                   0
                   0
                   0
                   0
                   0
                   0
                   0
                   0
                   0
                   0
                   0
                   0
                   0
                   0
                   0
                   0
                   0
                   0
                   0
                   0
                   0
                   0
                   0
                   0
                   0
                   0
                   0
                   0
                   0
                   0
                   0
                   0
                   0
                   0
                   0
                   0
                   0
                   0
                   0
                   0
                   0
                   0
                   0
                   0
                   0
                   0
                   0
                   0
                   0
                   0
                   0
                   0
                   0
                   0
                   0
                   0
                   0
                   0
                   0
                   0
                   0
                   0
                   0
                   0
                   0
                   0
                   0
                   0
                   0
                   0
                   0
                   0
                   0
                   0
                   0
                   0
                   0
                   0
                   0
                   0
                   0
                   0
                   0
                   0
                   0
                   0
                   0
                   0
                   0
                   0
                   0
                   0
                   0
                   0
                   0
                   0
                   0
                   0
                   0
                   0
                   0
                   0
                   0
                   0
                   0
                   0
                   0
                   0
                   0
                   0
                   0
                   0
                   0
                   0
                   0
                   0
                   0
                   0
                   0
                   0
                   0
                   0
                   0
                   0
                   0
                   0
                   0
                   0
                   0
                   0
                   0
                   0
                   0
                   0
                   0
                   0
                   0
                   0
                   0
                   0
                   0
                   0
                   0
                   0
                   0
                   0
                   0
                   0
                   0
                   0
                   0
                   0
                   0
                   0
                   0
                   0
                   0
                   0
                   0
                   0
                   0
                   0
                   0
                   0
                   0
                   0
                   0
                   0
                   0
                   0
                   0
                   0
                   0
                   0
                   0
                   0
                   0
                   0
                   0
                   0
                   0
                   0
                   0
                   0
                   0
                   0
                   0
                   0
                   0
                   0
                   0
                   0
                   0
                   0
                   0
                   0
                   0
                   0
                   0
                   0
                   0
                   0
                   0
                   0
                   0
                   0
                   0
                   0
                   0
                   0
                   0
                   0
                   0
                   0
                   0
                   0
                   0
                   0
                   0
                   0
                   0
                   0
                   0
                   0
                   0
                   0
                   0
                   0
                   0
                   0
                   0
                   0
                   0
                   0
                   0
                   0
                   0
                   0
                   0
                   0
                   0
                   0
                   0
                   0
                   0
                   0
                   0
                   0
                   0
                   0
                   0
                   0
                   0
                   0
                   0
                   0
                   0
                   0
                   0
                   0
                   0
                   0
                   0
                   0
                   0
                   0
                   0
                   0
                   0
                   0
                   0
                   0
                   0
                   0
                   0
                   0
                   0
                   0
                   0
                   0
                   0
                   0
                   0
                   0
                   0
                   0
                   0
                   0
                   0
                   0
                   0
                   0
                   0
                   0
                   0
                   0
                   0
                   0
                   0
                   0
                   0
                   0
                   0
                   0
                   0
                   0
                   0
                   0
                   0
                   0
                   0
                   0
                   0
                   0
                   0
                   0
                   0
                   0
                   0
                   0
                   0
                   0
                   0
                   0
                   0
                   0
                   0
                   0
                   0
                   0
                   0
                   0
                   0
                   0
                   0
                   0
                   0
                   0
                   0
                   0
                   0
                   0
                   0
                   0
                   0
                   0
                   0
                   0
                   0
                   0
                   0
                   0
                   0
                   0
                   0
                   0
                   0
                   0
                   0
                   0
                   0
                   0
                   0
                   0
                   0
                   0
                   0
                   0
                   0
                   0
                   0
                   0
                   0
                   0
                   0
                   0
                   0
                   0
                   0
                   0
                   0
                   0
                   0
                   0
                   0
                   0
                   0
                   0
                   0
                   0
                   0
                   0
                   0
                   0
                   0
                   0
                   0
                   0
                   0
                   0
                   0
                   0
                   0
                   0
                   0
                   0
                   0
                   0
                   0
                   0
                   0
                   0
                   0
                   0
                   0
                   0
                   0
                   0
                   0
                   0
                   0
                   0
                   0
                   0
                   0
                   0
                   0
                   0
                   0
                   0
                   0
                   0
                   0
                   0
                   0
                   0
                   0
                   0
                   0
                   0
                   0
                   0
                   0
                   0
                   0
                   0
                   0
                   0
                   0
                   0
                   0
                   0
                   0
                   0
                   0
                   0
                   0
                   0
                   0
                   0
                   0
                   0
                   0
                   0
                   0
                   0
                   0
                   0
                   0
                   0
                   0
                   0
                   0
                   0
                   0
                   0
                   0
                   0
                   0
                   0
                   0
                   0
                   0
                   0
                   0
                   0
                   0
                   0
                   0
                   0
                   0
                   0
                   0
                   0
                   0
                   0
                   0
                   0
                   0
                   0
                   0
                   0
                   0
                   0
                   0
                   0
                   0
                   0
                   0
                   0
                   0
                   0
                   0
                   0
                   0
                   0
                   0
                   0
                   0
                   0
                   0
                   0
                   0
                   0
                   0
                   0
                   0
                   0
                   0
                   0
                   0
                   0
                   0
                   0
                   0
                   0
                   0
                   0
                   0
                   0
                   0
                   0
                   0
                   0
                   0
                   0
                   0
                   0
                   0
                   0
                   0
                   0
                   0
                   0
                   0
                   0
                   0
                   0
                   0
                   0
                   0
                   0
                   0
                   0
                   0
                   0
                   0
                   0
                   0
                   0
                   0
                   0
                   0
                   0
                   0
                   0
                   0
                   0
                   0
                   0
                   0
                   0
                   0
                   0
                   0
                   0
                   0
                   0
                   0
                   0
                   0
                   0
                   0
                   0
                   0
                   0
                   0
                   0
                   0
                   0
                   0
                   0
                   0
                   0
                   0
                   0
                   0
                   0
                   0
                   0
                   0
                   0
                   0
                   0
                   0
                   0
                   0
                   0
                   0
                   0
                   0
                   0
                   0
                   0
                   0
                   0
                   0
                   0
                   0
                   0
                   0
                   0
                   0
                   0
                   0
                   0
                   0
                   0
                   0
                   0
                   0
                   0
                   0
                   0
                   0
                   0
                   0
                   0
                   0
                   0
                   0
                   0
                   0
                   0
                   0
                   0
                   0
                   0
                   0
                   0
                   0
                   0
                   0
                   0
                   0
                   0
                   0
                   0
                   0
                   0
                   0
                   0
                   0
                   0
                   0
                   0
                   0
                   0
                   0
                   0
                   0
                   0
                   0
                   0
                   0
                   0
                   0
                   0
                   0
                   0
                   0
                   0
                   0
                   0
                   0
                   0
                   0
                   0
                   0
                   0
                   0
                   0
                   0
                   0
                   0
                   0
                   0
                   0
                   0
                   0
                   0
                   0
                   0
                   0
                   0
                   0
                   0
                   0
                   0
                   0
                   0
                   0
                   0
                   0
                   0
                   0
                   0
                   0
                   0
                   0
                   0
                   0
                   0
                   0
                   0
                   0
                   0
                   0
                   0
                   0
                   0
                   0
                   0
                   0
                   0
                   0
                   0
                   0
                   0
                   0
                   0
                   0
                   0
                   0
                   0
                   0
                   0
                   0
                   0
                   0
                   0
                   0
                   0
                   0
                   0
                   0
                   0
                   0
                   0
                   0
                   0
                   0
                   0
                   0
                   0
                   0
                   0
                   0
                   0
                   0
                   0
                   0
                   0
                   0
                   0
                   0
                   0
                   0
                   0
                   0
                   0
                   0
                   0
                   0
                   0
                   0
                   0
                   0
                   0
                   0
                   0
                   0
                   0
                   0
                   0
                   0
                   0
                   0
                   0
                   0
                   0
                   0
                   0
                   0
                   0
                   0
                   0
                   0
                   0
                   0
                   0
                   0
                   0
                   0
                   0
                   0
                   0
                   0
                   0
                   0
                   0
                   0
                   0
                   0
                   0
                   0
                   0
                   0
                   0
                   0
                   0
                   0
                   0
                   0
                   0
                   0
                   0
                   0
                   0
                   0
                   0
                   0
                   0
                   0
                   0
                   0
                   0
                   0
                   0
                   0
                   0
                   0
                   0
                   0
                   0
                   0
                   0
                   0
                   0
                   0
                   0
                   0
                   0
                   0
                   0
                   0
                   0
                   0
                   0
                   0
                   0
                   0
                   0
                   0
                   0
                   0
                   0
                   0
                   0
                   0
                   0
                   0
                   0
                   0
                   0
                   0
                   0
                   0
                   0
                   0
                   0
                   0
                   0
                   0
                   0
                   0
                   0
                   0
                   0
                   0
                   0
                   0
                   0
                   0
                   0
                   0
                   0
                   0
                   0
                   0
                   0
                   0
                   0
                   0
                   0
                   0
                   0
                   0
                   0
                   0
                   0
                   0
                   0
                   0
                   0
                   0
                   0
                   0
                   0
                   0
                   0
                   0
                   0
                   0
                   0
                   0
                   0
                   0
                   0
                   0
                   0
                   0
                   0
                   0
                   0
                   0
                   0
                   0
                   0
                   0
                   0
                   0
                   0
                   0
                   0
                   0
                   0
                   0
                   0
                   0
                   0
                   0
                   0
                   0
                   0
                   0
                   0
                   0
                   0
                   0
                   0
                   0
                   0
                   0
                   0
                   0
                   0
                   0
                   0
                   0
                   0
                   0
                   0
                   0
                   0
                   0
                   0
                   0
                   0
                   0
                   0
                   0
                   0
                   0
                   0
                   0
                   0
                   0
                   0
                   0
                   0
                   0
                   0
                   0
                   0
                   0
                   0
                   0
                   0
                   0
                   0
                   0
                   0
                   0
                   0
                   0
                   0
                   0
                   0
                   0
                   0
                   0
                   0
                   0
                   0
                   0
                   0
                   0
                   0
                   0
                   0
                   0
                   0
                   0
                   0
                   0
                   0
                   0
                   0
                   0
                   0
                   0
                   0
                   0
                   0
                   0
                   0
                   0
                   0
                   0
                   0
                   0
                   0
                   0
                   0
                   0
                   0
                   0
                   0
                   0
                   0
                   0
                   0
                   0
                   0
                   0
                   0
                   0
                   0
                   0
                   0
                   0
                   0
                   0
                   0
                   0
                   0
                   0
                   0
                   0
                   0
                   0
                   0
                   0
                   0
                   0
                   0
                   0
                   0
                   0
                   0
                   0
                   0
                   0
                   0
                   0
                   0
                   0
                   0
                   0
                   0
                   0
                   0
                   0
                   0
                   0
                   0
                   0
                   0
                   0
                   0
                   0
                   0
                   0
                   0
                   0
                   0
                   0
                   0
                   0
                   0
                   0
                   0
                   0
                   0
                   0
                   0
                   0
                   0
                   0
                   0
                   0
                   0
                   0
                   0
                   0
                   0
                   0
                   0
                   0
                   0
                   0
                   0
                   0
                   0
                   0
                   0
                   0
                   0
                   0
                   0
                   0
                   0
                   0
                   0
                   0
                   0
                   0
                   0
                   0
                   0
                   0
                   0
                   0
                   0
                   0
                   0
                   0
                   0
                   0
                   0
                   0
                   0
                   0
                   0
                   0
                   0
                   0
                   0
                   0
                   0
                   0
                   0
                   0
                   0
                   0
                   0
                   0
                   0
                   0
                   0
                   0
                   0
                   0
                   0
                   0
                   0
                   0
                   0
                   0
                   0
                   0
                   0
                   0
                   0
                   0
                   0
                   0
                   0
                   0
                   0
                   0
                   0
                   0
                   0
                   0
                   0
                   0
                   0
                   0
                   0
                   0
                   0
                   0
                   0
                   0
                   0
                   0
                   0
                   0
                   0
                   0
                   0
                   0
                   0
                   0
                   0
                   0
                   0
                   0
                   0
                   0
                   0
                   0
                   0
                   0
                   0
                   0
                   0
                   0
                   0
                   0
                   0
                   0
                   0
                   0
                   0
                   0
                   0
                   0
                   0
                   0
                   0
                   0
                   0
                   0
                   0
                   0
                   0
                   0
                   0
                   0
                   0
                   0
                   0
                   0
                   0
                   0
                   0
                   0
                   0
                   0
                   0
                   0
                   0
                   0
                   0
                   0
                   0
                   0
                   0
                   0
                   0
                   0
                   0
                   0
                   0
                   0
                   0
                   0
                   0
                   0
                   0
                   0
                   0
                   0
                   0
                   0
                   0
                   0
                   0
                   0
                   0
                   0
                   0
                   0
                   0
                   0
                   0
                   0
                   0
                   0
                   0
                   0
                   0
                   0
                   0
                   0
                   0
                   0
                   0
                   0
                   0
                   0
                   0
                   0
                   0
                   0
                   0
                   0
                   0
                   0
                   0
                   0
                   0
                   0
                   0
                   0
                   0
                   0
                   0
                   0
                   0
                   0
                   0
                   0
                   0
                   0
                   0
                   0
                   0
                   0
                   0
                   0
                   0
                   0
                   0
                   0
                   0
                   0
                   0
                   0
                   0
                   0
                   0
                   0
                   0
                   0
                   0
                   0
                   0
                   0
                   0
                   0
                   0
                   0
                   0
                   0
                   0
                   0
                   0
                   0
                   0
                   0
                   0
                   0
                   0
                   0
                   0
                   0
                   0
                   0
                   0
                   0
                   0
                   0
                   0
                   0
                   0
                   0
                   0
                   0
                   0
                   0
                   0
                   0
                   0
                   0
                   0
                   0
                   0
                   0
                   0
                   0
                   0
                   0
                   0
                   0
                   0
                   0
                   0
                   0
                   0
                   0
                   0
                   0
                   0
                   0
                   0
                   0
                   0
                   0
                   0
                   0
                   0
                   0
                   0
                   0
                   0
                   0
                   0
                   0
                   0
                   0
                   0
                   0
                   0
                   0
                   0
                   0
                   0
                   0
                   0
                   0
                   0
                   0
                   0
                   0
                   0
                   0
                   0
                   0
                   0
                   0
                   0
                   0
                   0
                   0
                   0
                   0
                   0
                   0
                   0
                   0
                   0
                   0
                   0
                   0
                   0
                   0
                   0
                   0
                   0
                   0
                   0
                   0
                   0
                   0
                   0
                   0
                   0
                   0
                   0
                   0
                   0
                   0
                   0
                   0
                   0
                   0
                   0
                   0
                   0
                   0
                   0
                   0
                   0
                   0
                   0
                   0
                   0
                   0
                   0
                   0
                   0
                   0
                   0
                   0
                   0
                   0
                   0
                   0
                   0
                   0
                   0
                   0
                   0
                   0
                   0
                   0
                   0
                   0
                   0
                   0
                   0
                   0
                   0
                   0
                   0
                   0
                   0
                   0
                   0
                   0
                   0
                   0
                   0
                   0
                   0
                   0
                   0
                   0
                   0
                   0
                   0
                   0
                   0
                   0
                   0
                   0
                   0
                   0
                   0
                   0
                   0
                   0
                   0
                   0
                   0
                   0
                   0
                   0
                   0
                   0
                   0
                   0
                   0
                   0
                   0
                   0
                   0
                   0
                   0
                   0
                   0
                   0
                   0
                   0
                   0
                   0
                   0
                   0
                   0
                   0
                   0
                   0
                   0
                   0
                   0
                   0
                   0
                   0
                   0
                   0
                   0
                   0
                   0
                   0
                   0
                   0
                   0
                   0
                   0
                   0
                   0
                   0
                   0
                   0
                   0
                   0
                   0
                   0
                   0
                   0
                   0
                   0
                   0
                   0
                   0
                   0
                   0
                   0
                   0
                   0
                   0
                   0
                   0
                   0
                   0
                   0
                   0
                   0
                   0
                   0
                   0
                   0
                   0
                   0
                   0
                   0
                   0
                   0
                   0
                   0
                   0
                   0
                   0
                   0
                   0
                   0
                   0
                   0
                   0
                   0
                   0
                   0
                   0
                   0
                   0
                   0
                   0
                   0
                   0
                   0
                   0
                   0
                   0
                   0
                   0
                   0
                   0
                   0
                   0
                   0
                   0
                   0
                   0
                   0
                   0
                   0
                   0
                   0
                   0
                   0
                   0
                   0
                   0
                   0
                   0
                   0
                   0
                   0
                   0
                   0
                   0
                   0
                   0
                   0
                   0
                   0
                   0
                   0
                   0
                   0
                   0
                   0
                   0
                   0
                   0
                   0
                   0
                   0
                   0
                   0
                   0
                   0
                   0
                   0
                   0
                   0
                   0
                   0
                   0
                   0
                   0
                   0
                   0
                   0
                   0
                   0
                   0
                   0
                   0
                   0
                   0
                   0
                   0
                   0
                   0
                   0
                   0
                   0
                   0
                   0
                   0
                   0
                   0
                   0
                   0
                   0
                   0
                   0
                   0
                   0
                   0
                   0
                   0
                   0
                   0
                   0
                   0
                   0
                   0
                   0
                   0
                   0
                   0
                   0
                   0
                   0
                   0
                   0
                   0
                   0
                   0
                   0
                   0
                   0
                   0
                   0
                   0
                   0
                   0
                   0
                   0
                   0
                   0
                   0
                   0
                   0
                   0
                   0
                   0
                   0
                   0
                   0
                   0
                   0
                   0
                   0
                   0
                   0
                   0
                   0
                   0
                   0
                   0
                   0
                   0
                   0
                   0
                   0
                   0
                   0
                   0
                   0
                   0
                   0
                   0
                   0
                   0
                   0
                   0
                   0
                   0
                   0
                   0
                   0
                   0
                   0
                   0
                   0
                   0
                   0
                   0
                   0
                   0
                   0
                   0
                   0
                   0
                   0
                   0
                   0
                   0
                   0
                   0
                   0
                   0
                   0
                   0
                   0
                   0
                   0
                   0
                   0
  
SCALARS                       fixity_z  double 1
LOOKUP_TABLE default
                   0
                   0
                   0
                   0
                   1
                   1
                   1
                   1
                   0
                   0
                   1
                   1
                   0
                   0
                   1
                   1
                   0
                   0
                   1
                   1
                   0
                   0
                   0
                   1
                   1
                   1
                   0
                   0
                   1
                   1
                   0
                   0
                   0
                   1
                   1
                   1
                   0
                   0
                   1
                   1
                   0
                   0
                   1
                   1
                   0
                   0
                   1
                   1
                   0
                   1
                   0
                   1
                   0
                   1
                   0
                   1
                   0
                   0
                   1
                   1
                   0
                   0
                   1
                   1
                   0
                   1
                   0
                   1
                   0
                   0
                   1
                   1
                   0
                   1
                   0
                   1
                   0
                   1
                   0
                   1
                   0
                   0
                   1
                   1
                   0
                   1
                   0
                   1
                   0
                   1
                   0
                   0
                   1
                   1
                   0
                   1
                   0
                   1
                   0
                   1
                   0
                   0
                   1
                   1
                   0
                   0
                   1
                   1
                   0
                   1
                   0
                   1
                   0
                   1
                   0
                   1
                   0
                   1
                   0
                   1
                   0
                   1
                   0
                   1
                   0
                   1
                   0
                   1
                   0
                   1
                   0
                   1
                   0
                   1
                   0
                   1
                   0
                   1
                   0
                   1
                   0
                   1
                   0
                   1
                   0
                   1
                   0
                   1
                   0
                   1
                   0
                   1
                   0
                   1
                   0
                   1
                   0
                   0
                   0
                   0
                   0
                   0
                   0
                   0
                   0
                   0
                   0
                   0
                   0
                   0
                   0
                   0
                   0
                   0
                   0
                   0
                   0
                   0
                   0
                   0
                   0
                   0
                   0
                   0
                   0
                   0
                   0
                   0
                   0
                   0
                   0
                   0
                   0
                   0
                   0
                   0
                   0
                   0
                   0
                   0
                   0
                   0
                   0
                   0
                   0
                   0
                   0
                   0
                   0
                   0
                   0
                   0
                   0
                   0
                   0
                   0
                   0
                   0
                   0
                   0
                   0
                   0
                   0
                   0
                   0
                   0
                   0
                   0
                   0
                   0
                   0
                   0
                   0
                   0
                   0
                   0
                   0
                   0
                   0
                   0
                   0
                   0
                   0
                   0
                   0
                   0
                   0
                   0
                   0
                   0
                   0
                   0
                   0
                   0
                   0
                   0
                   0
                   0
                   0
                   0
                   0
                   0
                   0
                   0
                   0
                   0
                   0
                   0
                   0
                   0
                   0
                   0
                   0
                   0
                   0
                   0
                   0
                   0
                   0
                   0
                   0
                   0
                   0
                   0
                   0
                   0
                   0
                   0
                   0
                   0
                   0
                   0
                   0
                   0
                   0
                   0
                   0
                   0
                   0
                   0
                   0
                   0
                   0
                   0
                   0
                   0
                   0
                   0
                   0
                   0
                   0
                   0
                   0
                   0
                   0
                   0
                   0
                   0
                   0
                   0
                   0
                   0
                   0
                   0
                   0
                   0
                   0
                   0
                   0
                   0
                   0
                   0
                   0
                   0
                   0
                   0
                   0
                   0
                   0
                   0
                   0
                   0
                   0
                   0
                   0
                   0
                   0
                   0
                   0
                   0
                   0
                   0
                   0
                   0
                   0
                   0
                   0
                   0
                   0
                   0
                   0
                   0
                   0
                   0
                   0
                   0
                   0
                   0
                   0
                   0
                   0
                   0
                   0
                   0
                   0
                   0
                   0
                   0
                   0
                   0
                   0
                   0
                   0
                   0
                   0
                   0
                   0
                   0
                   0
                   0
                   0
                   0
                   0
                   0
                   0
                   0
                   0
                   0
                   0
                   0
                   0
                   0
                   0
                   0
                   0
                   0
                   0
                   0
                   0
                   0
                   0
                   0
                   0
                   0
                   0
                   0
                   0
                   0
                   0
                   0
                   0
                   0
                   0
                   0
                   0
                   0
                   0
                   0
                   0
                   0
                   0
                   0
                   0
                   0
                   0
                   0
                   0
                   0
                   0
                   0
                   0
                   0
                   0
                   0
                   0
                   0
                   0
                   0
                   0
                   0
                   0
                   0
                   0
                   0
                   0
                   0
                   0
                   0
                   0
                   0
                   0
                   0
                   0
                   0
                   0
                   0
                   0
                   0
                   0
                   0
                   0
                   0
                   0
                   0
                   0
                   0
                   0
                   0
                   0
                   0
                   0
                   0
                   0
                   0
                   0
                   0
                   0
                   0
                   0
                   0
                   0
                   0
                   0
                   0
                   0
                   0
                   0
                   0
                   0
                   0
                   0
                   0
                   0
                   0
                   0
                   0
                   0
                   0
                   0
                   0
                   0
                   0
                   0
                   0
                   0
                   0
                   0
                   0
                   0
                   0
                   0
                   0
                   0
                   0
                   0
                   0
                   0
                   0
                   0
                   0
                   0
                   0
                   0
                   0
                   0
                   0
                   0
                   0
                   0
                   0
                   0
                   0
                   0
                   0
                   0
                   0
                   0
                   0
                   0
                   0
                   0
                   0
                   0
                   0
                   0
                   0
                   0
                   0
                   0
                   0
                   0
                   0
                   0
                   0
                   0
                   0
                   0
                   0
                   0
                   0
                   0
                   0
                   0
                   0
                   0
                   0
                   0
                   0
                   0
                   0
                   0
                   0
                   0
                   0
                   0
                   0
                   0
                   0
                   0
                   0
                   0
                   0
                   0
                   0
                   0
                   0
                   0
                   0
                   0
                   0
                   0
                   0
                   0
                   0
                   0
                   0
                   0
                   0
                   0
                   0
                   0
                   0
                   0
                   0
                   0
                   0
                   0
                   0
                   0
                   0
                   0
                   0
                   0
                   0
                   0
                   0
                   0
                   0
                   0
                   0
                   0
                   0
                   0
                   0
                   0
                   0
                   0
                   0
                   0
                   0
                   0
                   0
                   0
                   0
                   0
                   0
                   0
                   0
                   0
                   0
                   0
                   0
                   0
                   0
                   0
                   0
                   0
                   0
                   0
                   0
                   0
                   0
                   0
                   0
                   0
                   0
                   0
                   0
                   0
                   0
                   0
                   0
                   0
                   0
                   0
                   0
                   0
                   0
                   0
                   0
                   0
                   0
                   0
                   0
                   0
                   0
                   0
                   0
                   0
                   0
                   0
                   0
                   0
                   0
                   0
                   0
                   0
                   0
                   0
                   0
                   0
                   0
                   0
                   0
                   0
                   0
                   0
                   0
                   0
                   0
                   0
                   0
                   0
                   0
                   0
                   0
                   0
                   0
                   0
                   0
                   0
                   0
                   0
                   0
                   0
                   0
                   0
                   0
                   0
                   0
                   0
                   0
                   0
                   0
                   0
                   0
                   0
                   0
                   0
                   0
                   0
                   0
                   0
                   0
                   0
                   0
                   0
                   0
                   0
                   0
                   0
                   0
                   0
                   0
                   0
                   0
                   0
                   0
                   0
                   0
                   0
                   0
                   0
                   0
                   0
                   0
                   0
                   0
                   0
                   0
                   0
                   0
                   0
                   0
                   0
                   0
                   0
                   0
                   0
                   0
                   0
                   0
                   0
                   0
                   0
                   0
                   0
                   0
                   0
                   0
                   0
                   0
                   0
                   0
                   0
                   0
                   0
                   0
                   0
                   0
                   0
                   0
                   0
                   0
                   0
                   0
                   0
                   0
                   0
                   0
                   0
                   0
                   0
                   0
                   0
                   0
                   0
                   0
                   0
                   0
                   0
                   0
                   0
                   0
                   0
                   0
                   0
                   0
                   0
                   0
                   0
                   0
                   0
                   0
                   0
                   0
                   0
                   0
                   0
                   0
                   0
                   0
                   0
                   0
                   0
                   0
                   0
                   0
                   0
                   0
                   0
                   0
                   0
                   0
                   0
                   0
                   0
                   0
                   0
                   0
                   0
                   0
                   0
                   0
                   0
                   0
                   0
                   0
                   0
                   0
                   0
                   0
                   0
                   0
                   0
                   0
                   0
                   0
                   0
                   0
                   0
                   0
                   0
                   0
                   0
                   0
                   0
                   0
                   0
                   0
                   0
                   0
                   0
                   0
                   0
                   0
                   0
                   0
                   0
                   0
                   0
                   0
                   0
                   0
                   0
                   0
                   0
                   0
                   0
                   0
                   0
                   0
                   0
                   0
                   0
                   0
                   0
                   0
                   0
                   0
                   0
                   0
                   0
                   0
                   0
                   0
                   0
                   0
                   0
                   0
                   0
                   0
                   0
                   0
                   0
                   0
                   0
                   0
                   0
                   0
                   0
                   0
                   0
                   0
                   0
                   0
                   0
                   0
                   0
                   0
                   0
                   0
                   0
                   0
                   0
                   0
                   0
                   0
                   0
                   0
                   0
                   0
                   0
                   0
                   0
                   0
                   0
                   0
                   0
                   0
                   0
                   0
                   0
                   0
                   0
                   0
                   0
                   0
                   0
                   0
                   0
                   0
                   0
                   0
                   0
                   0
                   0
                   0
                   0
                   0
                   0
                   0
                   0
                   0
                   0
                   0
                   0
                   0
                   0
                   0
                   0
                   0
                   0
                   0
                   0
                   0
                   0
                   0
                   0
                   0
                   0
                   0
                   0
                   0
                   0
                   0
                   0
                   0
                   0
                   0
                   0
                   0
                   0
                   0
                   0
                   0
                   0
                   0
                   0
                   0
                   0
                   0
                   0
                   0
                   0
                   0
                   0
                   0
                   0
                   0
                   0
                   0
                   0
                   0
                   0
                   0
                   0
                   0
                   0
                   0
                   0
                   0
                   0
                   0
                   0
                   0
                   0
                   0
                   0
                   0
                   0
                   0
                   0
                   0
                   0
                   0
                   0
                   0
                   0
                   0
                   0
                   0
                   0
                   0
                   0
                   0
                   0
                   0
                   0
                   0
                   0
                   0
                   0
                   0
                   0
                   0
                   0
                   0
                   0
                   0
                   0
                   0
                   0
                   0
                   0
                   0
                   0
                   0
                   0
                   0
                   0
                   0
                   0
                   0
                   0
                   0
                   0
                   0
                   0
                   0
                   0
                   0
                   0
                   0
                   0
                   0
                   0
                   0
                   0
                   0
                   0
                   0
                   0
                   0
                   0
                   0
                   0
                   0
                   0
                   0
                   0
                   0
                   0
                   0
                   0
                   0
                   0
                   0
                   0
                   0
                   0
                   0
                   0
                   0
                   0
                   0
                   0
                   0
                   0
                   0
                   0
                   0
                   0
                   0
                   0
                   0
                   0
                   0
                   0
                   0
                   0
                   0
                   0
                   0
                   0
                   0
                   0
                   0
                   0
                   0
                   0
                   0
                   0
                   0
                   0
                   0
                   0
                   0
                   0
                   0
                   0
                   0
                   0
                   0
                   0
                   0
                   0
                   0
                   0
                   0
                   0
                   0
                   0
                   0
                   0
                   0
                   0
                   0
                   0
                   0
                   0
                   0
                   0
                   0
                   0
                   0
                   0
                   0
                   0
                   0
                   0
                   0
                   0
                   0
                   0
                   0
                   0
                   0
                   0
                   0
                   0
                   0
                   0
                   0
                   0
                   0
                   0
                   0
                   0
                   0
                   0
                   0
                   0
                   0
                   0
                   0
                   0
                   0
                   0
                   0
                   0
                   0
                   0
                   0
                   0
                   0
                   0
                   0
                   0
                   0
                   0
                   0
                   0
                   0
                   0
                   0
                   0
                   0
                   0
                   0
                   0
                   0
                   0
                   0
                   0
                   0
                   0
                   0
                   0
                   0
                   0
                   0
                   0
                   0
                   0
                   0
                   0
                   0
                   0
                   0
                   0
                   0
                   0
                   0
                   0
                   0
                   0
                   0
                   0
                   0
                   0
                   0
                   0
                   0
                   0
                   0
                   0
                   0
                   0
                   0
                   0
                   0
                   0
                   0
                   0
                   0
                   0
                   0
                   0
                   0
                   0
                   0
                   0
                   0
                   0
                   0
                   0
                   0
                   0
                   0
                   0
                   0
                   0
                   0
                   0
                   0
                   0
                   0
                   0
                   0
                   0
                   0
                   0
                   0
                   0
                   0
                   0
                   0
                   0
                   0
                   0
                   0
                   0
                   0
                   0
                   0
                   0
                   0
                   0
                   0
                   0
                   0
                   0
                   0
                   0
                   0
                   0
                   0
                   0
                   0
                   0
                   0
                   0
                   0
                   0
                   0
                   0
                   0
                   0
                   0
                   0
                   0
                   0
                   0
                   0
                   0
                   0
                   0
                   0
                   0
                   0
                   0
                   0
                   0
                   0
                   0
                   0
                   0
                   0
                   0
                   0
                   0
                   0
                   0
                   0
                   0
                   0
                   0
                   0
                   0
                   0
                   0
                   0
                   0
                   0
                   0
                   0
                   0
                   0
                   0
                   0
                   0
                   0
                   0
                   0
                   0
                   0
                   0
                   0
                   0
                   0
                   0
                   0
                   0
                   0
                   0
                   0
                   0
                   0
                   0
                   0
                   0
                   0
                   0
                   0
                   0
                   0
                   0
                   0
                   0
                   0
                   0
                   0
                   0
                   0
                   0
                   0
                   0
                   0
                   0
                   0
                   0
                   0
                   0
                   0
                   0
                   0
                   0
                   0
                   0
                   0
                   0
                   0
                   0
                   0
                   0
                   0
                   0
                   0
                   0
                   0
                   0
                   0
                   0
                   0
                   0
                   0
                   0
                   0
                   0
                   0
                   0
                   0
                   0
                   0
                   0
                   0
                   0
                   0
                   0
                   0
                   0
                   0
                   0
                   0
                   0
                   0
                   0
                   0
                   0
                   0
                   0
                   0
                   0
                   0
                   0
                   0
                   0
                   0
                   0
                   0
                   0
                   0
                   0
                   0
                   0
                   0
                   0
                   0
                   0
                   0
                   0
                   0
                   0
                   0
                   0
                   0
                   0
                   0
                   0
                   0
                   0
                   0
                   0
                   0
                   0
                   0
                   0
                   0
                   0
                   0
                   0
                   0
                   0
                   0
                   0
                   0
                   0
                   0
                   0
                   0
                   0
                   0
                   0
                   0
                   0
                   0
                   0
                   0
                   0
                   0
                   0
                   0
                   0
                   0
                   0
                   0
                   0
                   0
                   0
                   0
                   0
                   0
                   0
                   0
                   0
                   0
                   0
                   0
                   0
                   0
                   0
                   0
                   0
                   0
                   0
                   0
                   0
                   0
                   0
                   0
                   0
                   0
                   0
                   0
                   0
                   0
                   0
                   0
                   0
                   0
                   0
                   0
                   0
                   0
                   0
                   0
                   0
                   0
                   0
                   0
                   0
                   0
                   0
                   0
                   0
                   0
                   0
                   0
                   0
                   0
                   0
                   0
                   0
                   0
                   0
                   0
                   0
                   0
                   0
                   0
                   0
                   0
                   0
                   0
                   0
                   0
                   0
                   0
                   0
                   0
                   0
                   0
                   0
                   0
                   0
                   0
                   0
                   0
                   0
                   0
                   0
                   0
                   0
                   0
                   0
                   0
                   0
                   0
                   0
                   0
                   0
                   0
                   0
                   0
                   0
                   0
                   0
                   0
                   0
                   0
                   0
                   0
                   0
                   0
                   0
                   0
                   0
                   0
                   0
                   0
                   0
                   0
                   0
                   0
                   0
                   0
                   0
                   0
                   0
                   0
                   0
                   0
                   0
                   0
                   0
                   0
                   0
                   0
                   0
                   0
                   0
                   0
                   0
                   0
                   0
                   0
                   0
                   0
                   0
                   0
                   0
                   0
                   0
                   0
                   0
                   0
                   0
                   0
                   0
                   0
                   0
                   0
                   0
                   0
                   0
                   0
                   0
                   0
                   0
                   0
                   0
                   0
                   0
                   0
                   0
                   0
                   0
                   0
                   0
                   0
                   0
                   0
                   0
                   0
                   0
                   0
                   0
                   0
                   0
                   0
                   0
                   0
                   0
                   0
                   0
                   0
                   0
                   0
                   0
                   0
                   0
                   0
                   0
                   0
                   0
                   0
                   0
                   0
                   0
                   0
                   0
                   0
                   0
                   0
                   0
                   0
                   0
                   0
                   0
                   0
                   0
                   0
                   0
                   0
                   0
                   0
                   0
                   0
                   0
                   0
                   0
                   0
                   0
                   0
                   0
                   0
                   0
                   0
                   0
                   0
                   0
                   0
                   0
                   0
                   0
                   0
                   0
                   0
                   0
                   0
                   0
                   0
                   0
                   0
                   0
                   0
                   0
                   0
                   0
                   0
                   0
                   0
                   0
                   0
                   0
                   0
                   0
                   0
                   0
                   0
                   0
                   0
                   0
                   0
                   0
                   0
                   0
                   0
                   0
                   0
                   0
                   0
                   0
                   0
                   0
                   0
                   0
                   0
                   0
                   0
                   0
                   0
                   0
                   0
                   0
                   0
                   0
                   0
                   0
                   0
                   0
                   0
                   0
                   0
                   0
                   0
                   0
                   0
                   0
                   0
                   0
                   0
                   0
                   0
                   0
                   0
                   0
                   0
                   0
                   0
                   0
                   0
                   0
                   0
                   0
                   0
                   0
                   0
                   0
                   0
                   0
                   0
                   0
                   0
                   0
                   0
                   0
                   0
                   0
                   0
                   0
                   0
                   0
                   0
                   0
                   0
                   0
                   0
                   0
                   0
                   0
                   0
                   0
                   0
                   0
                   0
                   0
                   0
                   0
                   0
                   0
                   0
                   0
                   0
                   0
                   0
                   0
                   0
                   0
                   0
                   0
                   0
                   0
                   0
                   0
                   0
                   0
                   0
                   0
                   0
                   0
                   0
                   0
                   0
                   0
                   0
                   0
                   0
                   0
  
SCALARS                         Ispace  double 1
LOOKUP_TABLE default
                  12
                  12
                  12
                  12
                  12
                  12
                  12
                  12
                  12
                  12
                  12
                  12
                  12
                  11
                  12
                  11
                  11
                  11
                  11
                  11
                  11
                  12
                  12
                  11
                  12
                  12
                  11
                  11
                  11
                  11
                  11
                  11
                  11
                  11
                  11
                  11
                  11
                  11
                  11
                  11
                  11
                  11
                  11
                  11
                  11
                  11
                  11
                  11
                  11
                  11
                  11
                  11
                  11
                  11
                  11
                  11
                  11
                  11
                  11
                  11
                  11
                  11
                  11
                  11
                  11
                  11
                  12
                  12
                  12
                  12
                  12
                  12
                  12
                  12
                  11
                  11
                  11
                  11
                  11
                  11
                  11
                  11
                  11
                  11
                  11
                  11
                  11
                  11
                  11
                  11
                  11
                  11
                  11
                  11
                  11
                  11
                  12
                  12
                  12
                  12
                  12
                  12
                  12
                  12
                  12
                  12
                  12
                  12
                  12
                  12
                  12
                  12
                  12
                  12
                  12
                  12
                  11
                  11
                  11
                  11
                  11
                  11
                  11
                  11
                  11
                  11
                  11
                  11
                  11
                  11
                  11
                  11
                  11
                  11
                  11
                  11
                  11
                  11
                  11
                  11
                  11
                  11
                  11
                  11
                  11
                  11
                  12
                  12
                  12
                  12
                  12
                  12
                  12
                  12
                  12
                  12
                  12
                  12
                  12
                  12
                  12
                  12
                  12
                  11
                  11
                  11
                  11
                  12
                  12
                  11
                  11
                  11
                  11
                  11
                  11
                  11
                  11
                  11
                  11
                  11
                  11
                  11
                  11
                  11
                  11
                  11
                  11
                  11
                  11
                  12
                  12
                  12
                  12
                  11
                  11
                  11
                  11
                  11
                  11
                  11
                  11
                  11
                  11
                  11
                  12
                  12
                  12
                  12
                  12
                  12
                  12
                  12
                  12
                  12
                  11
                  11
                  11
                  11
                  11
                  11
                  11
                  11
                  11
                  11
                  11
                  11
                  11
                  11
                  11
                  12
                  12
                  12
                  12
                  12
                  12
                  12
                  12
                  12
                  12
                  12
                  12
                  11
                  11
                  11
                  11
                  12
                  12
                  11
                  11
                  11
                  11
                  11
                  11
                  11
                  11
                  11
                  11
                  11
                  11
                  11
                  11
                  11
                  11
                  11
                  11
                  11
                  11
                  12
                  12
                  12
                  12
                  11
                  11
                  11
                  11
                  11
                  11
                  11
                  11
                  11
                  11
                  11
                  12
                  12
                  12
                  12
                  12
                  12
                  12
                  12
                  12
                  12
                  11
                  11
                  11
                  11
                  11
                  11
                  11
                  11
                  11
                  11
                  11
                  11
                  11
                  11
                  11
                  12
                  12
                  12
                  12
                  12
                  12
                  12
                  12
                  12
                  12
                  12
                  12
                  11
                  11
                  11
                  11
                  12
                  12
                  11
                  11
                  11
                  11
                  11
                  11
                  11
                  11
                  11
                  11
                  11
                  11
                  11
                  11
                  11
                  11
                  11
                  11
                  11
                  11
                  12
                  12
                  12
                  12
                  11
                  11
                  11
                  11
                  11
                  11
                  11
                  11
                  11
                  11
                  11
                  12
                  12
                  12
                  12
                  12
                  12
                  12
                  12
                  12
                  12
                  11
                  11
                  11
                  11
                  11
                  11
                  11
                  11
                  11
                  11
                  11
                  11
                  11
                  11
                  11
                  12
                  12
                  12
                  12
                  12
                  12
                  12
                  12
                  12
                  12
                  12
                  12
                  11
                  11
                  11
                  11
                  12
                  12
                  11
                  11
                  11
                  11
                  11
                  11
                  11
                  11
                  11
                  11
                  11
                  11
                  11
                  11
                  11
                  11
                  11
                  11
                  11
                  11
                  12
                  12
                  12
                  12
                  11
                  11
                  11
                  11
                  11
                  11
                  11
                  11
                  11
                  11
                  11
                  12
                  12
                  12
                  12
                  12
                  12
                  12
                  12
                  12
                  12
                  11
                  11
                  11
                  11
                  11
                  11
                  11
                  11
                  11
                  11
                  11
                  11
                  11
                  11
                  11
                  12
                  12
                  12
                  12
                  12
                  12
                  12
                  12
                  12
                  12
                  12
                  12
                  11
                  11
                  11
                  11
                  12
                  12
                  11
                  11
                  11
                  11
                  11
                  11
                  11
                  11
                  11
                  11
                  11
                  11
                  11
                  11
                  11
                  11
                  11
                  11
                  11
                  11
                  12
                  12
                  12
                  12
                  11
                  11
                  11
                  11
                  11
                  11
                  11
                  11
                  11
                  11
                  11
                  12
                  12
                  12
                  12
                  12
                  12
                  12
                  12
                  12
                  12
                  11
                  11
                  11
                  11
                  11
                  11
                  11
                  11
                  11
                  11
                  11
                  11
                  11
                  11
                  11
                  12
                  12
                  12
                  12
                  12
                  12
                  12
                  12
                  12
                  12
                  12
                  12
                  11
                  11
                  11
                  11
                  12
                  12
                  11
                  11
                  11
                  11
                  11
                  11
                  11
                  11
                  11
                  11
                  11
                  11
                  11
                  11
                  11
                  11
                  11
                  11
                  11
                  11
                  12
                  12
                  12
                  12
                  11
                  11
                  11
                  11
                  11
                  11
                  11
                  11
                  11
                  11
                  11
                  12
                  12
                  12
                  12
                  12
                  12
                  12
                  12
                  12
                  12
                  11
                  11
                  11
                  11
                  11
                  11
                  11
                  11
                  11
                  11
                  11
                  11
                  11
                  11
                  11
                  12
                  12
                  12
                  12
                  12
                  12
                  12
                  12
                  12
                  12
                  12
                  12
                  11
                  11
                  11
                  11
                  12
                  12
                  11
                  11
                  11
                  11
                  11
                  11
                  11
                  11
                  11
                  11
                  11
                  11
                  11
                  11
                  11
                  11
                  11
                  11
                  11
                  11
                  12
                  12
                  12
                  12
                  11
                  11
                  11
                  11
                  11
                  11
                  11
                  11
                  11
                  11
                  11
                  12
                  12
                  12
                  12
                  12
                  12
                  12
                  12
                  12
                  12
                  11
                  11
                  11
                  11
                  11
                  11
                  11
                  11
                  11
                  11
                  11
                  11
                  11
                  11
                  11
                  12
                  12
                  12
                  12
                  12
                  12
                  12
                  12
                  12
                  12
                  12
                  12
                  11
                  11
                  11
                  11
                  12
                  12
                  11
                  11
                  11
                  11
                  11
                  11
                  11
                  11
                  11
                  11
                  11
                  11
                  11
                  11
                  11
                  11
                  11
                  11
                  11
                  11
                  12
                  12
                  12
                  12
                  11
                  11
                  11
                  11
                  11
                  11
                  11
                  11
                  11
                  11
                  11
                  12
                  12
                  12
                  12
                  12
                  12
                  12
                  12
                  12
                  12
                  11
                  11
                  11
                  11
                  11
                  11
                  11
                  11
                  11
                  11
                  11
                  11
                  11
                  11
                  11
                  12
                  12
                  12
                  12
                  12
                  12
                  12
                  12
                  12
                  12
                  12
                  12
                  11
                  11
                  11
                  11
                  12
                  12
                  11
                  11
                  11
                  11
                  11
                  11
                  11
                  11
                  11
                  11
                  11
                  11
                  11
                  11
                  11
                  11
                  11
                  11
                  11
                  11
                  12
                  12
                  12
                  12
                  11
                  11
                  11
                  11
                  11
                  11
                  11
                  11
                  11
                  11
                  11
                  12
                  12
                  12
                  12
                  12
                  12
                  12
                  12
                  12
                  12
                  11
                  11
                  11
                  11
                  11
                  11
                  11
                  11
                  11
                  11
                  11
                  11
                  11
                  11
                  11
                  12
                  12
                  12
                  12
                  12
                  12
                  12
                  12
                  12
                  12
                  12
                  12
                  11
                  11
                  11
                  11
                  12
                  12
                  11
                  11
                  11
                  11
                  11
                  11
                  11
                  11
                  11
                  11
                  11
                  11
                  11
                  11
                  11
                  11
                  11
                  11
                  11
                  11
                  12
                  12
                  12
                  12
                  11
                  11
                  11
                  11
                  11
                  11
                  11
                  11
                  11
                  11
                  11
                  12
                  12
                  12
                  12
                  12
                  12
                  12
                  12
                  12
                  12
                  11
                  11
                  11
                  11
                  11
                  11
                  11
                  11
                  11
                  11
                  11
                  11
                  11
                  11
                  11
                  12
                  12
                  12
                  12
                  12
                  12
                  12
                  12
                  12
                  12
                  12
                  12
                  11
                  11
                  11
                  11
                  12
                  12
                  11
                  11
                  11
                  11
                  11
                  11
                  11
                  11
                  11
                  11
                  11
                  11
                  11
                  11
                  11
                  11
                  11
                  11
                  11
                  11
                  12
                  12
                  12
                  12
                  11
                  11
                  11
                  11
                  11
                  11
                  11
                  11
                  11
                  11
                  11
                  12
                  12
                  12
                  12
                  12
                  12
                  12
                  12
                  12
                  12
                  11
                  11
                  11
                  11
                  11
                  11
                  11
                  11
                  11
                  11
                  11
                  11
                  11
                  11
                  11
                  12
                  12
                  12
                  12
                  12
                  12
                  12
                  12
                  12
                  12
                  12
                  12
                  11
                  11
                  11
                  11
                  12
                  12
                  11
                  11
                  11
                  11
                  11
                  11
                  11
                  11
                  11
                  11
                  11
                  11
                  11
                  11
                  11
                  11
                  11
                  11
                  11
                  11
                  12
                  12
                  12
                  12
                  11
                  11
                  11
                  11
                  11
                  11
                  11
                  11
                  11
                  11
                  11
                  12
                  12
                  12
                  12
                  12
                  12
                  12
                  12
                  12
                  12
                  11
                  11
                  11
                  11
                  11
                  11
                  11
                  11
                  11
                  11
                  11
                  11
                  11
                  11
                  11
                  12
                  12
                  12
                  12
                  12
                  12
                  12
                  12
                  12
                  12
                  12
                  12
                  11
                  11
                  11
                  11
                  12
                  12
                  11
                  11
                  11
                  11
                  11
                  11
                  11
                  11
                  11
                  11
                  11
                  11
                  11
                  11
                  11
                  11
                  11
                  11
                  11
                  11
                  12
                  12
                  12
                  12
                  11
                  11
                  11
                  11
                  11
                  11
                  11
                  11
                  11
                  11
                  11
                  12
                  12
                  12
                  12
                  12
                  12
                  12
                  12
                  12
                  12
                  11
                  11
                  11
                  11
                  11
                  11
                  11
                  11
                  11
                  11
                  11
                  11
                  11
                  11
                  11
                  12
                  12
                  12
                  12
                  12
                  12
                  12
                  12
                  12
                  12
                  12
                  12
                  11
                  11
                  11
                  11
                  12
                  12
                  11
                  11
                  11
                  11
                  11
                  11
                  11
                  11
                  11
                  11
                  11
                  11
                  11
                  11
                  11
                  11
                  11
                  11
                  11
                  11
                  12
                  12
                  12
                  12
                  11
                  11
                  11
                  11
                  11
                  11
                  11
                  11
                  11
                  11
                  11
                  12
                  12
                  12
                  12
                  12
                  12
                  12
                  12
                  12
                  12
                  11
                  11
                  11
                  11
                  11
                  11
                  11
                  11
                  11
                  11
                  11
                  11
                  11
                  11
                  11
                  12
                  12
                  12
                  12
                  12
                  12
                  12
                  12
                  12
                  12
                  12
                  12
                  11
                  11
                  11
                  11
                  12
                  12
                  11
                  11
                  11
                  11
                  11
                  11
                  11
                  11
                  11
                  11
                  11
                  11
                  11
                  11
                  11
                  11
                  11
                  11
                  11
                  11
                  12
                  12
                  12
                  12
                  11
                  11
                  11
                  11
                  11
                  11
                  11
                  11
                  11
                  11
                  11
                  12
                  12
                  12
                  12
                  12
                  12
                  12
                  12
                  12
                  12
                  11
                  11
                  11
                  11
                  11
                  11
                  11
                  11
                  11
                  11
                  11
                  11
                  11
                  11
                  11
                  12
                  12
                  12
                  12
                  12
                  12
                  12
                  12
                  12
                  12
                  12
                  12
                  11
                  11
                  11
                  11
                  12
                  12
                  11
                  11
                  11
                  11
                  11
                  11
                  11
                  11
                  11
                  11
                  11
                  11
                  11
                  11
                  11
                  11
                  11
                  11
                  11
                  11
                  12
                  12
                  12
                  12
                  11
                  11
                  11
                  11
                  11
                  11
                  11
                  11
                  11
                  11
                  11
                  12
                  12
                  12
                  12
                  12
                  12
                  12
                  12
                  12
                  12
                  11
                  11
                  11
                  11
                  11
                  11
                  11
                  11
                  11
                  11
                  11
                  11
                  11
                  11
                  11
                  12
                  12
                  12
                  12
                  12
                  12
                  12
                  12
                  12
                  12
                  12
                  12
                  11
                  11
                  11
                  11
                  12
                  12
                  11
                  11
                  11
                  11
                  11
                  11
                  11
                  11
                  11
                  11
                  11
                  11
                  11
                  11
                  11
                  11
                  11
                  11
                  11
                  11
                  12
                  12
                  12
                  12
                  11
                  11
                  11
                  11
                  11
                  11
                  11
                  11
                  11
                  11
                  11
                  12
                  12
                  12
                  12
                  12
                  12
                  12
                  12
                  12
                  12
                  11
                  11
                  11
                  11
                  11
                  11
                  11
                  11
                  11
                  11
                  11
                  11
                  11
                  11
                  11
                  12
                  12
                  12
                  12
                  12
                  12
                  12
                  12
                  12
                  12
                  12
                  12
                  11
                  11
                  11
                  11
                  12
                  12
                  11
                  11
                  11
                  11
                  11
                  11
                  11
                  11
                  11
                  11
                  11
                  11
                  11
                  11
                  11
                  11
                  11
                  11
                  11
                  11
                  12
                  12
                  12
                  12
                  11
                  11
                  11
                  11
                  11
                  11
                  11
                  11
                  11
                  11
                  11
                  12
                  12
                  12
                  12
                  12
                  12
                  12
                  12
                  12
                  12
                  11
                  11
                  11
                  11
                  11
                  11
                  11
                  11
                  11
                  11
                  11
                  11
                  11
                  11
                  11
                  12
                  12
                  12
                  12
                  12
                  12
                  12
                  12
                  12
                  12
                  12
                  12
                  11
                  11
                  11
                  11
                  12
                  12
                  11
                  11
                  11
                  11
                  11
                  11
                  11
                  11
                  11
                  11
                  11
                  11
                  11
                  11
                  11
                  11
                  11
                  11
                  11
                  11
                  12
                  12
                  12
                  12
                  11
                  11
                  11
                  11
                  11
                  11
                  11
                  11
                  11
                  11
                  11
                  12
                  12
                  12
                  12
                  12
                  12
                  12
                  12
                  12
                  12
                  11
                  11
                  11
                  11
                  11
                  11
                  11
                  11
                  11
                  11
                  11
                  11
                  11
                  11
                  11
                  12
                  12
                  12
                  12
                  12
                  12
                  12
                  12
                  12
                  12
                  12
                  12
                  11
                  11
                  11
                  11
                  12
                  12
                  11
                  11
                  11
                  11
                  11
                  11
                  11
                  11
                  11
                  11
                  11
                  11
                  11
                  11
                  11
                  11
                  11
                  11
                  11
                  11
                  12
                  12
                  12
                  12
                  11
                  11
                  11
                  11
                  11
                  11
                  11
                  11
                  11
                  11
                  11
                  12
                  12
                  12
                  12
                  12
                  12
                  12
                  12
                  12
                  12
                  11
                  11
                  11
                  11
                  11
                  11
                  11
                  11
                  11
                  11
                  11
                  11
                  11
                  11
                  11
                  12
                  12
                  12
                  12
                  12
                  12
                  12
                  12
                  12
                  12
                  12
                  12
                  11
                  11
                  11
                  11
                  12
                  12
                  11
                  11
                  11
                  11
                  11
                  11
                  11
                  11
                  11
                  11
                  11
                  11
                  11
                  11
                  11
                  11
                  11
                  11
                  11
                  11
                  12
                  12
                  12
                  12
                  11
                  11
                  11
                  11
                  11
                  11
                  11
                  11
                  11
                  11
                  11
                  12
                  12
                  12
                  12
                  12
                  12
                  12
                  12
                  12
                  12
                  11
                  11
                  11
                  11
                  11
                  11
                  11
                  11
                  11
                  11
                  11
                  11
                  11
                  11
                  11
                  12
                  12
                  12
                  12
                  12
                  12
                  12
                  12
                  12
                  12
                  12
                  12
                  11
                  11
                  11
                  11
                  12
                  12
                  11
                  11
                  11
                  11
                  11
                  11
                  11
                  11
                  11
                  11
                  11
                  11
                  11
                  11
                  11
                  11
                  11
                  11
                  11
                  11
                  12
                  12
                  12
                  12
                  11
                  11
                  11
                  11
                  11
                  11
                  11
                  11
                  11
                  11
                  11
                  12
                  12
                  12
                  12
                  12
                  12
                  12
                  12
                  12
                  12
                  11
                  11
                  11
                  11
                  11
                  11
                  11
                  11
                  11
                  11
                  11
                  11
                  11
                  11
                  11
                  12
                  12
                  12
                  12
                  12
                  12
                  12
                  12
                  12
                  12
                  12
                  12
                  11
                  11
                  11
                  11
                  12
                  12
                  11
                  11
                  11
                  11
                  11
                  11
                  11
                  11
                  11
                  11
                  11
                  11
                  11
                  11
                  11
                  11
                  11
                  11
                  11
                  11
                  12
                  12
                  12
                  12
                  11
                  11
                  11
                  11
                  11
                  11
                  11
                  11
                  11
                  11
                  11
                  12
                  12
                  12
                  12
                  12
                  12
                  12
                  12
                  12
                  12
                  11
                  11
                  11
                  11
                  11
                  11
                  11
                  11
                  11
                  11
                  11
                  11
                  11
                  11
                  11
                  12
                  12
                  12
                  12
                  12
  
SCALARS                         Jspace  double 1
LOOKUP_TABLE default
                  11
                  12
                  11
                  11
                  11
                  12
                  11
                  11
                  11
                  11
                  11
                  11
                  12
                  12
                  12
                  12
                  11
                  12
                  11
                  12
                  12
                  12
                  12
                  12
                  12
                  12
                  12
                  12
                  12
                  12
                  11
                  11
                  11
                  11
                  11
                  11
                  11
                  11
                  11
                  11
                  11
                  11
                  11
                  11
                  11
                  11
                  11
                  11
                  11
                  11
                  11
                  11
                  12
                  12
                  12
                  12
                  12
                  11
                  12
                  11
                  11
                  11
                  11
                  11
                  11
                  11
                  11
                  11
                  11
                  12
                  11
                  12
                  12
                  12
                  12
                  12
                  12
                  12
                  12
                  12
                  12
                  12
                  12
                  12
                  11
                  11
                  11
                  11
                  11
                  11
                  11
                  11
                  11
                  11
                  11
                  11
                  11
                  11
                  11
                  11
                  11
                  11
                  11
                  11
                  11
                  11
                  11
                  11
                  12
                  12
                  12
                  12
                  12
                  12
                  12
                  12
                  12
                  12
                  12
                  12
                  12
                  12
                  12
                  12
                  12
                  12
                  12
                  12
                  11
                  11
                  11
                  11
                  11
                  11
                  11
                  11
                  11
                  11
                  11
                  11
                  11
                  11
                  11
                  11
                  11
                  11
                  11
                  11
                  11
                  11
                  11
                  11
                  11
                  11
                  11
                  11
                  11
                  12
                  11
                  11
                  11
                  11
                  12
                  12
                  11
                  12
                  12
                  12
                  12
                  12
                  12
                  11
                  11
                  11
                  11
                  11
                  11
                  11
                  11
                  11
                  11
                  11
                  12
                  12
                  12
                  11
                  11
                  11
                  11
                  11
                  11
                  12
                  12
                  12
                  12
                  12
                  12
                  12
                  11
                  11
                  11
                  11
                  11
                  11
                  11
                  11
                  11
                  11
                  11
                  11
                  12
                  12
                  12
                  12
                  12
                  12
                  12
                  12
                  12
                  12
                  11
                  11
                  11
                  11
                  11
                  11
                  11
                  11
                  11
                  11
                  11
                  11
                  11
                  11
                  11
                  12
                  11
                  11
                  11
                  11
                  12
                  12
                  11
                  12
                  12
                  12
                  12
                  12
                  12
                  11
                  11
                  11
                  11
                  11
                  11
                  11
                  11
                  11
                  11
                  11
                  12
                  12
                  12
                  11
                  11
                  11
                  11
                  11
                  11
                  12
                  12
                  12
                  12
                  12
                  12
                  12
                  11
                  11
                  11
                  11
                  11
                  11
                  11
                  11
                  11
                  11
                  11
                  11
                  12
                  12
                  12
                  12
                  12
                  12
                  12
                  12
                  12
                  12
                  11
                  11
                  11
                  11
                  11
                  11
                  11
                  11
                  11
                  11
                  11
                  11
                  11
                  11
                  11
                  12
                  11
                  11
                  11
                  11
                  12
                  12
                  11
                  12
                  12
                  12
                  12
                  12
                  12
                  11
                  11
                  11
                  11
                  11
                  11
                  11
                  11
                  11
                  11
                  11
                  12
                  12
                  12
                  11
                  11
                  11
                  11
                  11
                  11
                  12
                  12
                  12
                  12
                  12
                  12
                  12
                  11
                  11
                  11
                  11
                  11
                  11
                  11
                  11
                  11
                  11
                  11
                  11
                  12
                  12
                  12
                  12
                  12
                  12
                  12
                  12
                  12
                  12
                  11
                  11
                  11
                  11
                  11
                  11
                  11
                  11
                  11
                  11
                  11
                  11
                  11
                  11
                  11
                  12
                  11
                  11
                  11
                  11
                  12
                  12
                  11
                  12
                  12
                  12
                  12
                  12
                  12
                  11
                  11
                  11
                  11
                  11
                  11
                  11
                  11
                  11
                  11
                  11
                  12
                  12
                  12
                  11
                  11
                  11
                  11
                  11
                  11
                  12
                  12
                  12
                  12
                  12
                  12
                  12
                  11
                  11
                  11
                  11
                  11
                  11
                  11
                  11
                  11
                  11
                  11
                  11
                  12
                  12
                  12
                  12
                  12
                  12
                  12
                  12
                  12
                  12
                  11
                  11
                  11
                  11
                  11
                  11
                  11
                  11
                  11
                  11
                  11
                  11
                  11
                  11
                  11
                  12
                  11
                  11
                  11
                  11
                  12
                  12
                  11
                  12
                  12
                  12
                  12
                  12
                  12
                  11
                  11
                  11
                  11
                  11
                  11
                  11
                  11
                  11
                  11
                  11
                  12
                  12
                  12
                  11
                  11
                  11
                  11
                  11
                  11
                  12
                  12
                  12
                  12
                  12
                  12
                  12
                  11
                  11
                  11
                  11
                  11
                  11
                  11
                  11
                  11
                  11
                  11
                  11
                  12
                  12
                  12
                  12
                  12
                  12
                  12
                  12
                  12
                  12
                  11
                  11
                  11
                  11
                  11
                  11
                  11
                  11
                  11
                  11
                  11
                  11
                  11
                  11
                  11
                  12
                  11
                  11
                  11
                  11
                  12
                  12
                  11
                  12
                  12
                  12
                  12
                  12
                  12
                  11
                  11
                  11
                  11
                  11
                  11
                  11
                  11
                  11
                  11
                  11
                  12
                  12
                  12
                  11
                  11
                  11
                  11
                  11
                  11
                  12
                  12
                  12
                  12
                  12
                  12
                  12
                  11
                  11
                  11
                  11
                  11
                  11
                  11
                  11
                  11
                  11
                  11
                  11
                  12
                  12
                  12
                  12
                  12
                  12
                  12
                  12
                  12
                  12
                  11
                  11
                  11
                  11
                  11
                  11
                  11
                  11
                  11
                  11
                  11
                  11
                  11
                  11
                  11
                  12
                  11
                  11
                  11
                  11
                  12
                  12
                  11
                  12
                  12
                  12
                  12
                  12
                  12
                  11
                  11
                  11
                  11
                  11
                  11
                  11
                  11
                  11
                  11
                  11
                  12
                  12
                  12
                  11
                  11
                  11
                  11
                  11
                  11
                  12
                  12
                  12
                  12
                  12
                  12
                  12
                  11
                  11
                  11
                  11
                  11
                  11
                  11
                  11
                  11
                  11
                  11
                  11
                  12
                  12
                  12
                  12
                  12
                  12
                  12
                  12
                  12
                  12
                  11
                  11
                  11
                  11
                  11
                  11
                  11
                  11
                  11
                  11
                  11
                  11
                  11
                  11
                  11
                  12
                  11
                  11
                  11
                  11
                  12
                  12
                  11
                  12
                  12
                  12
                  12
                  12
                  12
                  11
                  11
                  11
                  11
                  11
                  11
                  11
                  11
                  11
                  11
                  11
                  12
                  12
                  12
                  11
                  11
                  11
                  11
                  11
                  11
                  12
                  12
                  12
                  12
                  12
                  12
                  12
                  11
                  11
                  11
                  11
                  11
                  11
                  11
                  11
                  11
                  11
                  11
                  11
                  12
                  12
                  12
                  12
                  12
                  12
                  12
                  12
                  12
                  12
                  11
                  11
                  11
                  11
                  11
                  11
                  11
                  11
                  11
                  11
                  11
                  11
                  11
                  11
                  11
                  12
                  11
                  11
                  11
                  11
                  12
                  12
                  11
                  12
                  12
                  12
                  12
                  12
                  12
                  11
                  11
                  11
                  11
                  11
                  11
                  11
                  11
                  11
                  11
                  11
                  12
                  12
                  12
                  11
                  11
                  11
                  11
                  11
                  11
                  12
                  12
                  12
                  12
                  12
                  12
                  12
                  11
                  11
                  11
                  11
                  11
                  11
                  11
                  11
                  11
                  11
                  11
                  11
                  12
                  12
                  12
                  12
                  12
                  12
                  12
                  12
                  12
                  12
                  11
                  11
                  11
                  11
                  11
                  11
                  11
                  11
                  11
                  11
                  11
                  11
                  11
                  11
                  11
                  12
                  11
                  11
                  11
                  11
                  12
                  12
                  11
                  12
                  12
                  12
                  12
                  12
                  12
                  11
                  11
                  11
                  11
                  11
                  11
                  11
                  11
                  11
                  11
                  11
                  12
                  12
                  12
                  11
                  11
                  11
                  11
                  11
                  11
                  12
                  12
                  12
                  12
                  12
                  12
                  12
                  11
                  11
                  11
                  11
                  11
                  11
                  11
                  11
                  11
                  11
                  11
                  11
                  12
                  12
                  12
                  12
                  12
                  12
                  12
                  12
                  12
                  12
                  11
                  11
                  11
                  11
                  11
                  11
                  11
                  11
                  11
                  11
                  11
                  11
                  11
                  11
                  11
                  12
                  11
                  11
                  11
                  11
                  12
                  12
                  11
                  12
                  12
                  12
                  12
                  12
                  12
                  11
                  11
                  11
                  11
                  11
                  11
                  11
                  11
                  11
                  11
                  11
                  12
                  12
                  12
                  11
                  11
                  11
                  11
                  11
                  11
                  12
                  12
                  12
                  12
                  12
                  12
                  12
                  11
                  11
                  11
                  11
                  11
                  11
                  11
                  11
                  11
                  11
                  11
                  11
                  12
                  12
                  12
                  12
                  12
                  12
                  12
                  12
                  12
                  12
                  11
                  11
                  11
                  11
                  11
                  11
                  11
                  11
                  11
                  11
                  11
                  11
                  11
                  11
                  11
                  12
                  11
                  11
                  11
                  11
                  12
                  12
                  11
                  12
                  12
                  12
                  12
                  12
                  12
                  11
                  11
                  11
                  11
                  11
                  11
                  11
                  11
                  11
                  11
                  11
                  12
                  12
                  12
                  11
                  11
                  11
                  11
                  11
                  11
                  12
                  12
                  12
                  12
                  12
                  12
                  12
                  11
                  11
                  11
                  11
                  11
                  11
                  11
                  11
                  11
                  11
                  11
                  11
                  12
                  12
                  12
                  12
                  12
                  12
                  12
                  12
                  12
                  12
                  11
                  11
                  11
                  11
                  11
                  11
                  11
                  11
                  11
                  11
                  11
                  11
                  11
                  11
                  11
                  12
                  11
                  11
                  11
                  11
                  12
                  12
                  11
                  12
                  12
                  12
                  12
                  12
                  12
                  11
                  11
                  11
                  11
                  11
                  11
                  11
                  11
                  11
                  11
                  11
                  12
                  12
                  12
                  11
                  11
                  11
                  11
                  11
                  11
                  12
                  12
                  12
                  12
                  12
                  12
                  12
                  11
                  11
                  11
                  11
                  11
                  11
                  11
                  11
                  11
                  11
                  11
                  11
                  12
                  12
                  12
                  12
                  12
                  12
                  12
                  12
                  12
                  12
                  11
                  11
                  11
                  11
                  11
                  11
                  11
                  11
                  11
                  11
                  11
                  11
                  11
                  11
                  11
                  12
                  11
                  11
                  11
                  11
                  12
                  12
                  11
                  12
                  12
                  12
                  12
                  12
                  12
                  11
                  11
                  11
                  11
                  11
                  11
                  11
                  11
                  11
                  11
                  11
                  12
                  12
                  12
                  11
                  11
                  11
                  11
                  11
                  11
                  12
                  12
                  12
                  12
                  12
                  12
                  12
                  11
                  11
                  11
                  11
                  11
                  11
                  11
                  11
                  11
                  11
                  11
                  11
                  12
                  12
                  12
                  12
                  12
                  12
                  12
                  12
                  12
                  12
                  11
                  11
                  11
                  11
                  11
                  11
                  11
                  11
                  11
                  11
                  11
                  11
                  11
                  11
                  11
                  12
                  11
                  11
                  11
                  11
                  12
                  12
                  11
                  12
                  12
                  12
                  12
                  12
                  12
                  11
                  11
                  11
                  11
                  11
                  11
                  11
                  11
                  11
                  11
                  11
                  12
                  12
                  12
                  11
                  11
                  11
                  11
                  11
                  11
                  12
                  12
                  12
                  12
                  12
                  12
                  12
                  11
                  11
                  11
                  11
                  11
                  11
                  11
                  11
                  11
                  11
                  11
                  11
                  12
                  12
                  12
                  12
                  12
                  12
                  12
                  12
                  12
                  12
                  11
                  11
                  11
                  11
                  11
                  11
                  11
                  11
                  11
                  11
                  11
                  11
                  11
                  11
                  11
                  12
                  11
                  11
                  11
                  11
                  12
                  12
                  11
                  12
                  12
                  12
                  12
                  12
                  12
                  11
                  11
                  11
                  11
                  11
                  11
                  11
                  11
                  11
                  11
                  11
                  12
                  12
                  12
                  11
                  11
                  11
                  11
                  11
                  11
                  12
                  12
                  12
                  12
                  12
                  12
                  12
                  11
                  11
                  11
                  11
                  11
                  11
                  11
                  11
                  11
                  11
                  11
                  11
                  12
                  12
                  12
                  12
                  12
                  12
                  12
                  12
                  12
                  12
                  11
                  11
                  11
                  11
                  11
                  11
                  11
                  11
                  11
                  11
                  11
                  11
                  11
                  11
                  11
                  12
                  11
                  11
                  11
                  11
                  12
                  12
                  11
                  12
                  12
                  12
                  12
                  12
                  12
                  11
                  11
                  11
                  11
                  11
                  11
                  11
                  11
                  11
                  11
                  11
                  12
                  12
                  12
                  11
                  11
                  11
                  11
                  11
                  11
                  12
                  12
                  12
                  12
                  12
                  12
                  12
                  11
                  11
                  11
                  11
                  11
                  11
                  11
                  11
                  11
                  11
                  11
                  11
                  12
                  12
                  12
                  12
                  12
                  12
                  12
                  12
                  12
                  12
                  11
                  11
                  11
                  11
                  11
                  11
                  11
                  11
                  11
                  11
                  11
                  11
                  11
                  11
                  11
                  12
                  11
                  11
                  11
                  11
                  12
                  12
                  11
                  12
                  12
                  12
                  12
                  12
                  12
                  11
                  11
                  11
                  11
                  11
                  11
                  11
                  11
                  11
                  11
                  11
                  12
                  12
                  12
                  11
                  11
                  11
                  11
                  11
                  11
                  12
                  12
                  12
                  12
                  12
                  12
                  12
                  11
                  11
                  11
                  11
                  11
                  11
                  11
                  11
                  11
                  11
                  11
                  11
                  12
                  12
                  12
                  12
                  12
                  12
                  12
                  12
                  12
                  12
                  11
                  11
                  11
                  11
                  11
                  11
                  11
                  11
                  11
                  11
                  11
                  11
                  11
                  11
                  11
                  12
                  11
                  11
                  11
                  11
                  12
                  12
                  11
                  12
                  12
                  12
                  12
                  12
                  12
                  11
                  11
                  11
                  11
                  11
                  11
                  11
                  11
                  11
                  11
                  11
                  12
                  12
                  12
                  11
                  11
                  11
                  11
                  11
                  11
                  12
                  12
                  12
                  12
                  12
                  12
                  12
                  11
                  11
                  11
                  11
                  11
                  11
                  11
                  11
                  11
                  11
                  11
                  11
                  12
                  12
                  12
                  12
                  12
                  12
                  12
                  12
                  12
                  12
                  11
                  11
                  11
                  11
                  11
                  11
                  11
                  11
                  11
                  11
                  11
                  11
                  11
                  11
                  11
                  12
                  11
                  11
                  11
                  11
                  12
                  12
                  11
                  12
                  12
                  12
                  12
                  12
                  12
                  11
                  11
                  11
                  11
                  11
                  11
                  11
                  11
                  11
                  11
                  11
                  12
                  12
                  12
                  11
                  11
                  11
                  11
                  11
                  11
                  12
                  12
                  12
                  12
                  12
                  12
                  12
                  11
                  11
                  11
                  11
                  11
                  11
                  11
                  11
                  11
                  11
                  11
                  11
                  12
                  12
                  12
                  12
                  12
                  12
                  12
                  12
                  12
                  12
                  11
                  11
                  11
                  11
                  11
                  11
                  11
                  11
                  11
                  11
                  11
                  11
                  11
                  11
                  11
                  12
                  11
                  11
                  11
                  11
                  12
                  12
                  11
                  12
                  12
                  12
                  12
                  12
                  12
                  11
                  11
                  11
                  11
                  11
                  11
                  11
                  11
                  11
                  11
                  11
                  12
                  12
                  12
                  11
                  11
                  11
                  11
                  11
                  11
                  12
                  12
                  12
                  12
                  12
                  12
                  12
                  11
                  11
                  11
                  11
                  11
                  11
                  11
                  11
                  11
                  11
                  11
                  11
                  12
                  12
                  12
                  12
                  12
                  12
                  12
                  12
                  12
                  12
                  11
                  11
                  11
                  11
                  11
                  11
                  11
                  11
                  11
                  11
                  11
                  11
                  11
                  11
                  11
                  12
                  11
                  11
                  11
                  11
                  12
                  12
                  11
                  12
                  12
                  12
                  12
                  12
                  12
                  11
                  11
                  11
                  11
                  11
                  11
                  11
                  11
                  11
                  11
                  11
                  12
                  12
                  12
                  11
                  11
                  11
                  11
                  11
                  11
                  12
                  12
                  12
                  12
                  12
                  12
                  12
                  11
                  11
                  11
                  11
                  11
                  11
                  11
                  11
                  11
                  11
                  11
                  11
                  12
                  12
                  12
                  12
                  12
                  12
                  12
                  12
                  12
                  12
                  11
                  11
                  11
                  11
                  11
                  11
                  11
                  11
                  11
                  11
                  11
                  11
                  11
                  11
                  11
                  12
                  11
                  11
                  11
                  11
                  12
                  12
                  11
                  12
                  12
                  12
                  12
                  12
                  12
                  11
                  11
                  11
                  11
                  11
                  11
                  11
                  11
                  11
                  11
                  11
                  12
                  12
                  12
                  11
                  11
                  11
                  11
                  11
                  11
                  12
                  12
                  12
                  12
                  12
                  12
                  12
                  11
                  11
                  11
                  11
                  11
                  11
                  11
                  11
                  11
                  11
                  11
                  11
                  12
                  12
                  12
                  12
                  12
                  12
                  12
                  12
                  12
                  12
                  11
                  11
                  11
                  11
                  11
                  11
                  11
                  11
                  11
                  11
                  11
                  11
                  11
                  11
  
SCALARS                         Kspace  double 1
LOOKUP_TABLE default
                  11
                  11
                  11
                  11
                  11
                  11
                  11
                  11
                  11
                  11
                  11
                  11
                  11
                  11
                  11
                  11
                  11
                  11
                  11
                  11
                  11
                  11
                  11
                  11
                  11
                  11
                  11
                  11
                  11
                  11
                  11
                  11
                  11
                  11
                  11
                  11
                  11
                  11
                  11
                  11
                  11
                  11
                  11
                  11
                  11
                  11
                  11
                  11
                  11
                  11
                  11
                  11
                  11
                  11
                  11
                  11
                  11
                  11
                  11
                  11
                  11
                  11
                  11
                  11
                  11
                  11
                  11
                  11
                  11
                  11
                  11
                  11
                  11
                  11
                  11
                  11
                  11
                  11
                  11
                  11
                  11
                  11
                  11
                  11
                  11
                  11
                  11
                  11
                  11
                  11
                  11
                  11
                  11
                  11
                  11
                  11
                  11
                  11
                  11
                  11
                  11
                  11
                  11
                  11
                  11
                  11
                  11
                  11
                  11
                  11
                  11
                  11
                  11
                  11
                  11
                  11
                  11
                  11
                  11
                  11
                  11
                  11
                  11
                  11
                  11
                  11
                  11
                  11
                  11
                  11
                  11
                  11
                  11
                  11
                  11
                  11
                  11
                  11
                  11
                  11
                  11
                  11
                  11
                  11
                  11
                  11
                  11
                  11
                  11
                  11
                  11
                  11
                  11
                  11
                  11
                  11
                  11
                  11
                  11
                  11
                  11
                  11
                  11
                  11
                  11
                  11
                  11
                  11
                  11
                  11
                  11
                  11
                  11
                  11
                  11
                  11
                  11
                  11
                  11
                  11
                  11
                  11
                  11
                  11
                  11
                  11
                  11
                  11
                  11
                  11
                  11
                  11
                  11
                  11
                  11
                  11
                  11
                  11
                  11
                  11
                  11
                  11
                  11
                  11
                  11
                  11
                  11
                  11
                  11
                  11
                  11
                  11
                  11
                  11
                  11
                  11
                  11
                  11
                  11
                  11
                  11
                  11
                  11
                  11
                  11
                  11
                  11
                  11
                  11
                  11
                  11
                  11
                  11
                  11
                  11
                  11
                  11
                  11
                  11
                  11
                  11
                  11
                  11
                  11
                  11
                  11
                  11
                  11
                  11
                  11
                  11
                  11
                  11
                  11
                  11
                  11
                  11
                  11
                  11
                  11
                  11
                  11
                  11
                  11
                  11
                  11
                  11
                  11
                  11
                  11
                  11
                  11
                  11
                  11
                  11
                  11
                  11
                  11
                  11
                  11
                  11
                  11
                  11
                  11
                  11
                  11
                  11
                  11
                  11
                  11
                  11
                  11
                  11
                  11
                  11
                  11
                  11
                  11
                  11
                  11
                  11
                  11
                  11
                  11
                  11
                  11
                  11
                  11
                  11
                  11
                  11
                  11
                  12
                  12
                  12
                  12
                  12
                  12
                  12
                  12
                  12
                  12
                  12
                  12
                  12
                  12
                  12
                  12
                  12
                  12
                  12
                  12
                  12
                  12
                  12
                  12
                  12
                  12
                  12
                  12
                  12
                  12
                  12
                  12
                  12
                  12
                  12
                  12
                  12
                  12
                  12
                  12
                  12
                  12
                  12
                  12
                  12
                  12
                  12
                  12
                  12
                  12
                  12
                  12
                  12
                  12
                  12
                  12
                  12
                  12
                  12
                  12
                  12
                  12
                  12
                  12
                  12
                  12
                  12
                  12
                  12
                  12
                  12
                  12
                  12
                  12
                  12
                  12
                  12
                  12
                  12
                  12
                  12
                  12
                  12
                  12
                  12
                  12
                  12
                  12
                  12
                  12
                  12
                  12
                  12
                  12
                  12
                  12
                  12
                  12
                  12
                  12
                  12
                  12
                  12
                  12
                  12
                  12
                  12
                  12
                  12
                  12
                  12
                  12
                  12
                  12
                  12
                  12
                  12
                  12
                  12
                  12
                  12
                  12
                  12
                  12
                  12
                  12
                  12
                  12
                  12
                  12
                  12
                  12
                  12
                  12
                  12
                  12
                  12
                  12
                  12
                  12
                  12
                  12
                  12
                  12
                  12
                  12
                  12
                  12
                  12
                  12
                  12
                  12
                  12
                  12
                  12
                  12
                  12
                  12
                  12
                  12
                  12
                  12
                  12
                  12
                  12
                  12
                  12
                  12
                  12
                  12
                  12
                  12
                  12
                  12
                  12
                  12
                  12
                  12
                  12
                  12
                  12
                  12
                  12
                  12
                  12
                  12
                  12
                  12
                  12
                  12
                  12
                  12
                  12
                  12
                  12
                  12
                  12
                  12
                  12
                  12
                  12
                  12
                  12
                  12
                  12
                  12
                  12
                  12
                  12
                  12
                  12
                  12
                  12
                  12
                  12
                  12
                  12
                  12
                  12
                  12
                  12
                  12
                  12
                  12
                  12
                  12
                  12
                  12
                  12
                  12
                  12
                  12
                  12
                  12
                  13
                  13
                  13
                  13
                  13
                  13
                  13
                  13
                  13
                  13
                  13
                  13
                  13
                  13
                  13
                  13
                  13
                  13
                  13
                  13
                  13
                  13
                  13
                  13
                  13
                  13
                  13
                  13
                  13
                  13
                  13
                  13
                  13
                  13
                  13
                  13
                  13
                  13
                  13
                  13
                  13
                  13
                  13
                  13
                  13
                  13
                  13
                  13
                  13
                  13
                  13
                  13
                  13
                  13
                  13
                  13
                  13
                  13
                  13
                  13
                  13
                  13
                  13
                  13
                  13
                  13
                  13
                  13
                  13
                  13
                  13
                  13
                  13
                  13
                  13
                  13
                  13
                  13
                  13
                  13
                  13
                  13
                  13
                  13
                  13
                  13
                  13
                  13
                  13
                  13
                  13
                  13
                  13
                  13
                  13
                  13
                  13
                  13
                  13
                  13
                  13
                  13
                  13
                  13
                  13
                  13
                  13
                  13
                  13
                  13
                  13
                  13
                  13
                  13
                  13
                  13
                  13
                  13
                  13
                  13
                  13
                  13
                  13
                  13
                  13
                  13
                  13
                  13
                  13
                  13
                  13
                  13
                  13
                  13
                  13
                  13
                  13
                  13
                  13
                  13
                  13
                  13
                  13
                  13
                  13
                  13
                  13
                  13
                  13
                  13
                  13
                  13
                  13
                  13
                  13
                  13
                  13
                  13
                  13
                  13
                  13
                  13
                  13
                  13
                  13
                  13
                  13
                  13
                  13
                  13
                  13
                  13
                  13
                  13
                  13
                  13
                  13
                  13
                  13
                  13
                  13
                  13
                  13
                  13
                  13
                  13
                  13
                  13
                  13
                  13
                  13
                  13
                  13
                  13
                  13
                  13
                  13
                  13
                  13
                  13
                  13
                  13
                  13
                  13
                  13
                  13
                  13
                  13
                  13
                  13
                  13
                  13
                  13
                  13
                  13
                  13
                  13
                  13
                  13
                  13
                  13
                  13
                  13
                  13
                  13
                  13
                  13
                  13
                  13
                  13
                  13
                  13
                  13
                  13
                  14
                  14
                  14
                  14
                  14
                  14
                  14
                  14
                  14
                  14
                  14
                  14
                  14
                  14
                  14
                  14
                  14
                  14
                  14
                  14
                  14
                  14
                  14
                  14
                  14
                  14
                  14
                  14
                  14
                  14
                  14
                  14
                  14
                  14
                  14
                  14
                  14
                  14
                  14
                  14
                  14
                  14
                  14
                  14
                  14
                  14
                  14
                  14
                  14
                  14
                  14
                  14
                  14
                  14
                  14
                  14
                  14
                  14
                  14
                  14
                  14
                  14
                  14
                  14
                  14
                  14
                  14
                  14
                  14
                  14
                  14
                  14
                  14
                  14
                  14
                  14
                  14
                  14
                  14
                  14
                  14
                  14
                  14
                  14
                  14
                  14
                  14
                  14
                  14
                  14
                  14
                  14
                  14
                  14
                  14
                  14
                  14
                  14
                  14
                  14
                  14
                  14
                  14
                  14
                  14
                  14
                  14
                  14
                  14
                  14
                  14
                  14
                  14
                  14
                  14
                  14
                  14
                  14
                  14
                  14
                  14
                  14
                  14
                  14
                  14
                  14
                  14
                  14
                  14
                  14
                  14
                  14
                  14
                  14
                  14
                  14
                  14
                  14
                  14
                  14
                  14
                  14
                  14
                  14
                  14
                  14
                  14
                  14
                  14
                  14
                  14
                  14
                  14
                  14
                  14
                  14
                  14
                  14
                  14
                  14
                  14
                  14
                  14
                  14
                  14
                  14
                  14
                  14
                  14
                  14
                  14
                  14
                  14
                  14
                  14
                  14
                  14
                  14
                  14
                  14
                  14
                  14
                  14
                  14
                  14
                  14
                  14
                  14
                  14
                  14
                  14
                  14
                  14
                  14
                  14
                  14
                  14
                  14
                  14
                  14
                  14
                  14
                  14
                  14
                  14
                  14
                  14
                  14
                  14
                  14
                  14
                  14
                  14
                  14
                  14
                  14
                  14
                  14
                  14
                  14
                  14
                  14
                  14
                  14
                  14
                  14
                  14
                  14
                  14
                  14
                  14
                  14
                  14
                  14
                  15
                  15
                  15
                  15
                  15
                  15
                  15
                  15
                  15
                  15
                  15
                  15
                  15
                  15
                  15
                  15
                  15
                  15
                  15
                  15
                  15
                  15
                  15
                  15
                  15
                  15
                  15
                  15
                  15
                  15
                  15
                  15
                  15
                  15
                  15
                  15
                  15
                  15
                  15
                  15
                  15
                  15
                  15
                  15
                  15
                  15
                  15
                  15
                  15
                  15
                  15
                  15
                  15
                  15
                  15
                  15
                  15
                  15
                  15
                  15
                  15
                  15
                  15
                  15
                  15
                  15
                  15
                  15
                  15
                  15
                  15
                  15
                  15
                  15
                  15
                  15
                  15
                  15
                  15
                  15
                  15
                  15
                  15
                  15
                  15
                  15
                  15
                  15
                  15
                  15
                  15
                  15
                  15
                  15
                  15
                  15
                  15
                  15
                  15
                  15
                  15
                  15
                  15
                  15
                  15
                  15
                  15
                  15
                  15
                  15
                  15
                  15
                  15
                  15
                  15
                  15
                  15
                  15
                  15
                  15
                  15
                  15
                  15
                  15
                  15
                  15
                  15
                  15
                  15
                  15
                  15
                  15
                  15
                  15
                  15
                  15
                  15
                  15
                  15
                  15
                  15
                  15
                  15
                  15
                  15
                  15
                  15
                  15
                  15
                  15
                  15
                  15
                  15
                  15
                  15
                  15
                  15
                  15
                  15
                  15
                  15
                  15
                  15
                  15
                  15
                  15
                  15
                  15
                  15
                  15
                  15
                  15
                  15
                  15
                  15
                  15
                  15
                  15
                  15
                  15
                  15
                  15
                  15
                  15
                  15
                  15
                  15
                  15
                  15
                  15
                  15
                  15
                  15
                  15
                  15
                  15
                  15
                  15
                  15
                  15
                  15
                  15
                  15
                  15
                  15
                  15
                  15
                  15
                  15
                  15
                  15
                  15
                  15
                  15
                  15
                  15
                  15
                  15
                  15
                  15
                  15
                  15
                  15
                  15
                  15
                  15
                  15
                  15
                  15
                  15
                  15
                  15
                  15
                  15
                  15
                  15
                  15
                  15
                  15
                  15
                  15
                  15
                  15
                  15
                  15
                  15
                  15
                  15
                  15
                  15
                  15
                  15
                  15
                  15
                  15
                  15
                  15
                  15
                  15
                  15
                  15
                  15
                  15
                  15
                  15
                  15
                  15
                  15
                  15
                  15
                  15
                  15
                  15
                  15
                  15
                  15
                  15
                  15
                  15
                  15
                  15
                  15
                  15
                  15
                  15
                  15
                  15
                  15
                  15
                  15
                  15
                  15
                  15
                  15
                  15
                  15
                  15
                  15
                  15
                  15
                  15
                  15
                  15
                  15
                  15
                  15
                  15
                  15
                  15
                  15
                  15
                  15
                  16
                  16
                  16
                  16
                  16
                  16
                  16
                  16
                  16
                  16
                  16
                  16
                  16
                  16
                  16
                  16
                  16
                  16
                  16
                  16
                  16
                  16
                  16
                  16
                  16
                  16
                  16
                  16
                  16
                  16
                  16
                  16
                  16
                  16
                  16
                  16
                  16
                  16
                  16
                  16
                  16
                  16
                  16
                  16
                  16
                  16
                  16
                  16
                  16
                  16
                  16
                  16
                  16
                  16
                  16
                  16
                  16
                  16
                  16
                  16
                  16
                  16
                  16
                  16
                  16
                  16
                  16
                  16
                  16
                  16
                  16
                  16
                  16
                  16
                  16
                  16
                  16
                  16
                  16
                  16
                  16
                  16
                  16
                  16
                  16
                  16
                  16
                  16
                  16
                  16
                  16
                  16
                  16
                  16
                  16
                  16
                  16
                  16
                  16
                  16
                  16
                  16
                  16
                  16
                  16
                  16
                  16
                  16
                  16
                  16
                  16
                  16
                  16
                  16
                  16
                  16
                  16
                  16
                  16
                  16
                  16
                  16
                  16
                  16
                  16
                  16
                  16
                  16
                  16
                  16
                  16
                  16
                  16
                  16
                  16
                  16
                  16
                  16
                  16
                  16
                  16
                  16
                  16
                  16
                  16
                  16
                  16
                  16
                  16
                  16
                  16
                  16
                  16
                  16
                  16
                  16
                  16
                  16
                  16
                  16
                  16
                  16
                  16
                  16
                  16
                  16
                  16
                  16
                  16
                  16
                  16
                  16
                  16
                  16
                  16
                  16
                  16
                  16
                  16
                  16
                  16
                  16
                  16
                  16
                  16
                  16
                  16
                  16
                  16
                  16
                  16
                  16
                  16
                  16
                  16
                  16
                  16
                  16
                  16
                  16
                  16
                  16
                  16
                  16
                  16
                  16
                  16
                  16
                  16
                  16
                  16
                  16
                  16
                  16
                  16
                  16
                  16
                  16
                  16
                  16
                  16
                  16
                  16
                  16
                  16
                  16
                  16
                  16
                  16
                  16
                  16
                  16
                  16
                  16
                  17
                  17
                  17
                  17
                  17
                  17
                  17
                  17
                  17
                  17
                  17
                  17
                  17
                  17
                  17
                  17
                  17
                  17
                  17
                  17
                  17
                  17
                  17
                  17
                  17
                  17
                  17
                  17
                  17
                  17
                  17
                  17
                  17
                  17
                  17
                  17
                  17
                  17
                  17
                  17
                  17
                  17
                  17
                  17
                  17
                  17
                  17
                  17
                  17
                  17
                  17
                  17
                  17
                  17
                  17
                  17
                  17
                  17
                  17
                  17
                  17
                  17
                  17
                  17
                  17
                  17
                  17
                  17
                  17
                  17
                  17
                  17
                  17
                  17
                  17
                  17
                  17
                  17
                  17
                  17
                  17
                  17
                  17
                  17
                  17
                  17
                  17
                  17
                  17
                  17
                  17
                  17
                  17
                  17
                  17
                  17
                  17
                  17
                  17
                  17
                  17
                  17
                  17
                  17
                  17
                  17
                  17
                  17
                  17
                  17
                  17
                  17
                  17
                  17
                  17
                  17
                  17
                  17
                  17
                  17
                  17
                  17
                  17
                  17
                  17
                  17
                  17
                  17
                  17
                  17
                  17
                  17
                  17
                  17
                  17
                  17
                  17
                  17
                  17
                  17
                  17
                  17
                  17
                  17
                  17
                  17
                  17
                  17
                  17
                  17
                  17
                  17
                  17
                  17
                  17
                  17
                  17
                  17
                  17
                  17
                  17
                  17
                  17
                  17
                  17
                  17
                  17
                  17
                  17
                  17
                  17
                  17
                  17
                  17
                  17
                  17
                  17
                  17
                  17
                  17
                  17
                  17
                  17
                  17
                  17
                  17
                  17
                  17
                  17
                  17
                  17
                  17
                  17
                  17
                  17
                  17
                  17
                  17
                  17
                  17
                  17
                  17
                  17
                  17
                  17
                  17
                  17
                  17
                  17
                  17
                  17
                  17
                  17
                  17
                  17
                  17
                  17
                  17
                  17
                  17
                  17
                  17
                  17
                  17
                  17
                  17
                  17
                  17
                  17
                  17
                  17
                  17
                  17
                  17
                  18
                  18
                  18
                  18
                  18
                  18
                  18
                  18
                  18
                  18
                  18
                  18
                  18
                  18
                  18
                  18
                  18
                  18
                  18
                  18
                  18
                  18
                  18
                  18
                  18
                  18
                  18
                  18
                  18
                  18
                  18
                  18
                  18
                  18
                  18
                  18
                  18
                  18
                  18
                  18
                  18
                  18
                  18
                  18
                  18
                  18
                  18
                  18
                  18
                  18
                  18
                  18
                  18
                  18
                  18
                  18
                  18
                  18
                  18
                  18
                  18
                  18
                  18
                  18
                  18
                  18
                  18
                  18
                  18
                  18
                  18
                  18
                  18
                  18
                  18
                  18
                  18
                  18
                  18
                  18
                  18
                  18
                  18
                  18
                  18
                  18
                  18
                  18
                  18
                  18
                  18
                  18
                  18
                  18
                  18
                  18
                  18
                  18
                  18
                  18
                  18
                  18
                  18
                  18
                  18
                  18
                  18
                  18
                  18
                  18
                  18
                  18
                  18
                  18
                  18
                  18
                  18
                  18
                  18
                  18
                  18
                  18
                  18
                  18
                  18
                  18
                  18
                  18
                  18
                  18
                  18
                  18
                  18
                  18
                  18
                  18
                  18
                  18
                  18
                  18
                  18
                  18
                  18
                  18
                  18
                  18
                  18
                  18
                  18
                  18
                  18
                  18
                  18
                  18
                  18
                  18
  
SCALARS                 displacement_x  double 1
LOOKUP_TABLE default
         0.00000E+00
         0.00000E+00
         0.00000E+00
         0.00000E+00
         0.00000E+00
         0.00000E+00
         0.00000E+00
         0.00000E+00
         0.00000E+00
         0.00000E+00
         0.00000E+00
         0.00000E+00
         0.00000E+00
         0.00000E+00
         0.00000E+00
         0.00000E+00
         0.00000E+00
         0.00000E+00
         0.00000E+00
         0.00000E+00
         0.00000E+00
         0.00000E+00
         0.00000E+00
         0.00000E+00
         0.00000E+00
         0.00000E+00
         0.00000E+00
         0.00000E+00
         0.00000E+00
         0.00000E+00
         0.00000E+00
         0.00000E+00
         0.00000E+00
         0.00000E+00
         0.00000E+00
         0.00000E+00
         0.00000E+00
         0.00000E+00
         0.00000E+00
         0.00000E+00
         0.00000E+00
         0.00000E+00
         0.00000E+00
         0.00000E+00
         0.00000E+00
         0.00000E+00
         0.00000E+00
         0.00000E+00
         0.00000E+00
         0.00000E+00
         0.00000E+00
         0.00000E+00
         0.00000E+00
         0.00000E+00
         0.00000E+00
         0.00000E+00
         0.00000E+00
         0.00000E+00
         0.00000E+00
         0.00000E+00
         0.00000E+00
         0.00000E+00
         0.00000E+00
         0.00000E+00
         0.00000E+00
         0.00000E+00
         0.00000E+00
         0.00000E+00
         0.00000E+00
         0.00000E+00
         0.00000E+00
         0.00000E+00
         0.00000E+00
         0.00000E+00
         0.00000E+00
         0.00000E+00
         0.00000E+00
         0.00000E+00
         0.00000E+00
         0.00000E+00
         0.00000E+00
         0.00000E+00
         0.00000E+00
         0.00000E+00
         0.00000E+00
         0.00000E+00
         0.00000E+00
         0.00000E+00
         0.00000E+00
         0.00000E+00
         0.00000E+00
         0.00000E+00
         0.00000E+00
         0.00000E+00
         0.00000E+00
         0.00000E+00
         0.00000E+00
         0.00000E+00
         0.00000E+00
         0.00000E+00
         0.00000E+00
         0.00000E+00
         0.00000E+00
         0.00000E+00
         0.00000E+00
         0.00000E+00
         0.00000E+00
         0.00000E+00
         0.00000E+00
         0.00000E+00
         0.00000E+00
         0.00000E+00
         0.00000E+00
         0.00000E+00
         0.00000E+00
         0.00000E+00
         0.00000E+00
         0.00000E+00
         0.00000E+00
         0.00000E+00
         0.00000E+00
         0.00000E+00
         0.00000E+00
         0.00000E+00
         0.00000E+00
         0.00000E+00
         0.00000E+00
         0.00000E+00
         0.00000E+00
         0.00000E+00
         0.00000E+00
         0.00000E+00
         0.00000E+00
         0.00000E+00
         0.00000E+00
         0.00000E+00
         0.00000E+00
         0.00000E+00
         0.00000E+00
         0.00000E+00
         0.00000E+00
         0.00000E+00
         0.00000E+00
         0.00000E+00
         0.00000E+00
         0.00000E+00
         0.00000E+00
         0.00000E+00
         0.00000E+00
         0.00000E+00
         0.00000E+00
         0.00000E+00
         0.00000E+00
         0.00000E+00
         0.00000E+00
         0.00000E+00
         0.00000E+00
         0.00000E+00
         0.00000E+00
         0.00000E+00
         0.00000E+00
         0.00000E+00
         0.00000E+00
         0.00000E+00
         0.00000E+00
         0.00000E+00
         0.00000E+00
         0.00000E+00
         0.00000E+00
         0.00000E+00
         0.00000E+00
         0.00000E+00
         0.00000E+00
         0.00000E+00
         0.00000E+00
         0.00000E+00
         0.00000E+00
         0.00000E+00
         0.00000E+00
         0.00000E+00
         0.00000E+00
         0.00000E+00
         0.00000E+00
         0.00000E+00
         0.00000E+00
         0.00000E+00
         0.00000E+00
         0.00000E+00
         0.00000E+00
         0.00000E+00
         0.00000E+00
         0.00000E+00
         0.00000E+00
         0.00000E+00
         0.00000E+00
         0.00000E+00
         0.00000E+00
         0.00000E+00
         0.00000E+00
         0.00000E+00
         0.00000E+00
         0.00000E+00
         0.00000E+00
         0.00000E+00
         0.00000E+00
         0.00000E+00
         0.00000E+00
         0.00000E+00
         0.00000E+00
         0.00000E+00
         0.00000E+00
         0.00000E+00
         0.00000E+00
         0.00000E+00
         0.00000E+00
         0.00000E+00
         0.00000E+00
         0.00000E+00
         0.00000E+00
         0.00000E+00
         0.00000E+00
         0.00000E+00
         0.00000E+00
         0.00000E+00
         0.00000E+00
         0.00000E+00
         0.00000E+00
         0.00000E+00
         0.00000E+00
         0.00000E+00
         0.00000E+00
         0.00000E+00
         0.00000E+00
         0.00000E+00
         0.00000E+00
         0.00000E+00
         0.00000E+00
         0.00000E+00
         0.00000E+00
         0.00000E+00
         0.00000E+00
         0.00000E+00
         0.00000E+00
         0.00000E+00
         0.00000E+00
         0.00000E+00
         0.00000E+00
         0.00000E+00
         0.00000E+00
         0.00000E+00
         0.00000E+00
         0.00000E+00
         0.00000E+00
         0.00000E+00
         0.00000E+00
         0.00000E+00
         0.00000E+00
         0.00000E+00
         0.00000E+00
         0.00000E+00
         0.00000E+00
         0.00000E+00
         0.00000E+00
         0.00000E+00
         0.00000E+00
         0.00000E+00
         0.00000E+00
         0.00000E+00
         0.00000E+00
         0.00000E+00
         0.00000E+00
         0.00000E+00
         0.00000E+00
         0.00000E+00
         0.00000E+00
         0.00000E+00
         0.00000E+00
         0.00000E+00
         0.00000E+00
         0.00000E+00
         0.00000E+00
         0.00000E+00
         0.00000E+00
         0.00000E+00
         0.00000E+00
         0.00000E+00
         0.00000E+00
         0.00000E+00
         0.00000E+00
         0.00000E+00
         0.00000E+00
         0.00000E+00
         0.00000E+00
         0.00000E+00
         0.00000E+00
         0.00000E+00
         0.00000E+00
         0.00000E+00
         0.00000E+00
         0.00000E+00
         0.00000E+00
         0.00000E+00
         0.00000E+00
         0.00000E+00
         0.00000E+00
         0.00000E+00
         0.00000E+00
         0.00000E+00
         0.00000E+00
         0.00000E+00
         0.00000E+00
         0.00000E+00
         0.00000E+00
         0.00000E+00
         0.00000E+00
         0.00000E+00
         0.00000E+00
         0.00000E+00
         0.00000E+00
         0.00000E+00
         0.00000E+00
         0.00000E+00
         0.00000E+00
         0.00000E+00
         0.00000E+00
         0.00000E+00
         0.00000E+00
         0.00000E+00
         0.00000E+00
         0.00000E+00
         0.00000E+00
         0.00000E+00
         0.00000E+00
         0.00000E+00
         0.00000E+00
         0.00000E+00
         0.00000E+00
         0.00000E+00
         0.00000E+00
         0.00000E+00
         0.00000E+00
         0.00000E+00
         0.00000E+00
         0.00000E+00
         0.00000E+00
         0.00000E+00
         0.00000E+00
         0.00000E+00
         0.00000E+00
         0.00000E+00
         0.00000E+00
         0.00000E+00
         0.00000E+00
         0.00000E+00
         0.00000E+00
         0.00000E+00
         0.00000E+00
         0.00000E+00
         0.00000E+00
         0.00000E+00
         0.00000E+00
         0.00000E+00
         0.00000E+00
         0.00000E+00
         0.00000E+00
         0.00000E+00
         0.00000E+00
         0.00000E+00
         0.00000E+00
         0.00000E+00
         0.00000E+00
         0.00000E+00
         0.00000E+00
         0.00000E+00
         0.00000E+00
         0.00000E+00
         0.00000E+00
         0.00000E+00
         0.00000E+00
         0.00000E+00
         0.00000E+00
         0.00000E+00
         0.00000E+00
         0.00000E+00
         0.00000E+00
         0.00000E+00
         0.00000E+00
         0.00000E+00
         0.00000E+00
         0.00000E+00
         0.00000E+00
         0.00000E+00
         0.00000E+00
         0.00000E+00
         0.00000E+00
         0.00000E+00
         0.00000E+00
         0.00000E+00
         0.00000E+00
         0.00000E+00
         0.00000E+00
         0.00000E+00
         0.00000E+00
         0.00000E+00
         0.00000E+00
         0.00000E+00
         0.00000E+00
         0.00000E+00
         0.00000E+00
         0.00000E+00
         0.00000E+00
         0.00000E+00
         0.00000E+00
         0.00000E+00
         0.00000E+00
         0.00000E+00
         0.00000E+00
         0.00000E+00
         0.00000E+00
         0.00000E+00
         0.00000E+00
         0.00000E+00
         0.00000E+00
         0.00000E+00
         0.00000E+00
         0.00000E+00
         0.00000E+00
         0.00000E+00
         0.00000E+00
         0.00000E+00
         0.00000E+00
         0.00000E+00
         0.00000E+00
         0.00000E+00
         0.00000E+00
         0.00000E+00
         0.00000E+00
         0.00000E+00
         0.00000E+00
         0.00000E+00
         0.00000E+00
         0.00000E+00
         0.00000E+00
         0.00000E+00
         0.00000E+00
         0.00000E+00
         0.00000E+00
         0.00000E+00
         0.00000E+00
         0.00000E+00
         0.00000E+00
         0.00000E+00
         0.00000E+00
         0.00000E+00
         0.00000E+00
         0.00000E+00
         0.00000E+00
         0.00000E+00
         0.00000E+00
         0.00000E+00
         0.00000E+00
         0.00000E+00
         0.00000E+00
         0.00000E+00
         0.00000E+00
         0.00000E+00
         0.00000E+00
         0.00000E+00
         0.00000E+00
         0.00000E+00
         0.00000E+00
         0.00000E+00
         0.00000E+00
         0.00000E+00
         0.00000E+00
         0.00000E+00
         0.00000E+00
         0.00000E+00
         0.00000E+00
         0.00000E+00
         0.00000E+00
         0.00000E+00
         0.00000E+00
         0.00000E+00
         0.00000E+00
         0.00000E+00
         0.00000E+00
         0.00000E+00
         0.00000E+00
         0.00000E+00
         0.00000E+00
         0.00000E+00
         0.00000E+00
         0.00000E+00
         0.00000E+00
         0.00000E+00
         0.00000E+00
         0.00000E+00
         0.00000E+00
         0.00000E+00
         0.00000E+00
         0.00000E+00
         0.00000E+00
         0.00000E+00
         0.00000E+00
         0.00000E+00
         0.00000E+00
         0.00000E+00
         0.00000E+00
         0.00000E+00
         0.00000E+00
         0.00000E+00
         0.00000E+00
         0.00000E+00
         0.00000E+00
         0.00000E+00
         0.00000E+00
         0.00000E+00
         0.00000E+00
         0.00000E+00
         0.00000E+00
         0.00000E+00
         0.00000E+00
         0.00000E+00
         0.00000E+00
         0.00000E+00
         0.00000E+00
         0.00000E+00
         0.00000E+00
         0.00000E+00
         0.00000E+00
         0.00000E+00
         0.00000E+00
         0.00000E+00
         0.00000E+00
         0.00000E+00
         0.00000E+00
         0.00000E+00
         0.00000E+00
         0.00000E+00
         0.00000E+00
         0.00000E+00
         0.00000E+00
         0.00000E+00
         0.00000E+00
         0.00000E+00
         0.00000E+00
         0.00000E+00
         0.00000E+00
         0.00000E+00
         0.00000E+00
         0.00000E+00
         0.00000E+00
         0.00000E+00
         0.00000E+00
         0.00000E+00
         0.00000E+00
         0.00000E+00
         0.00000E+00
         0.00000E+00
         0.00000E+00
         0.00000E+00
         0.00000E+00
         0.00000E+00
         0.00000E+00
         0.00000E+00
         0.00000E+00
         0.00000E+00
         0.00000E+00
         0.00000E+00
         0.00000E+00
         0.00000E+00
         0.00000E+00
         0.00000E+00
         0.00000E+00
         0.00000E+00
         0.00000E+00
         0.00000E+00
         0.00000E+00
         0.00000E+00
         0.00000E+00
         0.00000E+00
         0.00000E+00
         0.00000E+00
         0.00000E+00
         0.00000E+00
         0.00000E+00
         0.00000E+00
         0.00000E+00
         0.00000E+00
         0.00000E+00
         0.00000E+00
         0.00000E+00
         0.00000E+00
         0.00000E+00
         0.00000E+00
         0.00000E+00
         0.00000E+00
         0.00000E+00
         0.00000E+00
         0.00000E+00
         0.00000E+00
         0.00000E+00
         0.00000E+00
         0.00000E+00
         0.00000E+00
         0.00000E+00
         0.00000E+00
         0.00000E+00
         0.00000E+00
         0.00000E+00
         0.00000E+00
         0.00000E+00
         0.00000E+00
         0.00000E+00
         0.00000E+00
         0.00000E+00
         0.00000E+00
         0.00000E+00
         0.00000E+00
         0.00000E+00
         0.00000E+00
         0.00000E+00
         0.00000E+00
         0.00000E+00
         0.00000E+00
         0.00000E+00
         0.00000E+00
         0.00000E+00
         0.00000E+00
         0.00000E+00
         0.00000E+00
         0.00000E+00
         0.00000E+00
         0.00000E+00
         0.00000E+00
         0.00000E+00
         0.00000E+00
         0.00000E+00
         0.00000E+00
         0.00000E+00
         0.00000E+00
         0.00000E+00
         0.00000E+00
         0.00000E+00
         0.00000E+00
         0.00000E+00
         0.00000E+00
         0.00000E+00
         0.00000E+00
         0.00000E+00
         0.00000E+00
         0.00000E+00
         0.00000E+00
         0.00000E+00
         0.00000E+00
         0.00000E+00
         0.00000E+00
         0.00000E+00
         0.00000E+00
         0.00000E+00
         0.00000E+00
         0.00000E+00
         0.00000E+00
         0.00000E+00
         0.00000E+00
         0.00000E+00
         0.00000E+00
         0.00000E+00
         0.00000E+00
         0.00000E+00
         0.00000E+00
         0.00000E+00
         0.00000E+00
         0.00000E+00
         0.00000E+00
         0.00000E+00
         0.00000E+00
         0.00000E+00
         0.00000E+00
         0.00000E+00
         0.00000E+00
         0.00000E+00
         0.00000E+00
         0.00000E+00
         0.00000E+00
         0.00000E+00
         0.00000E+00
         0.00000E+00
         0.00000E+00
         0.00000E+00
         0.00000E+00
         0.00000E+00
         0.00000E+00
         0.00000E+00
         0.00000E+00
         0.00000E+00
         0.00000E+00
         0.00000E+00
         0.00000E+00
         0.00000E+00
         0.00000E+00
         0.00000E+00
         0.00000E+00
         0.00000E+00
         0.00000E+00
         0.00000E+00
         0.00000E+00
         0.00000E+00
         0.00000E+00
         0.00000E+00
         0.00000E+00
         0.00000E+00
         0.00000E+00
         0.00000E+00
         0.00000E+00
         0.00000E+00
         0.00000E+00
         0.00000E+00
         0.00000E+00
         0.00000E+00
         0.00000E+00
         0.00000E+00
         0.00000E+00
         0.00000E+00
         0.00000E+00
         0.00000E+00
         0.00000E+00
         0.00000E+00
         0.00000E+00
         0.00000E+00
         0.00000E+00
         0.00000E+00
         0.00000E+00
         0.00000E+00
         0.00000E+00
         0.00000E+00
         0.00000E+00
         0.00000E+00
         0.00000E+00
         0.00000E+00
         0.00000E+00
         0.00000E+00
         0.00000E+00
         0.00000E+00
         0.00000E+00
         0.00000E+00
         0.00000E+00
         0.00000E+00
         0.00000E+00
         0.00000E+00
         0.00000E+00
         0.00000E+00
         0.00000E+00
         0.00000E+00
         0.00000E+00
         0.00000E+00
         0.00000E+00
         0.00000E+00
         0.00000E+00
         0.00000E+00
         0.00000E+00
         0.00000E+00
         0.00000E+00
         0.00000E+00
         0.00000E+00
         0.00000E+00
         0.00000E+00
         0.00000E+00
         0.00000E+00
         0.00000E+00
         0.00000E+00
         0.00000E+00
         0.00000E+00
         0.00000E+00
         0.00000E+00
         0.00000E+00
         0.00000E+00
         0.00000E+00
         0.00000E+00
         0.00000E+00
         0.00000E+00
         0.00000E+00
         0.00000E+00
         0.00000E+00
         0.00000E+00
         0.00000E+00
         0.00000E+00
         0.00000E+00
         0.00000E+00
         0.00000E+00
         0.00000E+00
         0.00000E+00
         0.00000E+00
         0.00000E+00
         0.00000E+00
         0.00000E+00
         0.00000E+00
         0.00000E+00
         0.00000E+00
         0.00000E+00
         0.00000E+00
         0.00000E+00
         0.00000E+00
         0.00000E+00
         0.00000E+00
         0.00000E+00
         0.00000E+00
         0.00000E+00
         0.00000E+00
         0.00000E+00
         0.00000E+00
         0.00000E+00
         0.00000E+00
         0.00000E+00
         0.00000E+00
         0.00000E+00
         0.00000E+00
         0.00000E+00
         0.00000E+00
         0.00000E+00
         0.00000E+00
         0.00000E+00
         0.00000E+00
         0.00000E+00
         0.00000E+00
         0.00000E+00
         0.00000E+00
         0.00000E+00
         0.00000E+00
         0.00000E+00
         0.00000E+00
         0.00000E+00
         0.00000E+00
         0.00000E+00
         0.00000E+00
         0.00000E+00
         0.00000E+00
         0.00000E+00
         0.00000E+00
         0.00000E+00
         0.00000E+00
         0.00000E+00
         0.00000E+00
         0.00000E+00
         0.00000E+00
         0.00000E+00
         0.00000E+00
         0.00000E+00
         0.00000E+00
         0.00000E+00
         0.00000E+00
         0.00000E+00
         0.00000E+00
         0.00000E+00
         0.00000E+00
         0.00000E+00
         0.00000E+00
         0.00000E+00
         0.00000E+00
         0.00000E+00
         0.00000E+00
         0.00000E+00
         0.00000E+00
         0.00000E+00
         0.00000E+00
         0.00000E+00
         0.00000E+00
         0.00000E+00
         0.00000E+00
         0.00000E+00
         0.00000E+00
         0.00000E+00
         0.00000E+00
         0.00000E+00
         0.00000E+00
         0.00000E+00
         0.00000E+00
         0.00000E+00
         0.00000E+00
         0.00000E+00
         0.00000E+00
         0.00000E+00
         0.00000E+00
         0.00000E+00
         0.00000E+00
         0.00000E+00
         0.00000E+00
         0.00000E+00
         0.00000E+00
         0.00000E+00
         0.00000E+00
         0.00000E+00
         0.00000E+00
         0.00000E+00
         0.00000E+00
         0.00000E+00
         0.00000E+00
         0.00000E+00
         0.00000E+00
         0.00000E+00
         0.00000E+00
         0.00000E+00
         0.00000E+00
         0.00000E+00
         0.00000E+00
         0.00000E+00
         0.00000E+00
         0.00000E+00
         0.00000E+00
         0.00000E+00
         0.00000E+00
         0.00000E+00
         0.00000E+00
         0.00000E+00
         0.00000E+00
         0.00000E+00
         0.00000E+00
         0.00000E+00
         0.00000E+00
         0.00000E+00
         0.00000E+00
         0.00000E+00
         0.00000E+00
         0.00000E+00
         0.00000E+00
         0.00000E+00
         0.00000E+00
         0.00000E+00
         0.00000E+00
         0.00000E+00
         0.00000E+00
         0.00000E+00
         0.00000E+00
         0.00000E+00
         0.00000E+00
         0.00000E+00
         0.00000E+00
         0.00000E+00
         0.00000E+00
         0.00000E+00
         0.00000E+00
         0.00000E+00
         0.00000E+00
         0.00000E+00
         0.00000E+00
         0.00000E+00
         0.00000E+00
         0.00000E+00
         0.00000E+00
         0.00000E+00
         0.00000E+00
         0.00000E+00
         0.00000E+00
         0.00000E+00
         0.00000E+00
         0.00000E+00
         0.00000E+00
         0.00000E+00
         0.00000E+00
         0.00000E+00
         0.00000E+00
         0.00000E+00
         0.00000E+00
         0.00000E+00
         0.00000E+00
         0.00000E+00
         0.00000E+00
         0.00000E+00
         0.00000E+00
         0.00000E+00
         0.00000E+00
         0.00000E+00
         0.00000E+00
         0.00000E+00
         0.00000E+00
         0.00000E+00
         0.00000E+00
         0.00000E+00
         0.00000E+00
         0.00000E+00
         0.00000E+00
         0.00000E+00
         0.00000E+00
         0.00000E+00
         0.00000E+00
         0.00000E+00
         0.00000E+00
         0.00000E+00
         0.00000E+00
         0.00000E+00
         0.00000E+00
         0.00000E+00
         0.00000E+00
         0.00000E+00
         0.00000E+00
         0.00000E+00
         0.00000E+00
         0.00000E+00
         0.00000E+00
         0.00000E+00
         0.00000E+00
         0.00000E+00
         0.00000E+00
         0.00000E+00
         0.00000E+00
         0.00000E+00
         0.00000E+00
         0.00000E+00
         0.00000E+00
         0.00000E+00
         0.00000E+00
         0.00000E+00
         0.00000E+00
         0.00000E+00
         0.00000E+00
         0.00000E+00
         0.00000E+00
         0.00000E+00
         0.00000E+00
         0.00000E+00
         0.00000E+00
         0.00000E+00
         0.00000E+00
         0.00000E+00
         0.00000E+00
         0.00000E+00
         0.00000E+00
         0.00000E+00
         0.00000E+00
         0.00000E+00
         0.00000E+00
         0.00000E+00
         0.00000E+00
         0.00000E+00
         0.00000E+00
         0.00000E+00
         0.00000E+00
         0.00000E+00
         0.00000E+00
         0.00000E+00
         0.00000E+00
         0.00000E+00
         0.00000E+00
         0.00000E+00
         0.00000E+00
         0.00000E+00
         0.00000E+00
         0.00000E+00
         0.00000E+00
         0.00000E+00
         0.00000E+00
         0.00000E+00
         0.00000E+00
         0.00000E+00
         0.00000E+00
         0.00000E+00
         0.00000E+00
         0.00000E+00
         0.00000E+00
         0.00000E+00
         0.00000E+00
         0.00000E+00
         0.00000E+00
         0.00000E+00
         0.00000E+00
         0.00000E+00
         0.00000E+00
         0.00000E+00
         0.00000E+00
         0.00000E+00
         0.00000E+00
         0.00000E+00
         0.00000E+00
         0.00000E+00
         0.00000E+00
         0.00000E+00
         0.00000E+00
         0.00000E+00
         0.00000E+00
         0.00000E+00
         0.00000E+00
         0.00000E+00
         0.00000E+00
         0.00000E+00
         0.00000E+00
         0.00000E+00
         0.00000E+00
         0.00000E+00
         0.00000E+00
         0.00000E+00
         0.00000E+00
         0.00000E+00
         0.00000E+00
         0.00000E+00
         0.00000E+00
         0.00000E+00
         0.00000E+00
         0.00000E+00
         0.00000E+00
         0.00000E+00
         0.00000E+00
         0.00000E+00
         0.00000E+00
         0.00000E+00
         0.00000E+00
         0.00000E+00
         0.00000E+00
         0.00000E+00
         0.00000E+00
         0.00000E+00
         0.00000E+00
         0.00000E+00
         0.00000E+00
         0.00000E+00
         0.00000E+00
         0.00000E+00
         0.00000E+00
         0.00000E+00
         0.00000E+00
         0.00000E+00
         0.00000E+00
         0.00000E+00
         0.00000E+00
         0.00000E+00
         0.00000E+00
         0.00000E+00
         0.00000E+00
         0.00000E+00
         0.00000E+00
         0.00000E+00
         0.00000E+00
         0.00000E+00
         0.00000E+00
         0.00000E+00
         0.00000E+00
         0.00000E+00
         0.00000E+00
         0.00000E+00
         0.00000E+00
         0.00000E+00
         0.00000E+00
         0.00000E+00
         0.00000E+00
         0.00000E+00
         0.00000E+00
         0.00000E+00
         0.00000E+00
         0.00000E+00
         0.00000E+00
         0.00000E+00
         0.00000E+00
         0.00000E+00
         0.00000E+00
         0.00000E+00
         0.00000E+00
         0.00000E+00
         0.00000E+00
         0.00000E+00
         0.00000E+00
         0.00000E+00
         0.00000E+00
         0.00000E+00
         0.00000E+00
         0.00000E+00
         0.00000E+00
         0.00000E+00
         0.00000E+00
         0.00000E+00
         0.00000E+00
         0.00000E+00
         0.00000E+00
         0.00000E+00
         0.00000E+00
         0.00000E+00
         0.00000E+00
         0.00000E+00
         0.00000E+00
         0.00000E+00
         0.00000E+00
         0.00000E+00
         0.00000E+00
         0.00000E+00
         0.00000E+00
         0.00000E+00
         0.00000E+00
         0.00000E+00
         0.00000E+00
         0.00000E+00
         0.00000E+00
         0.00000E+00
         0.00000E+00
         0.00000E+00
         0.00000E+00
         0.00000E+00
         0.00000E+00
         0.00000E+00
         0.00000E+00
         0.00000E+00
         0.00000E+00
         0.00000E+00
         0.00000E+00
         0.00000E+00
         0.00000E+00
         0.00000E+00
         0.00000E+00
         0.00000E+00
         0.00000E+00
         0.00000E+00
         0.00000E+00
         0.00000E+00
         0.00000E+00
         0.00000E+00
         0.00000E+00
         0.00000E+00
         0.00000E+00
         0.00000E+00
         0.00000E+00
         0.00000E+00
         0.00000E+00
         0.00000E+00
         0.00000E+00
         0.00000E+00
         0.00000E+00
         0.00000E+00
         0.00000E+00
         0.00000E+00
         0.00000E+00
         0.00000E+00
         0.00000E+00
         0.00000E+00
         0.00000E+00
         0.00000E+00
         0.00000E+00
         0.00000E+00
         0.00000E+00
         0.00000E+00
         0.00000E+00
         0.00000E+00
         0.00000E+00
         0.00000E+00
         0.00000E+00
         0.00000E+00
         0.00000E+00
         0.00000E+00
         0.00000E+00
         0.00000E+00
         0.00000E+00
         0.00000E+00
         0.00000E+00
         0.00000E+00
         0.00000E+00
         0.00000E+00
         0.00000E+00
         0.00000E+00
         0.00000E+00
         0.00000E+00
         0.00000E+00
         0.00000E+00
         0.00000E+00
         0.00000E+00
         0.00000E+00
         0.00000E+00
         0.00000E+00
         0.00000E+00
         0.00000E+00
         0.00000E+00
         0.00000E+00
         0.00000E+00
         0.00000E+00
         0.00000E+00
         0.00000E+00
         0.00000E+00
         0.00000E+00
         0.00000E+00
         0.00000E+00
         0.00000E+00
         0.00000E+00
         0.00000E+00
         0.00000E+00
         0.00000E+00
         0.00000E+00
         0.00000E+00
         0.00000E+00
         0.00000E+00
         0.00000E+00
         0.00000E+00
         0.00000E+00
         0.00000E+00
         0.00000E+00
         0.00000E+00
         0.00000E+00
         0.00000E+00
         0.00000E+00
         0.00000E+00
         0.00000E+00
         0.00000E+00
         0.00000E+00
         0.00000E+00
         0.00000E+00
         0.00000E+00
         0.00000E+00
         0.00000E+00
         0.00000E+00
         0.00000E+00
         0.00000E+00
         0.00000E+00
         0.00000E+00
         0.00000E+00
         0.00000E+00
         0.00000E+00
         0.00000E+00
         0.00000E+00
         0.00000E+00
         0.00000E+00
         0.00000E+00
         0.00000E+00
         0.00000E+00
         0.00000E+00
         0.00000E+00
         0.00000E+00
         0.00000E+00
         0.00000E+00
         0.00000E+00
         0.00000E+00
         0.00000E+00
         0.00000E+00
         0.00000E+00
         0.00000E+00
         0.00000E+00
         0.00000E+00
         0.00000E+00
         0.00000E+00
         0.00000E+00
         0.00000E+00
         0.00000E+00
         0.00000E+00
         0.00000E+00
         0.00000E+00
         0.00000E+00
         0.00000E+00
         0.00000E+00
         0.00000E+00
         0.00000E+00
         0.00000E+00
         0.00000E+00
         0.00000E+00
         0.00000E+00
         0.00000E+00
         0.00000E+00
         0.00000E+00
         0.00000E+00
         0.00000E+00
         0.00000E+00
         0.00000E+00
         0.00000E+00
         0.00000E+00
         0.00000E+00
         0.00000E+00
         0.00000E+00
         0.00000E+00
         0.00000E+00
         0.00000E+00
         0.00000E+00
         0.00000E+00
         0.00000E+00
         0.00000E+00
         0.00000E+00
         0.00000E+00
         0.00000E+00
         0.00000E+00
         0.00000E+00
         0.00000E+00
         0.00000E+00
         0.00000E+00
         0.00000E+00
         0.00000E+00
         0.00000E+00
         0.00000E+00
         0.00000E+00
         0.00000E+00
         0.00000E+00
         0.00000E+00
         0.00000E+00
         0.00000E+00
         0.00000E+00
         0.00000E+00
         0.00000E+00
         0.00000E+00
         0.00000E+00
         0.00000E+00
         0.00000E+00
         0.00000E+00
         0.00000E+00
         0.00000E+00
         0.00000E+00
         0.00000E+00
         0.00000E+00
         0.00000E+00
         0.00000E+00
         0.00000E+00
         0.00000E+00
         0.00000E+00
         0.00000E+00
         0.00000E+00
         0.00000E+00
         0.00000E+00
         0.00000E+00
         0.00000E+00
         0.00000E+00
         0.00000E+00
         0.00000E+00
         0.00000E+00
         0.00000E+00
         0.00000E+00
         0.00000E+00
         0.00000E+00
         0.00000E+00
         0.00000E+00
         0.00000E+00
         0.00000E+00
         0.00000E+00
         0.00000E+00
         0.00000E+00
         0.00000E+00
         0.00000E+00
         0.00000E+00
         0.00000E+00
         0.00000E+00
         0.00000E+00
         0.00000E+00
         0.00000E+00
         0.00000E+00
         0.00000E+00
         0.00000E+00
         0.00000E+00
         0.00000E+00
         0.00000E+00
         0.00000E+00
         0.00000E+00
         0.00000E+00
         0.00000E+00
         0.00000E+00
         0.00000E+00
         0.00000E+00
         0.00000E+00
         0.00000E+00
         0.00000E+00
         0.00000E+00
         0.00000E+00
         0.00000E+00
         0.00000E+00
         0.00000E+00
         0.00000E+00
         0.00000E+00
         0.00000E+00
         0.00000E+00
         0.00000E+00
         0.00000E+00
         0.00000E+00
         0.00000E+00
         0.00000E+00
         0.00000E+00
         0.00000E+00
         0.00000E+00
         0.00000E+00
         0.00000E+00
         0.00000E+00
         0.00000E+00
         0.00000E+00
         0.00000E+00
         0.00000E+00
         0.00000E+00
         0.00000E+00
         0.00000E+00
         0.00000E+00
         0.00000E+00
         0.00000E+00
         0.00000E+00
         0.00000E+00
         0.00000E+00
         0.00000E+00
         0.00000E+00
         0.00000E+00
         0.00000E+00
         0.00000E+00
         0.00000E+00
         0.00000E+00
         0.00000E+00
         0.00000E+00
         0.00000E+00
         0.00000E+00
         0.00000E+00
         0.00000E+00
         0.00000E+00
         0.00000E+00
         0.00000E+00
         0.00000E+00
         0.00000E+00
         0.00000E+00
         0.00000E+00
         0.00000E+00
         0.00000E+00
         0.00000E+00
         0.00000E+00
         0.00000E+00
         0.00000E+00
         0.00000E+00
         0.00000E+00
         0.00000E+00
         0.00000E+00
         0.00000E+00
         0.00000E+00
         0.00000E+00
         0.00000E+00
         0.00000E+00
         0.00000E+00
         0.00000E+00
         0.00000E+00
         0.00000E+00
         0.00000E+00
         0.00000E+00
         0.00000E+00
         0.00000E+00
         0.00000E+00
         0.00000E+00
         0.00000E+00
         0.00000E+00
         0.00000E+00
         0.00000E+00
         0.00000E+00
         0.00000E+00
         0.00000E+00
         0.00000E+00
         0.00000E+00
         0.00000E+00
         0.00000E+00
         0.00000E+00
         0.00000E+00
         0.00000E+00
         0.00000E+00
         0.00000E+00
         0.00000E+00
         0.00000E+00
         0.00000E+00
         0.00000E+00
         0.00000E+00
         0.00000E+00
         0.00000E+00
         0.00000E+00
         0.00000E+00
         0.00000E+00
         0.00000E+00
         0.00000E+00
         0.00000E+00
         0.00000E+00
         0.00000E+00
         0.00000E+00
         0.00000E+00
         0.00000E+00
         0.00000E+00
         0.00000E+00
         0.00000E+00
         0.00000E+00
         0.00000E+00
         0.00000E+00
         0.00000E+00
         0.00000E+00
         0.00000E+00
         0.00000E+00
         0.00000E+00
         0.00000E+00
         0.00000E+00
         0.00000E+00
         0.00000E+00
         0.00000E+00
         0.00000E+00
         0.00000E+00
         0.00000E+00
         0.00000E+00
         0.00000E+00
         0.00000E+00
         0.00000E+00
         0.00000E+00
         0.00000E+00
         0.00000E+00
         0.00000E+00
         0.00000E+00
         0.00000E+00
         0.00000E+00
         0.00000E+00
         0.00000E+00
         0.00000E+00
         0.00000E+00
         0.00000E+00
         0.00000E+00
         0.00000E+00
         0.00000E+00
         0.00000E+00
         0.00000E+00
         0.00000E+00
         0.00000E+00
         0.00000E+00
         0.00000E+00
         0.00000E+00
         0.00000E+00
         0.00000E+00
         0.00000E+00
         0.00000E+00
         0.00000E+00
         0.00000E+00
         0.00000E+00
         0.00000E+00
         0.00000E+00
         0.00000E+00
         0.00000E+00
         0.00000E+00
         0.00000E+00
         0.00000E+00
         0.00000E+00
         0.00000E+00
         0.00000E+00
         0.00000E+00
         0.00000E+00
         0.00000E+00
         0.00000E+00
         0.00000E+00
         0.00000E+00
         0.00000E+00
         0.00000E+00
         0.00000E+00
         0.00000E+00
         0.00000E+00
         0.00000E+00
         0.00000E+00
         0.00000E+00
         0.00000E+00
         0.00000E+00
         0.00000E+00
         0.00000E+00
         0.00000E+00
         0.00000E+00
         0.00000E+00
         0.00000E+00
         0.00000E+00
         0.00000E+00
         0.00000E+00
         0.00000E+00
         0.00000E+00
         0.00000E+00
         0.00000E+00
         0.00000E+00
         0.00000E+00
         0.00000E+00
         0.00000E+00
         0.00000E+00
         0.00000E+00
         0.00000E+00
         0.00000E+00
         0.00000E+00
         0.00000E+00
         0.00000E+00
         0.00000E+00
         0.00000E+00
         0.00000E+00
         0.00000E+00
         0.00000E+00
         0.00000E+00
         0.00000E+00
         0.00000E+00
         0.00000E+00
         0.00000E+00
         0.00000E+00
         0.00000E+00
         0.00000E+00
         0.00000E+00
         0.00000E+00
         0.00000E+00
         0.00000E+00
         0.00000E+00
         0.00000E+00
         0.00000E+00
         0.00000E+00
         0.00000E+00
         0.00000E+00
         0.00000E+00
         0.00000E+00
         0.00000E+00
         0.00000E+00
         0.00000E+00
         0.00000E+00
         0.00000E+00
         0.00000E+00
         0.00000E+00
         0.00000E+00
         0.00000E+00
         0.00000E+00
         0.00000E+00
         0.00000E+00
         0.00000E+00
         0.00000E+00
         0.00000E+00
         0.00000E+00
         0.00000E+00
         0.00000E+00
         0.00000E+00
         0.00000E+00
         0.00000E+00
         0.00000E+00
         0.00000E+00
         0.00000E+00
         0.00000E+00
         0.00000E+00
         0.00000E+00
         0.00000E+00
         0.00000E+00
         0.00000E+00
         0.00000E+00
         0.00000E+00
         0.00000E+00
         0.00000E+00
         0.00000E+00
         0.00000E+00
         0.00000E+00
         0.00000E+00
         0.00000E+00
         0.00000E+00
         0.00000E+00
         0.00000E+00
         0.00000E+00
         0.00000E+00
         0.00000E+00
         0.00000E+00
         0.00000E+00
         0.00000E+00
         0.00000E+00
         0.00000E+00
         0.00000E+00
         0.00000E+00
         0.00000E+00
         0.00000E+00
         0.00000E+00
         0.00000E+00
         0.00000E+00
         0.00000E+00
         0.00000E+00
         0.00000E+00
         0.00000E+00
         0.00000E+00
         0.00000E+00
         0.00000E+00
         0.00000E+00
         0.00000E+00
         0.00000E+00
         0.00000E+00
         0.00000E+00
         0.00000E+00
         0.00000E+00
         0.00000E+00
         0.00000E+00
         0.00000E+00
         0.00000E+00
         0.00000E+00
         0.00000E+00
         0.00000E+00
         0.00000E+00
         0.00000E+00
         0.00000E+00
         0.00000E+00
         0.00000E+00
         0.00000E+00
         0.00000E+00
         0.00000E+00
         0.00000E+00
         0.00000E+00
         0.00000E+00
         0.00000E+00
         0.00000E+00
         0.00000E+00
         0.00000E+00
         0.00000E+00
         0.00000E+00
         0.00000E+00
         0.00000E+00
         0.00000E+00
         0.00000E+00
         0.00000E+00
         0.00000E+00
         0.00000E+00
         0.00000E+00
         0.00000E+00
         0.00000E+00
         0.00000E+00
         0.00000E+00
         0.00000E+00
         0.00000E+00
         0.00000E+00
         0.00000E+00
         0.00000E+00
         0.00000E+00
         0.00000E+00
         0.00000E+00
         0.00000E+00
         0.00000E+00
         0.00000E+00
         0.00000E+00
         0.00000E+00
         0.00000E+00
         0.00000E+00
         0.00000E+00
         0.00000E+00
         0.00000E+00
         0.00000E+00
         0.00000E+00
         0.00000E+00
         0.00000E+00
         0.00000E+00
         0.00000E+00
         0.00000E+00
         0.00000E+00
         0.00000E+00
         0.00000E+00
         0.00000E+00
         0.00000E+00
         0.00000E+00
         0.00000E+00
         0.00000E+00
         0.00000E+00
         0.00000E+00
         0.00000E+00
         0.00000E+00
         0.00000E+00
         0.00000E+00
         0.00000E+00
         0.00000E+00
         0.00000E+00
         0.00000E+00
         0.00000E+00
         0.00000E+00
         0.00000E+00
         0.00000E+00
         0.00000E+00
         0.00000E+00
         0.00000E+00
         0.00000E+00
         0.00000E+00
         0.00000E+00
         0.00000E+00
         0.00000E+00
         0.00000E+00
         0.00000E+00
         0.00000E+00
         0.00000E+00
         0.00000E+00
         0.00000E+00
         0.00000E+00
         0.00000E+00
         0.00000E+00
         0.00000E+00
         0.00000E+00
         0.00000E+00
         0.00000E+00
         0.00000E+00
         0.00000E+00
         0.00000E+00
         0.00000E+00
         0.00000E+00
         0.00000E+00
         0.00000E+00
         0.00000E+00
         0.00000E+00
         0.00000E+00
         0.00000E+00
         0.00000E+00
         0.00000E+00
         0.00000E+00
         0.00000E+00
         0.00000E+00
         0.00000E+00
         0.00000E+00
         0.00000E+00
         0.00000E+00
         0.00000E+00
         0.00000E+00
         0.00000E+00
         0.00000E+00
         0.00000E+00
         0.00000E+00
         0.00000E+00
         0.00000E+00
         0.00000E+00
         0.00000E+00
         0.00000E+00
         0.00000E+00
         0.00000E+00
         0.00000E+00
         0.00000E+00
         0.00000E+00
         0.00000E+00
         0.00000E+00
         0.00000E+00
         0.00000E+00
         0.00000E+00
         0.00000E+00
         0.00000E+00
         0.00000E+00
         0.00000E+00
         0.00000E+00
         0.00000E+00
         0.00000E+00
         0.00000E+00
         0.00000E+00
         0.00000E+00
         0.00000E+00
         0.00000E+00
         0.00000E+00
         0.00000E+00
         0.00000E+00
         0.00000E+00
         0.00000E+00
         0.00000E+00
         0.00000E+00
         0.00000E+00
         0.00000E+00
         0.00000E+00
         0.00000E+00
         0.00000E+00
         0.00000E+00
         0.00000E+00
         0.00000E+00
         0.00000E+00
         0.00000E+00
         0.00000E+00
         0.00000E+00
         0.00000E+00
         0.00000E+00
         0.00000E+00
         0.00000E+00
         0.00000E+00
         0.00000E+00
         0.00000E+00
         0.00000E+00
         0.00000E+00
         0.00000E+00
         0.00000E+00
         0.00000E+00
         0.00000E+00
         0.00000E+00
         0.00000E+00
         0.00000E+00
  
SCALARS                 displacement_y  double 1
LOOKUP_TABLE default
         0.00000E+00
         0.00000E+00
         0.00000E+00
         0.00000E+00
         0.00000E+00
         0.00000E+00
         0.00000E+00
         0.00000E+00
         0.00000E+00
         0.00000E+00
         0.00000E+00
         0.00000E+00
         0.00000E+00
         0.00000E+00
         0.00000E+00
         0.00000E+00
         0.00000E+00
         0.00000E+00
         0.00000E+00
         0.00000E+00
         0.00000E+00
         0.00000E+00
         0.00000E+00
         0.00000E+00
         0.00000E+00
         0.00000E+00
         0.00000E+00
         0.00000E+00
         0.00000E+00
         0.00000E+00
         0.00000E+00
         0.00000E+00
         0.00000E+00
         0.00000E+00
         0.00000E+00
         0.00000E+00
         0.00000E+00
         0.00000E+00
         0.00000E+00
         0.00000E+00
         0.00000E+00
         0.00000E+00
         0.00000E+00
         0.00000E+00
         0.00000E+00
         0.00000E+00
         0.00000E+00
         0.00000E+00
         0.00000E+00
         0.00000E+00
         0.00000E+00
         0.00000E+00
         0.00000E+00
         0.00000E+00
         0.00000E+00
         0.00000E+00
         0.00000E+00
         0.00000E+00
         0.00000E+00
         0.00000E+00
         0.00000E+00
         0.00000E+00
         0.00000E+00
         0.00000E+00
         0.00000E+00
         0.00000E+00
         0.00000E+00
         0.00000E+00
         0.00000E+00
         0.00000E+00
         0.00000E+00
         0.00000E+00
         0.00000E+00
         0.00000E+00
         0.00000E+00
         0.00000E+00
         0.00000E+00
         0.00000E+00
         0.00000E+00
         0.00000E+00
         0.00000E+00
         0.00000E+00
         0.00000E+00
         0.00000E+00
         0.00000E+00
         0.00000E+00
         0.00000E+00
         0.00000E+00
         0.00000E+00
         0.00000E+00
         0.00000E+00
         0.00000E+00
         0.00000E+00
         0.00000E+00
         0.00000E+00
         0.00000E+00
         0.00000E+00
         0.00000E+00
         0.00000E+00
         0.00000E+00
         0.00000E+00
         0.00000E+00
         0.00000E+00
         0.00000E+00
         0.00000E+00
         0.00000E+00
         0.00000E+00
         0.00000E+00
         0.00000E+00
         0.00000E+00
         0.00000E+00
         0.00000E+00
         0.00000E+00
         0.00000E+00
         0.00000E+00
         0.00000E+00
         0.00000E+00
         0.00000E+00
         0.00000E+00
         0.00000E+00
         0.00000E+00
         0.00000E+00
         0.00000E+00
         0.00000E+00
         0.00000E+00
         0.00000E+00
         0.00000E+00
         0.00000E+00
         0.00000E+00
         0.00000E+00
         0.00000E+00
         0.00000E+00
         0.00000E+00
         0.00000E+00
         0.00000E+00
         0.00000E+00
         0.00000E+00
         0.00000E+00
         0.00000E+00
         0.00000E+00
         0.00000E+00
         0.00000E+00
         0.00000E+00
         0.00000E+00
         0.00000E+00
         0.00000E+00
         0.00000E+00
         0.00000E+00
         0.00000E+00
         0.00000E+00
         0.00000E+00
         0.00000E+00
         0.00000E+00
         0.00000E+00
         0.00000E+00
         0.00000E+00
         0.00000E+00
         0.00000E+00
         0.00000E+00
         0.00000E+00
         0.00000E+00
         0.00000E+00
         0.00000E+00
         0.00000E+00
         0.00000E+00
         0.00000E+00
         0.00000E+00
         0.00000E+00
         0.00000E+00
         0.00000E+00
         0.00000E+00
         0.00000E+00
         0.00000E+00
         0.00000E+00
         0.00000E+00
         0.00000E+00
         0.00000E+00
         0.00000E+00
         0.00000E+00
         0.00000E+00
         0.00000E+00
         0.00000E+00
         0.00000E+00
         0.00000E+00
         0.00000E+00
         0.00000E+00
         0.00000E+00
         0.00000E+00
         0.00000E+00
         0.00000E+00
         0.00000E+00
         0.00000E+00
         0.00000E+00
         0.00000E+00
         0.00000E+00
         0.00000E+00
         0.00000E+00
         0.00000E+00
         0.00000E+00
         0.00000E+00
         0.00000E+00
         0.00000E+00
         0.00000E+00
         0.00000E+00
         0.00000E+00
         0.00000E+00
         0.00000E+00
         0.00000E+00
         0.00000E+00
         0.00000E+00
         0.00000E+00
         0.00000E+00
         0.00000E+00
         0.00000E+00
         0.00000E+00
         0.00000E+00
         0.00000E+00
         0.00000E+00
         0.00000E+00
         0.00000E+00
         0.00000E+00
         0.00000E+00
         0.00000E+00
         0.00000E+00
         0.00000E+00
         0.00000E+00
         0.00000E+00
         0.00000E+00
         0.00000E+00
         0.00000E+00
         0.00000E+00
         0.00000E+00
         0.00000E+00
         0.00000E+00
         0.00000E+00
         0.00000E+00
         0.00000E+00
         0.00000E+00
         0.00000E+00
         0.00000E+00
         0.00000E+00
         0.00000E+00
         0.00000E+00
         0.00000E+00
         0.00000E+00
         0.00000E+00
         0.00000E+00
         0.00000E+00
         0.00000E+00
         0.00000E+00
         0.00000E+00
         0.00000E+00
         0.00000E+00
         0.00000E+00
         0.00000E+00
         0.00000E+00
         0.00000E+00
         0.00000E+00
         0.00000E+00
         0.00000E+00
         0.00000E+00
         0.00000E+00
         0.00000E+00
         0.00000E+00
         0.00000E+00
         0.00000E+00
         0.00000E+00
         0.00000E+00
         0.00000E+00
         0.00000E+00
         0.00000E+00
         0.00000E+00
         0.00000E+00
         0.00000E+00
         0.00000E+00
         0.00000E+00
         0.00000E+00
         0.00000E+00
         0.00000E+00
         0.00000E+00
         0.00000E+00
         0.00000E+00
         0.00000E+00
         0.00000E+00
         0.00000E+00
         0.00000E+00
         0.00000E+00
         0.00000E+00
         0.00000E+00
         0.00000E+00
         0.00000E+00
         0.00000E+00
         0.00000E+00
         0.00000E+00
         0.00000E+00
         0.00000E+00
         0.00000E+00
         0.00000E+00
         0.00000E+00
         0.00000E+00
         0.00000E+00
         0.00000E+00
         0.00000E+00
         0.00000E+00
         0.00000E+00
         0.00000E+00
         0.00000E+00
         0.00000E+00
         0.00000E+00
         0.00000E+00
         0.00000E+00
         0.00000E+00
         0.00000E+00
         0.00000E+00
         0.00000E+00
         0.00000E+00
         0.00000E+00
         0.00000E+00
         0.00000E+00
         0.00000E+00
         0.00000E+00
         0.00000E+00
         0.00000E+00
         0.00000E+00
         0.00000E+00
         0.00000E+00
         0.00000E+00
         0.00000E+00
         0.00000E+00
         0.00000E+00
         0.00000E+00
         0.00000E+00
         0.00000E+00
         0.00000E+00
         0.00000E+00
         0.00000E+00
         0.00000E+00
         0.00000E+00
         0.00000E+00
         0.00000E+00
         0.00000E+00
         0.00000E+00
         0.00000E+00
         0.00000E+00
         0.00000E+00
         0.00000E+00
         0.00000E+00
         0.00000E+00
         0.00000E+00
         0.00000E+00
         0.00000E+00
         0.00000E+00
         0.00000E+00
         0.00000E+00
         0.00000E+00
         0.00000E+00
         0.00000E+00
         0.00000E+00
         0.00000E+00
         0.00000E+00
         0.00000E+00
         0.00000E+00
         0.00000E+00
         0.00000E+00
         0.00000E+00
         0.00000E+00
         0.00000E+00
         0.00000E+00
         0.00000E+00
         0.00000E+00
         0.00000E+00
         0.00000E+00
         0.00000E+00
         0.00000E+00
         0.00000E+00
         0.00000E+00
         0.00000E+00
         0.00000E+00
         0.00000E+00
         0.00000E+00
         0.00000E+00
         0.00000E+00
         0.00000E+00
         0.00000E+00
         0.00000E+00
         0.00000E+00
         0.00000E+00
         0.00000E+00
         0.00000E+00
         0.00000E+00
         0.00000E+00
         0.00000E+00
         0.00000E+00
         0.00000E+00
         0.00000E+00
         0.00000E+00
         0.00000E+00
         0.00000E+00
         0.00000E+00
         0.00000E+00
         0.00000E+00
         0.00000E+00
         0.00000E+00
         0.00000E+00
         0.00000E+00
         0.00000E+00
         0.00000E+00
         0.00000E+00
         0.00000E+00
         0.00000E+00
         0.00000E+00
         0.00000E+00
         0.00000E+00
         0.00000E+00
         0.00000E+00
         0.00000E+00
         0.00000E+00
         0.00000E+00
         0.00000E+00
         0.00000E+00
         0.00000E+00
         0.00000E+00
         0.00000E+00
         0.00000E+00
         0.00000E+00
         0.00000E+00
         0.00000E+00
         0.00000E+00
         0.00000E+00
         0.00000E+00
         0.00000E+00
         0.00000E+00
         0.00000E+00
         0.00000E+00
         0.00000E+00
         0.00000E+00
         0.00000E+00
         0.00000E+00
         0.00000E+00
         0.00000E+00
         0.00000E+00
         0.00000E+00
         0.00000E+00
         0.00000E+00
         0.00000E+00
         0.00000E+00
         0.00000E+00
         0.00000E+00
         0.00000E+00
         0.00000E+00
         0.00000E+00
         0.00000E+00
         0.00000E+00
         0.00000E+00
         0.00000E+00
         0.00000E+00
         0.00000E+00
         0.00000E+00
         0.00000E+00
         0.00000E+00
         0.00000E+00
         0.00000E+00
         0.00000E+00
         0.00000E+00
         0.00000E+00
         0.00000E+00
         0.00000E+00
         0.00000E+00
         0.00000E+00
         0.00000E+00
         0.00000E+00
         0.00000E+00
         0.00000E+00
         0.00000E+00
         0.00000E+00
         0.00000E+00
         0.00000E+00
         0.00000E+00
         0.00000E+00
         0.00000E+00
         0.00000E+00
         0.00000E+00
         0.00000E+00
         0.00000E+00
         0.00000E+00
         0.00000E+00
         0.00000E+00
         0.00000E+00
         0.00000E+00
         0.00000E+00
         0.00000E+00
         0.00000E+00
         0.00000E+00
         0.00000E+00
         0.00000E+00
         0.00000E+00
         0.00000E+00
         0.00000E+00
         0.00000E+00
         0.00000E+00
         0.00000E+00
         0.00000E+00
         0.00000E+00
         0.00000E+00
         0.00000E+00
         0.00000E+00
         0.00000E+00
         0.00000E+00
         0.00000E+00
         0.00000E+00
         0.00000E+00
         0.00000E+00
         0.00000E+00
         0.00000E+00
         0.00000E+00
         0.00000E+00
         0.00000E+00
         0.00000E+00
         0.00000E+00
         0.00000E+00
         0.00000E+00
         0.00000E+00
         0.00000E+00
         0.00000E+00
         0.00000E+00
         0.00000E+00
         0.00000E+00
         0.00000E+00
         0.00000E+00
         0.00000E+00
         0.00000E+00
         0.00000E+00
         0.00000E+00
         0.00000E+00
         0.00000E+00
         0.00000E+00
         0.00000E+00
         0.00000E+00
         0.00000E+00
         0.00000E+00
         0.00000E+00
         0.00000E+00
         0.00000E+00
         0.00000E+00
         0.00000E+00
         0.00000E+00
         0.00000E+00
         0.00000E+00
         0.00000E+00
         0.00000E+00
         0.00000E+00
         0.00000E+00
         0.00000E+00
         0.00000E+00
         0.00000E+00
         0.00000E+00
         0.00000E+00
         0.00000E+00
         0.00000E+00
         0.00000E+00
         0.00000E+00
         0.00000E+00
         0.00000E+00
         0.00000E+00
         0.00000E+00
         0.00000E+00
         0.00000E+00
         0.00000E+00
         0.00000E+00
         0.00000E+00
         0.00000E+00
         0.00000E+00
         0.00000E+00
         0.00000E+00
         0.00000E+00
         0.00000E+00
         0.00000E+00
         0.00000E+00
         0.00000E+00
         0.00000E+00
         0.00000E+00
         0.00000E+00
         0.00000E+00
         0.00000E+00
         0.00000E+00
         0.00000E+00
         0.00000E+00
         0.00000E+00
         0.00000E+00
         0.00000E+00
         0.00000E+00
         0.00000E+00
         0.00000E+00
         0.00000E+00
         0.00000E+00
         0.00000E+00
         0.00000E+00
         0.00000E+00
         0.00000E+00
         0.00000E+00
         0.00000E+00
         0.00000E+00
         0.00000E+00
         0.00000E+00
         0.00000E+00
         0.00000E+00
         0.00000E+00
         0.00000E+00
         0.00000E+00
         0.00000E+00
         0.00000E+00
         0.00000E+00
         0.00000E+00
         0.00000E+00
         0.00000E+00
         0.00000E+00
         0.00000E+00
         0.00000E+00
         0.00000E+00
         0.00000E+00
         0.00000E+00
         0.00000E+00
         0.00000E+00
         0.00000E+00
         0.00000E+00
         0.00000E+00
         0.00000E+00
         0.00000E+00
         0.00000E+00
         0.00000E+00
         0.00000E+00
         0.00000E+00
         0.00000E+00
         0.00000E+00
         0.00000E+00
         0.00000E+00
         0.00000E+00
         0.00000E+00
         0.00000E+00
         0.00000E+00
         0.00000E+00
         0.00000E+00
         0.00000E+00
         0.00000E+00
         0.00000E+00
         0.00000E+00
         0.00000E+00
         0.00000E+00
         0.00000E+00
         0.00000E+00
         0.00000E+00
         0.00000E+00
         0.00000E+00
         0.00000E+00
         0.00000E+00
         0.00000E+00
         0.00000E+00
         0.00000E+00
         0.00000E+00
         0.00000E+00
         0.00000E+00
         0.00000E+00
         0.00000E+00
         0.00000E+00
         0.00000E+00
         0.00000E+00
         0.00000E+00
         0.00000E+00
         0.00000E+00
         0.00000E+00
         0.00000E+00
         0.00000E+00
         0.00000E+00
         0.00000E+00
         0.00000E+00
         0.00000E+00
         0.00000E+00
         0.00000E+00
         0.00000E+00
         0.00000E+00
         0.00000E+00
         0.00000E+00
         0.00000E+00
         0.00000E+00
         0.00000E+00
         0.00000E+00
         0.00000E+00
         0.00000E+00
         0.00000E+00
         0.00000E+00
         0.00000E+00
         0.00000E+00
         0.00000E+00
         0.00000E+00
         0.00000E+00
         0.00000E+00
         0.00000E+00
         0.00000E+00
         0.00000E+00
         0.00000E+00
         0.00000E+00
         0.00000E+00
         0.00000E+00
         0.00000E+00
         0.00000E+00
         0.00000E+00
         0.00000E+00
         0.00000E+00
         0.00000E+00
         0.00000E+00
         0.00000E+00
         0.00000E+00
         0.00000E+00
         0.00000E+00
         0.00000E+00
         0.00000E+00
         0.00000E+00
         0.00000E+00
         0.00000E+00
         0.00000E+00
         0.00000E+00
         0.00000E+00
         0.00000E+00
         0.00000E+00
         0.00000E+00
         0.00000E+00
         0.00000E+00
         0.00000E+00
         0.00000E+00
         0.00000E+00
         0.00000E+00
         0.00000E+00
         0.00000E+00
         0.00000E+00
         0.00000E+00
         0.00000E+00
         0.00000E+00
         0.00000E+00
         0.00000E+00
         0.00000E+00
         0.00000E+00
         0.00000E+00
         0.00000E+00
         0.00000E+00
         0.00000E+00
         0.00000E+00
         0.00000E+00
         0.00000E+00
         0.00000E+00
         0.00000E+00
         0.00000E+00
         0.00000E+00
         0.00000E+00
         0.00000E+00
         0.00000E+00
         0.00000E+00
         0.00000E+00
         0.00000E+00
         0.00000E+00
         0.00000E+00
         0.00000E+00
         0.00000E+00
         0.00000E+00
         0.00000E+00
         0.00000E+00
         0.00000E+00
         0.00000E+00
         0.00000E+00
         0.00000E+00
         0.00000E+00
         0.00000E+00
         0.00000E+00
         0.00000E+00
         0.00000E+00
         0.00000E+00
         0.00000E+00
         0.00000E+00
         0.00000E+00
         0.00000E+00
         0.00000E+00
         0.00000E+00
         0.00000E+00
         0.00000E+00
         0.00000E+00
         0.00000E+00
         0.00000E+00
         0.00000E+00
         0.00000E+00
         0.00000E+00
         0.00000E+00
         0.00000E+00
         0.00000E+00
         0.00000E+00
         0.00000E+00
         0.00000E+00
         0.00000E+00
         0.00000E+00
         0.00000E+00
         0.00000E+00
         0.00000E+00
         0.00000E+00
         0.00000E+00
         0.00000E+00
         0.00000E+00
         0.00000E+00
         0.00000E+00
         0.00000E+00
         0.00000E+00
         0.00000E+00
         0.00000E+00
         0.00000E+00
         0.00000E+00
         0.00000E+00
         0.00000E+00
         0.00000E+00
         0.00000E+00
         0.00000E+00
         0.00000E+00
         0.00000E+00
         0.00000E+00
         0.00000E+00
         0.00000E+00
         0.00000E+00
         0.00000E+00
         0.00000E+00
         0.00000E+00
         0.00000E+00
         0.00000E+00
         0.00000E+00
         0.00000E+00
         0.00000E+00
         0.00000E+00
         0.00000E+00
         0.00000E+00
         0.00000E+00
         0.00000E+00
         0.00000E+00
         0.00000E+00
         0.00000E+00
         0.00000E+00
         0.00000E+00
         0.00000E+00
         0.00000E+00
         0.00000E+00
         0.00000E+00
         0.00000E+00
         0.00000E+00
         0.00000E+00
         0.00000E+00
         0.00000E+00
         0.00000E+00
         0.00000E+00
         0.00000E+00
         0.00000E+00
         0.00000E+00
         0.00000E+00
         0.00000E+00
         0.00000E+00
         0.00000E+00
         0.00000E+00
         0.00000E+00
         0.00000E+00
         0.00000E+00
         0.00000E+00
         0.00000E+00
         0.00000E+00
         0.00000E+00
         0.00000E+00
         0.00000E+00
         0.00000E+00
         0.00000E+00
         0.00000E+00
         0.00000E+00
         0.00000E+00
         0.00000E+00
         0.00000E+00
         0.00000E+00
         0.00000E+00
         0.00000E+00
         0.00000E+00
         0.00000E+00
         0.00000E+00
         0.00000E+00
         0.00000E+00
         0.00000E+00
         0.00000E+00
         0.00000E+00
         0.00000E+00
         0.00000E+00
         0.00000E+00
         0.00000E+00
         0.00000E+00
         0.00000E+00
         0.00000E+00
         0.00000E+00
         0.00000E+00
         0.00000E+00
         0.00000E+00
         0.00000E+00
         0.00000E+00
         0.00000E+00
         0.00000E+00
         0.00000E+00
         0.00000E+00
         0.00000E+00
         0.00000E+00
         0.00000E+00
         0.00000E+00
         0.00000E+00
         0.00000E+00
         0.00000E+00
         0.00000E+00
         0.00000E+00
         0.00000E+00
         0.00000E+00
         0.00000E+00
         0.00000E+00
         0.00000E+00
         0.00000E+00
         0.00000E+00
         0.00000E+00
         0.00000E+00
         0.00000E+00
         0.00000E+00
         0.00000E+00
         0.00000E+00
         0.00000E+00
         0.00000E+00
         0.00000E+00
         0.00000E+00
         0.00000E+00
         0.00000E+00
         0.00000E+00
         0.00000E+00
         0.00000E+00
         0.00000E+00
         0.00000E+00
         0.00000E+00
         0.00000E+00
         0.00000E+00
         0.00000E+00
         0.00000E+00
         0.00000E+00
         0.00000E+00
         0.00000E+00
         0.00000E+00
         0.00000E+00
         0.00000E+00
         0.00000E+00
         0.00000E+00
         0.00000E+00
         0.00000E+00
         0.00000E+00
         0.00000E+00
         0.00000E+00
         0.00000E+00
         0.00000E+00
         0.00000E+00
         0.00000E+00
         0.00000E+00
         0.00000E+00
         0.00000E+00
         0.00000E+00
         0.00000E+00
         0.00000E+00
         0.00000E+00
         0.00000E+00
         0.00000E+00
         0.00000E+00
         0.00000E+00
         0.00000E+00
         0.00000E+00
         0.00000E+00
         0.00000E+00
         0.00000E+00
         0.00000E+00
         0.00000E+00
         0.00000E+00
         0.00000E+00
         0.00000E+00
         0.00000E+00
         0.00000E+00
         0.00000E+00
         0.00000E+00
         0.00000E+00
         0.00000E+00
         0.00000E+00
         0.00000E+00
         0.00000E+00
         0.00000E+00
         0.00000E+00
         0.00000E+00
         0.00000E+00
         0.00000E+00
         0.00000E+00
         0.00000E+00
         0.00000E+00
         0.00000E+00
         0.00000E+00
         0.00000E+00
         0.00000E+00
         0.00000E+00
         0.00000E+00
         0.00000E+00
         0.00000E+00
         0.00000E+00
         0.00000E+00
         0.00000E+00
         0.00000E+00
         0.00000E+00
         0.00000E+00
         0.00000E+00
         0.00000E+00
         0.00000E+00
         0.00000E+00
         0.00000E+00
         0.00000E+00
         0.00000E+00
         0.00000E+00
         0.00000E+00
         0.00000E+00
         0.00000E+00
         0.00000E+00
         0.00000E+00
         0.00000E+00
         0.00000E+00
         0.00000E+00
         0.00000E+00
         0.00000E+00
         0.00000E+00
         0.00000E+00
         0.00000E+00
         0.00000E+00
         0.00000E+00
         0.00000E+00
         0.00000E+00
         0.00000E+00
         0.00000E+00
         0.00000E+00
         0.00000E+00
         0.00000E+00
         0.00000E+00
         0.00000E+00
         0.00000E+00
         0.00000E+00
         0.00000E+00
         0.00000E+00
         0.00000E+00
         0.00000E+00
         0.00000E+00
         0.00000E+00
         0.00000E+00
         0.00000E+00
         0.00000E+00
         0.00000E+00
         0.00000E+00
         0.00000E+00
         0.00000E+00
         0.00000E+00
         0.00000E+00
         0.00000E+00
         0.00000E+00
         0.00000E+00
         0.00000E+00
         0.00000E+00
         0.00000E+00
         0.00000E+00
         0.00000E+00
         0.00000E+00
         0.00000E+00
         0.00000E+00
         0.00000E+00
         0.00000E+00
         0.00000E+00
         0.00000E+00
         0.00000E+00
         0.00000E+00
         0.00000E+00
         0.00000E+00
         0.00000E+00
         0.00000E+00
         0.00000E+00
         0.00000E+00
         0.00000E+00
         0.00000E+00
         0.00000E+00
         0.00000E+00
         0.00000E+00
         0.00000E+00
         0.00000E+00
         0.00000E+00
         0.00000E+00
         0.00000E+00
         0.00000E+00
         0.00000E+00
         0.00000E+00
         0.00000E+00
         0.00000E+00
         0.00000E+00
         0.00000E+00
         0.00000E+00
         0.00000E+00
         0.00000E+00
         0.00000E+00
         0.00000E+00
         0.00000E+00
         0.00000E+00
         0.00000E+00
         0.00000E+00
         0.00000E+00
         0.00000E+00
         0.00000E+00
         0.00000E+00
         0.00000E+00
         0.00000E+00
         0.00000E+00
         0.00000E+00
         0.00000E+00
         0.00000E+00
         0.00000E+00
         0.00000E+00
         0.00000E+00
         0.00000E+00
         0.00000E+00
         0.00000E+00
         0.00000E+00
         0.00000E+00
         0.00000E+00
         0.00000E+00
         0.00000E+00
         0.00000E+00
         0.00000E+00
         0.00000E+00
         0.00000E+00
         0.00000E+00
         0.00000E+00
         0.00000E+00
         0.00000E+00
         0.00000E+00
         0.00000E+00
         0.00000E+00
         0.00000E+00
         0.00000E+00
         0.00000E+00
         0.00000E+00
         0.00000E+00
         0.00000E+00
         0.00000E+00
         0.00000E+00
         0.00000E+00
         0.00000E+00
         0.00000E+00
         0.00000E+00
         0.00000E+00
         0.00000E+00
         0.00000E+00
         0.00000E+00
         0.00000E+00
         0.00000E+00
         0.00000E+00
         0.00000E+00
         0.00000E+00
         0.00000E+00
         0.00000E+00
         0.00000E+00
         0.00000E+00
         0.00000E+00
         0.00000E+00
         0.00000E+00
         0.00000E+00
         0.00000E+00
         0.00000E+00
         0.00000E+00
         0.00000E+00
         0.00000E+00
         0.00000E+00
         0.00000E+00
         0.00000E+00
         0.00000E+00
         0.00000E+00
         0.00000E+00
         0.00000E+00
         0.00000E+00
         0.00000E+00
         0.00000E+00
         0.00000E+00
         0.00000E+00
         0.00000E+00
         0.00000E+00
         0.00000E+00
         0.00000E+00
         0.00000E+00
         0.00000E+00
         0.00000E+00
         0.00000E+00
         0.00000E+00
         0.00000E+00
         0.00000E+00
         0.00000E+00
         0.00000E+00
         0.00000E+00
         0.00000E+00
         0.00000E+00
         0.00000E+00
         0.00000E+00
         0.00000E+00
         0.00000E+00
         0.00000E+00
         0.00000E+00
         0.00000E+00
         0.00000E+00
         0.00000E+00
         0.00000E+00
         0.00000E+00
         0.00000E+00
         0.00000E+00
         0.00000E+00
         0.00000E+00
         0.00000E+00
         0.00000E+00
         0.00000E+00
         0.00000E+00
         0.00000E+00
         0.00000E+00
         0.00000E+00
         0.00000E+00
         0.00000E+00
         0.00000E+00
         0.00000E+00
         0.00000E+00
         0.00000E+00
         0.00000E+00
         0.00000E+00
         0.00000E+00
         0.00000E+00
         0.00000E+00
         0.00000E+00
         0.00000E+00
         0.00000E+00
         0.00000E+00
         0.00000E+00
         0.00000E+00
         0.00000E+00
         0.00000E+00
         0.00000E+00
         0.00000E+00
         0.00000E+00
         0.00000E+00
         0.00000E+00
         0.00000E+00
         0.00000E+00
         0.00000E+00
         0.00000E+00
         0.00000E+00
         0.00000E+00
         0.00000E+00
         0.00000E+00
         0.00000E+00
         0.00000E+00
         0.00000E+00
         0.00000E+00
         0.00000E+00
         0.00000E+00
         0.00000E+00
         0.00000E+00
         0.00000E+00
         0.00000E+00
         0.00000E+00
         0.00000E+00
         0.00000E+00
         0.00000E+00
         0.00000E+00
         0.00000E+00
         0.00000E+00
         0.00000E+00
         0.00000E+00
         0.00000E+00
         0.00000E+00
         0.00000E+00
         0.00000E+00
         0.00000E+00
         0.00000E+00
         0.00000E+00
         0.00000E+00
         0.00000E+00
         0.00000E+00
         0.00000E+00
         0.00000E+00
         0.00000E+00
         0.00000E+00
         0.00000E+00
         0.00000E+00
         0.00000E+00
         0.00000E+00
         0.00000E+00
         0.00000E+00
         0.00000E+00
         0.00000E+00
         0.00000E+00
         0.00000E+00
         0.00000E+00
         0.00000E+00
         0.00000E+00
         0.00000E+00
         0.00000E+00
         0.00000E+00
         0.00000E+00
         0.00000E+00
         0.00000E+00
         0.00000E+00
         0.00000E+00
         0.00000E+00
         0.00000E+00
         0.00000E+00
         0.00000E+00
         0.00000E+00
         0.00000E+00
         0.00000E+00
         0.00000E+00
         0.00000E+00
         0.00000E+00
         0.00000E+00
         0.00000E+00
         0.00000E+00
         0.00000E+00
         0.00000E+00
         0.00000E+00
         0.00000E+00
         0.00000E+00
         0.00000E+00
         0.00000E+00
         0.00000E+00
         0.00000E+00
         0.00000E+00
         0.00000E+00
         0.00000E+00
         0.00000E+00
         0.00000E+00
         0.00000E+00
         0.00000E+00
         0.00000E+00
         0.00000E+00
         0.00000E+00
         0.00000E+00
         0.00000E+00
         0.00000E+00
         0.00000E+00
         0.00000E+00
         0.00000E+00
         0.00000E+00
         0.00000E+00
         0.00000E+00
         0.00000E+00
         0.00000E+00
         0.00000E+00
         0.00000E+00
         0.00000E+00
         0.00000E+00
         0.00000E+00
         0.00000E+00
         0.00000E+00
         0.00000E+00
         0.00000E+00
         0.00000E+00
         0.00000E+00
         0.00000E+00
         0.00000E+00
         0.00000E+00
         0.00000E+00
         0.00000E+00
         0.00000E+00
         0.00000E+00
         0.00000E+00
         0.00000E+00
         0.00000E+00
         0.00000E+00
         0.00000E+00
         0.00000E+00
         0.00000E+00
         0.00000E+00
         0.00000E+00
         0.00000E+00
         0.00000E+00
         0.00000E+00
         0.00000E+00
         0.00000E+00
         0.00000E+00
         0.00000E+00
         0.00000E+00
         0.00000E+00
         0.00000E+00
         0.00000E+00
         0.00000E+00
         0.00000E+00
         0.00000E+00
         0.00000E+00
         0.00000E+00
         0.00000E+00
         0.00000E+00
         0.00000E+00
         0.00000E+00
         0.00000E+00
         0.00000E+00
         0.00000E+00
         0.00000E+00
         0.00000E+00
         0.00000E+00
         0.00000E+00
         0.00000E+00
         0.00000E+00
         0.00000E+00
         0.00000E+00
         0.00000E+00
         0.00000E+00
         0.00000E+00
         0.00000E+00
         0.00000E+00
         0.00000E+00
         0.00000E+00
         0.00000E+00
         0.00000E+00
         0.00000E+00
         0.00000E+00
         0.00000E+00
         0.00000E+00
         0.00000E+00
         0.00000E+00
         0.00000E+00
         0.00000E+00
         0.00000E+00
         0.00000E+00
         0.00000E+00
         0.00000E+00
         0.00000E+00
         0.00000E+00
         0.00000E+00
         0.00000E+00
         0.00000E+00
         0.00000E+00
         0.00000E+00
         0.00000E+00
         0.00000E+00
         0.00000E+00
         0.00000E+00
         0.00000E+00
         0.00000E+00
         0.00000E+00
         0.00000E+00
         0.00000E+00
         0.00000E+00
         0.00000E+00
         0.00000E+00
         0.00000E+00
         0.00000E+00
         0.00000E+00
         0.00000E+00
         0.00000E+00
         0.00000E+00
         0.00000E+00
         0.00000E+00
         0.00000E+00
         0.00000E+00
         0.00000E+00
         0.00000E+00
         0.00000E+00
         0.00000E+00
         0.00000E+00
         0.00000E+00
         0.00000E+00
         0.00000E+00
         0.00000E+00
         0.00000E+00
         0.00000E+00
         0.00000E+00
         0.00000E+00
         0.00000E+00
         0.00000E+00
         0.00000E+00
         0.00000E+00
         0.00000E+00
         0.00000E+00
         0.00000E+00
         0.00000E+00
         0.00000E+00
         0.00000E+00
         0.00000E+00
         0.00000E+00
         0.00000E+00
         0.00000E+00
         0.00000E+00
         0.00000E+00
         0.00000E+00
         0.00000E+00
         0.00000E+00
         0.00000E+00
         0.00000E+00
         0.00000E+00
         0.00000E+00
         0.00000E+00
         0.00000E+00
         0.00000E+00
         0.00000E+00
         0.00000E+00
         0.00000E+00
         0.00000E+00
         0.00000E+00
         0.00000E+00
         0.00000E+00
         0.00000E+00
         0.00000E+00
         0.00000E+00
         0.00000E+00
         0.00000E+00
         0.00000E+00
         0.00000E+00
         0.00000E+00
         0.00000E+00
         0.00000E+00
         0.00000E+00
         0.00000E+00
         0.00000E+00
         0.00000E+00
         0.00000E+00
         0.00000E+00
         0.00000E+00
         0.00000E+00
         0.00000E+00
         0.00000E+00
         0.00000E+00
         0.00000E+00
         0.00000E+00
         0.00000E+00
         0.00000E+00
         0.00000E+00
         0.00000E+00
         0.00000E+00
         0.00000E+00
         0.00000E+00
         0.00000E+00
         0.00000E+00
         0.00000E+00
         0.00000E+00
         0.00000E+00
         0.00000E+00
         0.00000E+00
         0.00000E+00
         0.00000E+00
         0.00000E+00
         0.00000E+00
         0.00000E+00
         0.00000E+00
         0.00000E+00
         0.00000E+00
         0.00000E+00
         0.00000E+00
         0.00000E+00
         0.00000E+00
         0.00000E+00
         0.00000E+00
         0.00000E+00
         0.00000E+00
         0.00000E+00
         0.00000E+00
         0.00000E+00
         0.00000E+00
         0.00000E+00
         0.00000E+00
         0.00000E+00
         0.00000E+00
         0.00000E+00
         0.00000E+00
         0.00000E+00
         0.00000E+00
         0.00000E+00
         0.00000E+00
         0.00000E+00
         0.00000E+00
         0.00000E+00
         0.00000E+00
         0.00000E+00
         0.00000E+00
         0.00000E+00
         0.00000E+00
         0.00000E+00
         0.00000E+00
         0.00000E+00
         0.00000E+00
         0.00000E+00
         0.00000E+00
         0.00000E+00
         0.00000E+00
         0.00000E+00
         0.00000E+00
         0.00000E+00
         0.00000E+00
         0.00000E+00
         0.00000E+00
         0.00000E+00
         0.00000E+00
         0.00000E+00
         0.00000E+00
         0.00000E+00
         0.00000E+00
         0.00000E+00
         0.00000E+00
         0.00000E+00
         0.00000E+00
         0.00000E+00
         0.00000E+00
         0.00000E+00
         0.00000E+00
         0.00000E+00
         0.00000E+00
         0.00000E+00
         0.00000E+00
         0.00000E+00
         0.00000E+00
         0.00000E+00
         0.00000E+00
         0.00000E+00
         0.00000E+00
         0.00000E+00
         0.00000E+00
         0.00000E+00
         0.00000E+00
         0.00000E+00
         0.00000E+00
         0.00000E+00
         0.00000E+00
         0.00000E+00
         0.00000E+00
         0.00000E+00
         0.00000E+00
         0.00000E+00
         0.00000E+00
         0.00000E+00
         0.00000E+00
         0.00000E+00
         0.00000E+00
         0.00000E+00
         0.00000E+00
         0.00000E+00
         0.00000E+00
         0.00000E+00
         0.00000E+00
         0.00000E+00
         0.00000E+00
         0.00000E+00
         0.00000E+00
         0.00000E+00
         0.00000E+00
         0.00000E+00
         0.00000E+00
         0.00000E+00
         0.00000E+00
         0.00000E+00
         0.00000E+00
         0.00000E+00
         0.00000E+00
         0.00000E+00
         0.00000E+00
         0.00000E+00
         0.00000E+00
         0.00000E+00
         0.00000E+00
         0.00000E+00
         0.00000E+00
         0.00000E+00
         0.00000E+00
         0.00000E+00
         0.00000E+00
         0.00000E+00
         0.00000E+00
         0.00000E+00
         0.00000E+00
         0.00000E+00
         0.00000E+00
         0.00000E+00
         0.00000E+00
         0.00000E+00
         0.00000E+00
         0.00000E+00
         0.00000E+00
         0.00000E+00
         0.00000E+00
         0.00000E+00
         0.00000E+00
         0.00000E+00
         0.00000E+00
         0.00000E+00
         0.00000E+00
         0.00000E+00
         0.00000E+00
         0.00000E+00
         0.00000E+00
         0.00000E+00
         0.00000E+00
         0.00000E+00
         0.00000E+00
         0.00000E+00
         0.00000E+00
         0.00000E+00
         0.00000E+00
         0.00000E+00
         0.00000E+00
         0.00000E+00
         0.00000E+00
         0.00000E+00
         0.00000E+00
         0.00000E+00
         0.00000E+00
         0.00000E+00
         0.00000E+00
         0.00000E+00
         0.00000E+00
         0.00000E+00
         0.00000E+00
         0.00000E+00
         0.00000E+00
         0.00000E+00
         0.00000E+00
         0.00000E+00
         0.00000E+00
         0.00000E+00
         0.00000E+00
         0.00000E+00
         0.00000E+00
         0.00000E+00
         0.00000E+00
         0.00000E+00
         0.00000E+00
         0.00000E+00
         0.00000E+00
         0.00000E+00
         0.00000E+00
         0.00000E+00
         0.00000E+00
         0.00000E+00
         0.00000E+00
         0.00000E+00
         0.00000E+00
         0.00000E+00
         0.00000E+00
         0.00000E+00
         0.00000E+00
         0.00000E+00
         0.00000E+00
         0.00000E+00
         0.00000E+00
         0.00000E+00
         0.00000E+00
         0.00000E+00
         0.00000E+00
         0.00000E+00
         0.00000E+00
         0.00000E+00
         0.00000E+00
         0.00000E+00
         0.00000E+00
         0.00000E+00
         0.00000E+00
         0.00000E+00
         0.00000E+00
         0.00000E+00
         0.00000E+00
         0.00000E+00
         0.00000E+00
         0.00000E+00
         0.00000E+00
         0.00000E+00
         0.00000E+00
         0.00000E+00
         0.00000E+00
         0.00000E+00
         0.00000E+00
         0.00000E+00
         0.00000E+00
         0.00000E+00
         0.00000E+00
         0.00000E+00
         0.00000E+00
         0.00000E+00
         0.00000E+00
         0.00000E+00
         0.00000E+00
         0.00000E+00
         0.00000E+00
         0.00000E+00
         0.00000E+00
         0.00000E+00
         0.00000E+00
         0.00000E+00
         0.00000E+00
         0.00000E+00
         0.00000E+00
         0.00000E+00
         0.00000E+00
         0.00000E+00
         0.00000E+00
         0.00000E+00
         0.00000E+00
         0.00000E+00
         0.00000E+00
         0.00000E+00
         0.00000E+00
         0.00000E+00
         0.00000E+00
         0.00000E+00
         0.00000E+00
         0.00000E+00
         0.00000E+00
         0.00000E+00
         0.00000E+00
         0.00000E+00
         0.00000E+00
         0.00000E+00
         0.00000E+00
         0.00000E+00
         0.00000E+00
         0.00000E+00
         0.00000E+00
         0.00000E+00
         0.00000E+00
         0.00000E+00
         0.00000E+00
         0.00000E+00
         0.00000E+00
         0.00000E+00
         0.00000E+00
         0.00000E+00
         0.00000E+00
         0.00000E+00
         0.00000E+00
         0.00000E+00
         0.00000E+00
         0.00000E+00
         0.00000E+00
         0.00000E+00
         0.00000E+00
         0.00000E+00
         0.00000E+00
         0.00000E+00
         0.00000E+00
         0.00000E+00
         0.00000E+00
         0.00000E+00
         0.00000E+00
         0.00000E+00
         0.00000E+00
         0.00000E+00
         0.00000E+00
         0.00000E+00
         0.00000E+00
         0.00000E+00
         0.00000E+00
         0.00000E+00
         0.00000E+00
         0.00000E+00
         0.00000E+00
         0.00000E+00
         0.00000E+00
         0.00000E+00
         0.00000E+00
         0.00000E+00
         0.00000E+00
         0.00000E+00
         0.00000E+00
         0.00000E+00
         0.00000E+00
         0.00000E+00
         0.00000E+00
         0.00000E+00
         0.00000E+00
         0.00000E+00
         0.00000E+00
         0.00000E+00
         0.00000E+00
         0.00000E+00
         0.00000E+00
         0.00000E+00
         0.00000E+00
         0.00000E+00
         0.00000E+00
         0.00000E+00
         0.00000E+00
         0.00000E+00
         0.00000E+00
         0.00000E+00
         0.00000E+00
         0.00000E+00
         0.00000E+00
         0.00000E+00
         0.00000E+00
         0.00000E+00
         0.00000E+00
         0.00000E+00
         0.00000E+00
         0.00000E+00
         0.00000E+00
         0.00000E+00
         0.00000E+00
         0.00000E+00
         0.00000E+00
         0.00000E+00
         0.00000E+00
         0.00000E+00
         0.00000E+00
         0.00000E+00
         0.00000E+00
         0.00000E+00
         0.00000E+00
         0.00000E+00
         0.00000E+00
         0.00000E+00
         0.00000E+00
         0.00000E+00
         0.00000E+00
         0.00000E+00
         0.00000E+00
         0.00000E+00
         0.00000E+00
         0.00000E+00
         0.00000E+00
         0.00000E+00
         0.00000E+00
         0.00000E+00
         0.00000E+00
         0.00000E+00
         0.00000E+00
         0.00000E+00
         0.00000E+00
         0.00000E+00
         0.00000E+00
         0.00000E+00
         0.00000E+00
         0.00000E+00
         0.00000E+00
         0.00000E+00
         0.00000E+00
         0.00000E+00
         0.00000E+00
         0.00000E+00
         0.00000E+00
         0.00000E+00
         0.00000E+00
         0.00000E+00
         0.00000E+00
         0.00000E+00
         0.00000E+00
         0.00000E+00
  
SCALARS                 displacement_z  double 1
LOOKUP_TABLE default
        -0.10715E-01
        -0.10698E-01
        -0.10696E-01
        -0.10727E-01
        -0.65848E-16
        -0.73837E-16
        -0.70702E-16
        -0.64231E-16
        -0.10664E-01
        -0.10701E-01
        -0.66398E-16
        -0.64258E-16
        -0.10680E-01
        -0.10704E-01
        -0.78893E-16
        -0.74179E-16
        -0.10717E-01
        -0.10721E-01
        -0.58296E-16
        -0.64657E-16
        -0.10667E-01
        -0.10652E-01
        -0.10659E-01
        -0.78191E-16
        -0.68286E-16
        -0.70514E-16
        -0.10697E-01
        -0.10687E-01
        -0.75012E-16
        -0.63261E-16
        -0.10730E-01
        -0.10739E-01
        -0.10724E-01
        -0.64016E-16
        -0.59513E-16
        -0.57862E-16
        -0.10696E-01
        -0.10731E-01
        -0.67725E-16
        -0.61800E-16
        -0.10686E-01
        -0.10715E-01
        -0.58534E-16
        -0.51819E-16
        -0.10659E-01
        -0.10673E-01
        -0.64145E-16
        -0.71673E-16
        -0.10741E-01
        -0.62663E-16
        -0.10692E-01
        -0.73633E-16
        -0.10728E-01
        -0.66172E-16
        -0.10739E-01
        -0.63473E-16
        -0.10710E-01
        -0.10733E-01
        -0.64672E-16
        -0.62985E-16
        -0.10722E-01
        -0.10692E-01
        -0.64852E-16
        -0.73314E-16
        -0.10721E-01
        -0.62579E-16
        -0.10708E-01
        -0.68298E-16
        -0.10616E-01
        -0.10653E-01
        -0.65741E-16
        -0.68884E-16
        -0.10667E-01
        -0.69462E-16
        -0.10707E-01
        -0.54879E-16
        -0.10703E-01
        -0.53269E-16
        -0.10668E-01
        -0.56168E-16
        -0.10628E-01
        -0.10678E-01
        -0.53515E-16
        -0.55793E-16
        -0.10719E-01
        -0.51963E-16
        -0.10663E-01
        -0.68143E-16
        -0.10648E-01
        -0.69743E-16
        -0.10612E-01
        -0.10661E-01
        -0.66976E-16
        -0.67757E-16
        -0.10695E-01
        -0.61544E-16
        -0.10690E-01
        -0.60666E-16
        -0.10663E-01
        -0.64944E-16
        -0.10625E-01
        -0.10670E-01
        -0.63687E-16
        -0.65556E-16
        -0.10514E-01
        -0.10531E-01
        -0.49445E-16
        -0.46507E-16
        -0.10529E-01
        -0.47214E-16
        -0.10517E-01
        -0.45271E-16
        -0.10518E-01
        -0.44640E-16
        -0.10516E-01
        -0.42186E-16
        -0.10526E-01
        -0.37477E-16
        -0.10531E-01
        -0.33747E-16
        -0.10528E-01
        -0.33512E-16
        -0.10526E-01
        -0.36342E-16
        -0.10510E-01
        -0.38194E-16
        -0.10530E-01
        -0.34875E-16
        -0.10537E-01
        -0.31436E-16
        -0.10535E-01
        -0.31401E-16
        -0.10528E-01
        -0.35098E-16
        -0.10520E-01
        -0.40019E-16
        -0.10515E-01
        -0.42993E-16
        -0.10528E-01
        -0.46432E-16
        -0.10516E-01
        -0.49745E-16
        -0.10534E-01
        -0.45570E-16
        -0.10528E-01
        -0.39977E-16
        -0.10522E-01
        -0.39853E-16
        -0.10532E-01
        -0.43604E-16
        -0.10518E-01
        -0.46485E-16
        -0.10532E-01
        -0.44115E-16
        -0.10533E-01
        -0.42649E-16
        -0.15103E-01
        -0.15100E-01
        -0.15100E-01
        -0.15104E-01
        -0.15095E-01
        -0.15100E-01
        -0.15097E-01
        -0.15101E-01
        -0.15104E-01
        -0.15104E-01
        -0.15096E-01
        -0.15093E-01
        -0.15094E-01
        -0.15100E-01
        -0.15098E-01
        -0.15104E-01
        -0.15107E-01
        -0.15104E-01
        -0.15100E-01
        -0.15105E-01
        -0.15098E-01
        -0.15103E-01
        -0.15094E-01
        -0.15096E-01
        -0.15107E-01
        -0.15099E-01
        -0.15105E-01
        -0.15106E-01
        -0.15101E-01
        -0.15105E-01
        -0.15104E-01
        -0.15099E-01
        -0.15104E-01
        -0.15101E-01
        -0.15088E-01
        -0.15093E-01
        -0.15095E-01
        -0.15102E-01
        -0.15101E-01
        -0.15095E-01
        -0.15090E-01
        -0.15097E-01
        -0.15103E-01
        -0.15094E-01
        -0.15092E-01
        -0.15088E-01
        -0.15094E-01
        -0.15099E-01
        -0.15099E-01
        -0.15094E-01
        -0.15089E-01
        -0.15096E-01
        -0.15077E-01
        -0.15080E-01
        -0.15080E-01
        -0.15078E-01
        -0.15079E-01
        -0.15079E-01
        -0.15080E-01
        -0.15080E-01
        -0.15080E-01
        -0.15079E-01
        -0.15076E-01
        -0.15080E-01
        -0.15081E-01
        -0.15081E-01
        -0.15080E-01
        -0.15079E-01
        -0.15078E-01
        -0.15080E-01
        -0.15078E-01
        -0.15081E-01
        -0.15081E-01
        -0.15079E-01
        -0.15080E-01
        -0.15078E-01
        -0.15080E-01
        -0.15081E-01
        -0.15462E-01
        -0.15462E-01
        -0.15462E-01
        -0.15462E-01
        -0.15462E-01
        -0.15462E-01
        -0.15462E-01
        -0.15462E-01
        -0.15462E-01
        -0.15462E-01
        -0.15462E-01
        -0.15462E-01
        -0.15462E-01
        -0.15462E-01
        -0.15462E-01
        -0.15462E-01
        -0.15462E-01
        -0.15462E-01
        -0.15462E-01
        -0.15462E-01
        -0.15462E-01
        -0.15462E-01
        -0.15462E-01
        -0.15462E-01
        -0.15462E-01
        -0.15462E-01
        -0.15462E-01
        -0.15462E-01
        -0.15462E-01
        -0.15462E-01
        -0.15462E-01
        -0.15462E-01
        -0.15462E-01
        -0.15462E-01
        -0.15462E-01
        -0.15462E-01
        -0.15462E-01
        -0.15462E-01
        -0.15462E-01
        -0.15462E-01
        -0.15462E-01
        -0.15462E-01
        -0.15462E-01
        -0.15462E-01
        -0.15462E-01
        -0.15462E-01
        -0.15462E-01
        -0.15462E-01
        -0.15462E-01
        -0.15462E-01
        -0.15462E-01
        -0.15462E-01
        -0.15462E-01
        -0.15462E-01
        -0.15462E-01
        -0.15462E-01
        -0.15462E-01
        -0.15462E-01
        -0.15462E-01
        -0.15462E-01
        -0.15462E-01
        -0.15462E-01
        -0.15462E-01
        -0.15462E-01
        -0.15462E-01
        -0.15462E-01
        -0.15462E-01
        -0.15462E-01
        -0.15462E-01
        -0.15462E-01
        -0.15462E-01
        -0.15462E-01
        -0.15462E-01
        -0.15462E-01
        -0.15462E-01
        -0.15462E-01
        -0.15462E-01
        -0.15462E-01
        -0.15462E-01
        -0.15462E-01
        -0.15462E-01
        -0.15462E-01
        -0.15462E-01
        -0.15462E-01
        -0.15462E-01
        -0.15462E-01
        -0.15462E-01
        -0.15462E-01
        -0.15462E-01
        -0.15462E-01
        -0.15462E-01
        -0.15462E-01
        -0.15462E-01
        -0.15462E-01
        -0.15462E-01
        -0.15462E-01
        -0.15462E-01
        -0.15462E-01
        -0.15462E-01
        -0.15462E-01
        -0.15462E-01
        -0.15462E-01
        -0.15462E-01
        -0.15462E-01
        -0.15462E-01
        -0.15462E-01
        -0.15462E-01
        -0.15462E-01
        -0.15462E-01
        -0.15462E-01
        -0.15462E-01
        -0.15462E-01
        -0.15462E-01
        -0.15462E-01
        -0.15462E-01
        -0.15462E-01
        -0.15462E-01
        -0.15462E-01
        -0.15462E-01
        -0.15462E-01
        -0.15462E-01
        -0.15462E-01
        -0.15462E-01
        -0.15462E-01
        -0.15462E-01
        -0.15462E-01
        -0.15462E-01
        -0.15462E-01
        -0.15462E-01
        -0.15462E-01
        -0.15462E-01
        -0.15462E-01
        -0.15462E-01
        -0.15462E-01
        -0.15462E-01
        -0.15462E-01
        -0.15462E-01
        -0.15462E-01
        -0.15462E-01
        -0.15462E-01
        -0.15462E-01
        -0.15462E-01
        -0.15462E-01
        -0.15462E-01
        -0.15462E-01
        -0.15462E-01
        -0.15462E-01
        -0.15462E-01
        -0.15462E-01
        -0.15462E-01
        -0.15462E-01
        -0.15462E-01
        -0.15462E-01
        -0.15462E-01
        -0.15462E-01
        -0.15462E-01
        -0.15462E-01
        -0.15462E-01
        -0.15462E-01
        -0.15462E-01
        -0.15462E-01
        -0.15462E-01
        -0.15462E-01
        -0.15462E-01
        -0.15462E-01
        -0.15462E-01
        -0.15462E-01
        -0.15462E-01
        -0.15462E-01
        -0.15462E-01
        -0.15462E-01
        -0.15462E-01
        -0.15462E-01
        -0.15462E-01
        -0.15462E-01
        -0.15462E-01
        -0.15462E-01
        -0.15462E-01
        -0.15462E-01
        -0.15462E-01
        -0.15462E-01
        -0.15462E-01
        -0.15462E-01
        -0.15462E-01
        -0.15462E-01
        -0.15462E-01
        -0.15462E-01
        -0.15462E-01
        -0.15462E-01
        -0.15462E-01
        -0.15462E-01
        -0.15462E-01
        -0.15462E-01
        -0.15462E-01
        -0.15462E-01
        -0.15462E-01
        -0.15462E-01
        -0.15462E-01
        -0.15462E-01
        -0.15462E-01
        -0.15462E-01
        -0.15462E-01
        -0.15462E-01
        -0.15462E-01
        -0.15462E-01
        -0.15462E-01
        -0.15462E-01
        -0.15462E-01
        -0.15462E-01
        -0.15462E-01
        -0.15462E-01
        -0.15462E-01
        -0.15462E-01
        -0.15462E-01
        -0.15462E-01
        -0.15462E-01
        -0.15462E-01
        -0.15462E-01
        -0.15462E-01
        -0.15462E-01
        -0.15462E-01
        -0.15462E-01
        -0.15462E-01
        -0.15462E-01
        -0.15462E-01
        -0.15462E-01
        -0.15462E-01
        -0.15462E-01
        -0.15462E-01
        -0.15462E-01
        -0.15462E-01
        -0.15462E-01
        -0.15462E-01
        -0.15462E-01
        -0.15462E-01
        -0.15462E-01
        -0.15462E-01
        -0.15462E-01
        -0.15462E-01
        -0.15462E-01
        -0.15462E-01
        -0.15462E-01
        -0.15462E-01
        -0.15462E-01
        -0.15462E-01
        -0.15462E-01
        -0.15462E-01
        -0.15462E-01
        -0.15462E-01
        -0.15462E-01
        -0.15462E-01
        -0.15462E-01
        -0.15462E-01
        -0.15462E-01
        -0.15462E-01
        -0.15462E-01
        -0.15462E-01
        -0.15462E-01
        -0.15462E-01
        -0.15462E-01
        -0.15462E-01
        -0.15462E-01
        -0.15462E-01
        -0.15462E-01
        -0.15462E-01
        -0.15462E-01
        -0.15462E-01
        -0.15462E-01
        -0.15462E-01
        -0.15462E-01
        -0.15462E-01
        -0.15462E-01
        -0.15462E-01
        -0.15462E-01
        -0.15462E-01
        -0.15462E-01
        -0.15462E-01
        -0.15462E-01
        -0.15462E-01
        -0.15462E-01
        -0.15462E-01
        -0.15462E-01
        -0.15462E-01
        -0.15462E-01
        -0.15462E-01
        -0.15462E-01
        -0.15462E-01
        -0.15462E-01
        -0.15462E-01
        -0.15462E-01
        -0.15462E-01
        -0.15462E-01
        -0.15462E-01
        -0.15462E-01
        -0.15462E-01
        -0.15462E-01
        -0.15462E-01
        -0.15462E-01
        -0.15462E-01
        -0.15462E-01
        -0.15462E-01
        -0.15462E-01
        -0.15462E-01
        -0.15462E-01
        -0.15462E-01
        -0.15462E-01
        -0.15462E-01
        -0.15462E-01
        -0.15462E-01
        -0.15462E-01
        -0.15462E-01
        -0.15462E-01
        -0.15462E-01
        -0.15462E-01
        -0.15462E-01
        -0.15462E-01
        -0.15462E-01
        -0.15462E-01
        -0.15462E-01
        -0.15462E-01
        -0.15462E-01
        -0.15462E-01
        -0.15462E-01
        -0.15462E-01
        -0.15462E-01
        -0.15462E-01
        -0.15462E-01
        -0.15462E-01
        -0.15462E-01
        -0.15462E-01
        -0.15462E-01
        -0.15462E-01
        -0.15462E-01
        -0.15462E-01
        -0.15462E-01
        -0.15462E-01
        -0.15462E-01
        -0.15462E-01
        -0.15462E-01
        -0.15462E-01
        -0.15462E-01
        -0.15462E-01
        -0.15462E-01
        -0.15462E-01
        -0.15462E-01
        -0.15462E-01
        -0.15462E-01
        -0.15462E-01
        -0.15462E-01
        -0.15462E-01
        -0.15462E-01
        -0.15462E-01
        -0.15462E-01
        -0.15462E-01
        -0.15462E-01
        -0.15462E-01
        -0.15462E-01
        -0.15462E-01
        -0.15462E-01
        -0.15462E-01
        -0.15462E-01
        -0.15462E-01
        -0.15462E-01
        -0.15462E-01
        -0.15462E-01
        -0.15462E-01
        -0.15462E-01
        -0.15462E-01
        -0.15462E-01
        -0.15462E-01
        -0.15462E-01
        -0.15462E-01
        -0.15462E-01
        -0.15462E-01
        -0.15462E-01
        -0.15462E-01
        -0.15462E-01
        -0.15462E-01
        -0.15462E-01
        -0.15462E-01
        -0.15462E-01
        -0.15462E-01
        -0.15462E-01
        -0.15462E-01
        -0.15462E-01
        -0.15462E-01
        -0.15462E-01
        -0.15462E-01
        -0.15462E-01
        -0.15462E-01
        -0.15462E-01
        -0.15462E-01
        -0.15462E-01
        -0.15462E-01
        -0.15462E-01
        -0.15462E-01
        -0.15462E-01
        -0.15462E-01
        -0.15462E-01
        -0.15462E-01
        -0.15462E-01
        -0.15462E-01
        -0.15462E-01
        -0.15462E-01
        -0.15462E-01
        -0.15462E-01
        -0.15462E-01
        -0.15462E-01
        -0.15462E-01
        -0.15462E-01
        -0.15462E-01
        -0.15462E-01
        -0.15462E-01
        -0.15462E-01
        -0.15462E-01
        -0.15462E-01
        -0.15462E-01
        -0.15462E-01
        -0.15462E-01
        -0.15462E-01
        -0.15462E-01
        -0.15462E-01
        -0.15462E-01
        -0.15462E-01
        -0.15462E-01
        -0.15462E-01
        -0.15462E-01
        -0.15462E-01
        -0.15462E-01
        -0.15462E-01
        -0.15462E-01
        -0.15462E-01
        -0.15462E-01
        -0.15462E-01
        -0.15462E-01
        -0.15462E-01
        -0.15462E-01
        -0.15462E-01
        -0.15462E-01
        -0.15462E-01
        -0.15462E-01
        -0.15462E-01
        -0.15462E-01
        -0.15462E-01
        -0.15462E-01
        -0.15462E-01
        -0.15462E-01
        -0.15462E-01
        -0.15462E-01
        -0.15462E-01
        -0.15462E-01
        -0.15462E-01
        -0.15462E-01
        -0.15462E-01
        -0.15462E-01
        -0.15462E-01
        -0.15462E-01
        -0.15462E-01
        -0.15462E-01
        -0.15462E-01
        -0.15462E-01
        -0.15462E-01
        -0.15462E-01
        -0.15462E-01
        -0.15462E-01
        -0.15462E-01
        -0.15462E-01
        -0.15462E-01
        -0.15462E-01
        -0.15462E-01
        -0.15462E-01
        -0.15462E-01
        -0.15462E-01
        -0.15462E-01
        -0.15462E-01
        -0.15462E-01
        -0.15462E-01
        -0.15462E-01
        -0.15462E-01
        -0.15462E-01
        -0.15462E-01
        -0.15462E-01
        -0.15462E-01
        -0.15462E-01
        -0.15462E-01
        -0.15462E-01
        -0.15462E-01
        -0.15462E-01
        -0.15462E-01
        -0.15462E-01
        -0.15462E-01
        -0.15462E-01
        -0.15462E-01
        -0.15462E-01
        -0.15462E-01
        -0.15462E-01
        -0.15462E-01
        -0.15462E-01
        -0.15462E-01
        -0.15462E-01
        -0.15462E-01
        -0.15462E-01
        -0.15462E-01
        -0.15462E-01
        -0.15462E-01
        -0.15462E-01
        -0.15462E-01
        -0.15462E-01
        -0.15462E-01
        -0.15462E-01
        -0.15462E-01
        -0.15462E-01
        -0.15462E-01
        -0.15462E-01
        -0.15462E-01
        -0.15462E-01
        -0.15462E-01
        -0.15462E-01
        -0.15462E-01
        -0.15462E-01
        -0.15462E-01
        -0.15462E-01
        -0.15462E-01
        -0.15462E-01
        -0.15462E-01
        -0.15462E-01
        -0.15462E-01
        -0.15462E-01
        -0.15462E-01
        -0.15462E-01
        -0.15462E-01
        -0.15462E-01
        -0.15462E-01
        -0.15462E-01
        -0.15462E-01
        -0.15462E-01
        -0.15462E-01
        -0.15462E-01
        -0.15462E-01
        -0.15462E-01
        -0.15462E-01
        -0.15462E-01
        -0.15462E-01
        -0.15462E-01
        -0.15462E-01
        -0.15462E-01
        -0.15462E-01
        -0.15462E-01
        -0.15462E-01
        -0.15462E-01
        -0.15462E-01
        -0.15462E-01
        -0.15462E-01
        -0.15462E-01
        -0.15462E-01
        -0.15462E-01
        -0.15462E-01
        -0.15462E-01
        -0.15462E-01
        -0.15462E-01
        -0.15462E-01
        -0.15462E-01
        -0.15462E-01
        -0.15462E-01
        -0.15462E-01
        -0.15462E-01
        -0.15462E-01
        -0.15462E-01
        -0.15462E-01
        -0.15462E-01
        -0.15462E-01
        -0.15462E-01
        -0.15462E-01
        -0.15462E-01
        -0.15462E-01
        -0.15462E-01
        -0.15462E-01
        -0.15462E-01
        -0.15462E-01
        -0.15462E-01
        -0.15462E-01
        -0.15462E-01
        -0.15462E-01
        -0.15462E-01
        -0.15462E-01
        -0.15462E-01
        -0.15462E-01
        -0.15462E-01
        -0.15462E-01
        -0.15462E-01
        -0.15462E-01
        -0.15462E-01
        -0.15462E-01
        -0.15462E-01
        -0.15462E-01
        -0.15462E-01
        -0.15462E-01
        -0.15462E-01
        -0.15462E-01
        -0.15462E-01
        -0.15462E-01
        -0.15462E-01
        -0.15462E-01
        -0.15462E-01
        -0.15462E-01
        -0.15462E-01
        -0.15462E-01
        -0.15462E-01
        -0.15462E-01
        -0.15462E-01
        -0.15462E-01
        -0.15462E-01
        -0.15462E-01
        -0.15462E-01
        -0.15462E-01
        -0.15462E-01
        -0.15462E-01
        -0.15462E-01
        -0.15462E-01
        -0.15462E-01
        -0.15462E-01
        -0.15462E-01
        -0.15462E-01
        -0.15462E-01
        -0.15462E-01
        -0.15462E-01
        -0.15462E-01
        -0.15462E-01
        -0.15462E-01
        -0.15462E-01
        -0.15462E-01
        -0.15462E-01
        -0.15462E-01
        -0.15462E-01
        -0.15462E-01
        -0.15462E-01
        -0.15462E-01
        -0.15462E-01
        -0.15462E-01
        -0.15462E-01
        -0.15462E-01
        -0.15462E-01
        -0.15462E-01
        -0.15462E-01
        -0.15462E-01
        -0.15462E-01
        -0.15462E-01
        -0.15462E-01
        -0.15462E-01
        -0.15462E-01
        -0.15462E-01
        -0.15462E-01
        -0.15462E-01
        -0.15462E-01
        -0.15462E-01
        -0.15462E-01
        -0.15462E-01
        -0.15462E-01
        -0.15462E-01
        -0.15462E-01
        -0.15462E-01
        -0.15462E-01
        -0.15462E-01
        -0.15462E-01
        -0.15462E-01
        -0.15462E-01
        -0.15462E-01
        -0.15462E-01
        -0.15462E-01
        -0.15462E-01
        -0.15462E-01
        -0.15462E-01
        -0.15462E-01
        -0.15462E-01
        -0.15462E-01
        -0.15462E-01
        -0.15462E-01
        -0.15462E-01
        -0.15462E-01
        -0.15462E-01
        -0.15462E-01
        -0.15462E-01
        -0.15462E-01
        -0.15462E-01
        -0.15462E-01
        -0.15462E-01
        -0.15462E-01
        -0.15462E-01
        -0.15462E-01
        -0.15462E-01
        -0.15462E-01
        -0.15462E-01
        -0.15462E-01
        -0.15462E-01
        -0.15462E-01
        -0.15462E-01
        -0.15462E-01
        -0.15462E-01
        -0.15462E-01
        -0.15462E-01
        -0.15462E-01
        -0.15462E-01
        -0.15462E-01
        -0.15462E-01
        -0.15462E-01
        -0.15462E-01
        -0.15462E-01
        -0.15462E-01
        -0.15462E-01
        -0.15462E-01
        -0.15462E-01
        -0.15462E-01
        -0.15462E-01
        -0.15462E-01
        -0.15462E-01
        -0.15462E-01
        -0.15462E-01
        -0.15462E-01
        -0.15462E-01
        -0.15462E-01
        -0.15462E-01
        -0.15462E-01
        -0.15462E-01
        -0.15462E-01
        -0.15462E-01
        -0.15462E-01
        -0.15462E-01
        -0.15462E-01
        -0.15462E-01
        -0.15462E-01
        -0.15462E-01
        -0.15462E-01
        -0.15462E-01
        -0.15462E-01
        -0.15462E-01
        -0.15462E-01
        -0.15462E-01
        -0.15462E-01
        -0.15462E-01
        -0.15462E-01
        -0.15462E-01
        -0.15462E-01
        -0.15462E-01
        -0.15462E-01
        -0.15462E-01
        -0.15462E-01
        -0.15462E-01
        -0.15462E-01
        -0.15462E-01
        -0.15462E-01
        -0.15462E-01
        -0.15462E-01
        -0.15462E-01
        -0.15462E-01
        -0.15462E-01
        -0.15462E-01
        -0.15462E-01
        -0.15462E-01
        -0.15462E-01
        -0.15462E-01
        -0.15462E-01
        -0.15462E-01
        -0.15462E-01
        -0.15462E-01
        -0.15462E-01
        -0.15462E-01
        -0.15462E-01
        -0.15462E-01
        -0.15462E-01
        -0.15462E-01
        -0.15462E-01
        -0.15462E-01
        -0.15462E-01
        -0.15462E-01
        -0.15462E-01
        -0.15462E-01
        -0.15462E-01
        -0.15462E-01
        -0.15462E-01
        -0.15462E-01
        -0.15462E-01
        -0.15462E-01
        -0.15462E-01
        -0.15462E-01
        -0.15462E-01
        -0.15462E-01
        -0.15462E-01
        -0.15462E-01
        -0.15462E-01
        -0.15462E-01
        -0.15462E-01
        -0.15462E-01
        -0.15462E-01
        -0.15462E-01
        -0.15462E-01
        -0.15462E-01
        -0.15462E-01
        -0.15462E-01
        -0.15462E-01
        -0.15462E-01
        -0.15462E-01
        -0.15462E-01
        -0.15462E-01
        -0.15462E-01
        -0.15462E-01
        -0.15462E-01
        -0.15462E-01
        -0.15462E-01
        -0.15462E-01
        -0.15462E-01
        -0.15462E-01
        -0.15462E-01
        -0.15462E-01
        -0.15462E-01
        -0.15462E-01
        -0.15462E-01
        -0.15462E-01
        -0.15462E-01
        -0.15462E-01
        -0.15462E-01
        -0.15462E-01
        -0.15462E-01
        -0.15462E-01
        -0.15462E-01
        -0.15462E-01
        -0.15462E-01
        -0.15462E-01
        -0.15462E-01
        -0.15462E-01
        -0.15462E-01
        -0.15462E-01
        -0.15462E-01
        -0.15462E-01
        -0.15462E-01
        -0.15462E-01
        -0.15462E-01
        -0.15462E-01
        -0.15462E-01
        -0.15462E-01
        -0.15462E-01
        -0.15462E-01
        -0.15462E-01
        -0.15462E-01
        -0.15462E-01
        -0.15462E-01
        -0.15462E-01
        -0.15462E-01
        -0.15462E-01
        -0.15462E-01
        -0.15462E-01
        -0.15462E-01
        -0.15462E-01
        -0.15462E-01
        -0.15462E-01
        -0.15462E-01
        -0.15462E-01
        -0.15462E-01
        -0.15462E-01
        -0.15462E-01
        -0.15462E-01
        -0.15462E-01
        -0.15462E-01
        -0.15462E-01
        -0.15462E-01
        -0.15462E-01
        -0.15462E-01
        -0.15462E-01
        -0.15462E-01
        -0.15462E-01
        -0.15462E-01
        -0.15462E-01
        -0.15462E-01
        -0.15462E-01
        -0.15462E-01
        -0.15462E-01
        -0.15462E-01
        -0.15462E-01
        -0.15462E-01
        -0.15462E-01
        -0.15462E-01
        -0.15462E-01
        -0.15462E-01
        -0.15462E-01
        -0.15462E-01
        -0.15462E-01
        -0.15462E-01
        -0.15462E-01
        -0.15462E-01
        -0.15462E-01
        -0.15462E-01
        -0.15462E-01
        -0.15462E-01
        -0.15462E-01
        -0.15462E-01
        -0.15462E-01
        -0.15462E-01
        -0.15462E-01
        -0.15462E-01
        -0.15462E-01
        -0.15462E-01
        -0.15462E-01
        -0.15462E-01
        -0.15462E-01
        -0.15462E-01
        -0.15462E-01
        -0.15462E-01
        -0.15462E-01
        -0.15462E-01
        -0.15462E-01
        -0.15462E-01
        -0.15462E-01
        -0.15462E-01
        -0.15462E-01
        -0.15462E-01
        -0.15462E-01
        -0.15462E-01
        -0.15462E-01
        -0.15462E-01
        -0.15462E-01
        -0.15462E-01
        -0.15462E-01
        -0.15462E-01
        -0.15462E-01
        -0.15462E-01
        -0.15462E-01
        -0.15462E-01
        -0.15462E-01
        -0.15462E-01
        -0.15462E-01
        -0.15462E-01
        -0.15462E-01
        -0.15462E-01
        -0.15462E-01
        -0.15462E-01
        -0.15462E-01
        -0.15462E-01
        -0.15462E-01
        -0.15462E-01
        -0.15462E-01
        -0.15462E-01
        -0.15462E-01
        -0.15462E-01
        -0.15462E-01
        -0.15462E-01
        -0.15462E-01
        -0.15462E-01
        -0.15462E-01
        -0.15462E-01
        -0.15462E-01
        -0.15462E-01
        -0.15462E-01
        -0.15462E-01
        -0.15462E-01
        -0.15462E-01
        -0.15462E-01
        -0.15462E-01
        -0.15462E-01
        -0.15462E-01
        -0.15462E-01
        -0.15462E-01
        -0.15462E-01
        -0.15462E-01
        -0.15462E-01
        -0.15462E-01
        -0.15462E-01
        -0.15462E-01
        -0.15462E-01
        -0.15462E-01
        -0.15462E-01
        -0.15462E-01
        -0.15462E-01
        -0.15462E-01
        -0.15462E-01
        -0.15462E-01
        -0.15462E-01
        -0.15462E-01
        -0.15462E-01
        -0.15462E-01
        -0.15462E-01
        -0.15462E-01
        -0.15462E-01
        -0.15462E-01
        -0.15462E-01
        -0.15462E-01
        -0.15462E-01
        -0.15462E-01
        -0.15462E-01
        -0.15462E-01
        -0.15462E-01
        -0.15462E-01
        -0.15462E-01
        -0.15462E-01
        -0.15462E-01
        -0.15462E-01
        -0.15462E-01
        -0.15462E-01
        -0.15462E-01
        -0.15462E-01
        -0.15462E-01
        -0.15462E-01
        -0.15462E-01
        -0.15462E-01
        -0.15462E-01
        -0.15462E-01
        -0.15462E-01
        -0.15462E-01
        -0.15462E-01
        -0.15462E-01
        -0.15462E-01
        -0.15462E-01
        -0.15462E-01
        -0.15462E-01
        -0.15462E-01
        -0.15462E-01
        -0.15462E-01
        -0.15462E-01
        -0.15462E-01
        -0.15462E-01
        -0.15462E-01
        -0.15462E-01
        -0.15462E-01
        -0.15462E-01
        -0.15462E-01
        -0.15462E-01
        -0.15462E-01
        -0.15462E-01
        -0.15462E-01
        -0.15462E-01
        -0.15462E-01
        -0.15462E-01
        -0.15462E-01
        -0.15462E-01
        -0.15462E-01
        -0.15462E-01
        -0.15462E-01
        -0.15462E-01
        -0.15462E-01
        -0.15462E-01
        -0.15462E-01
        -0.15462E-01
        -0.15462E-01
        -0.15462E-01
        -0.15462E-01
        -0.15462E-01
        -0.15462E-01
        -0.15462E-01
        -0.15462E-01
        -0.15462E-01
        -0.15462E-01
        -0.15462E-01
        -0.15462E-01
        -0.15462E-01
        -0.15462E-01
        -0.15462E-01
        -0.15462E-01
        -0.15462E-01
        -0.15462E-01
        -0.15462E-01
        -0.15462E-01
        -0.15462E-01
        -0.15462E-01
        -0.15462E-01
        -0.15462E-01
        -0.15462E-01
        -0.15462E-01
        -0.15462E-01
        -0.15462E-01
        -0.15462E-01
        -0.15462E-01
        -0.15462E-01
        -0.15462E-01
        -0.15462E-01
        -0.15462E-01
        -0.15462E-01
        -0.15462E-01
        -0.15462E-01
        -0.15462E-01
        -0.15462E-01
        -0.15462E-01
        -0.15462E-01
        -0.15462E-01
        -0.15462E-01
        -0.15462E-01
        -0.15462E-01
        -0.15462E-01
        -0.15462E-01
        -0.15462E-01
        -0.15462E-01
        -0.15462E-01
        -0.15462E-01
        -0.15462E-01
        -0.15462E-01
        -0.15462E-01
        -0.15462E-01
        -0.15462E-01
        -0.15462E-01
        -0.15462E-01
        -0.15462E-01
        -0.15462E-01
        -0.15462E-01
        -0.15462E-01
        -0.15462E-01
        -0.15462E-01
        -0.15462E-01
        -0.15462E-01
        -0.15462E-01
        -0.15462E-01
        -0.15462E-01
        -0.15462E-01
        -0.15462E-01
        -0.15462E-01
        -0.15462E-01
        -0.15462E-01
        -0.15462E-01
        -0.15462E-01
        -0.15462E-01
        -0.15462E-01
        -0.15462E-01
        -0.15462E-01
        -0.15462E-01
        -0.15462E-01
        -0.15462E-01
        -0.15462E-01
        -0.15462E-01
        -0.15462E-01
        -0.15462E-01
        -0.15462E-01
        -0.15462E-01
        -0.15462E-01
        -0.15462E-01
        -0.15462E-01
        -0.15462E-01
        -0.15462E-01
        -0.15462E-01
        -0.15462E-01
        -0.15462E-01
        -0.15462E-01
        -0.15462E-01
        -0.15462E-01
        -0.15462E-01
        -0.15462E-01
        -0.15462E-01
        -0.15462E-01
        -0.15462E-01
        -0.15462E-01
        -0.15462E-01
        -0.15462E-01
        -0.15462E-01
        -0.15462E-01
        -0.15462E-01
        -0.15462E-01
        -0.15462E-01
        -0.15462E-01
        -0.15462E-01
        -0.15462E-01
        -0.15462E-01
        -0.15462E-01
        -0.15462E-01
        -0.15462E-01
        -0.15462E-01
        -0.15462E-01
        -0.15462E-01
        -0.15462E-01
        -0.15462E-01
        -0.15462E-01
        -0.15462E-01
        -0.15462E-01
        -0.15462E-01
        -0.15462E-01
        -0.15462E-01
        -0.15462E-01
        -0.15462E-01
        -0.15462E-01
        -0.15462E-01
        -0.15462E-01
        -0.15462E-01
        -0.15462E-01
        -0.15462E-01
        -0.15462E-01
        -0.15462E-01
        -0.15462E-01
        -0.15462E-01
        -0.15462E-01
        -0.15462E-01
        -0.15462E-01
        -0.15462E-01
        -0.15462E-01
        -0.15462E-01
        -0.15462E-01
        -0.15462E-01
        -0.15462E-01
        -0.15462E-01
        -0.15462E-01
        -0.15462E-01
        -0.15462E-01
        -0.15462E-01
        -0.15462E-01
        -0.15462E-01
        -0.15462E-01
        -0.15462E-01
        -0.15462E-01
        -0.15462E-01
        -0.15462E-01
        -0.15462E-01
        -0.15462E-01
        -0.15462E-01
        -0.15462E-01
        -0.15462E-01
        -0.15462E-01
        -0.15462E-01
        -0.15462E-01
        -0.15462E-01
        -0.15462E-01
        -0.15462E-01
        -0.15462E-01
        -0.15462E-01
        -0.15462E-01
        -0.15462E-01
        -0.15462E-01
        -0.15462E-01
        -0.15462E-01
        -0.15462E-01
        -0.15462E-01
        -0.15462E-01
        -0.15462E-01
        -0.15462E-01
        -0.15462E-01
        -0.15462E-01
        -0.15462E-01
        -0.15462E-01
        -0.15462E-01
        -0.15462E-01
        -0.15462E-01
        -0.15462E-01
        -0.15462E-01
        -0.15462E-01
        -0.15462E-01
        -0.15462E-01
        -0.15462E-01
        -0.15462E-01
        -0.15462E-01
        -0.15462E-01
        -0.15462E-01
        -0.15462E-01
        -0.15462E-01
        -0.15462E-01
        -0.15462E-01
        -0.15462E-01
        -0.15462E-01
        -0.15462E-01
        -0.15462E-01
        -0.15462E-01
        -0.15462E-01
        -0.15462E-01
        -0.15462E-01
        -0.15462E-01
        -0.15462E-01
        -0.15462E-01
        -0.15462E-01
        -0.15462E-01
        -0.15462E-01
        -0.15462E-01
        -0.15462E-01
        -0.15462E-01
        -0.15462E-01
        -0.15462E-01
        -0.15462E-01
        -0.15462E-01
        -0.15462E-01
        -0.15462E-01
        -0.15462E-01
        -0.15462E-01
        -0.15462E-01
        -0.15462E-01
        -0.15462E-01
        -0.15462E-01
        -0.15462E-01
        -0.15462E-01
        -0.15462E-01
        -0.15462E-01
        -0.15462E-01
        -0.15462E-01
        -0.15462E-01
        -0.15462E-01
        -0.15462E-01
        -0.15462E-01
        -0.15462E-01
        -0.15462E-01
        -0.15462E-01
        -0.15462E-01
        -0.15462E-01
        -0.15462E-01
        -0.15462E-01
        -0.15462E-01
        -0.15462E-01
        -0.15462E-01
        -0.15462E-01
        -0.15462E-01
        -0.15462E-01
        -0.15462E-01
        -0.15462E-01
        -0.15462E-01
        -0.15462E-01
        -0.15462E-01
        -0.15462E-01
        -0.15462E-01
        -0.15462E-01
        -0.15462E-01
        -0.15462E-01
        -0.15462E-01
        -0.15462E-01
        -0.15462E-01
        -0.15462E-01
        -0.15462E-01
        -0.15462E-01
        -0.15462E-01
        -0.15462E-01
        -0.15462E-01
        -0.15462E-01
        -0.15462E-01
        -0.15462E-01
        -0.15462E-01
        -0.15462E-01
        -0.15462E-01
        -0.15462E-01
        -0.15462E-01
        -0.15462E-01
        -0.15462E-01
        -0.15462E-01
        -0.15462E-01
        -0.15462E-01
        -0.15462E-01
        -0.15462E-01
        -0.15462E-01
        -0.15462E-01
        -0.15462E-01
        -0.15462E-01
        -0.15462E-01
        -0.15462E-01
        -0.15462E-01
        -0.15462E-01
        -0.15462E-01
        -0.15462E-01
        -0.15462E-01
        -0.15462E-01
        -0.15462E-01
        -0.15462E-01
        -0.15462E-01
        -0.15462E-01
        -0.15462E-01
        -0.15462E-01
        -0.15462E-01
        -0.15462E-01
        -0.15462E-01
        -0.15462E-01
        -0.15462E-01
        -0.15462E-01
        -0.15462E-01
        -0.15462E-01
        -0.15462E-01
        -0.15462E-01
        -0.15462E-01
        -0.15462E-01
        -0.15462E-01
        -0.15462E-01
        -0.15462E-01
        -0.15462E-01
        -0.15462E-01
        -0.15462E-01
        -0.15462E-01
        -0.15462E-01
        -0.15462E-01
        -0.15462E-01
        -0.15462E-01
        -0.15462E-01
        -0.15462E-01
        -0.15462E-01
        -0.15462E-01
        -0.15462E-01
        -0.15462E-01
        -0.15462E-01
        -0.15462E-01
        -0.15462E-01
        -0.15462E-01
        -0.15462E-01
        -0.15462E-01
        -0.15462E-01
        -0.15462E-01
        -0.15462E-01
        -0.15462E-01
        -0.15462E-01
        -0.15462E-01
        -0.15462E-01
        -0.15462E-01
        -0.15462E-01
        -0.15462E-01
        -0.15462E-01
        -0.15462E-01
        -0.15462E-01
        -0.15462E-01
        -0.15462E-01
        -0.15462E-01
        -0.15462E-01
        -0.15462E-01
        -0.15462E-01
        -0.15462E-01
        -0.15462E-01
        -0.15462E-01
        -0.15462E-01
        -0.15462E-01
        -0.15462E-01
        -0.15462E-01
        -0.15462E-01
        -0.15462E-01
        -0.15462E-01
        -0.15462E-01
        -0.15462E-01
        -0.15462E-01
        -0.15462E-01
        -0.15462E-01
        -0.15462E-01
        -0.15462E-01
        -0.15462E-01
        -0.15462E-01
        -0.15462E-01
        -0.15462E-01
        -0.15462E-01
        -0.15462E-01
        -0.15462E-01
        -0.15462E-01
        -0.15462E-01
        -0.15462E-01
        -0.15462E-01
        -0.15462E-01
        -0.15462E-01
        -0.15462E-01
        -0.15462E-01
        -0.15462E-01
        -0.15462E-01
        -0.15462E-01
        -0.15462E-01
        -0.15462E-01
        -0.15462E-01
        -0.15462E-01
        -0.15462E-01
        -0.15462E-01
        -0.15462E-01
        -0.15462E-01
        -0.15462E-01
        -0.15462E-01
        -0.15462E-01
        -0.15462E-01
        -0.15462E-01
        -0.15462E-01
        -0.15462E-01
        -0.15462E-01
        -0.15462E-01
        -0.15462E-01
        -0.15462E-01
        -0.15462E-01
        -0.15462E-01
        -0.15462E-01
        -0.15462E-01
        -0.15462E-01
        -0.15462E-01
        -0.15462E-01
        -0.15462E-01
        -0.15462E-01
        -0.15462E-01
        -0.15462E-01
        -0.15462E-01
        -0.15462E-01
        -0.15462E-01
        -0.15462E-01
        -0.15462E-01
        -0.15462E-01
        -0.15462E-01
        -0.15462E-01
        -0.15462E-01
        -0.15462E-01
        -0.15462E-01
        -0.15462E-01
        -0.15462E-01
        -0.15462E-01
        -0.15462E-01
        -0.15462E-01
        -0.15462E-01
        -0.15462E-01
        -0.15462E-01
        -0.15462E-01
        -0.15462E-01
        -0.15462E-01
        -0.15462E-01
        -0.15462E-01
        -0.15462E-01
        -0.15462E-01
        -0.15462E-01
        -0.15462E-01
        -0.15462E-01
        -0.15462E-01
        -0.15462E-01
        -0.15462E-01
        -0.15462E-01
        -0.15462E-01
        -0.15462E-01
        -0.15462E-01
        -0.15462E-01
        -0.15462E-01
        -0.15462E-01
        -0.15462E-01
        -0.15462E-01
        -0.15462E-01
        -0.15462E-01
        -0.15462E-01
        -0.15462E-01
        -0.15462E-01
        -0.15462E-01
        -0.15462E-01
        -0.15462E-01
        -0.15462E-01
        -0.15462E-01
        -0.15462E-01
        -0.15462E-01
        -0.15462E-01
        -0.15462E-01
        -0.15462E-01
        -0.15462E-01
        -0.15462E-01
        -0.15462E-01
        -0.15462E-01
        -0.15462E-01
        -0.15462E-01
        -0.15462E-01
        -0.15462E-01
        -0.15462E-01
        -0.15462E-01
        -0.15462E-01
        -0.15462E-01
        -0.15462E-01
        -0.15462E-01
        -0.15462E-01
        -0.15462E-01
        -0.15462E-01
        -0.15462E-01
        -0.15462E-01
        -0.15462E-01
        -0.15462E-01
        -0.15462E-01
        -0.15462E-01
        -0.15462E-01
        -0.15462E-01
        -0.15462E-01
        -0.15462E-01
        -0.15462E-01
        -0.15462E-01
        -0.15462E-01
        -0.15462E-01
        -0.15462E-01
        -0.15462E-01
        -0.15462E-01
        -0.15462E-01
        -0.15462E-01
        -0.15462E-01
        -0.15462E-01
        -0.15462E-01
        -0.15462E-01
        -0.15462E-01
        -0.15462E-01
        -0.15462E-01
        -0.15462E-01
        -0.15462E-01
        -0.15462E-01
        -0.15462E-01
        -0.15462E-01
        -0.15462E-01
        -0.15462E-01
        -0.15462E-01
        -0.15462E-01
        -0.15462E-01
        -0.15462E-01
        -0.15462E-01
        -0.15462E-01
        -0.15462E-01
        -0.15462E-01
        -0.15462E-01
        -0.15462E-01
        -0.15462E-01
        -0.15462E-01
        -0.15462E-01
        -0.15462E-01
        -0.15462E-01
        -0.15462E-01
        -0.15462E-01
        -0.15462E-01
        -0.15462E-01
        -0.15462E-01
        -0.15462E-01
        -0.15462E-01
        -0.15462E-01
        -0.15462E-01
        -0.15462E-01
        -0.15462E-01
        -0.15462E-01
        -0.15462E-01
        -0.15462E-01
        -0.15462E-01
        -0.15462E-01
        -0.15462E-01
        -0.15462E-01
        -0.15462E-01
        -0.15462E-01
        -0.15462E-01
        -0.15462E-01
        -0.15462E-01
        -0.15462E-01
        -0.15462E-01
        -0.15462E-01
        -0.15462E-01
        -0.15462E-01
        -0.15462E-01
        -0.15462E-01
        -0.15462E-01
        -0.15462E-01
        -0.15462E-01
        -0.15462E-01
        -0.15462E-01
        -0.15462E-01
        -0.15462E-01
        -0.15462E-01
        -0.15462E-01
        -0.15462E-01
        -0.15462E-01
        -0.15462E-01
        -0.15462E-01
        -0.15462E-01
        -0.15462E-01
        -0.15462E-01
        -0.15462E-01
        -0.15462E-01
        -0.15462E-01
        -0.15462E-01
        -0.15462E-01
        -0.15462E-01
        -0.15462E-01
        -0.15462E-01
        -0.15462E-01
        -0.15462E-01
        -0.15462E-01
        -0.15462E-01
        -0.15462E-01
        -0.15462E-01
        -0.15462E-01
        -0.15462E-01
        -0.15462E-01
        -0.15462E-01
        -0.15462E-01
        -0.15462E-01
        -0.15462E-01
        -0.15462E-01
        -0.15462E-01
        -0.15462E-01
        -0.15462E-01
        -0.15462E-01
        -0.15462E-01
        -0.15462E-01
        -0.15462E-01
        -0.15462E-01
        -0.15462E-01
        -0.15462E-01
        -0.15462E-01
        -0.15462E-01
        -0.15462E-01
        -0.15462E-01
        -0.15462E-01
        -0.15462E-01
        -0.15462E-01
        -0.15462E-01
        -0.15462E-01
        -0.15462E-01
        -0.15462E-01
        -0.15462E-01
        -0.15462E-01
        -0.15462E-01
        -0.15462E-01
        -0.15462E-01
        -0.15462E-01
        -0.15462E-01
        -0.15462E-01
        -0.15462E-01
        -0.15462E-01
        -0.15462E-01
        -0.15462E-01
        -0.15462E-01
        -0.15462E-01
        -0.15462E-01
        -0.15462E-01
        -0.15462E-01
        -0.15462E-01
        -0.15462E-01
        -0.15462E-01
        -0.15462E-01
        -0.15462E-01
        -0.15462E-01
        -0.15462E-01
        -0.15462E-01
        -0.15462E-01
        -0.15462E-01
        -0.15462E-01
        -0.15462E-01
        -0.15462E-01
        -0.15462E-01
        -0.15462E-01
        -0.15462E-01
        -0.15462E-01
        -0.15462E-01
        -0.15462E-01
  
SCALARS                     velocity_x  double 1
LOOKUP_TABLE default
         0.00000E+00
         0.00000E+00
         0.00000E+00
         0.00000E+00
         0.00000E+00
         0.00000E+00
         0.00000E+00
         0.00000E+00
         0.00000E+00
         0.00000E+00
         0.00000E+00
         0.00000E+00
         0.00000E+00
         0.00000E+00
         0.00000E+00
         0.00000E+00
         0.00000E+00
         0.00000E+00
         0.00000E+00
         0.00000E+00
         0.00000E+00
         0.00000E+00
         0.00000E+00
         0.00000E+00
         0.00000E+00
         0.00000E+00
         0.00000E+00
         0.00000E+00
         0.00000E+00
         0.00000E+00
         0.00000E+00
         0.00000E+00
         0.00000E+00
         0.00000E+00
         0.00000E+00
         0.00000E+00
         0.00000E+00
         0.00000E+00
         0.00000E+00
         0.00000E+00
         0.00000E+00
         0.00000E+00
         0.00000E+00
         0.00000E+00
         0.00000E+00
         0.00000E+00
         0.00000E+00
         0.00000E+00
         0.00000E+00
         0.00000E+00
         0.00000E+00
         0.00000E+00
         0.00000E+00
         0.00000E+00
         0.00000E+00
         0.00000E+00
         0.00000E+00
         0.00000E+00
         0.00000E+00
         0.00000E+00
         0.00000E+00
         0.00000E+00
         0.00000E+00
         0.00000E+00
         0.00000E+00
         0.00000E+00
         0.00000E+00
         0.00000E+00
         0.00000E+00
         0.00000E+00
         0.00000E+00
         0.00000E+00
         0.00000E+00
         0.00000E+00
         0.00000E+00
         0.00000E+00
         0.00000E+00
         0.00000E+00
         0.00000E+00
         0.00000E+00
         0.00000E+00
         0.00000E+00
         0.00000E+00
         0.00000E+00
         0.00000E+00
         0.00000E+00
         0.00000E+00
         0.00000E+00
         0.00000E+00
         0.00000E+00
         0.00000E+00
         0.00000E+00
         0.00000E+00
         0.00000E+00
         0.00000E+00
         0.00000E+00
         0.00000E+00
         0.00000E+00
         0.00000E+00
         0.00000E+00
         0.00000E+00
         0.00000E+00
         0.00000E+00
         0.00000E+00
         0.00000E+00
         0.00000E+00
         0.00000E+00
         0.00000E+00
         0.00000E+00
         0.00000E+00
         0.00000E+00
         0.00000E+00
         0.00000E+00
         0.00000E+00
         0.00000E+00
         0.00000E+00
         0.00000E+00
         0.00000E+00
         0.00000E+00
         0.00000E+00
         0.00000E+00
         0.00000E+00
         0.00000E+00
         0.00000E+00
         0.00000E+00
         0.00000E+00
         0.00000E+00
         0.00000E+00
         0.00000E+00
         0.00000E+00
         0.00000E+00
         0.00000E+00
         0.00000E+00
         0.00000E+00
         0.00000E+00
         0.00000E+00
         0.00000E+00
         0.00000E+00
         0.00000E+00
         0.00000E+00
         0.00000E+00
         0.00000E+00
         0.00000E+00
         0.00000E+00
         0.00000E+00
         0.00000E+00
         0.00000E+00
         0.00000E+00
         0.00000E+00
         0.00000E+00
         0.00000E+00
         0.00000E+00
         0.00000E+00
         0.00000E+00
         0.00000E+00
         0.00000E+00
         0.00000E+00
         0.00000E+00
         0.00000E+00
         0.00000E+00
         0.00000E+00
         0.00000E+00
         0.00000E+00
         0.00000E+00
         0.00000E+00
         0.00000E+00
         0.00000E+00
         0.00000E+00
         0.00000E+00
         0.00000E+00
         0.00000E+00
         0.00000E+00
         0.00000E+00
         0.00000E+00
         0.00000E+00
         0.00000E+00
         0.00000E+00
         0.00000E+00
         0.00000E+00
         0.00000E+00
         0.00000E+00
         0.00000E+00
         0.00000E+00
         0.00000E+00
         0.00000E+00
         0.00000E+00
         0.00000E+00
         0.00000E+00
         0.00000E+00
         0.00000E+00
         0.00000E+00
         0.00000E+00
         0.00000E+00
         0.00000E+00
         0.00000E+00
         0.00000E+00
         0.00000E+00
         0.00000E+00
         0.00000E+00
         0.00000E+00
         0.00000E+00
         0.00000E+00
         0.00000E+00
         0.00000E+00
         0.00000E+00
         0.00000E+00
         0.00000E+00
         0.00000E+00
         0.00000E+00
         0.00000E+00
         0.00000E+00
         0.00000E+00
         0.00000E+00
         0.00000E+00
         0.00000E+00
         0.00000E+00
         0.00000E+00
         0.00000E+00
         0.00000E+00
         0.00000E+00
         0.00000E+00
         0.00000E+00
         0.00000E+00
         0.00000E+00
         0.00000E+00
         0.00000E+00
         0.00000E+00
         0.00000E+00
         0.00000E+00
         0.00000E+00
         0.00000E+00
         0.00000E+00
         0.00000E+00
         0.00000E+00
         0.00000E+00
         0.00000E+00
         0.00000E+00
         0.00000E+00
         0.00000E+00
         0.00000E+00
         0.00000E+00
         0.00000E+00
         0.00000E+00
         0.00000E+00
         0.00000E+00
         0.00000E+00
         0.00000E+00
         0.00000E+00
         0.00000E+00
         0.00000E+00
         0.00000E+00
         0.00000E+00
         0.00000E+00
         0.00000E+00
         0.00000E+00
         0.00000E+00
         0.00000E+00
         0.00000E+00
         0.00000E+00
         0.00000E+00
         0.00000E+00
         0.00000E+00
         0.00000E+00
         0.00000E+00
         0.00000E+00
         0.00000E+00
         0.00000E+00
         0.00000E+00
         0.00000E+00
         0.00000E+00
         0.00000E+00
         0.00000E+00
         0.00000E+00
         0.00000E+00
         0.00000E+00
         0.00000E+00
         0.00000E+00
         0.00000E+00
         0.00000E+00
         0.00000E+00
         0.00000E+00
         0.00000E+00
         0.00000E+00
         0.00000E+00
         0.00000E+00
         0.00000E+00
         0.00000E+00
         0.00000E+00
         0.00000E+00
         0.00000E+00
         0.00000E+00
         0.00000E+00
         0.00000E+00
         0.00000E+00
         0.00000E+00
         0.00000E+00
         0.00000E+00
         0.00000E+00
         0.00000E+00
         0.00000E+00
         0.00000E+00
         0.00000E+00
         0.00000E+00
         0.00000E+00
         0.00000E+00
         0.00000E+00
         0.00000E+00
         0.00000E+00
         0.00000E+00
         0.00000E+00
         0.00000E+00
         0.00000E+00
         0.00000E+00
         0.00000E+00
         0.00000E+00
         0.00000E+00
         0.00000E+00
         0.00000E+00
         0.00000E+00
         0.00000E+00
         0.00000E+00
         0.00000E+00
         0.00000E+00
         0.00000E+00
         0.00000E+00
         0.00000E+00
         0.00000E+00
         0.00000E+00
         0.00000E+00
         0.00000E+00
         0.00000E+00
         0.00000E+00
         0.00000E+00
         0.00000E+00
         0.00000E+00
         0.00000E+00
         0.00000E+00
         0.00000E+00
         0.00000E+00
         0.00000E+00
         0.00000E+00
         0.00000E+00
         0.00000E+00
         0.00000E+00
         0.00000E+00
         0.00000E+00
         0.00000E+00
         0.00000E+00
         0.00000E+00
         0.00000E+00
         0.00000E+00
         0.00000E+00
         0.00000E+00
         0.00000E+00
         0.00000E+00
         0.00000E+00
         0.00000E+00
         0.00000E+00
         0.00000E+00
         0.00000E+00
         0.00000E+00
         0.00000E+00
         0.00000E+00
         0.00000E+00
         0.00000E+00
         0.00000E+00
         0.00000E+00
         0.00000E+00
         0.00000E+00
         0.00000E+00
         0.00000E+00
         0.00000E+00
         0.00000E+00
         0.00000E+00
         0.00000E+00
         0.00000E+00
         0.00000E+00
         0.00000E+00
         0.00000E+00
         0.00000E+00
         0.00000E+00
         0.00000E+00
         0.00000E+00
         0.00000E+00
         0.00000E+00
         0.00000E+00
         0.00000E+00
         0.00000E+00
         0.00000E+00
         0.00000E+00
         0.00000E+00
         0.00000E+00
         0.00000E+00
         0.00000E+00
         0.00000E+00
         0.00000E+00
         0.00000E+00
         0.00000E+00
         0.00000E+00
         0.00000E+00
         0.00000E+00
         0.00000E+00
         0.00000E+00
         0.00000E+00
         0.00000E+00
         0.00000E+00
         0.00000E+00
         0.00000E+00
         0.00000E+00
         0.00000E+00
         0.00000E+00
         0.00000E+00
         0.00000E+00
         0.00000E+00
         0.00000E+00
         0.00000E+00
         0.00000E+00
         0.00000E+00
         0.00000E+00
         0.00000E+00
         0.00000E+00
         0.00000E+00
         0.00000E+00
         0.00000E+00
         0.00000E+00
         0.00000E+00
         0.00000E+00
         0.00000E+00
         0.00000E+00
         0.00000E+00
         0.00000E+00
         0.00000E+00
         0.00000E+00
         0.00000E+00
         0.00000E+00
         0.00000E+00
         0.00000E+00
         0.00000E+00
         0.00000E+00
         0.00000E+00
         0.00000E+00
         0.00000E+00
         0.00000E+00
         0.00000E+00
         0.00000E+00
         0.00000E+00
         0.00000E+00
         0.00000E+00
         0.00000E+00
         0.00000E+00
         0.00000E+00
         0.00000E+00
         0.00000E+00
         0.00000E+00
         0.00000E+00
         0.00000E+00
         0.00000E+00
         0.00000E+00
         0.00000E+00
         0.00000E+00
         0.00000E+00
         0.00000E+00
         0.00000E+00
         0.00000E+00
         0.00000E+00
         0.00000E+00
         0.00000E+00
         0.00000E+00
         0.00000E+00
         0.00000E+00
         0.00000E+00
         0.00000E+00
         0.00000E+00
         0.00000E+00
         0.00000E+00
         0.00000E+00
         0.00000E+00
         0.00000E+00
         0.00000E+00
         0.00000E+00
         0.00000E+00
         0.00000E+00
         0.00000E+00
         0.00000E+00
         0.00000E+00
         0.00000E+00
         0.00000E+00
         0.00000E+00
         0.00000E+00
         0.00000E+00
         0.00000E+00
         0.00000E+00
         0.00000E+00
         0.00000E+00
         0.00000E+00
         0.00000E+00
         0.00000E+00
         0.00000E+00
         0.00000E+00
         0.00000E+00
         0.00000E+00
         0.00000E+00
         0.00000E+00
         0.00000E+00
         0.00000E+00
         0.00000E+00
         0.00000E+00
         0.00000E+00
         0.00000E+00
         0.00000E+00
         0.00000E+00
         0.00000E+00
         0.00000E+00
         0.00000E+00
         0.00000E+00
         0.00000E+00
         0.00000E+00
         0.00000E+00
         0.00000E+00
         0.00000E+00
         0.00000E+00
         0.00000E+00
         0.00000E+00
         0.00000E+00
         0.00000E+00
         0.00000E+00
         0.00000E+00
         0.00000E+00
         0.00000E+00
         0.00000E+00
         0.00000E+00
         0.00000E+00
         0.00000E+00
         0.00000E+00
         0.00000E+00
         0.00000E+00
         0.00000E+00
         0.00000E+00
         0.00000E+00
         0.00000E+00
         0.00000E+00
         0.00000E+00
         0.00000E+00
         0.00000E+00
         0.00000E+00
         0.00000E+00
         0.00000E+00
         0.00000E+00
         0.00000E+00
         0.00000E+00
         0.00000E+00
         0.00000E+00
         0.00000E+00
         0.00000E+00
         0.00000E+00
         0.00000E+00
         0.00000E+00
         0.00000E+00
         0.00000E+00
         0.00000E+00
         0.00000E+00
         0.00000E+00
         0.00000E+00
         0.00000E+00
         0.00000E+00
         0.00000E+00
         0.00000E+00
         0.00000E+00
         0.00000E+00
         0.00000E+00
         0.00000E+00
         0.00000E+00
         0.00000E+00
         0.00000E+00
         0.00000E+00
         0.00000E+00
         0.00000E+00
         0.00000E+00
         0.00000E+00
         0.00000E+00
         0.00000E+00
         0.00000E+00
         0.00000E+00
         0.00000E+00
         0.00000E+00
         0.00000E+00
         0.00000E+00
         0.00000E+00
         0.00000E+00
         0.00000E+00
         0.00000E+00
         0.00000E+00
         0.00000E+00
         0.00000E+00
         0.00000E+00
         0.00000E+00
         0.00000E+00
         0.00000E+00
         0.00000E+00
         0.00000E+00
         0.00000E+00
         0.00000E+00
         0.00000E+00
         0.00000E+00
         0.00000E+00
         0.00000E+00
         0.00000E+00
         0.00000E+00
         0.00000E+00
         0.00000E+00
         0.00000E+00
         0.00000E+00
         0.00000E+00
         0.00000E+00
         0.00000E+00
         0.00000E+00
         0.00000E+00
         0.00000E+00
         0.00000E+00
         0.00000E+00
         0.00000E+00
         0.00000E+00
         0.00000E+00
         0.00000E+00
         0.00000E+00
         0.00000E+00
         0.00000E+00
         0.00000E+00
         0.00000E+00
         0.00000E+00
         0.00000E+00
         0.00000E+00
         0.00000E+00
         0.00000E+00
         0.00000E+00
         0.00000E+00
         0.00000E+00
         0.00000E+00
         0.00000E+00
         0.00000E+00
         0.00000E+00
         0.00000E+00
         0.00000E+00
         0.00000E+00
         0.00000E+00
         0.00000E+00
         0.00000E+00
         0.00000E+00
         0.00000E+00
         0.00000E+00
         0.00000E+00
         0.00000E+00
         0.00000E+00
         0.00000E+00
         0.00000E+00
         0.00000E+00
         0.00000E+00
         0.00000E+00
         0.00000E+00
         0.00000E+00
         0.00000E+00
         0.00000E+00
         0.00000E+00
         0.00000E+00
         0.00000E+00
         0.00000E+00
         0.00000E+00
         0.00000E+00
         0.00000E+00
         0.00000E+00
         0.00000E+00
         0.00000E+00
         0.00000E+00
         0.00000E+00
         0.00000E+00
         0.00000E+00
         0.00000E+00
         0.00000E+00
         0.00000E+00
         0.00000E+00
         0.00000E+00
         0.00000E+00
         0.00000E+00
         0.00000E+00
         0.00000E+00
         0.00000E+00
         0.00000E+00
         0.00000E+00
         0.00000E+00
         0.00000E+00
         0.00000E+00
         0.00000E+00
         0.00000E+00
         0.00000E+00
         0.00000E+00
         0.00000E+00
         0.00000E+00
         0.00000E+00
         0.00000E+00
         0.00000E+00
         0.00000E+00
         0.00000E+00
         0.00000E+00
         0.00000E+00
         0.00000E+00
         0.00000E+00
         0.00000E+00
         0.00000E+00
         0.00000E+00
         0.00000E+00
         0.00000E+00
         0.00000E+00
         0.00000E+00
         0.00000E+00
         0.00000E+00
         0.00000E+00
         0.00000E+00
         0.00000E+00
         0.00000E+00
         0.00000E+00
         0.00000E+00
         0.00000E+00
         0.00000E+00
         0.00000E+00
         0.00000E+00
         0.00000E+00
         0.00000E+00
         0.00000E+00
         0.00000E+00
         0.00000E+00
         0.00000E+00
         0.00000E+00
         0.00000E+00
         0.00000E+00
         0.00000E+00
         0.00000E+00
         0.00000E+00
         0.00000E+00
         0.00000E+00
         0.00000E+00
         0.00000E+00
         0.00000E+00
         0.00000E+00
         0.00000E+00
         0.00000E+00
         0.00000E+00
         0.00000E+00
         0.00000E+00
         0.00000E+00
         0.00000E+00
         0.00000E+00
         0.00000E+00
         0.00000E+00
         0.00000E+00
         0.00000E+00
         0.00000E+00
         0.00000E+00
         0.00000E+00
         0.00000E+00
         0.00000E+00
         0.00000E+00
         0.00000E+00
         0.00000E+00
         0.00000E+00
         0.00000E+00
         0.00000E+00
         0.00000E+00
         0.00000E+00
         0.00000E+00
         0.00000E+00
         0.00000E+00
         0.00000E+00
         0.00000E+00
         0.00000E+00
         0.00000E+00
         0.00000E+00
         0.00000E+00
         0.00000E+00
         0.00000E+00
         0.00000E+00
         0.00000E+00
         0.00000E+00
         0.00000E+00
         0.00000E+00
         0.00000E+00
         0.00000E+00
         0.00000E+00
         0.00000E+00
         0.00000E+00
         0.00000E+00
         0.00000E+00
         0.00000E+00
         0.00000E+00
         0.00000E+00
         0.00000E+00
         0.00000E+00
         0.00000E+00
         0.00000E+00
         0.00000E+00
         0.00000E+00
         0.00000E+00
         0.00000E+00
         0.00000E+00
         0.00000E+00
         0.00000E+00
         0.00000E+00
         0.00000E+00
         0.00000E+00
         0.00000E+00
         0.00000E+00
         0.00000E+00
         0.00000E+00
         0.00000E+00
         0.00000E+00
         0.00000E+00
         0.00000E+00
         0.00000E+00
         0.00000E+00
         0.00000E+00
         0.00000E+00
         0.00000E+00
         0.00000E+00
         0.00000E+00
         0.00000E+00
         0.00000E+00
         0.00000E+00
         0.00000E+00
         0.00000E+00
         0.00000E+00
         0.00000E+00
         0.00000E+00
         0.00000E+00
         0.00000E+00
         0.00000E+00
         0.00000E+00
         0.00000E+00
         0.00000E+00
         0.00000E+00
         0.00000E+00
         0.00000E+00
         0.00000E+00
         0.00000E+00
         0.00000E+00
         0.00000E+00
         0.00000E+00
         0.00000E+00
         0.00000E+00
         0.00000E+00
         0.00000E+00
         0.00000E+00
         0.00000E+00
         0.00000E+00
         0.00000E+00
         0.00000E+00
         0.00000E+00
         0.00000E+00
         0.00000E+00
         0.00000E+00
         0.00000E+00
         0.00000E+00
         0.00000E+00
         0.00000E+00
         0.00000E+00
         0.00000E+00
         0.00000E+00
         0.00000E+00
         0.00000E+00
         0.00000E+00
         0.00000E+00
         0.00000E+00
         0.00000E+00
         0.00000E+00
         0.00000E+00
         0.00000E+00
         0.00000E+00
         0.00000E+00
         0.00000E+00
         0.00000E+00
         0.00000E+00
         0.00000E+00
         0.00000E+00
         0.00000E+00
         0.00000E+00
         0.00000E+00
         0.00000E+00
         0.00000E+00
         0.00000E+00
         0.00000E+00
         0.00000E+00
         0.00000E+00
         0.00000E+00
         0.00000E+00
         0.00000E+00
         0.00000E+00
         0.00000E+00
         0.00000E+00
         0.00000E+00
         0.00000E+00
         0.00000E+00
         0.00000E+00
         0.00000E+00
         0.00000E+00
         0.00000E+00
         0.00000E+00
         0.00000E+00
         0.00000E+00
         0.00000E+00
         0.00000E+00
         0.00000E+00
         0.00000E+00
         0.00000E+00
         0.00000E+00
         0.00000E+00
         0.00000E+00
         0.00000E+00
         0.00000E+00
         0.00000E+00
         0.00000E+00
         0.00000E+00
         0.00000E+00
         0.00000E+00
         0.00000E+00
         0.00000E+00
         0.00000E+00
         0.00000E+00
         0.00000E+00
         0.00000E+00
         0.00000E+00
         0.00000E+00
         0.00000E+00
         0.00000E+00
         0.00000E+00
         0.00000E+00
         0.00000E+00
         0.00000E+00
         0.00000E+00
         0.00000E+00
         0.00000E+00
         0.00000E+00
         0.00000E+00
         0.00000E+00
         0.00000E+00
         0.00000E+00
         0.00000E+00
         0.00000E+00
         0.00000E+00
         0.00000E+00
         0.00000E+00
         0.00000E+00
         0.00000E+00
         0.00000E+00
         0.00000E+00
         0.00000E+00
         0.00000E+00
         0.00000E+00
         0.00000E+00
         0.00000E+00
         0.00000E+00
         0.00000E+00
         0.00000E+00
         0.00000E+00
         0.00000E+00
         0.00000E+00
         0.00000E+00
         0.00000E+00
         0.00000E+00
         0.00000E+00
         0.00000E+00
         0.00000E+00
         0.00000E+00
         0.00000E+00
         0.00000E+00
         0.00000E+00
         0.00000E+00
         0.00000E+00
         0.00000E+00
         0.00000E+00
         0.00000E+00
         0.00000E+00
         0.00000E+00
         0.00000E+00
         0.00000E+00
         0.00000E+00
         0.00000E+00
         0.00000E+00
         0.00000E+00
         0.00000E+00
         0.00000E+00
         0.00000E+00
         0.00000E+00
         0.00000E+00
         0.00000E+00
         0.00000E+00
         0.00000E+00
         0.00000E+00
         0.00000E+00
         0.00000E+00
         0.00000E+00
         0.00000E+00
         0.00000E+00
         0.00000E+00
         0.00000E+00
         0.00000E+00
         0.00000E+00
         0.00000E+00
         0.00000E+00
         0.00000E+00
         0.00000E+00
         0.00000E+00
         0.00000E+00
         0.00000E+00
         0.00000E+00
         0.00000E+00
         0.00000E+00
         0.00000E+00
         0.00000E+00
         0.00000E+00
         0.00000E+00
         0.00000E+00
         0.00000E+00
         0.00000E+00
         0.00000E+00
         0.00000E+00
         0.00000E+00
         0.00000E+00
         0.00000E+00
         0.00000E+00
         0.00000E+00
         0.00000E+00
         0.00000E+00
         0.00000E+00
         0.00000E+00
         0.00000E+00
         0.00000E+00
         0.00000E+00
         0.00000E+00
         0.00000E+00
         0.00000E+00
         0.00000E+00
         0.00000E+00
         0.00000E+00
         0.00000E+00
         0.00000E+00
         0.00000E+00
         0.00000E+00
         0.00000E+00
         0.00000E+00
         0.00000E+00
         0.00000E+00
         0.00000E+00
         0.00000E+00
         0.00000E+00
         0.00000E+00
         0.00000E+00
         0.00000E+00
         0.00000E+00
         0.00000E+00
         0.00000E+00
         0.00000E+00
         0.00000E+00
         0.00000E+00
         0.00000E+00
         0.00000E+00
         0.00000E+00
         0.00000E+00
         0.00000E+00
         0.00000E+00
         0.00000E+00
         0.00000E+00
         0.00000E+00
         0.00000E+00
         0.00000E+00
         0.00000E+00
         0.00000E+00
         0.00000E+00
         0.00000E+00
         0.00000E+00
         0.00000E+00
         0.00000E+00
         0.00000E+00
         0.00000E+00
         0.00000E+00
         0.00000E+00
         0.00000E+00
         0.00000E+00
         0.00000E+00
         0.00000E+00
         0.00000E+00
         0.00000E+00
         0.00000E+00
         0.00000E+00
         0.00000E+00
         0.00000E+00
         0.00000E+00
         0.00000E+00
         0.00000E+00
         0.00000E+00
         0.00000E+00
         0.00000E+00
         0.00000E+00
         0.00000E+00
         0.00000E+00
         0.00000E+00
         0.00000E+00
         0.00000E+00
         0.00000E+00
         0.00000E+00
         0.00000E+00
         0.00000E+00
         0.00000E+00
         0.00000E+00
         0.00000E+00
         0.00000E+00
         0.00000E+00
         0.00000E+00
         0.00000E+00
         0.00000E+00
         0.00000E+00
         0.00000E+00
         0.00000E+00
         0.00000E+00
         0.00000E+00
         0.00000E+00
         0.00000E+00
         0.00000E+00
         0.00000E+00
         0.00000E+00
         0.00000E+00
         0.00000E+00
         0.00000E+00
         0.00000E+00
         0.00000E+00
         0.00000E+00
         0.00000E+00
         0.00000E+00
         0.00000E+00
         0.00000E+00
         0.00000E+00
         0.00000E+00
         0.00000E+00
         0.00000E+00
         0.00000E+00
         0.00000E+00
         0.00000E+00
         0.00000E+00
         0.00000E+00
         0.00000E+00
         0.00000E+00
         0.00000E+00
         0.00000E+00
         0.00000E+00
         0.00000E+00
         0.00000E+00
         0.00000E+00
         0.00000E+00
         0.00000E+00
         0.00000E+00
         0.00000E+00
         0.00000E+00
         0.00000E+00
         0.00000E+00
         0.00000E+00
         0.00000E+00
         0.00000E+00
         0.00000E+00
         0.00000E+00
         0.00000E+00
         0.00000E+00
         0.00000E+00
         0.00000E+00
         0.00000E+00
         0.00000E+00
         0.00000E+00
         0.00000E+00
         0.00000E+00
         0.00000E+00
         0.00000E+00
         0.00000E+00
         0.00000E+00
         0.00000E+00
         0.00000E+00
         0.00000E+00
         0.00000E+00
         0.00000E+00
         0.00000E+00
         0.00000E+00
         0.00000E+00
         0.00000E+00
         0.00000E+00
         0.00000E+00
         0.00000E+00
         0.00000E+00
         0.00000E+00
         0.00000E+00
         0.00000E+00
         0.00000E+00
         0.00000E+00
         0.00000E+00
         0.00000E+00
         0.00000E+00
         0.00000E+00
         0.00000E+00
         0.00000E+00
         0.00000E+00
         0.00000E+00
         0.00000E+00
         0.00000E+00
         0.00000E+00
         0.00000E+00
         0.00000E+00
         0.00000E+00
         0.00000E+00
         0.00000E+00
         0.00000E+00
         0.00000E+00
         0.00000E+00
         0.00000E+00
         0.00000E+00
         0.00000E+00
         0.00000E+00
         0.00000E+00
         0.00000E+00
         0.00000E+00
         0.00000E+00
         0.00000E+00
         0.00000E+00
         0.00000E+00
         0.00000E+00
         0.00000E+00
         0.00000E+00
         0.00000E+00
         0.00000E+00
         0.00000E+00
         0.00000E+00
         0.00000E+00
         0.00000E+00
         0.00000E+00
         0.00000E+00
         0.00000E+00
         0.00000E+00
         0.00000E+00
         0.00000E+00
         0.00000E+00
         0.00000E+00
         0.00000E+00
         0.00000E+00
         0.00000E+00
         0.00000E+00
         0.00000E+00
         0.00000E+00
         0.00000E+00
         0.00000E+00
         0.00000E+00
         0.00000E+00
         0.00000E+00
         0.00000E+00
         0.00000E+00
         0.00000E+00
         0.00000E+00
         0.00000E+00
         0.00000E+00
         0.00000E+00
         0.00000E+00
         0.00000E+00
         0.00000E+00
         0.00000E+00
         0.00000E+00
         0.00000E+00
         0.00000E+00
         0.00000E+00
         0.00000E+00
         0.00000E+00
         0.00000E+00
         0.00000E+00
         0.00000E+00
         0.00000E+00
         0.00000E+00
         0.00000E+00
         0.00000E+00
         0.00000E+00
         0.00000E+00
         0.00000E+00
         0.00000E+00
         0.00000E+00
         0.00000E+00
         0.00000E+00
         0.00000E+00
         0.00000E+00
         0.00000E+00
         0.00000E+00
         0.00000E+00
         0.00000E+00
         0.00000E+00
         0.00000E+00
         0.00000E+00
         0.00000E+00
         0.00000E+00
         0.00000E+00
         0.00000E+00
         0.00000E+00
         0.00000E+00
         0.00000E+00
         0.00000E+00
         0.00000E+00
         0.00000E+00
         0.00000E+00
         0.00000E+00
         0.00000E+00
         0.00000E+00
         0.00000E+00
         0.00000E+00
         0.00000E+00
         0.00000E+00
         0.00000E+00
         0.00000E+00
         0.00000E+00
         0.00000E+00
         0.00000E+00
         0.00000E+00
         0.00000E+00
         0.00000E+00
         0.00000E+00
         0.00000E+00
         0.00000E+00
         0.00000E+00
         0.00000E+00
         0.00000E+00
         0.00000E+00
         0.00000E+00
         0.00000E+00
         0.00000E+00
         0.00000E+00
         0.00000E+00
         0.00000E+00
         0.00000E+00
         0.00000E+00
         0.00000E+00
         0.00000E+00
         0.00000E+00
         0.00000E+00
         0.00000E+00
         0.00000E+00
         0.00000E+00
         0.00000E+00
         0.00000E+00
         0.00000E+00
         0.00000E+00
         0.00000E+00
         0.00000E+00
         0.00000E+00
         0.00000E+00
         0.00000E+00
         0.00000E+00
         0.00000E+00
         0.00000E+00
         0.00000E+00
         0.00000E+00
         0.00000E+00
         0.00000E+00
         0.00000E+00
         0.00000E+00
         0.00000E+00
         0.00000E+00
         0.00000E+00
         0.00000E+00
         0.00000E+00
         0.00000E+00
         0.00000E+00
         0.00000E+00
         0.00000E+00
         0.00000E+00
         0.00000E+00
         0.00000E+00
         0.00000E+00
         0.00000E+00
         0.00000E+00
         0.00000E+00
         0.00000E+00
         0.00000E+00
         0.00000E+00
         0.00000E+00
         0.00000E+00
         0.00000E+00
         0.00000E+00
         0.00000E+00
         0.00000E+00
         0.00000E+00
         0.00000E+00
         0.00000E+00
         0.00000E+00
         0.00000E+00
         0.00000E+00
         0.00000E+00
         0.00000E+00
         0.00000E+00
         0.00000E+00
         0.00000E+00
         0.00000E+00
         0.00000E+00
         0.00000E+00
         0.00000E+00
         0.00000E+00
         0.00000E+00
         0.00000E+00
         0.00000E+00
         0.00000E+00
         0.00000E+00
         0.00000E+00
         0.00000E+00
         0.00000E+00
         0.00000E+00
         0.00000E+00
         0.00000E+00
         0.00000E+00
         0.00000E+00
         0.00000E+00
         0.00000E+00
         0.00000E+00
         0.00000E+00
         0.00000E+00
         0.00000E+00
         0.00000E+00
         0.00000E+00
         0.00000E+00
         0.00000E+00
         0.00000E+00
         0.00000E+00
         0.00000E+00
         0.00000E+00
         0.00000E+00
         0.00000E+00
         0.00000E+00
         0.00000E+00
         0.00000E+00
         0.00000E+00
         0.00000E+00
         0.00000E+00
         0.00000E+00
         0.00000E+00
         0.00000E+00
         0.00000E+00
         0.00000E+00
         0.00000E+00
         0.00000E+00
         0.00000E+00
         0.00000E+00
         0.00000E+00
         0.00000E+00
         0.00000E+00
         0.00000E+00
         0.00000E+00
         0.00000E+00
         0.00000E+00
         0.00000E+00
         0.00000E+00
         0.00000E+00
         0.00000E+00
         0.00000E+00
         0.00000E+00
         0.00000E+00
         0.00000E+00
         0.00000E+00
         0.00000E+00
         0.00000E+00
         0.00000E+00
         0.00000E+00
         0.00000E+00
         0.00000E+00
         0.00000E+00
         0.00000E+00
         0.00000E+00
         0.00000E+00
         0.00000E+00
         0.00000E+00
         0.00000E+00
         0.00000E+00
         0.00000E+00
         0.00000E+00
         0.00000E+00
         0.00000E+00
         0.00000E+00
         0.00000E+00
         0.00000E+00
         0.00000E+00
         0.00000E+00
         0.00000E+00
         0.00000E+00
         0.00000E+00
         0.00000E+00
         0.00000E+00
         0.00000E+00
         0.00000E+00
         0.00000E+00
         0.00000E+00
         0.00000E+00
         0.00000E+00
         0.00000E+00
         0.00000E+00
         0.00000E+00
         0.00000E+00
         0.00000E+00
         0.00000E+00
         0.00000E+00
         0.00000E+00
         0.00000E+00
         0.00000E+00
         0.00000E+00
         0.00000E+00
         0.00000E+00
         0.00000E+00
         0.00000E+00
         0.00000E+00
         0.00000E+00
         0.00000E+00
         0.00000E+00
         0.00000E+00
         0.00000E+00
         0.00000E+00
         0.00000E+00
         0.00000E+00
         0.00000E+00
         0.00000E+00
         0.00000E+00
         0.00000E+00
         0.00000E+00
         0.00000E+00
         0.00000E+00
         0.00000E+00
         0.00000E+00
         0.00000E+00
         0.00000E+00
         0.00000E+00
         0.00000E+00
         0.00000E+00
         0.00000E+00
         0.00000E+00
         0.00000E+00
         0.00000E+00
         0.00000E+00
         0.00000E+00
         0.00000E+00
         0.00000E+00
         0.00000E+00
         0.00000E+00
         0.00000E+00
         0.00000E+00
         0.00000E+00
         0.00000E+00
         0.00000E+00
         0.00000E+00
         0.00000E+00
         0.00000E+00
         0.00000E+00
         0.00000E+00
         0.00000E+00
         0.00000E+00
         0.00000E+00
         0.00000E+00
         0.00000E+00
         0.00000E+00
         0.00000E+00
         0.00000E+00
         0.00000E+00
         0.00000E+00
         0.00000E+00
         0.00000E+00
         0.00000E+00
         0.00000E+00
         0.00000E+00
         0.00000E+00
         0.00000E+00
         0.00000E+00
         0.00000E+00
         0.00000E+00
         0.00000E+00
         0.00000E+00
         0.00000E+00
         0.00000E+00
         0.00000E+00
         0.00000E+00
         0.00000E+00
         0.00000E+00
         0.00000E+00
         0.00000E+00
         0.00000E+00
         0.00000E+00
         0.00000E+00
         0.00000E+00
         0.00000E+00
         0.00000E+00
         0.00000E+00
         0.00000E+00
         0.00000E+00
         0.00000E+00
         0.00000E+00
         0.00000E+00
         0.00000E+00
         0.00000E+00
         0.00000E+00
         0.00000E+00
         0.00000E+00
         0.00000E+00
         0.00000E+00
         0.00000E+00
         0.00000E+00
         0.00000E+00
         0.00000E+00
         0.00000E+00
         0.00000E+00
         0.00000E+00
         0.00000E+00
         0.00000E+00
         0.00000E+00
         0.00000E+00
         0.00000E+00
         0.00000E+00
         0.00000E+00
         0.00000E+00
         0.00000E+00
         0.00000E+00
         0.00000E+00
         0.00000E+00
         0.00000E+00
         0.00000E+00
         0.00000E+00
         0.00000E+00
         0.00000E+00
         0.00000E+00
         0.00000E+00
         0.00000E+00
         0.00000E+00
         0.00000E+00
         0.00000E+00
         0.00000E+00
         0.00000E+00
         0.00000E+00
         0.00000E+00
         0.00000E+00
         0.00000E+00
         0.00000E+00
         0.00000E+00
         0.00000E+00
         0.00000E+00
         0.00000E+00
         0.00000E+00
         0.00000E+00
         0.00000E+00
         0.00000E+00
         0.00000E+00
         0.00000E+00
         0.00000E+00
         0.00000E+00
         0.00000E+00
         0.00000E+00
         0.00000E+00
         0.00000E+00
         0.00000E+00
         0.00000E+00
         0.00000E+00
         0.00000E+00
         0.00000E+00
         0.00000E+00
         0.00000E+00
         0.00000E+00
         0.00000E+00
         0.00000E+00
         0.00000E+00
         0.00000E+00
         0.00000E+00
         0.00000E+00
         0.00000E+00
         0.00000E+00
         0.00000E+00
         0.00000E+00
         0.00000E+00
         0.00000E+00
         0.00000E+00
         0.00000E+00
         0.00000E+00
         0.00000E+00
         0.00000E+00
         0.00000E+00
         0.00000E+00
         0.00000E+00
         0.00000E+00
         0.00000E+00
         0.00000E+00
         0.00000E+00
         0.00000E+00
         0.00000E+00
         0.00000E+00
         0.00000E+00
         0.00000E+00
         0.00000E+00
         0.00000E+00
         0.00000E+00
         0.00000E+00
         0.00000E+00
         0.00000E+00
         0.00000E+00
         0.00000E+00
         0.00000E+00
         0.00000E+00
         0.00000E+00
         0.00000E+00
         0.00000E+00
         0.00000E+00
         0.00000E+00
         0.00000E+00
         0.00000E+00
         0.00000E+00
         0.00000E+00
         0.00000E+00
         0.00000E+00
         0.00000E+00
         0.00000E+00
         0.00000E+00
         0.00000E+00
         0.00000E+00
         0.00000E+00
         0.00000E+00
         0.00000E+00
         0.00000E+00
         0.00000E+00
         0.00000E+00
         0.00000E+00
         0.00000E+00
         0.00000E+00
         0.00000E+00
         0.00000E+00
         0.00000E+00
         0.00000E+00
         0.00000E+00
         0.00000E+00
         0.00000E+00
         0.00000E+00
         0.00000E+00
         0.00000E+00
         0.00000E+00
         0.00000E+00
         0.00000E+00
         0.00000E+00
         0.00000E+00
         0.00000E+00
         0.00000E+00
         0.00000E+00
         0.00000E+00
         0.00000E+00
         0.00000E+00
         0.00000E+00
         0.00000E+00
         0.00000E+00
         0.00000E+00
         0.00000E+00
         0.00000E+00
         0.00000E+00
         0.00000E+00
         0.00000E+00
         0.00000E+00
         0.00000E+00
         0.00000E+00
         0.00000E+00
         0.00000E+00
         0.00000E+00
         0.00000E+00
         0.00000E+00
         0.00000E+00
         0.00000E+00
         0.00000E+00
         0.00000E+00
         0.00000E+00
         0.00000E+00
         0.00000E+00
         0.00000E+00
         0.00000E+00
         0.00000E+00
         0.00000E+00
         0.00000E+00
         0.00000E+00
         0.00000E+00
         0.00000E+00
         0.00000E+00
         0.00000E+00
         0.00000E+00
         0.00000E+00
         0.00000E+00
         0.00000E+00
         0.00000E+00
         0.00000E+00
         0.00000E+00
         0.00000E+00
         0.00000E+00
         0.00000E+00
         0.00000E+00
         0.00000E+00
         0.00000E+00
         0.00000E+00
         0.00000E+00
         0.00000E+00
         0.00000E+00
         0.00000E+00
         0.00000E+00
         0.00000E+00
         0.00000E+00
         0.00000E+00
         0.00000E+00
         0.00000E+00
         0.00000E+00
         0.00000E+00
         0.00000E+00
         0.00000E+00
         0.00000E+00
         0.00000E+00
         0.00000E+00
         0.00000E+00
         0.00000E+00
         0.00000E+00
         0.00000E+00
         0.00000E+00
         0.00000E+00
         0.00000E+00
         0.00000E+00
         0.00000E+00
         0.00000E+00
         0.00000E+00
         0.00000E+00
         0.00000E+00
         0.00000E+00
         0.00000E+00
         0.00000E+00
         0.00000E+00
         0.00000E+00
         0.00000E+00
         0.00000E+00
         0.00000E+00
         0.00000E+00
         0.00000E+00
         0.00000E+00
         0.00000E+00
         0.00000E+00
         0.00000E+00
         0.00000E+00
         0.00000E+00
         0.00000E+00
         0.00000E+00
         0.00000E+00
         0.00000E+00
         0.00000E+00
         0.00000E+00
         0.00000E+00
         0.00000E+00
         0.00000E+00
         0.00000E+00
         0.00000E+00
         0.00000E+00
         0.00000E+00
         0.00000E+00
         0.00000E+00
         0.00000E+00
         0.00000E+00
         0.00000E+00
         0.00000E+00
         0.00000E+00
         0.00000E+00
         0.00000E+00
         0.00000E+00
         0.00000E+00
         0.00000E+00
         0.00000E+00
         0.00000E+00
         0.00000E+00
         0.00000E+00
         0.00000E+00
         0.00000E+00
         0.00000E+00
         0.00000E+00
         0.00000E+00
         0.00000E+00
         0.00000E+00
         0.00000E+00
         0.00000E+00
         0.00000E+00
         0.00000E+00
         0.00000E+00
         0.00000E+00
         0.00000E+00
         0.00000E+00
         0.00000E+00
         0.00000E+00
         0.00000E+00
         0.00000E+00
         0.00000E+00
         0.00000E+00
         0.00000E+00
         0.00000E+00
         0.00000E+00
         0.00000E+00
         0.00000E+00
         0.00000E+00
         0.00000E+00
         0.00000E+00
         0.00000E+00
         0.00000E+00
         0.00000E+00
         0.00000E+00
         0.00000E+00
         0.00000E+00
         0.00000E+00
         0.00000E+00
         0.00000E+00
         0.00000E+00
         0.00000E+00
         0.00000E+00
         0.00000E+00
         0.00000E+00
         0.00000E+00
         0.00000E+00
         0.00000E+00
         0.00000E+00
         0.00000E+00
         0.00000E+00
         0.00000E+00
         0.00000E+00
         0.00000E+00
         0.00000E+00
         0.00000E+00
         0.00000E+00
         0.00000E+00
         0.00000E+00
         0.00000E+00
         0.00000E+00
         0.00000E+00
         0.00000E+00
         0.00000E+00
         0.00000E+00
         0.00000E+00
         0.00000E+00
         0.00000E+00
         0.00000E+00
         0.00000E+00
         0.00000E+00
         0.00000E+00
         0.00000E+00
         0.00000E+00
         0.00000E+00
         0.00000E+00
         0.00000E+00
         0.00000E+00
         0.00000E+00
         0.00000E+00
  
SCALARS                     velocity_y  double 1
LOOKUP_TABLE default
         0.00000E+00
         0.00000E+00
         0.00000E+00
         0.00000E+00
         0.00000E+00
         0.00000E+00
         0.00000E+00
         0.00000E+00
         0.00000E+00
         0.00000E+00
         0.00000E+00
         0.00000E+00
         0.00000E+00
         0.00000E+00
         0.00000E+00
         0.00000E+00
         0.00000E+00
         0.00000E+00
         0.00000E+00
         0.00000E+00
         0.00000E+00
         0.00000E+00
         0.00000E+00
         0.00000E+00
         0.00000E+00
         0.00000E+00
         0.00000E+00
         0.00000E+00
         0.00000E+00
         0.00000E+00
         0.00000E+00
         0.00000E+00
         0.00000E+00
         0.00000E+00
         0.00000E+00
         0.00000E+00
         0.00000E+00
         0.00000E+00
         0.00000E+00
         0.00000E+00
         0.00000E+00
         0.00000E+00
         0.00000E+00
         0.00000E+00
         0.00000E+00
         0.00000E+00
         0.00000E+00
         0.00000E+00
         0.00000E+00
         0.00000E+00
         0.00000E+00
         0.00000E+00
         0.00000E+00
         0.00000E+00
         0.00000E+00
         0.00000E+00
         0.00000E+00
         0.00000E+00
         0.00000E+00
         0.00000E+00
         0.00000E+00
         0.00000E+00
         0.00000E+00
         0.00000E+00
         0.00000E+00
         0.00000E+00
         0.00000E+00
         0.00000E+00
         0.00000E+00
         0.00000E+00
         0.00000E+00
         0.00000E+00
         0.00000E+00
         0.00000E+00
         0.00000E+00
         0.00000E+00
         0.00000E+00
         0.00000E+00
         0.00000E+00
         0.00000E+00
         0.00000E+00
         0.00000E+00
         0.00000E+00
         0.00000E+00
         0.00000E+00
         0.00000E+00
         0.00000E+00
         0.00000E+00
         0.00000E+00
         0.00000E+00
         0.00000E+00
         0.00000E+00
         0.00000E+00
         0.00000E+00
         0.00000E+00
         0.00000E+00
         0.00000E+00
         0.00000E+00
         0.00000E+00
         0.00000E+00
         0.00000E+00
         0.00000E+00
         0.00000E+00
         0.00000E+00
         0.00000E+00
         0.00000E+00
         0.00000E+00
         0.00000E+00
         0.00000E+00
         0.00000E+00
         0.00000E+00
         0.00000E+00
         0.00000E+00
         0.00000E+00
         0.00000E+00
         0.00000E+00
         0.00000E+00
         0.00000E+00
         0.00000E+00
         0.00000E+00
         0.00000E+00
         0.00000E+00
         0.00000E+00
         0.00000E+00
         0.00000E+00
         0.00000E+00
         0.00000E+00
         0.00000E+00
         0.00000E+00
         0.00000E+00
         0.00000E+00
         0.00000E+00
         0.00000E+00
         0.00000E+00
         0.00000E+00
         0.00000E+00
         0.00000E+00
         0.00000E+00
         0.00000E+00
         0.00000E+00
         0.00000E+00
         0.00000E+00
         0.00000E+00
         0.00000E+00
         0.00000E+00
         0.00000E+00
         0.00000E+00
         0.00000E+00
         0.00000E+00
         0.00000E+00
         0.00000E+00
         0.00000E+00
         0.00000E+00
         0.00000E+00
         0.00000E+00
         0.00000E+00
         0.00000E+00
         0.00000E+00
         0.00000E+00
         0.00000E+00
         0.00000E+00
         0.00000E+00
         0.00000E+00
         0.00000E+00
         0.00000E+00
         0.00000E+00
         0.00000E+00
         0.00000E+00
         0.00000E+00
         0.00000E+00
         0.00000E+00
         0.00000E+00
         0.00000E+00
         0.00000E+00
         0.00000E+00
         0.00000E+00
         0.00000E+00
         0.00000E+00
         0.00000E+00
         0.00000E+00
         0.00000E+00
         0.00000E+00
         0.00000E+00
         0.00000E+00
         0.00000E+00
         0.00000E+00
         0.00000E+00
         0.00000E+00
         0.00000E+00
         0.00000E+00
         0.00000E+00
         0.00000E+00
         0.00000E+00
         0.00000E+00
         0.00000E+00
         0.00000E+00
         0.00000E+00
         0.00000E+00
         0.00000E+00
         0.00000E+00
         0.00000E+00
         0.00000E+00
         0.00000E+00
         0.00000E+00
         0.00000E+00
         0.00000E+00
         0.00000E+00
         0.00000E+00
         0.00000E+00
         0.00000E+00
         0.00000E+00
         0.00000E+00
         0.00000E+00
         0.00000E+00
         0.00000E+00
         0.00000E+00
         0.00000E+00
         0.00000E+00
         0.00000E+00
         0.00000E+00
         0.00000E+00
         0.00000E+00
         0.00000E+00
         0.00000E+00
         0.00000E+00
         0.00000E+00
         0.00000E+00
         0.00000E+00
         0.00000E+00
         0.00000E+00
         0.00000E+00
         0.00000E+00
         0.00000E+00
         0.00000E+00
         0.00000E+00
         0.00000E+00
         0.00000E+00
         0.00000E+00
         0.00000E+00
         0.00000E+00
         0.00000E+00
         0.00000E+00
         0.00000E+00
         0.00000E+00
         0.00000E+00
         0.00000E+00
         0.00000E+00
         0.00000E+00
         0.00000E+00
         0.00000E+00
         0.00000E+00
         0.00000E+00
         0.00000E+00
         0.00000E+00
         0.00000E+00
         0.00000E+00
         0.00000E+00
         0.00000E+00
         0.00000E+00
         0.00000E+00
         0.00000E+00
         0.00000E+00
         0.00000E+00
         0.00000E+00
         0.00000E+00
         0.00000E+00
         0.00000E+00
         0.00000E+00
         0.00000E+00
         0.00000E+00
         0.00000E+00
         0.00000E+00
         0.00000E+00
         0.00000E+00
         0.00000E+00
         0.00000E+00
         0.00000E+00
         0.00000E+00
         0.00000E+00
         0.00000E+00
         0.00000E+00
         0.00000E+00
         0.00000E+00
         0.00000E+00
         0.00000E+00
         0.00000E+00
         0.00000E+00
         0.00000E+00
         0.00000E+00
         0.00000E+00
         0.00000E+00
         0.00000E+00
         0.00000E+00
         0.00000E+00
         0.00000E+00
         0.00000E+00
         0.00000E+00
         0.00000E+00
         0.00000E+00
         0.00000E+00
         0.00000E+00
         0.00000E+00
         0.00000E+00
         0.00000E+00
         0.00000E+00
         0.00000E+00
         0.00000E+00
         0.00000E+00
         0.00000E+00
         0.00000E+00
         0.00000E+00
         0.00000E+00
         0.00000E+00
         0.00000E+00
         0.00000E+00
         0.00000E+00
         0.00000E+00
         0.00000E+00
         0.00000E+00
         0.00000E+00
         0.00000E+00
         0.00000E+00
         0.00000E+00
         0.00000E+00
         0.00000E+00
         0.00000E+00
         0.00000E+00
         0.00000E+00
         0.00000E+00
         0.00000E+00
         0.00000E+00
         0.00000E+00
         0.00000E+00
         0.00000E+00
         0.00000E+00
         0.00000E+00
         0.00000E+00
         0.00000E+00
         0.00000E+00
         0.00000E+00
         0.00000E+00
         0.00000E+00
         0.00000E+00
         0.00000E+00
         0.00000E+00
         0.00000E+00
         0.00000E+00
         0.00000E+00
         0.00000E+00
         0.00000E+00
         0.00000E+00
         0.00000E+00
         0.00000E+00
         0.00000E+00
         0.00000E+00
         0.00000E+00
         0.00000E+00
         0.00000E+00
         0.00000E+00
         0.00000E+00
         0.00000E+00
         0.00000E+00
         0.00000E+00
         0.00000E+00
         0.00000E+00
         0.00000E+00
         0.00000E+00
         0.00000E+00
         0.00000E+00
         0.00000E+00
         0.00000E+00
         0.00000E+00
         0.00000E+00
         0.00000E+00
         0.00000E+00
         0.00000E+00
         0.00000E+00
         0.00000E+00
         0.00000E+00
         0.00000E+00
         0.00000E+00
         0.00000E+00
         0.00000E+00
         0.00000E+00
         0.00000E+00
         0.00000E+00
         0.00000E+00
         0.00000E+00
         0.00000E+00
         0.00000E+00
         0.00000E+00
         0.00000E+00
         0.00000E+00
         0.00000E+00
         0.00000E+00
         0.00000E+00
         0.00000E+00
         0.00000E+00
         0.00000E+00
         0.00000E+00
         0.00000E+00
         0.00000E+00
         0.00000E+00
         0.00000E+00
         0.00000E+00
         0.00000E+00
         0.00000E+00
         0.00000E+00
         0.00000E+00
         0.00000E+00
         0.00000E+00
         0.00000E+00
         0.00000E+00
         0.00000E+00
         0.00000E+00
         0.00000E+00
         0.00000E+00
         0.00000E+00
         0.00000E+00
         0.00000E+00
         0.00000E+00
         0.00000E+00
         0.00000E+00
         0.00000E+00
         0.00000E+00
         0.00000E+00
         0.00000E+00
         0.00000E+00
         0.00000E+00
         0.00000E+00
         0.00000E+00
         0.00000E+00
         0.00000E+00
         0.00000E+00
         0.00000E+00
         0.00000E+00
         0.00000E+00
         0.00000E+00
         0.00000E+00
         0.00000E+00
         0.00000E+00
         0.00000E+00
         0.00000E+00
         0.00000E+00
         0.00000E+00
         0.00000E+00
         0.00000E+00
         0.00000E+00
         0.00000E+00
         0.00000E+00
         0.00000E+00
         0.00000E+00
         0.00000E+00
         0.00000E+00
         0.00000E+00
         0.00000E+00
         0.00000E+00
         0.00000E+00
         0.00000E+00
         0.00000E+00
         0.00000E+00
         0.00000E+00
         0.00000E+00
         0.00000E+00
         0.00000E+00
         0.00000E+00
         0.00000E+00
         0.00000E+00
         0.00000E+00
         0.00000E+00
         0.00000E+00
         0.00000E+00
         0.00000E+00
         0.00000E+00
         0.00000E+00
         0.00000E+00
         0.00000E+00
         0.00000E+00
         0.00000E+00
         0.00000E+00
         0.00000E+00
         0.00000E+00
         0.00000E+00
         0.00000E+00
         0.00000E+00
         0.00000E+00
         0.00000E+00
         0.00000E+00
         0.00000E+00
         0.00000E+00
         0.00000E+00
         0.00000E+00
         0.00000E+00
         0.00000E+00
         0.00000E+00
         0.00000E+00
         0.00000E+00
         0.00000E+00
         0.00000E+00
         0.00000E+00
         0.00000E+00
         0.00000E+00
         0.00000E+00
         0.00000E+00
         0.00000E+00
         0.00000E+00
         0.00000E+00
         0.00000E+00
         0.00000E+00
         0.00000E+00
         0.00000E+00
         0.00000E+00
         0.00000E+00
         0.00000E+00
         0.00000E+00
         0.00000E+00
         0.00000E+00
         0.00000E+00
         0.00000E+00
         0.00000E+00
         0.00000E+00
         0.00000E+00
         0.00000E+00
         0.00000E+00
         0.00000E+00
         0.00000E+00
         0.00000E+00
         0.00000E+00
         0.00000E+00
         0.00000E+00
         0.00000E+00
         0.00000E+00
         0.00000E+00
         0.00000E+00
         0.00000E+00
         0.00000E+00
         0.00000E+00
         0.00000E+00
         0.00000E+00
         0.00000E+00
         0.00000E+00
         0.00000E+00
         0.00000E+00
         0.00000E+00
         0.00000E+00
         0.00000E+00
         0.00000E+00
         0.00000E+00
         0.00000E+00
         0.00000E+00
         0.00000E+00
         0.00000E+00
         0.00000E+00
         0.00000E+00
         0.00000E+00
         0.00000E+00
         0.00000E+00
         0.00000E+00
         0.00000E+00
         0.00000E+00
         0.00000E+00
         0.00000E+00
         0.00000E+00
         0.00000E+00
         0.00000E+00
         0.00000E+00
         0.00000E+00
         0.00000E+00
         0.00000E+00
         0.00000E+00
         0.00000E+00
         0.00000E+00
         0.00000E+00
         0.00000E+00
         0.00000E+00
         0.00000E+00
         0.00000E+00
         0.00000E+00
         0.00000E+00
         0.00000E+00
         0.00000E+00
         0.00000E+00
         0.00000E+00
         0.00000E+00
         0.00000E+00
         0.00000E+00
         0.00000E+00
         0.00000E+00
         0.00000E+00
         0.00000E+00
         0.00000E+00
         0.00000E+00
         0.00000E+00
         0.00000E+00
         0.00000E+00
         0.00000E+00
         0.00000E+00
         0.00000E+00
         0.00000E+00
         0.00000E+00
         0.00000E+00
         0.00000E+00
         0.00000E+00
         0.00000E+00
         0.00000E+00
         0.00000E+00
         0.00000E+00
         0.00000E+00
         0.00000E+00
         0.00000E+00
         0.00000E+00
         0.00000E+00
         0.00000E+00
         0.00000E+00
         0.00000E+00
         0.00000E+00
         0.00000E+00
         0.00000E+00
         0.00000E+00
         0.00000E+00
         0.00000E+00
         0.00000E+00
         0.00000E+00
         0.00000E+00
         0.00000E+00
         0.00000E+00
         0.00000E+00
         0.00000E+00
         0.00000E+00
         0.00000E+00
         0.00000E+00
         0.00000E+00
         0.00000E+00
         0.00000E+00
         0.00000E+00
         0.00000E+00
         0.00000E+00
         0.00000E+00
         0.00000E+00
         0.00000E+00
         0.00000E+00
         0.00000E+00
         0.00000E+00
         0.00000E+00
         0.00000E+00
         0.00000E+00
         0.00000E+00
         0.00000E+00
         0.00000E+00
         0.00000E+00
         0.00000E+00
         0.00000E+00
         0.00000E+00
         0.00000E+00
         0.00000E+00
         0.00000E+00
         0.00000E+00
         0.00000E+00
         0.00000E+00
         0.00000E+00
         0.00000E+00
         0.00000E+00
         0.00000E+00
         0.00000E+00
         0.00000E+00
         0.00000E+00
         0.00000E+00
         0.00000E+00
         0.00000E+00
         0.00000E+00
         0.00000E+00
         0.00000E+00
         0.00000E+00
         0.00000E+00
         0.00000E+00
         0.00000E+00
         0.00000E+00
         0.00000E+00
         0.00000E+00
         0.00000E+00
         0.00000E+00
         0.00000E+00
         0.00000E+00
         0.00000E+00
         0.00000E+00
         0.00000E+00
         0.00000E+00
         0.00000E+00
         0.00000E+00
         0.00000E+00
         0.00000E+00
         0.00000E+00
         0.00000E+00
         0.00000E+00
         0.00000E+00
         0.00000E+00
         0.00000E+00
         0.00000E+00
         0.00000E+00
         0.00000E+00
         0.00000E+00
         0.00000E+00
         0.00000E+00
         0.00000E+00
         0.00000E+00
         0.00000E+00
         0.00000E+00
         0.00000E+00
         0.00000E+00
         0.00000E+00
         0.00000E+00
         0.00000E+00
         0.00000E+00
         0.00000E+00
         0.00000E+00
         0.00000E+00
         0.00000E+00
         0.00000E+00
         0.00000E+00
         0.00000E+00
         0.00000E+00
         0.00000E+00
         0.00000E+00
         0.00000E+00
         0.00000E+00
         0.00000E+00
         0.00000E+00
         0.00000E+00
         0.00000E+00
         0.00000E+00
         0.00000E+00
         0.00000E+00
         0.00000E+00
         0.00000E+00
         0.00000E+00
         0.00000E+00
         0.00000E+00
         0.00000E+00
         0.00000E+00
         0.00000E+00
         0.00000E+00
         0.00000E+00
         0.00000E+00
         0.00000E+00
         0.00000E+00
         0.00000E+00
         0.00000E+00
         0.00000E+00
         0.00000E+00
         0.00000E+00
         0.00000E+00
         0.00000E+00
         0.00000E+00
         0.00000E+00
         0.00000E+00
         0.00000E+00
         0.00000E+00
         0.00000E+00
         0.00000E+00
         0.00000E+00
         0.00000E+00
         0.00000E+00
         0.00000E+00
         0.00000E+00
         0.00000E+00
         0.00000E+00
         0.00000E+00
         0.00000E+00
         0.00000E+00
         0.00000E+00
         0.00000E+00
         0.00000E+00
         0.00000E+00
         0.00000E+00
         0.00000E+00
         0.00000E+00
         0.00000E+00
         0.00000E+00
         0.00000E+00
         0.00000E+00
         0.00000E+00
         0.00000E+00
         0.00000E+00
         0.00000E+00
         0.00000E+00
         0.00000E+00
         0.00000E+00
         0.00000E+00
         0.00000E+00
         0.00000E+00
         0.00000E+00
         0.00000E+00
         0.00000E+00
         0.00000E+00
         0.00000E+00
         0.00000E+00
         0.00000E+00
         0.00000E+00
         0.00000E+00
         0.00000E+00
         0.00000E+00
         0.00000E+00
         0.00000E+00
         0.00000E+00
         0.00000E+00
         0.00000E+00
         0.00000E+00
         0.00000E+00
         0.00000E+00
         0.00000E+00
         0.00000E+00
         0.00000E+00
         0.00000E+00
         0.00000E+00
         0.00000E+00
         0.00000E+00
         0.00000E+00
         0.00000E+00
         0.00000E+00
         0.00000E+00
         0.00000E+00
         0.00000E+00
         0.00000E+00
         0.00000E+00
         0.00000E+00
         0.00000E+00
         0.00000E+00
         0.00000E+00
         0.00000E+00
         0.00000E+00
         0.00000E+00
         0.00000E+00
         0.00000E+00
         0.00000E+00
         0.00000E+00
         0.00000E+00
         0.00000E+00
         0.00000E+00
         0.00000E+00
         0.00000E+00
         0.00000E+00
         0.00000E+00
         0.00000E+00
         0.00000E+00
         0.00000E+00
         0.00000E+00
         0.00000E+00
         0.00000E+00
         0.00000E+00
         0.00000E+00
         0.00000E+00
         0.00000E+00
         0.00000E+00
         0.00000E+00
         0.00000E+00
         0.00000E+00
         0.00000E+00
         0.00000E+00
         0.00000E+00
         0.00000E+00
         0.00000E+00
         0.00000E+00
         0.00000E+00
         0.00000E+00
         0.00000E+00
         0.00000E+00
         0.00000E+00
         0.00000E+00
         0.00000E+00
         0.00000E+00
         0.00000E+00
         0.00000E+00
         0.00000E+00
         0.00000E+00
         0.00000E+00
         0.00000E+00
         0.00000E+00
         0.00000E+00
         0.00000E+00
         0.00000E+00
         0.00000E+00
         0.00000E+00
         0.00000E+00
         0.00000E+00
         0.00000E+00
         0.00000E+00
         0.00000E+00
         0.00000E+00
         0.00000E+00
         0.00000E+00
         0.00000E+00
         0.00000E+00
         0.00000E+00
         0.00000E+00
         0.00000E+00
         0.00000E+00
         0.00000E+00
         0.00000E+00
         0.00000E+00
         0.00000E+00
         0.00000E+00
         0.00000E+00
         0.00000E+00
         0.00000E+00
         0.00000E+00
         0.00000E+00
         0.00000E+00
         0.00000E+00
         0.00000E+00
         0.00000E+00
         0.00000E+00
         0.00000E+00
         0.00000E+00
         0.00000E+00
         0.00000E+00
         0.00000E+00
         0.00000E+00
         0.00000E+00
         0.00000E+00
         0.00000E+00
         0.00000E+00
         0.00000E+00
         0.00000E+00
         0.00000E+00
         0.00000E+00
         0.00000E+00
         0.00000E+00
         0.00000E+00
         0.00000E+00
         0.00000E+00
         0.00000E+00
         0.00000E+00
         0.00000E+00
         0.00000E+00
         0.00000E+00
         0.00000E+00
         0.00000E+00
         0.00000E+00
         0.00000E+00
         0.00000E+00
         0.00000E+00
         0.00000E+00
         0.00000E+00
         0.00000E+00
         0.00000E+00
         0.00000E+00
         0.00000E+00
         0.00000E+00
         0.00000E+00
         0.00000E+00
         0.00000E+00
         0.00000E+00
         0.00000E+00
         0.00000E+00
         0.00000E+00
         0.00000E+00
         0.00000E+00
         0.00000E+00
         0.00000E+00
         0.00000E+00
         0.00000E+00
         0.00000E+00
         0.00000E+00
         0.00000E+00
         0.00000E+00
         0.00000E+00
         0.00000E+00
         0.00000E+00
         0.00000E+00
         0.00000E+00
         0.00000E+00
         0.00000E+00
         0.00000E+00
         0.00000E+00
         0.00000E+00
         0.00000E+00
         0.00000E+00
         0.00000E+00
         0.00000E+00
         0.00000E+00
         0.00000E+00
         0.00000E+00
         0.00000E+00
         0.00000E+00
         0.00000E+00
         0.00000E+00
         0.00000E+00
         0.00000E+00
         0.00000E+00
         0.00000E+00
         0.00000E+00
         0.00000E+00
         0.00000E+00
         0.00000E+00
         0.00000E+00
         0.00000E+00
         0.00000E+00
         0.00000E+00
         0.00000E+00
         0.00000E+00
         0.00000E+00
         0.00000E+00
         0.00000E+00
         0.00000E+00
         0.00000E+00
         0.00000E+00
         0.00000E+00
         0.00000E+00
         0.00000E+00
         0.00000E+00
         0.00000E+00
         0.00000E+00
         0.00000E+00
         0.00000E+00
         0.00000E+00
         0.00000E+00
         0.00000E+00
         0.00000E+00
         0.00000E+00
         0.00000E+00
         0.00000E+00
         0.00000E+00
         0.00000E+00
         0.00000E+00
         0.00000E+00
         0.00000E+00
         0.00000E+00
         0.00000E+00
         0.00000E+00
         0.00000E+00
         0.00000E+00
         0.00000E+00
         0.00000E+00
         0.00000E+00
         0.00000E+00
         0.00000E+00
         0.00000E+00
         0.00000E+00
         0.00000E+00
         0.00000E+00
         0.00000E+00
         0.00000E+00
         0.00000E+00
         0.00000E+00
         0.00000E+00
         0.00000E+00
         0.00000E+00
         0.00000E+00
         0.00000E+00
         0.00000E+00
         0.00000E+00
         0.00000E+00
         0.00000E+00
         0.00000E+00
         0.00000E+00
         0.00000E+00
         0.00000E+00
         0.00000E+00
         0.00000E+00
         0.00000E+00
         0.00000E+00
         0.00000E+00
         0.00000E+00
         0.00000E+00
         0.00000E+00
         0.00000E+00
         0.00000E+00
         0.00000E+00
         0.00000E+00
         0.00000E+00
         0.00000E+00
         0.00000E+00
         0.00000E+00
         0.00000E+00
         0.00000E+00
         0.00000E+00
         0.00000E+00
         0.00000E+00
         0.00000E+00
         0.00000E+00
         0.00000E+00
         0.00000E+00
         0.00000E+00
         0.00000E+00
         0.00000E+00
         0.00000E+00
         0.00000E+00
         0.00000E+00
         0.00000E+00
         0.00000E+00
         0.00000E+00
         0.00000E+00
         0.00000E+00
         0.00000E+00
         0.00000E+00
         0.00000E+00
         0.00000E+00
         0.00000E+00
         0.00000E+00
         0.00000E+00
         0.00000E+00
         0.00000E+00
         0.00000E+00
         0.00000E+00
         0.00000E+00
         0.00000E+00
         0.00000E+00
         0.00000E+00
         0.00000E+00
         0.00000E+00
         0.00000E+00
         0.00000E+00
         0.00000E+00
         0.00000E+00
         0.00000E+00
         0.00000E+00
         0.00000E+00
         0.00000E+00
         0.00000E+00
         0.00000E+00
         0.00000E+00
         0.00000E+00
         0.00000E+00
         0.00000E+00
         0.00000E+00
         0.00000E+00
         0.00000E+00
         0.00000E+00
         0.00000E+00
         0.00000E+00
         0.00000E+00
         0.00000E+00
         0.00000E+00
         0.00000E+00
         0.00000E+00
         0.00000E+00
         0.00000E+00
         0.00000E+00
         0.00000E+00
         0.00000E+00
         0.00000E+00
         0.00000E+00
         0.00000E+00
         0.00000E+00
         0.00000E+00
         0.00000E+00
         0.00000E+00
         0.00000E+00
         0.00000E+00
         0.00000E+00
         0.00000E+00
         0.00000E+00
         0.00000E+00
         0.00000E+00
         0.00000E+00
         0.00000E+00
         0.00000E+00
         0.00000E+00
         0.00000E+00
         0.00000E+00
         0.00000E+00
         0.00000E+00
         0.00000E+00
         0.00000E+00
         0.00000E+00
         0.00000E+00
         0.00000E+00
         0.00000E+00
         0.00000E+00
         0.00000E+00
         0.00000E+00
         0.00000E+00
         0.00000E+00
         0.00000E+00
         0.00000E+00
         0.00000E+00
         0.00000E+00
         0.00000E+00
         0.00000E+00
         0.00000E+00
         0.00000E+00
         0.00000E+00
         0.00000E+00
         0.00000E+00
         0.00000E+00
         0.00000E+00
         0.00000E+00
         0.00000E+00
         0.00000E+00
         0.00000E+00
         0.00000E+00
         0.00000E+00
         0.00000E+00
         0.00000E+00
         0.00000E+00
         0.00000E+00
         0.00000E+00
         0.00000E+00
         0.00000E+00
         0.00000E+00
         0.00000E+00
         0.00000E+00
         0.00000E+00
         0.00000E+00
         0.00000E+00
         0.00000E+00
         0.00000E+00
         0.00000E+00
         0.00000E+00
         0.00000E+00
         0.00000E+00
         0.00000E+00
         0.00000E+00
         0.00000E+00
         0.00000E+00
         0.00000E+00
         0.00000E+00
         0.00000E+00
         0.00000E+00
         0.00000E+00
         0.00000E+00
         0.00000E+00
         0.00000E+00
         0.00000E+00
         0.00000E+00
         0.00000E+00
         0.00000E+00
         0.00000E+00
         0.00000E+00
         0.00000E+00
         0.00000E+00
         0.00000E+00
         0.00000E+00
         0.00000E+00
         0.00000E+00
         0.00000E+00
         0.00000E+00
         0.00000E+00
         0.00000E+00
         0.00000E+00
         0.00000E+00
         0.00000E+00
         0.00000E+00
         0.00000E+00
         0.00000E+00
         0.00000E+00
         0.00000E+00
         0.00000E+00
         0.00000E+00
         0.00000E+00
         0.00000E+00
         0.00000E+00
         0.00000E+00
         0.00000E+00
         0.00000E+00
         0.00000E+00
         0.00000E+00
         0.00000E+00
         0.00000E+00
         0.00000E+00
         0.00000E+00
         0.00000E+00
         0.00000E+00
         0.00000E+00
         0.00000E+00
         0.00000E+00
         0.00000E+00
         0.00000E+00
         0.00000E+00
         0.00000E+00
         0.00000E+00
         0.00000E+00
         0.00000E+00
         0.00000E+00
         0.00000E+00
         0.00000E+00
         0.00000E+00
         0.00000E+00
         0.00000E+00
         0.00000E+00
         0.00000E+00
         0.00000E+00
         0.00000E+00
         0.00000E+00
         0.00000E+00
         0.00000E+00
         0.00000E+00
         0.00000E+00
         0.00000E+00
         0.00000E+00
         0.00000E+00
         0.00000E+00
         0.00000E+00
         0.00000E+00
         0.00000E+00
         0.00000E+00
         0.00000E+00
         0.00000E+00
         0.00000E+00
         0.00000E+00
         0.00000E+00
         0.00000E+00
         0.00000E+00
         0.00000E+00
         0.00000E+00
         0.00000E+00
         0.00000E+00
         0.00000E+00
         0.00000E+00
         0.00000E+00
         0.00000E+00
         0.00000E+00
         0.00000E+00
         0.00000E+00
         0.00000E+00
         0.00000E+00
         0.00000E+00
         0.00000E+00
         0.00000E+00
         0.00000E+00
         0.00000E+00
         0.00000E+00
         0.00000E+00
         0.00000E+00
         0.00000E+00
         0.00000E+00
         0.00000E+00
         0.00000E+00
         0.00000E+00
         0.00000E+00
         0.00000E+00
         0.00000E+00
         0.00000E+00
         0.00000E+00
         0.00000E+00
         0.00000E+00
         0.00000E+00
         0.00000E+00
         0.00000E+00
         0.00000E+00
         0.00000E+00
         0.00000E+00
         0.00000E+00
         0.00000E+00
         0.00000E+00
         0.00000E+00
         0.00000E+00
         0.00000E+00
         0.00000E+00
         0.00000E+00
         0.00000E+00
         0.00000E+00
         0.00000E+00
         0.00000E+00
         0.00000E+00
         0.00000E+00
         0.00000E+00
         0.00000E+00
         0.00000E+00
         0.00000E+00
         0.00000E+00
         0.00000E+00
         0.00000E+00
         0.00000E+00
         0.00000E+00
         0.00000E+00
         0.00000E+00
         0.00000E+00
         0.00000E+00
         0.00000E+00
         0.00000E+00
         0.00000E+00
         0.00000E+00
         0.00000E+00
         0.00000E+00
         0.00000E+00
         0.00000E+00
         0.00000E+00
         0.00000E+00
         0.00000E+00
         0.00000E+00
         0.00000E+00
         0.00000E+00
         0.00000E+00
         0.00000E+00
         0.00000E+00
         0.00000E+00
         0.00000E+00
         0.00000E+00
         0.00000E+00
         0.00000E+00
         0.00000E+00
         0.00000E+00
         0.00000E+00
         0.00000E+00
         0.00000E+00
         0.00000E+00
         0.00000E+00
         0.00000E+00
         0.00000E+00
         0.00000E+00
         0.00000E+00
         0.00000E+00
         0.00000E+00
         0.00000E+00
         0.00000E+00
         0.00000E+00
         0.00000E+00
         0.00000E+00
         0.00000E+00
         0.00000E+00
         0.00000E+00
         0.00000E+00
         0.00000E+00
         0.00000E+00
         0.00000E+00
         0.00000E+00
         0.00000E+00
         0.00000E+00
         0.00000E+00
         0.00000E+00
         0.00000E+00
         0.00000E+00
         0.00000E+00
         0.00000E+00
         0.00000E+00
         0.00000E+00
         0.00000E+00
         0.00000E+00
         0.00000E+00
         0.00000E+00
         0.00000E+00
         0.00000E+00
         0.00000E+00
         0.00000E+00
         0.00000E+00
         0.00000E+00
         0.00000E+00
         0.00000E+00
         0.00000E+00
         0.00000E+00
         0.00000E+00
         0.00000E+00
         0.00000E+00
         0.00000E+00
         0.00000E+00
         0.00000E+00
         0.00000E+00
         0.00000E+00
         0.00000E+00
         0.00000E+00
         0.00000E+00
         0.00000E+00
         0.00000E+00
         0.00000E+00
         0.00000E+00
         0.00000E+00
         0.00000E+00
         0.00000E+00
         0.00000E+00
         0.00000E+00
         0.00000E+00
         0.00000E+00
         0.00000E+00
         0.00000E+00
         0.00000E+00
         0.00000E+00
         0.00000E+00
         0.00000E+00
         0.00000E+00
         0.00000E+00
         0.00000E+00
         0.00000E+00
         0.00000E+00
         0.00000E+00
         0.00000E+00
         0.00000E+00
         0.00000E+00
         0.00000E+00
         0.00000E+00
         0.00000E+00
         0.00000E+00
         0.00000E+00
         0.00000E+00
         0.00000E+00
         0.00000E+00
         0.00000E+00
         0.00000E+00
         0.00000E+00
         0.00000E+00
         0.00000E+00
         0.00000E+00
         0.00000E+00
         0.00000E+00
         0.00000E+00
         0.00000E+00
         0.00000E+00
         0.00000E+00
         0.00000E+00
         0.00000E+00
         0.00000E+00
         0.00000E+00
         0.00000E+00
         0.00000E+00
         0.00000E+00
         0.00000E+00
         0.00000E+00
         0.00000E+00
         0.00000E+00
         0.00000E+00
         0.00000E+00
         0.00000E+00
         0.00000E+00
         0.00000E+00
         0.00000E+00
         0.00000E+00
         0.00000E+00
         0.00000E+00
         0.00000E+00
         0.00000E+00
         0.00000E+00
         0.00000E+00
         0.00000E+00
         0.00000E+00
         0.00000E+00
         0.00000E+00
         0.00000E+00
         0.00000E+00
         0.00000E+00
         0.00000E+00
         0.00000E+00
         0.00000E+00
         0.00000E+00
         0.00000E+00
         0.00000E+00
         0.00000E+00
         0.00000E+00
         0.00000E+00
         0.00000E+00
         0.00000E+00
         0.00000E+00
         0.00000E+00
         0.00000E+00
         0.00000E+00
         0.00000E+00
         0.00000E+00
         0.00000E+00
         0.00000E+00
         0.00000E+00
         0.00000E+00
         0.00000E+00
         0.00000E+00
         0.00000E+00
         0.00000E+00
         0.00000E+00
         0.00000E+00
         0.00000E+00
         0.00000E+00
         0.00000E+00
         0.00000E+00
         0.00000E+00
         0.00000E+00
         0.00000E+00
         0.00000E+00
         0.00000E+00
         0.00000E+00
         0.00000E+00
         0.00000E+00
         0.00000E+00
         0.00000E+00
         0.00000E+00
         0.00000E+00
         0.00000E+00
         0.00000E+00
         0.00000E+00
         0.00000E+00
         0.00000E+00
         0.00000E+00
         0.00000E+00
         0.00000E+00
         0.00000E+00
         0.00000E+00
         0.00000E+00
         0.00000E+00
         0.00000E+00
         0.00000E+00
         0.00000E+00
         0.00000E+00
         0.00000E+00
         0.00000E+00
         0.00000E+00
         0.00000E+00
         0.00000E+00
         0.00000E+00
         0.00000E+00
         0.00000E+00
         0.00000E+00
         0.00000E+00
         0.00000E+00
         0.00000E+00
         0.00000E+00
         0.00000E+00
         0.00000E+00
         0.00000E+00
         0.00000E+00
         0.00000E+00
         0.00000E+00
         0.00000E+00
         0.00000E+00
         0.00000E+00
         0.00000E+00
         0.00000E+00
         0.00000E+00
         0.00000E+00
         0.00000E+00
         0.00000E+00
         0.00000E+00
         0.00000E+00
         0.00000E+00
         0.00000E+00
         0.00000E+00
         0.00000E+00
         0.00000E+00
         0.00000E+00
         0.00000E+00
         0.00000E+00
         0.00000E+00
         0.00000E+00
         0.00000E+00
         0.00000E+00
         0.00000E+00
         0.00000E+00
         0.00000E+00
         0.00000E+00
         0.00000E+00
         0.00000E+00
         0.00000E+00
         0.00000E+00
         0.00000E+00
         0.00000E+00
         0.00000E+00
         0.00000E+00
         0.00000E+00
         0.00000E+00
         0.00000E+00
         0.00000E+00
         0.00000E+00
         0.00000E+00
         0.00000E+00
         0.00000E+00
         0.00000E+00
         0.00000E+00
         0.00000E+00
         0.00000E+00
         0.00000E+00
         0.00000E+00
         0.00000E+00
         0.00000E+00
         0.00000E+00
         0.00000E+00
         0.00000E+00
         0.00000E+00
         0.00000E+00
         0.00000E+00
         0.00000E+00
         0.00000E+00
         0.00000E+00
         0.00000E+00
         0.00000E+00
         0.00000E+00
         0.00000E+00
         0.00000E+00
         0.00000E+00
         0.00000E+00
         0.00000E+00
         0.00000E+00
         0.00000E+00
         0.00000E+00
         0.00000E+00
         0.00000E+00
         0.00000E+00
         0.00000E+00
         0.00000E+00
         0.00000E+00
         0.00000E+00
         0.00000E+00
         0.00000E+00
         0.00000E+00
         0.00000E+00
         0.00000E+00
         0.00000E+00
         0.00000E+00
         0.00000E+00
         0.00000E+00
         0.00000E+00
         0.00000E+00
         0.00000E+00
         0.00000E+00
         0.00000E+00
         0.00000E+00
         0.00000E+00
         0.00000E+00
         0.00000E+00
         0.00000E+00
         0.00000E+00
         0.00000E+00
         0.00000E+00
         0.00000E+00
         0.00000E+00
         0.00000E+00
         0.00000E+00
         0.00000E+00
         0.00000E+00
         0.00000E+00
         0.00000E+00
         0.00000E+00
         0.00000E+00
         0.00000E+00
         0.00000E+00
         0.00000E+00
         0.00000E+00
         0.00000E+00
         0.00000E+00
         0.00000E+00
         0.00000E+00
         0.00000E+00
         0.00000E+00
         0.00000E+00
         0.00000E+00
         0.00000E+00
         0.00000E+00
         0.00000E+00
         0.00000E+00
         0.00000E+00
         0.00000E+00
         0.00000E+00
         0.00000E+00
         0.00000E+00
         0.00000E+00
         0.00000E+00
         0.00000E+00
         0.00000E+00
         0.00000E+00
         0.00000E+00
         0.00000E+00
         0.00000E+00
         0.00000E+00
         0.00000E+00
         0.00000E+00
         0.00000E+00
         0.00000E+00
         0.00000E+00
         0.00000E+00
         0.00000E+00
         0.00000E+00
         0.00000E+00
         0.00000E+00
         0.00000E+00
         0.00000E+00
         0.00000E+00
         0.00000E+00
         0.00000E+00
         0.00000E+00
         0.00000E+00
         0.00000E+00
         0.00000E+00
         0.00000E+00
         0.00000E+00
         0.00000E+00
         0.00000E+00
         0.00000E+00
         0.00000E+00
         0.00000E+00
         0.00000E+00
         0.00000E+00
         0.00000E+00
         0.00000E+00
         0.00000E+00
         0.00000E+00
         0.00000E+00
         0.00000E+00
         0.00000E+00
         0.00000E+00
         0.00000E+00
         0.00000E+00
         0.00000E+00
         0.00000E+00
         0.00000E+00
         0.00000E+00
         0.00000E+00
         0.00000E+00
         0.00000E+00
         0.00000E+00
         0.00000E+00
         0.00000E+00
         0.00000E+00
         0.00000E+00
         0.00000E+00
         0.00000E+00
         0.00000E+00
         0.00000E+00
         0.00000E+00
         0.00000E+00
         0.00000E+00
         0.00000E+00
         0.00000E+00
         0.00000E+00
         0.00000E+00
         0.00000E+00
         0.00000E+00
         0.00000E+00
         0.00000E+00
         0.00000E+00
         0.00000E+00
         0.00000E+00
         0.00000E+00
         0.00000E+00
         0.00000E+00
         0.00000E+00
         0.00000E+00
         0.00000E+00
         0.00000E+00
         0.00000E+00
         0.00000E+00
         0.00000E+00
         0.00000E+00
         0.00000E+00
         0.00000E+00
         0.00000E+00
         0.00000E+00
         0.00000E+00
         0.00000E+00
         0.00000E+00
         0.00000E+00
         0.00000E+00
         0.00000E+00
         0.00000E+00
         0.00000E+00
         0.00000E+00
         0.00000E+00
         0.00000E+00
         0.00000E+00
         0.00000E+00
         0.00000E+00
         0.00000E+00
         0.00000E+00
         0.00000E+00
         0.00000E+00
         0.00000E+00
         0.00000E+00
         0.00000E+00
         0.00000E+00
         0.00000E+00
         0.00000E+00
         0.00000E+00
         0.00000E+00
         0.00000E+00
         0.00000E+00
         0.00000E+00
         0.00000E+00
         0.00000E+00
         0.00000E+00
         0.00000E+00
         0.00000E+00
         0.00000E+00
         0.00000E+00
         0.00000E+00
         0.00000E+00
         0.00000E+00
         0.00000E+00
         0.00000E+00
         0.00000E+00
         0.00000E+00
         0.00000E+00
         0.00000E+00
         0.00000E+00
         0.00000E+00
         0.00000E+00
         0.00000E+00
         0.00000E+00
         0.00000E+00
         0.00000E+00
         0.00000E+00
         0.00000E+00
         0.00000E+00
         0.00000E+00
         0.00000E+00
         0.00000E+00
         0.00000E+00
         0.00000E+00
         0.00000E+00
         0.00000E+00
         0.00000E+00
         0.00000E+00
         0.00000E+00
         0.00000E+00
         0.00000E+00
         0.00000E+00
         0.00000E+00
         0.00000E+00
         0.00000E+00
         0.00000E+00
         0.00000E+00
         0.00000E+00
         0.00000E+00
         0.00000E+00
         0.00000E+00
         0.00000E+00
         0.00000E+00
         0.00000E+00
         0.00000E+00
         0.00000E+00
         0.00000E+00
         0.00000E+00
         0.00000E+00
         0.00000E+00
         0.00000E+00
         0.00000E+00
         0.00000E+00
         0.00000E+00
         0.00000E+00
         0.00000E+00
         0.00000E+00
         0.00000E+00
         0.00000E+00
         0.00000E+00
         0.00000E+00
         0.00000E+00
         0.00000E+00
         0.00000E+00
         0.00000E+00
         0.00000E+00
         0.00000E+00
         0.00000E+00
         0.00000E+00
         0.00000E+00
         0.00000E+00
         0.00000E+00
         0.00000E+00
         0.00000E+00
         0.00000E+00
         0.00000E+00
         0.00000E+00
         0.00000E+00
         0.00000E+00
         0.00000E+00
         0.00000E+00
         0.00000E+00
         0.00000E+00
         0.00000E+00
  
SCALARS                     velocity_z  double 1
LOOKUP_TABLE default
        -0.37300E+03
        -0.37300E+03
        -0.37300E+03
        -0.37300E+03
         0.00000E+00
         0.00000E+00
         0.00000E+00
         0.00000E+00
        -0.37300E+03
        -0.37300E+03
         0.00000E+00
         0.00000E+00
        -0.37300E+03
        -0.37300E+03
         0.00000E+00
         0.00000E+00
        -0.37300E+03
        -0.37300E+03
         0.00000E+00
         0.00000E+00
        -0.37300E+03
        -0.37300E+03
        -0.37300E+03
         0.00000E+00
         0.00000E+00
         0.00000E+00
        -0.37300E+03
        -0.37300E+03
         0.00000E+00
         0.00000E+00
        -0.37300E+03
        -0.37300E+03
        -0.37300E+03
         0.00000E+00
         0.00000E+00
         0.00000E+00
        -0.37300E+03
        -0.37300E+03
         0.00000E+00
         0.00000E+00
        -0.37300E+03
        -0.37300E+03
         0.00000E+00
         0.00000E+00
        -0.37300E+03
        -0.37300E+03
         0.00000E+00
         0.00000E+00
        -0.37300E+03
         0.00000E+00
        -0.37300E+03
         0.00000E+00
        -0.37300E+03
         0.00000E+00
        -0.37300E+03
         0.00000E+00
        -0.37300E+03
        -0.37300E+03
         0.00000E+00
         0.00000E+00
        -0.37300E+03
        -0.37300E+03
         0.00000E+00
         0.00000E+00
        -0.37300E+03
         0.00000E+00
        -0.37300E+03
         0.00000E+00
        -0.37300E+03
        -0.37300E+03
         0.00000E+00
         0.00000E+00
        -0.37300E+03
         0.00000E+00
        -0.37300E+03
         0.00000E+00
        -0.37300E+03
         0.00000E+00
        -0.37300E+03
         0.00000E+00
        -0.37300E+03
        -0.37300E+03
         0.00000E+00
         0.00000E+00
        -0.37300E+03
         0.00000E+00
        -0.37300E+03
         0.00000E+00
        -0.37300E+03
         0.00000E+00
        -0.37300E+03
        -0.37300E+03
         0.00000E+00
         0.00000E+00
        -0.37300E+03
         0.00000E+00
        -0.37300E+03
         0.00000E+00
        -0.37300E+03
         0.00000E+00
        -0.37300E+03
        -0.37300E+03
         0.00000E+00
         0.00000E+00
        -0.37300E+03
        -0.37300E+03
         0.00000E+00
         0.00000E+00
        -0.37300E+03
         0.00000E+00
        -0.37300E+03
         0.00000E+00
        -0.37300E+03
         0.00000E+00
        -0.37300E+03
         0.00000E+00
        -0.37300E+03
         0.00000E+00
        -0.37300E+03
         0.00000E+00
        -0.37300E+03
         0.00000E+00
        -0.37300E+03
         0.00000E+00
        -0.37300E+03
         0.00000E+00
        -0.37300E+03
         0.00000E+00
        -0.37300E+03
         0.00000E+00
        -0.37300E+03
         0.00000E+00
        -0.37300E+03
         0.00000E+00
        -0.37300E+03
         0.00000E+00
        -0.37300E+03
         0.00000E+00
        -0.37300E+03
         0.00000E+00
        -0.37300E+03
         0.00000E+00
        -0.37300E+03
         0.00000E+00
        -0.37300E+03
         0.00000E+00
        -0.37300E+03
         0.00000E+00
        -0.37300E+03
         0.00000E+00
        -0.37300E+03
         0.00000E+00
        -0.37300E+03
         0.00000E+00
        -0.37300E+03
         0.00000E+00
        -0.37300E+03
        -0.37300E+03
        -0.37300E+03
        -0.37300E+03
        -0.37300E+03
        -0.37300E+03
        -0.37300E+03
        -0.37300E+03
        -0.37300E+03
        -0.37300E+03
        -0.37300E+03
        -0.37300E+03
        -0.37300E+03
        -0.37300E+03
        -0.37300E+03
        -0.37300E+03
        -0.37300E+03
        -0.37300E+03
        -0.37300E+03
        -0.37300E+03
        -0.37300E+03
        -0.37300E+03
        -0.37300E+03
        -0.37300E+03
        -0.37300E+03
        -0.37300E+03
        -0.37300E+03
        -0.37300E+03
        -0.37300E+03
        -0.37300E+03
        -0.37300E+03
        -0.37300E+03
        -0.37300E+03
        -0.37300E+03
        -0.37300E+03
        -0.37300E+03
        -0.37300E+03
        -0.37300E+03
        -0.37300E+03
        -0.37300E+03
        -0.37300E+03
        -0.37300E+03
        -0.37300E+03
        -0.37300E+03
        -0.37300E+03
        -0.37300E+03
        -0.37300E+03
        -0.37300E+03
        -0.37300E+03
        -0.37300E+03
        -0.37300E+03
        -0.37300E+03
        -0.37300E+03
        -0.37300E+03
        -0.37300E+03
        -0.37300E+03
        -0.37300E+03
        -0.37300E+03
        -0.37300E+03
        -0.37300E+03
        -0.37300E+03
        -0.37300E+03
        -0.37300E+03
        -0.37300E+03
        -0.37300E+03
        -0.37300E+03
        -0.37300E+03
        -0.37300E+03
        -0.37300E+03
        -0.37300E+03
        -0.37300E+03
        -0.37300E+03
        -0.37300E+03
        -0.37300E+03
        -0.37300E+03
        -0.37300E+03
        -0.37300E+03
        -0.37300E+03
        -0.37300E+03
        -0.37300E+03
        -0.37300E+03
        -0.37300E+03
        -0.37300E+03
        -0.37300E+03
        -0.37300E+03
        -0.37300E+03
        -0.37300E+03
        -0.37300E+03
        -0.37300E+03
        -0.37300E+03
        -0.37300E+03
        -0.37300E+03
        -0.37300E+03
        -0.37300E+03
        -0.37300E+03
        -0.37300E+03
        -0.37300E+03
        -0.37300E+03
        -0.37300E+03
        -0.37300E+03
        -0.37300E+03
        -0.37300E+03
        -0.37300E+03
        -0.37300E+03
        -0.37300E+03
        -0.37300E+03
        -0.37300E+03
        -0.37300E+03
        -0.37300E+03
        -0.37300E+03
        -0.37300E+03
        -0.37300E+03
        -0.37300E+03
        -0.37300E+03
        -0.37300E+03
        -0.37300E+03
        -0.37300E+03
        -0.37300E+03
        -0.37300E+03
        -0.37300E+03
        -0.37300E+03
        -0.37300E+03
        -0.37300E+03
        -0.37300E+03
        -0.37300E+03
        -0.37300E+03
        -0.37300E+03
        -0.37300E+03
        -0.37300E+03
        -0.37300E+03
        -0.37300E+03
        -0.37300E+03
        -0.37300E+03
        -0.37300E+03
        -0.37300E+03
        -0.37300E+03
        -0.37300E+03
        -0.37300E+03
        -0.37300E+03
        -0.37300E+03
        -0.37300E+03
        -0.37300E+03
        -0.37300E+03
        -0.37300E+03
        -0.37300E+03
        -0.37300E+03
        -0.37300E+03
        -0.37300E+03
        -0.37300E+03
        -0.37300E+03
        -0.37300E+03
        -0.37300E+03
        -0.37300E+03
        -0.37300E+03
        -0.37300E+03
        -0.37300E+03
        -0.37300E+03
        -0.37300E+03
        -0.37300E+03
        -0.37300E+03
        -0.37300E+03
        -0.37300E+03
        -0.37300E+03
        -0.37300E+03
        -0.37300E+03
        -0.37300E+03
        -0.37300E+03
        -0.37300E+03
        -0.37300E+03
        -0.37300E+03
        -0.37300E+03
        -0.37300E+03
        -0.37300E+03
        -0.37300E+03
        -0.37300E+03
        -0.37300E+03
        -0.37300E+03
        -0.37300E+03
        -0.37300E+03
        -0.37300E+03
        -0.37300E+03
        -0.37300E+03
        -0.37300E+03
        -0.37300E+03
        -0.37300E+03
        -0.37300E+03
        -0.37300E+03
        -0.37300E+03
        -0.37300E+03
        -0.37300E+03
        -0.37300E+03
        -0.37300E+03
        -0.37300E+03
        -0.37300E+03
        -0.37300E+03
        -0.37300E+03
        -0.37300E+03
        -0.37300E+03
        -0.37300E+03
        -0.37300E+03
        -0.37300E+03
        -0.37300E+03
        -0.37300E+03
        -0.37300E+03
        -0.37300E+03
        -0.37300E+03
        -0.37300E+03
        -0.37300E+03
        -0.37300E+03
        -0.37300E+03
        -0.37300E+03
        -0.37300E+03
        -0.37300E+03
        -0.37300E+03
        -0.37300E+03
        -0.37300E+03
        -0.37300E+03
        -0.37300E+03
        -0.37300E+03
        -0.37300E+03
        -0.37300E+03
        -0.37300E+03
        -0.37300E+03
        -0.37300E+03
        -0.37300E+03
        -0.37300E+03
        -0.37300E+03
        -0.37300E+03
        -0.37300E+03
        -0.37300E+03
        -0.37300E+03
        -0.37300E+03
        -0.37300E+03
        -0.37300E+03
        -0.37300E+03
        -0.37300E+03
        -0.37300E+03
        -0.37300E+03
        -0.37300E+03
        -0.37300E+03
        -0.37300E+03
        -0.37300E+03
        -0.37300E+03
        -0.37300E+03
        -0.37300E+03
        -0.37300E+03
        -0.37300E+03
        -0.37300E+03
        -0.37300E+03
        -0.37300E+03
        -0.37300E+03
        -0.37300E+03
        -0.37300E+03
        -0.37300E+03
        -0.37300E+03
        -0.37300E+03
        -0.37300E+03
        -0.37300E+03
        -0.37300E+03
        -0.37300E+03
        -0.37300E+03
        -0.37300E+03
        -0.37300E+03
        -0.37300E+03
        -0.37300E+03
        -0.37300E+03
        -0.37300E+03
        -0.37300E+03
        -0.37300E+03
        -0.37300E+03
        -0.37300E+03
        -0.37300E+03
        -0.37300E+03
        -0.37300E+03
        -0.37300E+03
        -0.37300E+03
        -0.37300E+03
        -0.37300E+03
        -0.37300E+03
        -0.37300E+03
        -0.37300E+03
        -0.37300E+03
        -0.37300E+03
        -0.37300E+03
        -0.37300E+03
        -0.37300E+03
        -0.37300E+03
        -0.37300E+03
        -0.37300E+03
        -0.37300E+03
        -0.37300E+03
        -0.37300E+03
        -0.37300E+03
        -0.37300E+03
        -0.37300E+03
        -0.37300E+03
        -0.37300E+03
        -0.37300E+03
        -0.37300E+03
        -0.37300E+03
        -0.37300E+03
        -0.37300E+03
        -0.37300E+03
        -0.37300E+03
        -0.37300E+03
        -0.37300E+03
        -0.37300E+03
        -0.37300E+03
        -0.37300E+03
        -0.37300E+03
        -0.37300E+03
        -0.37300E+03
        -0.37300E+03
        -0.37300E+03
        -0.37300E+03
        -0.37300E+03
        -0.37300E+03
        -0.37300E+03
        -0.37300E+03
        -0.37300E+03
        -0.37300E+03
        -0.37300E+03
        -0.37300E+03
        -0.37300E+03
        -0.37300E+03
        -0.37300E+03
        -0.37300E+03
        -0.37300E+03
        -0.37300E+03
        -0.37300E+03
        -0.37300E+03
        -0.37300E+03
        -0.37300E+03
        -0.37300E+03
        -0.37300E+03
        -0.37300E+03
        -0.37300E+03
        -0.37300E+03
        -0.37300E+03
        -0.37300E+03
        -0.37300E+03
        -0.37300E+03
        -0.37300E+03
        -0.37300E+03
        -0.37300E+03
        -0.37300E+03
        -0.37300E+03
        -0.37300E+03
        -0.37300E+03
        -0.37300E+03
        -0.37300E+03
        -0.37300E+03
        -0.37300E+03
        -0.37300E+03
        -0.37300E+03
        -0.37300E+03
        -0.37300E+03
        -0.37300E+03
        -0.37300E+03
        -0.37300E+03
        -0.37300E+03
        -0.37300E+03
        -0.37300E+03
        -0.37300E+03
        -0.37300E+03
        -0.37300E+03
        -0.37300E+03
        -0.37300E+03
        -0.37300E+03
        -0.37300E+03
        -0.37300E+03
        -0.37300E+03
        -0.37300E+03
        -0.37300E+03
        -0.37300E+03
        -0.37300E+03
        -0.37300E+03
        -0.37300E+03
        -0.37300E+03
        -0.37300E+03
        -0.37300E+03
        -0.37300E+03
        -0.37300E+03
        -0.37300E+03
        -0.37300E+03
        -0.37300E+03
        -0.37300E+03
        -0.37300E+03
        -0.37300E+03
        -0.37300E+03
        -0.37300E+03
        -0.37300E+03
        -0.37300E+03
        -0.37300E+03
        -0.37300E+03
        -0.37300E+03
        -0.37300E+03
        -0.37300E+03
        -0.37300E+03
        -0.37300E+03
        -0.37300E+03
        -0.37300E+03
        -0.37300E+03
        -0.37300E+03
        -0.37300E+03
        -0.37300E+03
        -0.37300E+03
        -0.37300E+03
        -0.37300E+03
        -0.37300E+03
        -0.37300E+03
        -0.37300E+03
        -0.37300E+03
        -0.37300E+03
        -0.37300E+03
        -0.37300E+03
        -0.37300E+03
        -0.37300E+03
        -0.37300E+03
        -0.37300E+03
        -0.37300E+03
        -0.37300E+03
        -0.37300E+03
        -0.37300E+03
        -0.37300E+03
        -0.37300E+03
        -0.37300E+03
        -0.37300E+03
        -0.37300E+03
        -0.37300E+03
        -0.37300E+03
        -0.37300E+03
        -0.37300E+03
        -0.37300E+03
        -0.37300E+03
        -0.37300E+03
        -0.37300E+03
        -0.37300E+03
        -0.37300E+03
        -0.37300E+03
        -0.37300E+03
        -0.37300E+03
        -0.37300E+03
        -0.37300E+03
        -0.37300E+03
        -0.37300E+03
        -0.37300E+03
        -0.37300E+03
        -0.37300E+03
        -0.37300E+03
        -0.37300E+03
        -0.37300E+03
        -0.37300E+03
        -0.37300E+03
        -0.37300E+03
        -0.37300E+03
        -0.37300E+03
        -0.37300E+03
        -0.37300E+03
        -0.37300E+03
        -0.37300E+03
        -0.37300E+03
        -0.37300E+03
        -0.37300E+03
        -0.37300E+03
        -0.37300E+03
        -0.37300E+03
        -0.37300E+03
        -0.37300E+03
        -0.37300E+03
        -0.37300E+03
        -0.37300E+03
        -0.37300E+03
        -0.37300E+03
        -0.37300E+03
        -0.37300E+03
        -0.37300E+03
        -0.37300E+03
        -0.37300E+03
        -0.37300E+03
        -0.37300E+03
        -0.37300E+03
        -0.37300E+03
        -0.37300E+03
        -0.37300E+03
        -0.37300E+03
        -0.37300E+03
        -0.37300E+03
        -0.37300E+03
        -0.37300E+03
        -0.37300E+03
        -0.37300E+03
        -0.37300E+03
        -0.37300E+03
        -0.37300E+03
        -0.37300E+03
        -0.37300E+03
        -0.37300E+03
        -0.37300E+03
        -0.37300E+03
        -0.37300E+03
        -0.37300E+03
        -0.37300E+03
        -0.37300E+03
        -0.37300E+03
        -0.37300E+03
        -0.37300E+03
        -0.37300E+03
        -0.37300E+03
        -0.37300E+03
        -0.37300E+03
        -0.37300E+03
        -0.37300E+03
        -0.37300E+03
        -0.37300E+03
        -0.37300E+03
        -0.37300E+03
        -0.37300E+03
        -0.37300E+03
        -0.37300E+03
        -0.37300E+03
        -0.37300E+03
        -0.37300E+03
        -0.37300E+03
        -0.37300E+03
        -0.37300E+03
        -0.37300E+03
        -0.37300E+03
        -0.37300E+03
        -0.37300E+03
        -0.37300E+03
        -0.37300E+03
        -0.37300E+03
        -0.37300E+03
        -0.37300E+03
        -0.37300E+03
        -0.37300E+03
        -0.37300E+03
        -0.37300E+03
        -0.37300E+03
        -0.37300E+03
        -0.37300E+03
        -0.37300E+03
        -0.37300E+03
        -0.37300E+03
        -0.37300E+03
        -0.37300E+03
        -0.37300E+03
        -0.37300E+03
        -0.37300E+03
        -0.37300E+03
        -0.37300E+03
        -0.37300E+03
        -0.37300E+03
        -0.37300E+03
        -0.37300E+03
        -0.37300E+03
        -0.37300E+03
        -0.37300E+03
        -0.37300E+03
        -0.37300E+03
        -0.37300E+03
        -0.37300E+03
        -0.37300E+03
        -0.37300E+03
        -0.37300E+03
        -0.37300E+03
        -0.37300E+03
        -0.37300E+03
        -0.37300E+03
        -0.37300E+03
        -0.37300E+03
        -0.37300E+03
        -0.37300E+03
        -0.37300E+03
        -0.37300E+03
        -0.37300E+03
        -0.37300E+03
        -0.37300E+03
        -0.37300E+03
        -0.37300E+03
        -0.37300E+03
        -0.37300E+03
        -0.37300E+03
        -0.37300E+03
        -0.37300E+03
        -0.37300E+03
        -0.37300E+03
        -0.37300E+03
        -0.37300E+03
        -0.37300E+03
        -0.37300E+03
        -0.37300E+03
        -0.37300E+03
        -0.37300E+03
        -0.37300E+03
        -0.37300E+03
        -0.37300E+03
        -0.37300E+03
        -0.37300E+03
        -0.37300E+03
        -0.37300E+03
        -0.37300E+03
        -0.37300E+03
        -0.37300E+03
        -0.37300E+03
        -0.37300E+03
        -0.37300E+03
        -0.37300E+03
        -0.37300E+03
        -0.37300E+03
        -0.37300E+03
        -0.37300E+03
        -0.37300E+03
        -0.37300E+03
        -0.37300E+03
        -0.37300E+03
        -0.37300E+03
        -0.37300E+03
        -0.37300E+03
        -0.37300E+03
        -0.37300E+03
        -0.37300E+03
        -0.37300E+03
        -0.37300E+03
        -0.37300E+03
        -0.37300E+03
        -0.37300E+03
        -0.37300E+03
        -0.37300E+03
        -0.37300E+03
        -0.37300E+03
        -0.37300E+03
        -0.37300E+03
        -0.37300E+03
        -0.37300E+03
        -0.37300E+03
        -0.37300E+03
        -0.37300E+03
        -0.37300E+03
        -0.37300E+03
        -0.37300E+03
        -0.37300E+03
        -0.37300E+03
        -0.37300E+03
        -0.37300E+03
        -0.37300E+03
        -0.37300E+03
        -0.37300E+03
        -0.37300E+03
        -0.37300E+03
        -0.37300E+03
        -0.37300E+03
        -0.37300E+03
        -0.37300E+03
        -0.37300E+03
        -0.37300E+03
        -0.37300E+03
        -0.37300E+03
        -0.37300E+03
        -0.37300E+03
        -0.37300E+03
        -0.37300E+03
        -0.37300E+03
        -0.37300E+03
        -0.37300E+03
        -0.37300E+03
        -0.37300E+03
        -0.37300E+03
        -0.37300E+03
        -0.37300E+03
        -0.37300E+03
        -0.37300E+03
        -0.37300E+03
        -0.37300E+03
        -0.37300E+03
        -0.37300E+03
        -0.37300E+03
        -0.37300E+03
        -0.37300E+03
        -0.37300E+03
        -0.37300E+03
        -0.37300E+03
        -0.37300E+03
        -0.37300E+03
        -0.37300E+03
        -0.37300E+03
        -0.37300E+03
        -0.37300E+03
        -0.37300E+03
        -0.37300E+03
        -0.37300E+03
        -0.37300E+03
        -0.37300E+03
        -0.37300E+03
        -0.37300E+03
        -0.37300E+03
        -0.37300E+03
        -0.37300E+03
        -0.37300E+03
        -0.37300E+03
        -0.37300E+03
        -0.37300E+03
        -0.37300E+03
        -0.37300E+03
        -0.37300E+03
        -0.37300E+03
        -0.37300E+03
        -0.37300E+03
        -0.37300E+03
        -0.37300E+03
        -0.37300E+03
        -0.37300E+03
        -0.37300E+03
        -0.37300E+03
        -0.37300E+03
        -0.37300E+03
        -0.37300E+03
        -0.37300E+03
        -0.37300E+03
        -0.37300E+03
        -0.37300E+03
        -0.37300E+03
        -0.37300E+03
        -0.37300E+03
        -0.37300E+03
        -0.37300E+03
        -0.37300E+03
        -0.37300E+03
        -0.37300E+03
        -0.37300E+03
        -0.37300E+03
        -0.37300E+03
        -0.37300E+03
        -0.37300E+03
        -0.37300E+03
        -0.37300E+03
        -0.37300E+03
        -0.37300E+03
        -0.37300E+03
        -0.37300E+03
        -0.37300E+03
        -0.37300E+03
        -0.37300E+03
        -0.37300E+03
        -0.37300E+03
        -0.37300E+03
        -0.37300E+03
        -0.37300E+03
        -0.37300E+03
        -0.37300E+03
        -0.37300E+03
        -0.37300E+03
        -0.37300E+03
        -0.37300E+03
        -0.37300E+03
        -0.37300E+03
        -0.37300E+03
        -0.37300E+03
        -0.37300E+03
        -0.37300E+03
        -0.37300E+03
        -0.37300E+03
        -0.37300E+03
        -0.37300E+03
        -0.37300E+03
        -0.37300E+03
        -0.37300E+03
        -0.37300E+03
        -0.37300E+03
        -0.37300E+03
        -0.37300E+03
        -0.37300E+03
        -0.37300E+03
        -0.37300E+03
        -0.37300E+03
        -0.37300E+03
        -0.37300E+03
        -0.37300E+03
        -0.37300E+03
        -0.37300E+03
        -0.37300E+03
        -0.37300E+03
        -0.37300E+03
        -0.37300E+03
        -0.37300E+03
        -0.37300E+03
        -0.37300E+03
        -0.37300E+03
        -0.37300E+03
        -0.37300E+03
        -0.37300E+03
        -0.37300E+03
        -0.37300E+03
        -0.37300E+03
        -0.37300E+03
        -0.37300E+03
        -0.37300E+03
        -0.37300E+03
        -0.37300E+03
        -0.37300E+03
        -0.37300E+03
        -0.37300E+03
        -0.37300E+03
        -0.37300E+03
        -0.37300E+03
        -0.37300E+03
        -0.37300E+03
        -0.37300E+03
        -0.37300E+03
        -0.37300E+03
        -0.37300E+03
        -0.37300E+03
        -0.37300E+03
        -0.37300E+03
        -0.37300E+03
        -0.37300E+03
        -0.37300E+03
        -0.37300E+03
        -0.37300E+03
        -0.37300E+03
        -0.37300E+03
        -0.37300E+03
        -0.37300E+03
        -0.37300E+03
        -0.37300E+03
        -0.37300E+03
        -0.37300E+03
        -0.37300E+03
        -0.37300E+03
        -0.37300E+03
        -0.37300E+03
        -0.37300E+03
        -0.37300E+03
        -0.37300E+03
        -0.37300E+03
        -0.37300E+03
        -0.37300E+03
        -0.37300E+03
        -0.37300E+03
        -0.37300E+03
        -0.37300E+03
        -0.37300E+03
        -0.37300E+03
        -0.37300E+03
        -0.37300E+03
        -0.37300E+03
        -0.37300E+03
        -0.37300E+03
        -0.37300E+03
        -0.37300E+03
        -0.37300E+03
        -0.37300E+03
        -0.37300E+03
        -0.37300E+03
        -0.37300E+03
        -0.37300E+03
        -0.37300E+03
        -0.37300E+03
        -0.37300E+03
        -0.37300E+03
        -0.37300E+03
        -0.37300E+03
        -0.37300E+03
        -0.37300E+03
        -0.37300E+03
        -0.37300E+03
        -0.37300E+03
        -0.37300E+03
        -0.37300E+03
        -0.37300E+03
        -0.37300E+03
        -0.37300E+03
        -0.37300E+03
        -0.37300E+03
        -0.37300E+03
        -0.37300E+03
        -0.37300E+03
        -0.37300E+03
        -0.37300E+03
        -0.37300E+03
        -0.37300E+03
        -0.37300E+03
        -0.37300E+03
        -0.37300E+03
        -0.37300E+03
        -0.37300E+03
        -0.37300E+03
        -0.37300E+03
        -0.37300E+03
        -0.37300E+03
        -0.37300E+03
        -0.37300E+03
        -0.37300E+03
        -0.37300E+03
        -0.37300E+03
        -0.37300E+03
        -0.37300E+03
        -0.37300E+03
        -0.37300E+03
        -0.37300E+03
        -0.37300E+03
        -0.37300E+03
        -0.37300E+03
        -0.37300E+03
        -0.37300E+03
        -0.37300E+03
        -0.37300E+03
        -0.37300E+03
        -0.37300E+03
        -0.37300E+03
        -0.37300E+03
        -0.37300E+03
        -0.37300E+03
        -0.37300E+03
        -0.37300E+03
        -0.37300E+03
        -0.37300E+03
        -0.37300E+03
        -0.37300E+03
        -0.37300E+03
        -0.37300E+03
        -0.37300E+03
        -0.37300E+03
        -0.37300E+03
        -0.37300E+03
        -0.37300E+03
        -0.37300E+03
        -0.37300E+03
        -0.37300E+03
        -0.37300E+03
        -0.37300E+03
        -0.37300E+03
        -0.37300E+03
        -0.37300E+03
        -0.37300E+03
        -0.37300E+03
        -0.37300E+03
        -0.37300E+03
        -0.37300E+03
        -0.37300E+03
        -0.37300E+03
        -0.37300E+03
        -0.37300E+03
        -0.37300E+03
        -0.37300E+03
        -0.37300E+03
        -0.37300E+03
        -0.37300E+03
        -0.37300E+03
        -0.37300E+03
        -0.37300E+03
        -0.37300E+03
        -0.37300E+03
        -0.37300E+03
        -0.37300E+03
        -0.37300E+03
        -0.37300E+03
        -0.37300E+03
        -0.37300E+03
        -0.37300E+03
        -0.37300E+03
        -0.37300E+03
        -0.37300E+03
        -0.37300E+03
        -0.37300E+03
        -0.37300E+03
        -0.37300E+03
        -0.37300E+03
        -0.37300E+03
        -0.37300E+03
        -0.37300E+03
        -0.37300E+03
        -0.37300E+03
        -0.37300E+03
        -0.37300E+03
        -0.37300E+03
        -0.37300E+03
        -0.37300E+03
        -0.37300E+03
        -0.37300E+03
        -0.37300E+03
        -0.37300E+03
        -0.37300E+03
        -0.37300E+03
        -0.37300E+03
        -0.37300E+03
        -0.37300E+03
        -0.37300E+03
        -0.37300E+03
        -0.37300E+03
        -0.37300E+03
        -0.37300E+03
        -0.37300E+03
        -0.37300E+03
        -0.37300E+03
        -0.37300E+03
        -0.37300E+03
        -0.37300E+03
        -0.37300E+03
        -0.37300E+03
        -0.37300E+03
        -0.37300E+03
        -0.37300E+03
        -0.37300E+03
        -0.37300E+03
        -0.37300E+03
        -0.37300E+03
        -0.37300E+03
        -0.37300E+03
        -0.37300E+03
        -0.37300E+03
        -0.37300E+03
        -0.37300E+03
        -0.37300E+03
        -0.37300E+03
        -0.37300E+03
        -0.37300E+03
        -0.37300E+03
        -0.37300E+03
        -0.37300E+03
        -0.37300E+03
        -0.37300E+03
        -0.37300E+03
        -0.37300E+03
        -0.37300E+03
        -0.37300E+03
        -0.37300E+03
        -0.37300E+03
        -0.37300E+03
        -0.37300E+03
        -0.37300E+03
        -0.37300E+03
        -0.37300E+03
        -0.37300E+03
        -0.37300E+03
        -0.37300E+03
        -0.37300E+03
        -0.37300E+03
        -0.37300E+03
        -0.37300E+03
        -0.37300E+03
        -0.37300E+03
        -0.37300E+03
        -0.37300E+03
        -0.37300E+03
        -0.37300E+03
        -0.37300E+03
        -0.37300E+03
        -0.37300E+03
        -0.37300E+03
        -0.37300E+03
        -0.37300E+03
        -0.37300E+03
        -0.37300E+03
        -0.37300E+03
        -0.37300E+03
        -0.37300E+03
        -0.37300E+03
        -0.37300E+03
        -0.37300E+03
        -0.37300E+03
        -0.37300E+03
        -0.37300E+03
        -0.37300E+03
        -0.37300E+03
        -0.37300E+03
        -0.37300E+03
        -0.37300E+03
        -0.37300E+03
        -0.37300E+03
        -0.37300E+03
        -0.37300E+03
        -0.37300E+03
        -0.37300E+03
        -0.37300E+03
        -0.37300E+03
        -0.37300E+03
        -0.37300E+03
        -0.37300E+03
        -0.37300E+03
        -0.37300E+03
        -0.37300E+03
        -0.37300E+03
        -0.37300E+03
        -0.37300E+03
        -0.37300E+03
        -0.37300E+03
        -0.37300E+03
        -0.37300E+03
        -0.37300E+03
        -0.37300E+03
        -0.37300E+03
        -0.37300E+03
        -0.37300E+03
        -0.37300E+03
        -0.37300E+03
        -0.37300E+03
        -0.37300E+03
        -0.37300E+03
        -0.37300E+03
        -0.37300E+03
        -0.37300E+03
        -0.37300E+03
        -0.37300E+03
        -0.37300E+03
        -0.37300E+03
        -0.37300E+03
        -0.37300E+03
        -0.37300E+03
        -0.37300E+03
        -0.37300E+03
        -0.37300E+03
        -0.37300E+03
        -0.37300E+03
        -0.37300E+03
        -0.37300E+03
        -0.37300E+03
        -0.37300E+03
        -0.37300E+03
        -0.37300E+03
        -0.37300E+03
        -0.37300E+03
        -0.37300E+03
        -0.37300E+03
        -0.37300E+03
        -0.37300E+03
        -0.37300E+03
        -0.37300E+03
        -0.37300E+03
        -0.37300E+03
        -0.37300E+03
        -0.37300E+03
        -0.37300E+03
        -0.37300E+03
        -0.37300E+03
        -0.37300E+03
        -0.37300E+03
        -0.37300E+03
        -0.37300E+03
        -0.37300E+03
        -0.37300E+03
        -0.37300E+03
        -0.37300E+03
        -0.37300E+03
        -0.37300E+03
        -0.37300E+03
        -0.37300E+03
        -0.37300E+03
        -0.37300E+03
        -0.37300E+03
        -0.37300E+03
        -0.37300E+03
        -0.37300E+03
        -0.37300E+03
        -0.37300E+03
        -0.37300E+03
        -0.37300E+03
        -0.37300E+03
        -0.37300E+03
        -0.37300E+03
        -0.37300E+03
        -0.37300E+03
        -0.37300E+03
        -0.37300E+03
        -0.37300E+03
        -0.37300E+03
        -0.37300E+03
        -0.37300E+03
        -0.37300E+03
        -0.37300E+03
        -0.37300E+03
        -0.37300E+03
        -0.37300E+03
        -0.37300E+03
        -0.37300E+03
        -0.37300E+03
        -0.37300E+03
        -0.37300E+03
        -0.37300E+03
        -0.37300E+03
        -0.37300E+03
        -0.37300E+03
        -0.37300E+03
        -0.37300E+03
        -0.37300E+03
        -0.37300E+03
        -0.37300E+03
        -0.37300E+03
        -0.37300E+03
        -0.37300E+03
        -0.37300E+03
        -0.37300E+03
        -0.37300E+03
        -0.37300E+03
        -0.37300E+03
        -0.37300E+03
        -0.37300E+03
        -0.37300E+03
        -0.37300E+03
        -0.37300E+03
        -0.37300E+03
        -0.37300E+03
        -0.37300E+03
        -0.37300E+03
        -0.37300E+03
        -0.37300E+03
        -0.37300E+03
        -0.37300E+03
        -0.37300E+03
        -0.37300E+03
        -0.37300E+03
        -0.37300E+03
        -0.37300E+03
        -0.37300E+03
        -0.37300E+03
        -0.37300E+03
        -0.37300E+03
        -0.37300E+03
        -0.37300E+03
        -0.37300E+03
        -0.37300E+03
        -0.37300E+03
        -0.37300E+03
        -0.37300E+03
        -0.37300E+03
        -0.37300E+03
        -0.37300E+03
        -0.37300E+03
        -0.37300E+03
        -0.37300E+03
        -0.37300E+03
        -0.37300E+03
        -0.37300E+03
        -0.37300E+03
        -0.37300E+03
        -0.37300E+03
        -0.37300E+03
        -0.37300E+03
        -0.37300E+03
        -0.37300E+03
        -0.37300E+03
        -0.37300E+03
        -0.37300E+03
        -0.37300E+03
        -0.37300E+03
        -0.37300E+03
        -0.37300E+03
        -0.37300E+03
        -0.37300E+03
        -0.37300E+03
        -0.37300E+03
        -0.37300E+03
        -0.37300E+03
        -0.37300E+03
        -0.37300E+03
        -0.37300E+03
        -0.37300E+03
        -0.37300E+03
        -0.37300E+03
        -0.37300E+03
        -0.37300E+03
        -0.37300E+03
        -0.37300E+03
        -0.37300E+03
        -0.37300E+03
        -0.37300E+03
        -0.37300E+03
        -0.37300E+03
        -0.37300E+03
        -0.37300E+03
        -0.37300E+03
        -0.37300E+03
        -0.37300E+03
        -0.37300E+03
        -0.37300E+03
        -0.37300E+03
        -0.37300E+03
        -0.37300E+03
        -0.37300E+03
        -0.37300E+03
        -0.37300E+03
        -0.37300E+03
        -0.37300E+03
        -0.37300E+03
        -0.37300E+03
        -0.37300E+03
        -0.37300E+03
        -0.37300E+03
        -0.37300E+03
        -0.37300E+03
        -0.37300E+03
        -0.37300E+03
        -0.37300E+03
        -0.37300E+03
        -0.37300E+03
        -0.37300E+03
        -0.37300E+03
        -0.37300E+03
        -0.37300E+03
        -0.37300E+03
        -0.37300E+03
        -0.37300E+03
        -0.37300E+03
        -0.37300E+03
        -0.37300E+03
        -0.37300E+03
        -0.37300E+03
        -0.37300E+03
        -0.37300E+03
        -0.37300E+03
        -0.37300E+03
        -0.37300E+03
        -0.37300E+03
        -0.37300E+03
        -0.37300E+03
        -0.37300E+03
        -0.37300E+03
        -0.37300E+03
        -0.37300E+03
        -0.37300E+03
        -0.37300E+03
        -0.37300E+03
        -0.37300E+03
        -0.37300E+03
        -0.37300E+03
        -0.37300E+03
        -0.37300E+03
        -0.37300E+03
        -0.37300E+03
        -0.37300E+03
        -0.37300E+03
        -0.37300E+03
        -0.37300E+03
        -0.37300E+03
        -0.37300E+03
        -0.37300E+03
        -0.37300E+03
        -0.37300E+03
        -0.37300E+03
        -0.37300E+03
        -0.37300E+03
        -0.37300E+03
        -0.37300E+03
        -0.37300E+03
        -0.37300E+03
        -0.37300E+03
        -0.37300E+03
        -0.37300E+03
        -0.37300E+03
        -0.37300E+03
        -0.37300E+03
        -0.37300E+03
        -0.37300E+03
        -0.37300E+03
        -0.37300E+03
        -0.37300E+03
        -0.37300E+03
        -0.37300E+03
        -0.37300E+03
        -0.37300E+03
        -0.37300E+03
        -0.37300E+03
        -0.37300E+03
        -0.37300E+03
        -0.37300E+03
        -0.37300E+03
        -0.37300E+03
        -0.37300E+03
        -0.37300E+03
        -0.37300E+03
        -0.37300E+03
        -0.37300E+03
        -0.37300E+03
        -0.37300E+03
        -0.37300E+03
        -0.37300E+03
        -0.37300E+03
        -0.37300E+03
        -0.37300E+03
        -0.37300E+03
        -0.37300E+03
        -0.37300E+03
        -0.37300E+03
        -0.37300E+03
        -0.37300E+03
        -0.37300E+03
        -0.37300E+03
        -0.37300E+03
        -0.37300E+03
        -0.37300E+03
        -0.37300E+03
        -0.37300E+03
        -0.37300E+03
        -0.37300E+03
        -0.37300E+03
        -0.37300E+03
        -0.37300E+03
        -0.37300E+03
        -0.37300E+03
        -0.37300E+03
        -0.37300E+03
        -0.37300E+03
        -0.37300E+03
        -0.37300E+03
        -0.37300E+03
        -0.37300E+03
        -0.37300E+03
        -0.37300E+03
        -0.37300E+03
        -0.37300E+03
        -0.37300E+03
        -0.37300E+03
        -0.37300E+03
        -0.37300E+03
        -0.37300E+03
        -0.37300E+03
        -0.37300E+03
        -0.37300E+03
        -0.37300E+03
        -0.37300E+03
        -0.37300E+03
        -0.37300E+03
        -0.37300E+03
        -0.37300E+03
        -0.37300E+03
        -0.37300E+03
        -0.37300E+03
        -0.37300E+03
        -0.37300E+03
        -0.37300E+03
        -0.37300E+03
        -0.37300E+03
        -0.37300E+03
        -0.37300E+03
        -0.37300E+03
        -0.37300E+03
        -0.37300E+03
        -0.37300E+03
        -0.37300E+03
        -0.37300E+03
        -0.37300E+03
        -0.37300E+03
        -0.37300E+03
        -0.37300E+03
        -0.37300E+03
        -0.37300E+03
        -0.37300E+03
        -0.37300E+03
        -0.37300E+03
        -0.37300E+03
        -0.37300E+03
        -0.37300E+03
        -0.37300E+03
        -0.37300E+03
        -0.37300E+03
        -0.37300E+03
        -0.37300E+03
        -0.37300E+03
        -0.37300E+03
        -0.37300E+03
        -0.37300E+03
        -0.37300E+03
        -0.37300E+03
        -0.37300E+03
        -0.37300E+03
        -0.37300E+03
        -0.37300E+03
        -0.37300E+03
        -0.37300E+03
        -0.37300E+03
        -0.37300E+03
        -0.37300E+03
        -0.37300E+03
        -0.37300E+03
        -0.37300E+03
        -0.37300E+03
        -0.37300E+03
        -0.37300E+03
        -0.37300E+03
        -0.37300E+03
        -0.37300E+03
        -0.37300E+03
        -0.37300E+03
        -0.37300E+03
        -0.37300E+03
        -0.37300E+03
        -0.37300E+03
        -0.37300E+03
        -0.37300E+03
        -0.37300E+03
        -0.37300E+03
        -0.37300E+03
        -0.37300E+03
        -0.37300E+03
        -0.37300E+03
        -0.37300E+03
        -0.37300E+03
        -0.37300E+03
        -0.37300E+03
        -0.37300E+03
        -0.37300E+03
        -0.37300E+03
        -0.37300E+03
        -0.37300E+03
        -0.37300E+03
        -0.37300E+03
        -0.37300E+03
        -0.37300E+03
        -0.37300E+03
        -0.37300E+03
        -0.37300E+03
        -0.37300E+03
        -0.37300E+03
        -0.37300E+03
        -0.37300E+03
        -0.37300E+03
        -0.37300E+03
        -0.37300E+03
        -0.37300E+03
        -0.37300E+03
        -0.37300E+03
        -0.37300E+03
        -0.37300E+03
        -0.37300E+03
        -0.37300E+03
        -0.37300E+03
        -0.37300E+03
        -0.37300E+03
        -0.37300E+03
        -0.37300E+03
        -0.37300E+03
        -0.37300E+03
        -0.37300E+03
        -0.37300E+03
        -0.37300E+03
        -0.37300E+03
        -0.37300E+03
        -0.37300E+03
        -0.37300E+03
        -0.37300E+03
        -0.37300E+03
        -0.37300E+03
        -0.37300E+03
        -0.37300E+03
        -0.37300E+03
        -0.37300E+03
        -0.37300E+03
        -0.37300E+03
        -0.37300E+03
        -0.37300E+03
        -0.37300E+03
        -0.37300E+03
        -0.37300E+03
        -0.37300E+03
        -0.37300E+03
        -0.37300E+03
        -0.37300E+03
        -0.37300E+03
        -0.37300E+03
        -0.37300E+03
        -0.37300E+03
        -0.37300E+03
        -0.37300E+03
        -0.37300E+03
        -0.37300E+03
        -0.37300E+03
        -0.37300E+03
        -0.37300E+03
        -0.37300E+03
        -0.37300E+03
        -0.37300E+03
        -0.37300E+03
        -0.37300E+03
        -0.37300E+03
        -0.37300E+03
        -0.37300E+03
        -0.37300E+03
        -0.37300E+03
        -0.37300E+03
        -0.37300E+03
        -0.37300E+03
        -0.37300E+03
        -0.37300E+03
        -0.37300E+03
        -0.37300E+03
        -0.37300E+03
        -0.37300E+03
        -0.37300E+03
        -0.37300E+03
        -0.37300E+03
        -0.37300E+03
        -0.37300E+03
        -0.37300E+03
        -0.37300E+03
        -0.37300E+03
        -0.37300E+03
        -0.37300E+03
        -0.37300E+03
        -0.37300E+03
        -0.37300E+03
        -0.37300E+03
        -0.37300E+03
        -0.37300E+03
        -0.37300E+03
        -0.37300E+03
        -0.37300E+03
        -0.37300E+03
        -0.37300E+03
        -0.37300E+03
        -0.37300E+03
        -0.37300E+03
        -0.37300E+03
        -0.37300E+03
        -0.37300E+03
        -0.37300E+03
        -0.37300E+03
        -0.37300E+03
        -0.37300E+03
        -0.37300E+03
        -0.37300E+03
        -0.37300E+03
        -0.37300E+03
        -0.37300E+03
        -0.37300E+03
        -0.37300E+03
        -0.37300E+03
        -0.37300E+03
        -0.37300E+03
        -0.37300E+03
        -0.37300E+03
        -0.37300E+03
        -0.37300E+03
        -0.37300E+03
        -0.37300E+03
        -0.37300E+03
        -0.37300E+03
        -0.37300E+03
        -0.37300E+03
        -0.37300E+03
        -0.37300E+03
        -0.37300E+03
        -0.37300E+03
        -0.37300E+03
        -0.37300E+03
        -0.37300E+03
        -0.37300E+03
        -0.37300E+03
        -0.37300E+03
        -0.37300E+03
        -0.37300E+03
        -0.37300E+03
        -0.37300E+03
        -0.37300E+03
        -0.37300E+03
        -0.37300E+03
        -0.37300E+03
        -0.37300E+03
        -0.37300E+03
        -0.37300E+03
        -0.37300E+03
        -0.37300E+03
        -0.37300E+03
        -0.37300E+03
        -0.37300E+03
        -0.37300E+03
        -0.37300E+03
        -0.37300E+03
        -0.37300E+03
        -0.37300E+03
        -0.37300E+03
        -0.37300E+03
        -0.37300E+03
        -0.37300E+03
        -0.37300E+03
        -0.37300E+03
        -0.37300E+03
        -0.37300E+03
        -0.37300E+03
        -0.37300E+03
        -0.37300E+03
        -0.37300E+03
        -0.37300E+03
        -0.37300E+03
        -0.37300E+03
        -0.37300E+03
        -0.37300E+03
        -0.37300E+03
        -0.37300E+03
        -0.37300E+03
        -0.37300E+03
        -0.37300E+03
        -0.37300E+03
        -0.37300E+03
        -0.37300E+03
        -0.37300E+03
        -0.37300E+03
        -0.37300E+03
        -0.37300E+03
        -0.37300E+03
        -0.37300E+03
        -0.37300E+03
        -0.37300E+03
        -0.37300E+03
        -0.37300E+03
        -0.37300E+03
        -0.37300E+03
        -0.37300E+03
        -0.37300E+03
        -0.37300E+03
        -0.37300E+03
        -0.37300E+03
        -0.37300E+03
        -0.37300E+03
        -0.37300E+03
        -0.37300E+03
        -0.37300E+03
        -0.37300E+03
        -0.37300E+03
        -0.37300E+03
        -0.37300E+03
        -0.37300E+03
        -0.37300E+03
        -0.37300E+03
        -0.37300E+03
        -0.37300E+03
        -0.37300E+03
        -0.37300E+03
        -0.37300E+03
        -0.37300E+03
        -0.37300E+03
        -0.37300E+03
        -0.37300E+03
        -0.37300E+03
        -0.37300E+03
        -0.37300E+03
        -0.37300E+03
        -0.37300E+03
        -0.37300E+03
        -0.37300E+03
        -0.37300E+03
        -0.37300E+03
        -0.37300E+03
        -0.37300E+03
        -0.37300E+03
        -0.37300E+03
        -0.37300E+03
        -0.37300E+03
        -0.37300E+03
        -0.37300E+03
        -0.37300E+03
        -0.37300E+03
        -0.37300E+03
        -0.37300E+03
        -0.37300E+03
        -0.37300E+03
        -0.37300E+03
        -0.37300E+03
        -0.37300E+03
        -0.37300E+03
        -0.37300E+03
        -0.37300E+03
        -0.37300E+03
        -0.37300E+03
        -0.37300E+03
        -0.37300E+03
        -0.37300E+03
        -0.37300E+03
        -0.37300E+03
        -0.37300E+03
        -0.37300E+03
        -0.37300E+03
        -0.37300E+03
        -0.37300E+03
        -0.37300E+03
        -0.37300E+03
        -0.37300E+03
        -0.37300E+03
        -0.37300E+03
        -0.37300E+03
        -0.37300E+03
        -0.37300E+03
        -0.37300E+03
        -0.37300E+03
        -0.37300E+03
        -0.37300E+03
        -0.37300E+03
        -0.37300E+03
        -0.37300E+03
        -0.37300E+03
        -0.37300E+03
        -0.37300E+03
        -0.37300E+03
        -0.37300E+03
  
SCALARS                 acceleration_x  double 1
LOOKUP_TABLE default
         0.00000E+00
         0.00000E+00
         0.00000E+00
         0.00000E+00
         0.00000E+00
         0.00000E+00
         0.00000E+00
         0.00000E+00
         0.00000E+00
         0.00000E+00
         0.00000E+00
         0.00000E+00
         0.00000E+00
         0.00000E+00
         0.00000E+00
         0.00000E+00
         0.00000E+00
         0.00000E+00
         0.00000E+00
         0.00000E+00
         0.00000E+00
         0.00000E+00
         0.00000E+00
         0.00000E+00
         0.00000E+00
         0.00000E+00
         0.00000E+00
         0.00000E+00
         0.00000E+00
         0.00000E+00
         0.00000E+00
         0.00000E+00
         0.00000E+00
         0.00000E+00
         0.00000E+00
         0.00000E+00
         0.00000E+00
         0.00000E+00
         0.00000E+00
         0.00000E+00
         0.00000E+00
         0.00000E+00
         0.00000E+00
         0.00000E+00
         0.00000E+00
         0.00000E+00
         0.00000E+00
         0.00000E+00
         0.00000E+00
         0.00000E+00
         0.00000E+00
         0.00000E+00
         0.00000E+00
         0.00000E+00
         0.00000E+00
         0.00000E+00
         0.00000E+00
         0.00000E+00
         0.00000E+00
         0.00000E+00
         0.00000E+00
         0.00000E+00
         0.00000E+00
         0.00000E+00
         0.00000E+00
         0.00000E+00
         0.00000E+00
         0.00000E+00
         0.00000E+00
         0.00000E+00
         0.00000E+00
         0.00000E+00
         0.00000E+00
         0.00000E+00
         0.00000E+00
         0.00000E+00
         0.00000E+00
         0.00000E+00
         0.00000E+00
         0.00000E+00
         0.00000E+00
         0.00000E+00
         0.00000E+00
         0.00000E+00
         0.00000E+00
         0.00000E+00
         0.00000E+00
         0.00000E+00
         0.00000E+00
         0.00000E+00
         0.00000E+00
         0.00000E+00
         0.00000E+00
         0.00000E+00
         0.00000E+00
         0.00000E+00
         0.00000E+00
         0.00000E+00
         0.00000E+00
         0.00000E+00
         0.00000E+00
         0.00000E+00
         0.00000E+00
         0.00000E+00
         0.00000E+00
         0.00000E+00
         0.00000E+00
         0.00000E+00
         0.00000E+00
         0.00000E+00
         0.00000E+00
         0.00000E+00
         0.00000E+00
         0.00000E+00
         0.00000E+00
         0.00000E+00
         0.00000E+00
         0.00000E+00
         0.00000E+00
         0.00000E+00
         0.00000E+00
         0.00000E+00
         0.00000E+00
         0.00000E+00
         0.00000E+00
         0.00000E+00
         0.00000E+00
         0.00000E+00
         0.00000E+00
         0.00000E+00
         0.00000E+00
         0.00000E+00
         0.00000E+00
         0.00000E+00
         0.00000E+00
         0.00000E+00
         0.00000E+00
         0.00000E+00
         0.00000E+00
         0.00000E+00
         0.00000E+00
         0.00000E+00
         0.00000E+00
         0.00000E+00
         0.00000E+00
         0.00000E+00
         0.00000E+00
         0.00000E+00
         0.00000E+00
         0.00000E+00
         0.00000E+00
         0.00000E+00
         0.00000E+00
         0.00000E+00
         0.00000E+00
         0.00000E+00
         0.00000E+00
         0.00000E+00
         0.00000E+00
         0.00000E+00
         0.00000E+00
         0.00000E+00
         0.00000E+00
         0.00000E+00
         0.00000E+00
         0.00000E+00
         0.00000E+00
         0.00000E+00
         0.00000E+00
         0.00000E+00
         0.00000E+00
         0.00000E+00
         0.00000E+00
         0.00000E+00
         0.00000E+00
         0.00000E+00
         0.00000E+00
         0.00000E+00
         0.00000E+00
         0.00000E+00
         0.00000E+00
         0.00000E+00
         0.00000E+00
         0.00000E+00
         0.00000E+00
         0.00000E+00
         0.00000E+00
         0.00000E+00
         0.00000E+00
         0.00000E+00
         0.00000E+00
         0.00000E+00
         0.00000E+00
         0.00000E+00
         0.00000E+00
         0.00000E+00
         0.00000E+00
         0.00000E+00
         0.00000E+00
         0.00000E+00
         0.00000E+00
         0.00000E+00
         0.00000E+00
         0.00000E+00
         0.00000E+00
         0.00000E+00
         0.00000E+00
         0.00000E+00
         0.00000E+00
         0.00000E+00
         0.00000E+00
         0.00000E+00
         0.00000E+00
         0.00000E+00
         0.00000E+00
         0.00000E+00
         0.00000E+00
         0.00000E+00
         0.00000E+00
         0.00000E+00
         0.00000E+00
         0.00000E+00
         0.00000E+00
         0.00000E+00
         0.00000E+00
         0.00000E+00
         0.00000E+00
         0.00000E+00
         0.00000E+00
         0.00000E+00
         0.00000E+00
         0.00000E+00
         0.00000E+00
         0.00000E+00
         0.00000E+00
         0.00000E+00
         0.00000E+00
         0.00000E+00
         0.00000E+00
         0.00000E+00
         0.00000E+00
         0.00000E+00
         0.00000E+00
         0.00000E+00
         0.00000E+00
         0.00000E+00
         0.00000E+00
         0.00000E+00
         0.00000E+00
         0.00000E+00
         0.00000E+00
         0.00000E+00
         0.00000E+00
         0.00000E+00
         0.00000E+00
         0.00000E+00
         0.00000E+00
         0.00000E+00
         0.00000E+00
         0.00000E+00
         0.00000E+00
         0.00000E+00
         0.00000E+00
         0.00000E+00
         0.00000E+00
         0.00000E+00
         0.00000E+00
         0.00000E+00
         0.00000E+00
         0.00000E+00
         0.00000E+00
         0.00000E+00
         0.00000E+00
         0.00000E+00
         0.00000E+00
         0.00000E+00
         0.00000E+00
         0.00000E+00
         0.00000E+00
         0.00000E+00
         0.00000E+00
         0.00000E+00
         0.00000E+00
         0.00000E+00
         0.00000E+00
         0.00000E+00
         0.00000E+00
         0.00000E+00
         0.00000E+00
         0.00000E+00
         0.00000E+00
         0.00000E+00
         0.00000E+00
         0.00000E+00
         0.00000E+00
         0.00000E+00
         0.00000E+00
         0.00000E+00
         0.00000E+00
         0.00000E+00
         0.00000E+00
         0.00000E+00
         0.00000E+00
         0.00000E+00
         0.00000E+00
         0.00000E+00
         0.00000E+00
         0.00000E+00
         0.00000E+00
         0.00000E+00
         0.00000E+00
         0.00000E+00
         0.00000E+00
         0.00000E+00
         0.00000E+00
         0.00000E+00
         0.00000E+00
         0.00000E+00
         0.00000E+00
         0.00000E+00
         0.00000E+00
         0.00000E+00
         0.00000E+00
         0.00000E+00
         0.00000E+00
         0.00000E+00
         0.00000E+00
         0.00000E+00
         0.00000E+00
         0.00000E+00
         0.00000E+00
         0.00000E+00
         0.00000E+00
         0.00000E+00
         0.00000E+00
         0.00000E+00
         0.00000E+00
         0.00000E+00
         0.00000E+00
         0.00000E+00
         0.00000E+00
         0.00000E+00
         0.00000E+00
         0.00000E+00
         0.00000E+00
         0.00000E+00
         0.00000E+00
         0.00000E+00
         0.00000E+00
         0.00000E+00
         0.00000E+00
         0.00000E+00
         0.00000E+00
         0.00000E+00
         0.00000E+00
         0.00000E+00
         0.00000E+00
         0.00000E+00
         0.00000E+00
         0.00000E+00
         0.00000E+00
         0.00000E+00
         0.00000E+00
         0.00000E+00
         0.00000E+00
         0.00000E+00
         0.00000E+00
         0.00000E+00
         0.00000E+00
         0.00000E+00
         0.00000E+00
         0.00000E+00
         0.00000E+00
         0.00000E+00
         0.00000E+00
         0.00000E+00
         0.00000E+00
         0.00000E+00
         0.00000E+00
         0.00000E+00
         0.00000E+00
         0.00000E+00
         0.00000E+00
         0.00000E+00
         0.00000E+00
         0.00000E+00
         0.00000E+00
         0.00000E+00
         0.00000E+00
         0.00000E+00
         0.00000E+00
         0.00000E+00
         0.00000E+00
         0.00000E+00
         0.00000E+00
         0.00000E+00
         0.00000E+00
         0.00000E+00
         0.00000E+00
         0.00000E+00
         0.00000E+00
         0.00000E+00
         0.00000E+00
         0.00000E+00
         0.00000E+00
         0.00000E+00
         0.00000E+00
         0.00000E+00
         0.00000E+00
         0.00000E+00
         0.00000E+00
         0.00000E+00
         0.00000E+00
         0.00000E+00
         0.00000E+00
         0.00000E+00
         0.00000E+00
         0.00000E+00
         0.00000E+00
         0.00000E+00
         0.00000E+00
         0.00000E+00
         0.00000E+00
         0.00000E+00
         0.00000E+00
         0.00000E+00
         0.00000E+00
         0.00000E+00
         0.00000E+00
         0.00000E+00
         0.00000E+00
         0.00000E+00
         0.00000E+00
         0.00000E+00
         0.00000E+00
         0.00000E+00
         0.00000E+00
         0.00000E+00
         0.00000E+00
         0.00000E+00
         0.00000E+00
         0.00000E+00
         0.00000E+00
         0.00000E+00
         0.00000E+00
         0.00000E+00
         0.00000E+00
         0.00000E+00
         0.00000E+00
         0.00000E+00
         0.00000E+00
         0.00000E+00
         0.00000E+00
         0.00000E+00
         0.00000E+00
         0.00000E+00
         0.00000E+00
         0.00000E+00
         0.00000E+00
         0.00000E+00
         0.00000E+00
         0.00000E+00
         0.00000E+00
         0.00000E+00
         0.00000E+00
         0.00000E+00
         0.00000E+00
         0.00000E+00
         0.00000E+00
         0.00000E+00
         0.00000E+00
         0.00000E+00
         0.00000E+00
         0.00000E+00
         0.00000E+00
         0.00000E+00
         0.00000E+00
         0.00000E+00
         0.00000E+00
         0.00000E+00
         0.00000E+00
         0.00000E+00
         0.00000E+00
         0.00000E+00
         0.00000E+00
         0.00000E+00
         0.00000E+00
         0.00000E+00
         0.00000E+00
         0.00000E+00
         0.00000E+00
         0.00000E+00
         0.00000E+00
         0.00000E+00
         0.00000E+00
         0.00000E+00
         0.00000E+00
         0.00000E+00
         0.00000E+00
         0.00000E+00
         0.00000E+00
         0.00000E+00
         0.00000E+00
         0.00000E+00
         0.00000E+00
         0.00000E+00
         0.00000E+00
         0.00000E+00
         0.00000E+00
         0.00000E+00
         0.00000E+00
         0.00000E+00
         0.00000E+00
         0.00000E+00
         0.00000E+00
         0.00000E+00
         0.00000E+00
         0.00000E+00
         0.00000E+00
         0.00000E+00
         0.00000E+00
         0.00000E+00
         0.00000E+00
         0.00000E+00
         0.00000E+00
         0.00000E+00
         0.00000E+00
         0.00000E+00
         0.00000E+00
         0.00000E+00
         0.00000E+00
         0.00000E+00
         0.00000E+00
         0.00000E+00
         0.00000E+00
         0.00000E+00
         0.00000E+00
         0.00000E+00
         0.00000E+00
         0.00000E+00
         0.00000E+00
         0.00000E+00
         0.00000E+00
         0.00000E+00
         0.00000E+00
         0.00000E+00
         0.00000E+00
         0.00000E+00
         0.00000E+00
         0.00000E+00
         0.00000E+00
         0.00000E+00
         0.00000E+00
         0.00000E+00
         0.00000E+00
         0.00000E+00
         0.00000E+00
         0.00000E+00
         0.00000E+00
         0.00000E+00
         0.00000E+00
         0.00000E+00
         0.00000E+00
         0.00000E+00
         0.00000E+00
         0.00000E+00
         0.00000E+00
         0.00000E+00
         0.00000E+00
         0.00000E+00
         0.00000E+00
         0.00000E+00
         0.00000E+00
         0.00000E+00
         0.00000E+00
         0.00000E+00
         0.00000E+00
         0.00000E+00
         0.00000E+00
         0.00000E+00
         0.00000E+00
         0.00000E+00
         0.00000E+00
         0.00000E+00
         0.00000E+00
         0.00000E+00
         0.00000E+00
         0.00000E+00
         0.00000E+00
         0.00000E+00
         0.00000E+00
         0.00000E+00
         0.00000E+00
         0.00000E+00
         0.00000E+00
         0.00000E+00
         0.00000E+00
         0.00000E+00
         0.00000E+00
         0.00000E+00
         0.00000E+00
         0.00000E+00
         0.00000E+00
         0.00000E+00
         0.00000E+00
         0.00000E+00
         0.00000E+00
         0.00000E+00
         0.00000E+00
         0.00000E+00
         0.00000E+00
         0.00000E+00
         0.00000E+00
         0.00000E+00
         0.00000E+00
         0.00000E+00
         0.00000E+00
         0.00000E+00
         0.00000E+00
         0.00000E+00
         0.00000E+00
         0.00000E+00
         0.00000E+00
         0.00000E+00
         0.00000E+00
         0.00000E+00
         0.00000E+00
         0.00000E+00
         0.00000E+00
         0.00000E+00
         0.00000E+00
         0.00000E+00
         0.00000E+00
         0.00000E+00
         0.00000E+00
         0.00000E+00
         0.00000E+00
         0.00000E+00
         0.00000E+00
         0.00000E+00
         0.00000E+00
         0.00000E+00
         0.00000E+00
         0.00000E+00
         0.00000E+00
         0.00000E+00
         0.00000E+00
         0.00000E+00
         0.00000E+00
         0.00000E+00
         0.00000E+00
         0.00000E+00
         0.00000E+00
         0.00000E+00
         0.00000E+00
         0.00000E+00
         0.00000E+00
         0.00000E+00
         0.00000E+00
         0.00000E+00
         0.00000E+00
         0.00000E+00
         0.00000E+00
         0.00000E+00
         0.00000E+00
         0.00000E+00
         0.00000E+00
         0.00000E+00
         0.00000E+00
         0.00000E+00
         0.00000E+00
         0.00000E+00
         0.00000E+00
         0.00000E+00
         0.00000E+00
         0.00000E+00
         0.00000E+00
         0.00000E+00
         0.00000E+00
         0.00000E+00
         0.00000E+00
         0.00000E+00
         0.00000E+00
         0.00000E+00
         0.00000E+00
         0.00000E+00
         0.00000E+00
         0.00000E+00
         0.00000E+00
         0.00000E+00
         0.00000E+00
         0.00000E+00
         0.00000E+00
         0.00000E+00
         0.00000E+00
         0.00000E+00
         0.00000E+00
         0.00000E+00
         0.00000E+00
         0.00000E+00
         0.00000E+00
         0.00000E+00
         0.00000E+00
         0.00000E+00
         0.00000E+00
         0.00000E+00
         0.00000E+00
         0.00000E+00
         0.00000E+00
         0.00000E+00
         0.00000E+00
         0.00000E+00
         0.00000E+00
         0.00000E+00
         0.00000E+00
         0.00000E+00
         0.00000E+00
         0.00000E+00
         0.00000E+00
         0.00000E+00
         0.00000E+00
         0.00000E+00
         0.00000E+00
         0.00000E+00
         0.00000E+00
         0.00000E+00
         0.00000E+00
         0.00000E+00
         0.00000E+00
         0.00000E+00
         0.00000E+00
         0.00000E+00
         0.00000E+00
         0.00000E+00
         0.00000E+00
         0.00000E+00
         0.00000E+00
         0.00000E+00
         0.00000E+00
         0.00000E+00
         0.00000E+00
         0.00000E+00
         0.00000E+00
         0.00000E+00
         0.00000E+00
         0.00000E+00
         0.00000E+00
         0.00000E+00
         0.00000E+00
         0.00000E+00
         0.00000E+00
         0.00000E+00
         0.00000E+00
         0.00000E+00
         0.00000E+00
         0.00000E+00
         0.00000E+00
         0.00000E+00
         0.00000E+00
         0.00000E+00
         0.00000E+00
         0.00000E+00
         0.00000E+00
         0.00000E+00
         0.00000E+00
         0.00000E+00
         0.00000E+00
         0.00000E+00
         0.00000E+00
         0.00000E+00
         0.00000E+00
         0.00000E+00
         0.00000E+00
         0.00000E+00
         0.00000E+00
         0.00000E+00
         0.00000E+00
         0.00000E+00
         0.00000E+00
         0.00000E+00
         0.00000E+00
         0.00000E+00
         0.00000E+00
         0.00000E+00
         0.00000E+00
         0.00000E+00
         0.00000E+00
         0.00000E+00
         0.00000E+00
         0.00000E+00
         0.00000E+00
         0.00000E+00
         0.00000E+00
         0.00000E+00
         0.00000E+00
         0.00000E+00
         0.00000E+00
         0.00000E+00
         0.00000E+00
         0.00000E+00
         0.00000E+00
         0.00000E+00
         0.00000E+00
         0.00000E+00
         0.00000E+00
         0.00000E+00
         0.00000E+00
         0.00000E+00
         0.00000E+00
         0.00000E+00
         0.00000E+00
         0.00000E+00
         0.00000E+00
         0.00000E+00
         0.00000E+00
         0.00000E+00
         0.00000E+00
         0.00000E+00
         0.00000E+00
         0.00000E+00
         0.00000E+00
         0.00000E+00
         0.00000E+00
         0.00000E+00
         0.00000E+00
         0.00000E+00
         0.00000E+00
         0.00000E+00
         0.00000E+00
         0.00000E+00
         0.00000E+00
         0.00000E+00
         0.00000E+00
         0.00000E+00
         0.00000E+00
         0.00000E+00
         0.00000E+00
         0.00000E+00
         0.00000E+00
         0.00000E+00
         0.00000E+00
         0.00000E+00
         0.00000E+00
         0.00000E+00
         0.00000E+00
         0.00000E+00
         0.00000E+00
         0.00000E+00
         0.00000E+00
         0.00000E+00
         0.00000E+00
         0.00000E+00
         0.00000E+00
         0.00000E+00
         0.00000E+00
         0.00000E+00
         0.00000E+00
         0.00000E+00
         0.00000E+00
         0.00000E+00
         0.00000E+00
         0.00000E+00
         0.00000E+00
         0.00000E+00
         0.00000E+00
         0.00000E+00
         0.00000E+00
         0.00000E+00
         0.00000E+00
         0.00000E+00
         0.00000E+00
         0.00000E+00
         0.00000E+00
         0.00000E+00
         0.00000E+00
         0.00000E+00
         0.00000E+00
         0.00000E+00
         0.00000E+00
         0.00000E+00
         0.00000E+00
         0.00000E+00
         0.00000E+00
         0.00000E+00
         0.00000E+00
         0.00000E+00
         0.00000E+00
         0.00000E+00
         0.00000E+00
         0.00000E+00
         0.00000E+00
         0.00000E+00
         0.00000E+00
         0.00000E+00
         0.00000E+00
         0.00000E+00
         0.00000E+00
         0.00000E+00
         0.00000E+00
         0.00000E+00
         0.00000E+00
         0.00000E+00
         0.00000E+00
         0.00000E+00
         0.00000E+00
         0.00000E+00
         0.00000E+00
         0.00000E+00
         0.00000E+00
         0.00000E+00
         0.00000E+00
         0.00000E+00
         0.00000E+00
         0.00000E+00
         0.00000E+00
         0.00000E+00
         0.00000E+00
         0.00000E+00
         0.00000E+00
         0.00000E+00
         0.00000E+00
         0.00000E+00
         0.00000E+00
         0.00000E+00
         0.00000E+00
         0.00000E+00
         0.00000E+00
         0.00000E+00
         0.00000E+00
         0.00000E+00
         0.00000E+00
         0.00000E+00
         0.00000E+00
         0.00000E+00
         0.00000E+00
         0.00000E+00
         0.00000E+00
         0.00000E+00
         0.00000E+00
         0.00000E+00
         0.00000E+00
         0.00000E+00
         0.00000E+00
         0.00000E+00
         0.00000E+00
         0.00000E+00
         0.00000E+00
         0.00000E+00
         0.00000E+00
         0.00000E+00
         0.00000E+00
         0.00000E+00
         0.00000E+00
         0.00000E+00
         0.00000E+00
         0.00000E+00
         0.00000E+00
         0.00000E+00
         0.00000E+00
         0.00000E+00
         0.00000E+00
         0.00000E+00
         0.00000E+00
         0.00000E+00
         0.00000E+00
         0.00000E+00
         0.00000E+00
         0.00000E+00
         0.00000E+00
         0.00000E+00
         0.00000E+00
         0.00000E+00
         0.00000E+00
         0.00000E+00
         0.00000E+00
         0.00000E+00
         0.00000E+00
         0.00000E+00
         0.00000E+00
         0.00000E+00
         0.00000E+00
         0.00000E+00
         0.00000E+00
         0.00000E+00
         0.00000E+00
         0.00000E+00
         0.00000E+00
         0.00000E+00
         0.00000E+00
         0.00000E+00
         0.00000E+00
         0.00000E+00
         0.00000E+00
         0.00000E+00
         0.00000E+00
         0.00000E+00
         0.00000E+00
         0.00000E+00
         0.00000E+00
         0.00000E+00
         0.00000E+00
         0.00000E+00
         0.00000E+00
         0.00000E+00
         0.00000E+00
         0.00000E+00
         0.00000E+00
         0.00000E+00
         0.00000E+00
         0.00000E+00
         0.00000E+00
         0.00000E+00
         0.00000E+00
         0.00000E+00
         0.00000E+00
         0.00000E+00
         0.00000E+00
         0.00000E+00
         0.00000E+00
         0.00000E+00
         0.00000E+00
         0.00000E+00
         0.00000E+00
         0.00000E+00
         0.00000E+00
         0.00000E+00
         0.00000E+00
         0.00000E+00
         0.00000E+00
         0.00000E+00
         0.00000E+00
         0.00000E+00
         0.00000E+00
         0.00000E+00
         0.00000E+00
         0.00000E+00
         0.00000E+00
         0.00000E+00
         0.00000E+00
         0.00000E+00
         0.00000E+00
         0.00000E+00
         0.00000E+00
         0.00000E+00
         0.00000E+00
         0.00000E+00
         0.00000E+00
         0.00000E+00
         0.00000E+00
         0.00000E+00
         0.00000E+00
         0.00000E+00
         0.00000E+00
         0.00000E+00
         0.00000E+00
         0.00000E+00
         0.00000E+00
         0.00000E+00
         0.00000E+00
         0.00000E+00
         0.00000E+00
         0.00000E+00
         0.00000E+00
         0.00000E+00
         0.00000E+00
         0.00000E+00
         0.00000E+00
         0.00000E+00
         0.00000E+00
         0.00000E+00
         0.00000E+00
         0.00000E+00
         0.00000E+00
         0.00000E+00
         0.00000E+00
         0.00000E+00
         0.00000E+00
         0.00000E+00
         0.00000E+00
         0.00000E+00
         0.00000E+00
         0.00000E+00
         0.00000E+00
         0.00000E+00
         0.00000E+00
         0.00000E+00
         0.00000E+00
         0.00000E+00
         0.00000E+00
         0.00000E+00
         0.00000E+00
         0.00000E+00
         0.00000E+00
         0.00000E+00
         0.00000E+00
         0.00000E+00
         0.00000E+00
         0.00000E+00
         0.00000E+00
         0.00000E+00
         0.00000E+00
         0.00000E+00
         0.00000E+00
         0.00000E+00
         0.00000E+00
         0.00000E+00
         0.00000E+00
         0.00000E+00
         0.00000E+00
         0.00000E+00
         0.00000E+00
         0.00000E+00
         0.00000E+00
         0.00000E+00
         0.00000E+00
         0.00000E+00
         0.00000E+00
         0.00000E+00
         0.00000E+00
         0.00000E+00
         0.00000E+00
         0.00000E+00
         0.00000E+00
         0.00000E+00
         0.00000E+00
         0.00000E+00
         0.00000E+00
         0.00000E+00
         0.00000E+00
         0.00000E+00
         0.00000E+00
         0.00000E+00
         0.00000E+00
         0.00000E+00
         0.00000E+00
         0.00000E+00
         0.00000E+00
         0.00000E+00
         0.00000E+00
         0.00000E+00
         0.00000E+00
         0.00000E+00
         0.00000E+00
         0.00000E+00
         0.00000E+00
         0.00000E+00
         0.00000E+00
         0.00000E+00
         0.00000E+00
         0.00000E+00
         0.00000E+00
         0.00000E+00
         0.00000E+00
         0.00000E+00
         0.00000E+00
         0.00000E+00
         0.00000E+00
         0.00000E+00
         0.00000E+00
         0.00000E+00
         0.00000E+00
         0.00000E+00
         0.00000E+00
         0.00000E+00
         0.00000E+00
         0.00000E+00
         0.00000E+00
         0.00000E+00
         0.00000E+00
         0.00000E+00
         0.00000E+00
         0.00000E+00
         0.00000E+00
         0.00000E+00
         0.00000E+00
         0.00000E+00
         0.00000E+00
         0.00000E+00
         0.00000E+00
         0.00000E+00
         0.00000E+00
         0.00000E+00
         0.00000E+00
         0.00000E+00
         0.00000E+00
         0.00000E+00
         0.00000E+00
         0.00000E+00
         0.00000E+00
         0.00000E+00
         0.00000E+00
         0.00000E+00
         0.00000E+00
         0.00000E+00
         0.00000E+00
         0.00000E+00
         0.00000E+00
         0.00000E+00
         0.00000E+00
         0.00000E+00
         0.00000E+00
         0.00000E+00
         0.00000E+00
         0.00000E+00
         0.00000E+00
         0.00000E+00
         0.00000E+00
         0.00000E+00
         0.00000E+00
         0.00000E+00
         0.00000E+00
         0.00000E+00
         0.00000E+00
         0.00000E+00
         0.00000E+00
         0.00000E+00
         0.00000E+00
         0.00000E+00
         0.00000E+00
         0.00000E+00
         0.00000E+00
         0.00000E+00
         0.00000E+00
         0.00000E+00
         0.00000E+00
         0.00000E+00
         0.00000E+00
         0.00000E+00
         0.00000E+00
         0.00000E+00
         0.00000E+00
         0.00000E+00
         0.00000E+00
         0.00000E+00
         0.00000E+00
         0.00000E+00
         0.00000E+00
         0.00000E+00
         0.00000E+00
         0.00000E+00
         0.00000E+00
         0.00000E+00
         0.00000E+00
         0.00000E+00
         0.00000E+00
         0.00000E+00
         0.00000E+00
         0.00000E+00
         0.00000E+00
         0.00000E+00
         0.00000E+00
         0.00000E+00
         0.00000E+00
         0.00000E+00
         0.00000E+00
         0.00000E+00
         0.00000E+00
         0.00000E+00
         0.00000E+00
         0.00000E+00
         0.00000E+00
         0.00000E+00
         0.00000E+00
         0.00000E+00
         0.00000E+00
         0.00000E+00
         0.00000E+00
         0.00000E+00
         0.00000E+00
         0.00000E+00
         0.00000E+00
         0.00000E+00
         0.00000E+00
         0.00000E+00
         0.00000E+00
         0.00000E+00
         0.00000E+00
         0.00000E+00
         0.00000E+00
         0.00000E+00
         0.00000E+00
         0.00000E+00
         0.00000E+00
         0.00000E+00
         0.00000E+00
         0.00000E+00
         0.00000E+00
         0.00000E+00
         0.00000E+00
         0.00000E+00
         0.00000E+00
         0.00000E+00
         0.00000E+00
         0.00000E+00
         0.00000E+00
         0.00000E+00
         0.00000E+00
         0.00000E+00
         0.00000E+00
         0.00000E+00
         0.00000E+00
         0.00000E+00
         0.00000E+00
         0.00000E+00
         0.00000E+00
         0.00000E+00
         0.00000E+00
         0.00000E+00
         0.00000E+00
         0.00000E+00
         0.00000E+00
         0.00000E+00
         0.00000E+00
         0.00000E+00
         0.00000E+00
         0.00000E+00
         0.00000E+00
         0.00000E+00
         0.00000E+00
         0.00000E+00
         0.00000E+00
         0.00000E+00
         0.00000E+00
         0.00000E+00
         0.00000E+00
         0.00000E+00
         0.00000E+00
         0.00000E+00
         0.00000E+00
         0.00000E+00
         0.00000E+00
         0.00000E+00
         0.00000E+00
         0.00000E+00
         0.00000E+00
         0.00000E+00
         0.00000E+00
         0.00000E+00
         0.00000E+00
         0.00000E+00
         0.00000E+00
         0.00000E+00
         0.00000E+00
         0.00000E+00
         0.00000E+00
         0.00000E+00
         0.00000E+00
         0.00000E+00
         0.00000E+00
         0.00000E+00
         0.00000E+00
         0.00000E+00
         0.00000E+00
         0.00000E+00
         0.00000E+00
         0.00000E+00
         0.00000E+00
         0.00000E+00
         0.00000E+00
         0.00000E+00
         0.00000E+00
         0.00000E+00
         0.00000E+00
         0.00000E+00
         0.00000E+00
         0.00000E+00
         0.00000E+00
         0.00000E+00
         0.00000E+00
         0.00000E+00
         0.00000E+00
         0.00000E+00
         0.00000E+00
         0.00000E+00
         0.00000E+00
         0.00000E+00
         0.00000E+00
         0.00000E+00
         0.00000E+00
         0.00000E+00
         0.00000E+00
         0.00000E+00
         0.00000E+00
         0.00000E+00
         0.00000E+00
         0.00000E+00
         0.00000E+00
         0.00000E+00
         0.00000E+00
         0.00000E+00
         0.00000E+00
         0.00000E+00
         0.00000E+00
         0.00000E+00
         0.00000E+00
         0.00000E+00
         0.00000E+00
         0.00000E+00
         0.00000E+00
         0.00000E+00
         0.00000E+00
         0.00000E+00
         0.00000E+00
         0.00000E+00
         0.00000E+00
         0.00000E+00
         0.00000E+00
         0.00000E+00
         0.00000E+00
         0.00000E+00
         0.00000E+00
         0.00000E+00
         0.00000E+00
         0.00000E+00
         0.00000E+00
         0.00000E+00
         0.00000E+00
         0.00000E+00
         0.00000E+00
         0.00000E+00
         0.00000E+00
         0.00000E+00
         0.00000E+00
         0.00000E+00
         0.00000E+00
         0.00000E+00
         0.00000E+00
         0.00000E+00
         0.00000E+00
         0.00000E+00
         0.00000E+00
         0.00000E+00
         0.00000E+00
         0.00000E+00
         0.00000E+00
         0.00000E+00
         0.00000E+00
         0.00000E+00
         0.00000E+00
         0.00000E+00
         0.00000E+00
         0.00000E+00
         0.00000E+00
         0.00000E+00
         0.00000E+00
         0.00000E+00
         0.00000E+00
         0.00000E+00
         0.00000E+00
         0.00000E+00
         0.00000E+00
         0.00000E+00
         0.00000E+00
         0.00000E+00
         0.00000E+00
         0.00000E+00
         0.00000E+00
         0.00000E+00
         0.00000E+00
         0.00000E+00
         0.00000E+00
         0.00000E+00
         0.00000E+00
         0.00000E+00
         0.00000E+00
         0.00000E+00
         0.00000E+00
         0.00000E+00
         0.00000E+00
         0.00000E+00
         0.00000E+00
         0.00000E+00
         0.00000E+00
         0.00000E+00
         0.00000E+00
         0.00000E+00
         0.00000E+00
         0.00000E+00
         0.00000E+00
         0.00000E+00
         0.00000E+00
         0.00000E+00
         0.00000E+00
         0.00000E+00
         0.00000E+00
         0.00000E+00
         0.00000E+00
         0.00000E+00
         0.00000E+00
         0.00000E+00
         0.00000E+00
         0.00000E+00
         0.00000E+00
         0.00000E+00
         0.00000E+00
         0.00000E+00
         0.00000E+00
         0.00000E+00
         0.00000E+00
         0.00000E+00
         0.00000E+00
         0.00000E+00
         0.00000E+00
         0.00000E+00
         0.00000E+00
         0.00000E+00
         0.00000E+00
         0.00000E+00
         0.00000E+00
         0.00000E+00
         0.00000E+00
         0.00000E+00
         0.00000E+00
         0.00000E+00
         0.00000E+00
         0.00000E+00
         0.00000E+00
         0.00000E+00
         0.00000E+00
         0.00000E+00
         0.00000E+00
         0.00000E+00
         0.00000E+00
         0.00000E+00
         0.00000E+00
         0.00000E+00
         0.00000E+00
         0.00000E+00
         0.00000E+00
         0.00000E+00
         0.00000E+00
         0.00000E+00
         0.00000E+00
         0.00000E+00
         0.00000E+00
         0.00000E+00
         0.00000E+00
         0.00000E+00
         0.00000E+00
         0.00000E+00
         0.00000E+00
         0.00000E+00
         0.00000E+00
         0.00000E+00
         0.00000E+00
         0.00000E+00
         0.00000E+00
         0.00000E+00
         0.00000E+00
         0.00000E+00
         0.00000E+00
         0.00000E+00
         0.00000E+00
         0.00000E+00
         0.00000E+00
         0.00000E+00
         0.00000E+00
         0.00000E+00
         0.00000E+00
         0.00000E+00
         0.00000E+00
         0.00000E+00
         0.00000E+00
         0.00000E+00
         0.00000E+00
         0.00000E+00
         0.00000E+00
         0.00000E+00
         0.00000E+00
         0.00000E+00
         0.00000E+00
         0.00000E+00
         0.00000E+00
         0.00000E+00
         0.00000E+00
         0.00000E+00
         0.00000E+00
         0.00000E+00
         0.00000E+00
         0.00000E+00
         0.00000E+00
         0.00000E+00
         0.00000E+00
         0.00000E+00
         0.00000E+00
         0.00000E+00
         0.00000E+00
         0.00000E+00
         0.00000E+00
         0.00000E+00
         0.00000E+00
         0.00000E+00
         0.00000E+00
         0.00000E+00
         0.00000E+00
         0.00000E+00
         0.00000E+00
         0.00000E+00
         0.00000E+00
         0.00000E+00
         0.00000E+00
         0.00000E+00
         0.00000E+00
         0.00000E+00
         0.00000E+00
         0.00000E+00
         0.00000E+00
         0.00000E+00
         0.00000E+00
         0.00000E+00
         0.00000E+00
         0.00000E+00
         0.00000E+00
         0.00000E+00
         0.00000E+00
         0.00000E+00
         0.00000E+00
         0.00000E+00
         0.00000E+00
         0.00000E+00
         0.00000E+00
         0.00000E+00
         0.00000E+00
         0.00000E+00
         0.00000E+00
         0.00000E+00
         0.00000E+00
         0.00000E+00
         0.00000E+00
         0.00000E+00
         0.00000E+00
         0.00000E+00
         0.00000E+00
         0.00000E+00
         0.00000E+00
         0.00000E+00
         0.00000E+00
         0.00000E+00
         0.00000E+00
         0.00000E+00
         0.00000E+00
         0.00000E+00
         0.00000E+00
         0.00000E+00
         0.00000E+00
         0.00000E+00
         0.00000E+00
         0.00000E+00
         0.00000E+00
         0.00000E+00
         0.00000E+00
         0.00000E+00
         0.00000E+00
         0.00000E+00
         0.00000E+00
         0.00000E+00
         0.00000E+00
         0.00000E+00
         0.00000E+00
         0.00000E+00
         0.00000E+00
         0.00000E+00
         0.00000E+00
         0.00000E+00
         0.00000E+00
         0.00000E+00
         0.00000E+00
         0.00000E+00
         0.00000E+00
         0.00000E+00
         0.00000E+00
         0.00000E+00
         0.00000E+00
         0.00000E+00
         0.00000E+00
         0.00000E+00
         0.00000E+00
         0.00000E+00
         0.00000E+00
         0.00000E+00
         0.00000E+00
         0.00000E+00
         0.00000E+00
         0.00000E+00
         0.00000E+00
         0.00000E+00
         0.00000E+00
         0.00000E+00
         0.00000E+00
         0.00000E+00
         0.00000E+00
         0.00000E+00
         0.00000E+00
         0.00000E+00
         0.00000E+00
         0.00000E+00
         0.00000E+00
         0.00000E+00
         0.00000E+00
         0.00000E+00
         0.00000E+00
         0.00000E+00
         0.00000E+00
         0.00000E+00
         0.00000E+00
         0.00000E+00
         0.00000E+00
         0.00000E+00
         0.00000E+00
         0.00000E+00
         0.00000E+00
         0.00000E+00
         0.00000E+00
         0.00000E+00
         0.00000E+00
         0.00000E+00
         0.00000E+00
         0.00000E+00
         0.00000E+00
         0.00000E+00
         0.00000E+00
         0.00000E+00
         0.00000E+00
         0.00000E+00
         0.00000E+00
         0.00000E+00
         0.00000E+00
         0.00000E+00
         0.00000E+00
         0.00000E+00
         0.00000E+00
         0.00000E+00
         0.00000E+00
         0.00000E+00
         0.00000E+00
         0.00000E+00
         0.00000E+00
         0.00000E+00
         0.00000E+00
         0.00000E+00
         0.00000E+00
         0.00000E+00
         0.00000E+00
         0.00000E+00
         0.00000E+00
         0.00000E+00
         0.00000E+00
         0.00000E+00
         0.00000E+00
         0.00000E+00
         0.00000E+00
         0.00000E+00
         0.00000E+00
         0.00000E+00
         0.00000E+00
         0.00000E+00
         0.00000E+00
         0.00000E+00
         0.00000E+00
         0.00000E+00
         0.00000E+00
         0.00000E+00
         0.00000E+00
         0.00000E+00
         0.00000E+00
         0.00000E+00
         0.00000E+00
         0.00000E+00
         0.00000E+00
         0.00000E+00
         0.00000E+00
         0.00000E+00
         0.00000E+00
         0.00000E+00
         0.00000E+00
         0.00000E+00
         0.00000E+00
         0.00000E+00
         0.00000E+00
         0.00000E+00
         0.00000E+00
         0.00000E+00
         0.00000E+00
         0.00000E+00
         0.00000E+00
         0.00000E+00
         0.00000E+00
         0.00000E+00
         0.00000E+00
         0.00000E+00
         0.00000E+00
         0.00000E+00
         0.00000E+00
         0.00000E+00
         0.00000E+00
         0.00000E+00
         0.00000E+00
         0.00000E+00
         0.00000E+00
         0.00000E+00
         0.00000E+00
         0.00000E+00
         0.00000E+00
         0.00000E+00
         0.00000E+00
         0.00000E+00
         0.00000E+00
         0.00000E+00
         0.00000E+00
         0.00000E+00
         0.00000E+00
         0.00000E+00
         0.00000E+00
         0.00000E+00
         0.00000E+00
         0.00000E+00
         0.00000E+00
         0.00000E+00
         0.00000E+00
         0.00000E+00
         0.00000E+00
         0.00000E+00
         0.00000E+00
         0.00000E+00
         0.00000E+00
         0.00000E+00
         0.00000E+00
         0.00000E+00
         0.00000E+00
         0.00000E+00
         0.00000E+00
         0.00000E+00
         0.00000E+00
         0.00000E+00
         0.00000E+00
         0.00000E+00
         0.00000E+00
         0.00000E+00
         0.00000E+00
         0.00000E+00
         0.00000E+00
         0.00000E+00
         0.00000E+00
         0.00000E+00
         0.00000E+00
         0.00000E+00
         0.00000E+00
         0.00000E+00
         0.00000E+00
         0.00000E+00
         0.00000E+00
         0.00000E+00
         0.00000E+00
         0.00000E+00
         0.00000E+00
         0.00000E+00
         0.00000E+00
         0.00000E+00
         0.00000E+00
         0.00000E+00
         0.00000E+00
         0.00000E+00
         0.00000E+00
         0.00000E+00
         0.00000E+00
         0.00000E+00
         0.00000E+00
         0.00000E+00
         0.00000E+00
         0.00000E+00
         0.00000E+00
         0.00000E+00
         0.00000E+00
         0.00000E+00
         0.00000E+00
         0.00000E+00
         0.00000E+00
         0.00000E+00
         0.00000E+00
         0.00000E+00
         0.00000E+00
         0.00000E+00
         0.00000E+00
         0.00000E+00
         0.00000E+00
         0.00000E+00
         0.00000E+00
         0.00000E+00
         0.00000E+00
         0.00000E+00
         0.00000E+00
         0.00000E+00
         0.00000E+00
         0.00000E+00
         0.00000E+00
         0.00000E+00
         0.00000E+00
         0.00000E+00
         0.00000E+00
         0.00000E+00
         0.00000E+00
         0.00000E+00
         0.00000E+00
         0.00000E+00
         0.00000E+00
         0.00000E+00
         0.00000E+00
         0.00000E+00
         0.00000E+00
         0.00000E+00
         0.00000E+00
         0.00000E+00
         0.00000E+00
         0.00000E+00
         0.00000E+00
         0.00000E+00
         0.00000E+00
         0.00000E+00
         0.00000E+00
         0.00000E+00
         0.00000E+00
         0.00000E+00
         0.00000E+00
         0.00000E+00
         0.00000E+00
         0.00000E+00
         0.00000E+00
         0.00000E+00
         0.00000E+00
         0.00000E+00
         0.00000E+00
         0.00000E+00
         0.00000E+00
         0.00000E+00
         0.00000E+00
         0.00000E+00
         0.00000E+00
         0.00000E+00
         0.00000E+00
         0.00000E+00
         0.00000E+00
         0.00000E+00
         0.00000E+00
         0.00000E+00
         0.00000E+00
         0.00000E+00
         0.00000E+00
         0.00000E+00
         0.00000E+00
         0.00000E+00
  
SCALARS                 acceleration_y  double 1
LOOKUP_TABLE default
         0.00000E+00
         0.00000E+00
         0.00000E+00
         0.00000E+00
         0.00000E+00
         0.00000E+00
         0.00000E+00
         0.00000E+00
         0.00000E+00
         0.00000E+00
         0.00000E+00
         0.00000E+00
         0.00000E+00
         0.00000E+00
         0.00000E+00
         0.00000E+00
         0.00000E+00
         0.00000E+00
         0.00000E+00
         0.00000E+00
         0.00000E+00
         0.00000E+00
         0.00000E+00
         0.00000E+00
         0.00000E+00
         0.00000E+00
         0.00000E+00
         0.00000E+00
         0.00000E+00
         0.00000E+00
         0.00000E+00
         0.00000E+00
         0.00000E+00
         0.00000E+00
         0.00000E+00
         0.00000E+00
         0.00000E+00
         0.00000E+00
         0.00000E+00
         0.00000E+00
         0.00000E+00
         0.00000E+00
         0.00000E+00
         0.00000E+00
         0.00000E+00
         0.00000E+00
         0.00000E+00
         0.00000E+00
         0.00000E+00
         0.00000E+00
         0.00000E+00
         0.00000E+00
         0.00000E+00
         0.00000E+00
         0.00000E+00
         0.00000E+00
         0.00000E+00
         0.00000E+00
         0.00000E+00
         0.00000E+00
         0.00000E+00
         0.00000E+00
         0.00000E+00
         0.00000E+00
         0.00000E+00
         0.00000E+00
         0.00000E+00
         0.00000E+00
         0.00000E+00
         0.00000E+00
         0.00000E+00
         0.00000E+00
         0.00000E+00
         0.00000E+00
         0.00000E+00
         0.00000E+00
         0.00000E+00
         0.00000E+00
         0.00000E+00
         0.00000E+00
         0.00000E+00
         0.00000E+00
         0.00000E+00
         0.00000E+00
         0.00000E+00
         0.00000E+00
         0.00000E+00
         0.00000E+00
         0.00000E+00
         0.00000E+00
         0.00000E+00
         0.00000E+00
         0.00000E+00
         0.00000E+00
         0.00000E+00
         0.00000E+00
         0.00000E+00
         0.00000E+00
         0.00000E+00
         0.00000E+00
         0.00000E+00
         0.00000E+00
         0.00000E+00
         0.00000E+00
         0.00000E+00
         0.00000E+00
         0.00000E+00
         0.00000E+00
         0.00000E+00
         0.00000E+00
         0.00000E+00
         0.00000E+00
         0.00000E+00
         0.00000E+00
         0.00000E+00
         0.00000E+00
         0.00000E+00
         0.00000E+00
         0.00000E+00
         0.00000E+00
         0.00000E+00
         0.00000E+00
         0.00000E+00
         0.00000E+00
         0.00000E+00
         0.00000E+00
         0.00000E+00
         0.00000E+00
         0.00000E+00
         0.00000E+00
         0.00000E+00
         0.00000E+00
         0.00000E+00
         0.00000E+00
         0.00000E+00
         0.00000E+00
         0.00000E+00
         0.00000E+00
         0.00000E+00
         0.00000E+00
         0.00000E+00
         0.00000E+00
         0.00000E+00
         0.00000E+00
         0.00000E+00
         0.00000E+00
         0.00000E+00
         0.00000E+00
         0.00000E+00
         0.00000E+00
         0.00000E+00
         0.00000E+00
         0.00000E+00
         0.00000E+00
         0.00000E+00
         0.00000E+00
         0.00000E+00
         0.00000E+00
         0.00000E+00
         0.00000E+00
         0.00000E+00
         0.00000E+00
         0.00000E+00
         0.00000E+00
         0.00000E+00
         0.00000E+00
         0.00000E+00
         0.00000E+00
         0.00000E+00
         0.00000E+00
         0.00000E+00
         0.00000E+00
         0.00000E+00
         0.00000E+00
         0.00000E+00
         0.00000E+00
         0.00000E+00
         0.00000E+00
         0.00000E+00
         0.00000E+00
         0.00000E+00
         0.00000E+00
         0.00000E+00
         0.00000E+00
         0.00000E+00
         0.00000E+00
         0.00000E+00
         0.00000E+00
         0.00000E+00
         0.00000E+00
         0.00000E+00
         0.00000E+00
         0.00000E+00
         0.00000E+00
         0.00000E+00
         0.00000E+00
         0.00000E+00
         0.00000E+00
         0.00000E+00
         0.00000E+00
         0.00000E+00
         0.00000E+00
         0.00000E+00
         0.00000E+00
         0.00000E+00
         0.00000E+00
         0.00000E+00
         0.00000E+00
         0.00000E+00
         0.00000E+00
         0.00000E+00
         0.00000E+00
         0.00000E+00
         0.00000E+00
         0.00000E+00
         0.00000E+00
         0.00000E+00
         0.00000E+00
         0.00000E+00
         0.00000E+00
         0.00000E+00
         0.00000E+00
         0.00000E+00
         0.00000E+00
         0.00000E+00
         0.00000E+00
         0.00000E+00
         0.00000E+00
         0.00000E+00
         0.00000E+00
         0.00000E+00
         0.00000E+00
         0.00000E+00
         0.00000E+00
         0.00000E+00
         0.00000E+00
         0.00000E+00
         0.00000E+00
         0.00000E+00
         0.00000E+00
         0.00000E+00
         0.00000E+00
         0.00000E+00
         0.00000E+00
         0.00000E+00
         0.00000E+00
         0.00000E+00
         0.00000E+00
         0.00000E+00
         0.00000E+00
         0.00000E+00
         0.00000E+00
         0.00000E+00
         0.00000E+00
         0.00000E+00
         0.00000E+00
         0.00000E+00
         0.00000E+00
         0.00000E+00
         0.00000E+00
         0.00000E+00
         0.00000E+00
         0.00000E+00
         0.00000E+00
         0.00000E+00
         0.00000E+00
         0.00000E+00
         0.00000E+00
         0.00000E+00
         0.00000E+00
         0.00000E+00
         0.00000E+00
         0.00000E+00
         0.00000E+00
         0.00000E+00
         0.00000E+00
         0.00000E+00
         0.00000E+00
         0.00000E+00
         0.00000E+00
         0.00000E+00
         0.00000E+00
         0.00000E+00
         0.00000E+00
         0.00000E+00
         0.00000E+00
         0.00000E+00
         0.00000E+00
         0.00000E+00
         0.00000E+00
         0.00000E+00
         0.00000E+00
         0.00000E+00
         0.00000E+00
         0.00000E+00
         0.00000E+00
         0.00000E+00
         0.00000E+00
         0.00000E+00
         0.00000E+00
         0.00000E+00
         0.00000E+00
         0.00000E+00
         0.00000E+00
         0.00000E+00
         0.00000E+00
         0.00000E+00
         0.00000E+00
         0.00000E+00
         0.00000E+00
         0.00000E+00
         0.00000E+00
         0.00000E+00
         0.00000E+00
         0.00000E+00
         0.00000E+00
         0.00000E+00
         0.00000E+00
         0.00000E+00
         0.00000E+00
         0.00000E+00
         0.00000E+00
         0.00000E+00
         0.00000E+00
         0.00000E+00
         0.00000E+00
         0.00000E+00
         0.00000E+00
         0.00000E+00
         0.00000E+00
         0.00000E+00
         0.00000E+00
         0.00000E+00
         0.00000E+00
         0.00000E+00
         0.00000E+00
         0.00000E+00
         0.00000E+00
         0.00000E+00
         0.00000E+00
         0.00000E+00
         0.00000E+00
         0.00000E+00
         0.00000E+00
         0.00000E+00
         0.00000E+00
         0.00000E+00
         0.00000E+00
         0.00000E+00
         0.00000E+00
         0.00000E+00
         0.00000E+00
         0.00000E+00
         0.00000E+00
         0.00000E+00
         0.00000E+00
         0.00000E+00
         0.00000E+00
         0.00000E+00
         0.00000E+00
         0.00000E+00
         0.00000E+00
         0.00000E+00
         0.00000E+00
         0.00000E+00
         0.00000E+00
         0.00000E+00
         0.00000E+00
         0.00000E+00
         0.00000E+00
         0.00000E+00
         0.00000E+00
         0.00000E+00
         0.00000E+00
         0.00000E+00
         0.00000E+00
         0.00000E+00
         0.00000E+00
         0.00000E+00
         0.00000E+00
         0.00000E+00
         0.00000E+00
         0.00000E+00
         0.00000E+00
         0.00000E+00
         0.00000E+00
         0.00000E+00
         0.00000E+00
         0.00000E+00
         0.00000E+00
         0.00000E+00
         0.00000E+00
         0.00000E+00
         0.00000E+00
         0.00000E+00
         0.00000E+00
         0.00000E+00
         0.00000E+00
         0.00000E+00
         0.00000E+00
         0.00000E+00
         0.00000E+00
         0.00000E+00
         0.00000E+00
         0.00000E+00
         0.00000E+00
         0.00000E+00
         0.00000E+00
         0.00000E+00
         0.00000E+00
         0.00000E+00
         0.00000E+00
         0.00000E+00
         0.00000E+00
         0.00000E+00
         0.00000E+00
         0.00000E+00
         0.00000E+00
         0.00000E+00
         0.00000E+00
         0.00000E+00
         0.00000E+00
         0.00000E+00
         0.00000E+00
         0.00000E+00
         0.00000E+00
         0.00000E+00
         0.00000E+00
         0.00000E+00
         0.00000E+00
         0.00000E+00
         0.00000E+00
         0.00000E+00
         0.00000E+00
         0.00000E+00
         0.00000E+00
         0.00000E+00
         0.00000E+00
         0.00000E+00
         0.00000E+00
         0.00000E+00
         0.00000E+00
         0.00000E+00
         0.00000E+00
         0.00000E+00
         0.00000E+00
         0.00000E+00
         0.00000E+00
         0.00000E+00
         0.00000E+00
         0.00000E+00
         0.00000E+00
         0.00000E+00
         0.00000E+00
         0.00000E+00
         0.00000E+00
         0.00000E+00
         0.00000E+00
         0.00000E+00
         0.00000E+00
         0.00000E+00
         0.00000E+00
         0.00000E+00
         0.00000E+00
         0.00000E+00
         0.00000E+00
         0.00000E+00
         0.00000E+00
         0.00000E+00
         0.00000E+00
         0.00000E+00
         0.00000E+00
         0.00000E+00
         0.00000E+00
         0.00000E+00
         0.00000E+00
         0.00000E+00
         0.00000E+00
         0.00000E+00
         0.00000E+00
         0.00000E+00
         0.00000E+00
         0.00000E+00
         0.00000E+00
         0.00000E+00
         0.00000E+00
         0.00000E+00
         0.00000E+00
         0.00000E+00
         0.00000E+00
         0.00000E+00
         0.00000E+00
         0.00000E+00
         0.00000E+00
         0.00000E+00
         0.00000E+00
         0.00000E+00
         0.00000E+00
         0.00000E+00
         0.00000E+00
         0.00000E+00
         0.00000E+00
         0.00000E+00
         0.00000E+00
         0.00000E+00
         0.00000E+00
         0.00000E+00
         0.00000E+00
         0.00000E+00
         0.00000E+00
         0.00000E+00
         0.00000E+00
         0.00000E+00
         0.00000E+00
         0.00000E+00
         0.00000E+00
         0.00000E+00
         0.00000E+00
         0.00000E+00
         0.00000E+00
         0.00000E+00
         0.00000E+00
         0.00000E+00
         0.00000E+00
         0.00000E+00
         0.00000E+00
         0.00000E+00
         0.00000E+00
         0.00000E+00
         0.00000E+00
         0.00000E+00
         0.00000E+00
         0.00000E+00
         0.00000E+00
         0.00000E+00
         0.00000E+00
         0.00000E+00
         0.00000E+00
         0.00000E+00
         0.00000E+00
         0.00000E+00
         0.00000E+00
         0.00000E+00
         0.00000E+00
         0.00000E+00
         0.00000E+00
         0.00000E+00
         0.00000E+00
         0.00000E+00
         0.00000E+00
         0.00000E+00
         0.00000E+00
         0.00000E+00
         0.00000E+00
         0.00000E+00
         0.00000E+00
         0.00000E+00
         0.00000E+00
         0.00000E+00
         0.00000E+00
         0.00000E+00
         0.00000E+00
         0.00000E+00
         0.00000E+00
         0.00000E+00
         0.00000E+00
         0.00000E+00
         0.00000E+00
         0.00000E+00
         0.00000E+00
         0.00000E+00
         0.00000E+00
         0.00000E+00
         0.00000E+00
         0.00000E+00
         0.00000E+00
         0.00000E+00
         0.00000E+00
         0.00000E+00
         0.00000E+00
         0.00000E+00
         0.00000E+00
         0.00000E+00
         0.00000E+00
         0.00000E+00
         0.00000E+00
         0.00000E+00
         0.00000E+00
         0.00000E+00
         0.00000E+00
         0.00000E+00
         0.00000E+00
         0.00000E+00
         0.00000E+00
         0.00000E+00
         0.00000E+00
         0.00000E+00
         0.00000E+00
         0.00000E+00
         0.00000E+00
         0.00000E+00
         0.00000E+00
         0.00000E+00
         0.00000E+00
         0.00000E+00
         0.00000E+00
         0.00000E+00
         0.00000E+00
         0.00000E+00
         0.00000E+00
         0.00000E+00
         0.00000E+00
         0.00000E+00
         0.00000E+00
         0.00000E+00
         0.00000E+00
         0.00000E+00
         0.00000E+00
         0.00000E+00
         0.00000E+00
         0.00000E+00
         0.00000E+00
         0.00000E+00
         0.00000E+00
         0.00000E+00
         0.00000E+00
         0.00000E+00
         0.00000E+00
         0.00000E+00
         0.00000E+00
         0.00000E+00
         0.00000E+00
         0.00000E+00
         0.00000E+00
         0.00000E+00
         0.00000E+00
         0.00000E+00
         0.00000E+00
         0.00000E+00
         0.00000E+00
         0.00000E+00
         0.00000E+00
         0.00000E+00
         0.00000E+00
         0.00000E+00
         0.00000E+00
         0.00000E+00
         0.00000E+00
         0.00000E+00
         0.00000E+00
         0.00000E+00
         0.00000E+00
         0.00000E+00
         0.00000E+00
         0.00000E+00
         0.00000E+00
         0.00000E+00
         0.00000E+00
         0.00000E+00
         0.00000E+00
         0.00000E+00
         0.00000E+00
         0.00000E+00
         0.00000E+00
         0.00000E+00
         0.00000E+00
         0.00000E+00
         0.00000E+00
         0.00000E+00
         0.00000E+00
         0.00000E+00
         0.00000E+00
         0.00000E+00
         0.00000E+00
         0.00000E+00
         0.00000E+00
         0.00000E+00
         0.00000E+00
         0.00000E+00
         0.00000E+00
         0.00000E+00
         0.00000E+00
         0.00000E+00
         0.00000E+00
         0.00000E+00
         0.00000E+00
         0.00000E+00
         0.00000E+00
         0.00000E+00
         0.00000E+00
         0.00000E+00
         0.00000E+00
         0.00000E+00
         0.00000E+00
         0.00000E+00
         0.00000E+00
         0.00000E+00
         0.00000E+00
         0.00000E+00
         0.00000E+00
         0.00000E+00
         0.00000E+00
         0.00000E+00
         0.00000E+00
         0.00000E+00
         0.00000E+00
         0.00000E+00
         0.00000E+00
         0.00000E+00
         0.00000E+00
         0.00000E+00
         0.00000E+00
         0.00000E+00
         0.00000E+00
         0.00000E+00
         0.00000E+00
         0.00000E+00
         0.00000E+00
         0.00000E+00
         0.00000E+00
         0.00000E+00
         0.00000E+00
         0.00000E+00
         0.00000E+00
         0.00000E+00
         0.00000E+00
         0.00000E+00
         0.00000E+00
         0.00000E+00
         0.00000E+00
         0.00000E+00
         0.00000E+00
         0.00000E+00
         0.00000E+00
         0.00000E+00
         0.00000E+00
         0.00000E+00
         0.00000E+00
         0.00000E+00
         0.00000E+00
         0.00000E+00
         0.00000E+00
         0.00000E+00
         0.00000E+00
         0.00000E+00
         0.00000E+00
         0.00000E+00
         0.00000E+00
         0.00000E+00
         0.00000E+00
         0.00000E+00
         0.00000E+00
         0.00000E+00
         0.00000E+00
         0.00000E+00
         0.00000E+00
         0.00000E+00
         0.00000E+00
         0.00000E+00
         0.00000E+00
         0.00000E+00
         0.00000E+00
         0.00000E+00
         0.00000E+00
         0.00000E+00
         0.00000E+00
         0.00000E+00
         0.00000E+00
         0.00000E+00
         0.00000E+00
         0.00000E+00
         0.00000E+00
         0.00000E+00
         0.00000E+00
         0.00000E+00
         0.00000E+00
         0.00000E+00
         0.00000E+00
         0.00000E+00
         0.00000E+00
         0.00000E+00
         0.00000E+00
         0.00000E+00
         0.00000E+00
         0.00000E+00
         0.00000E+00
         0.00000E+00
         0.00000E+00
         0.00000E+00
         0.00000E+00
         0.00000E+00
         0.00000E+00
         0.00000E+00
         0.00000E+00
         0.00000E+00
         0.00000E+00
         0.00000E+00
         0.00000E+00
         0.00000E+00
         0.00000E+00
         0.00000E+00
         0.00000E+00
         0.00000E+00
         0.00000E+00
         0.00000E+00
         0.00000E+00
         0.00000E+00
         0.00000E+00
         0.00000E+00
         0.00000E+00
         0.00000E+00
         0.00000E+00
         0.00000E+00
         0.00000E+00
         0.00000E+00
         0.00000E+00
         0.00000E+00
         0.00000E+00
         0.00000E+00
         0.00000E+00
         0.00000E+00
         0.00000E+00
         0.00000E+00
         0.00000E+00
         0.00000E+00
         0.00000E+00
         0.00000E+00
         0.00000E+00
         0.00000E+00
         0.00000E+00
         0.00000E+00
         0.00000E+00
         0.00000E+00
         0.00000E+00
         0.00000E+00
         0.00000E+00
         0.00000E+00
         0.00000E+00
         0.00000E+00
         0.00000E+00
         0.00000E+00
         0.00000E+00
         0.00000E+00
         0.00000E+00
         0.00000E+00
         0.00000E+00
         0.00000E+00
         0.00000E+00
         0.00000E+00
         0.00000E+00
         0.00000E+00
         0.00000E+00
         0.00000E+00
         0.00000E+00
         0.00000E+00
         0.00000E+00
         0.00000E+00
         0.00000E+00
         0.00000E+00
         0.00000E+00
         0.00000E+00
         0.00000E+00
         0.00000E+00
         0.00000E+00
         0.00000E+00
         0.00000E+00
         0.00000E+00
         0.00000E+00
         0.00000E+00
         0.00000E+00
         0.00000E+00
         0.00000E+00
         0.00000E+00
         0.00000E+00
         0.00000E+00
         0.00000E+00
         0.00000E+00
         0.00000E+00
         0.00000E+00
         0.00000E+00
         0.00000E+00
         0.00000E+00
         0.00000E+00
         0.00000E+00
         0.00000E+00
         0.00000E+00
         0.00000E+00
         0.00000E+00
         0.00000E+00
         0.00000E+00
         0.00000E+00
         0.00000E+00
         0.00000E+00
         0.00000E+00
         0.00000E+00
         0.00000E+00
         0.00000E+00
         0.00000E+00
         0.00000E+00
         0.00000E+00
         0.00000E+00
         0.00000E+00
         0.00000E+00
         0.00000E+00
         0.00000E+00
         0.00000E+00
         0.00000E+00
         0.00000E+00
         0.00000E+00
         0.00000E+00
         0.00000E+00
         0.00000E+00
         0.00000E+00
         0.00000E+00
         0.00000E+00
         0.00000E+00
         0.00000E+00
         0.00000E+00
         0.00000E+00
         0.00000E+00
         0.00000E+00
         0.00000E+00
         0.00000E+00
         0.00000E+00
         0.00000E+00
         0.00000E+00
         0.00000E+00
         0.00000E+00
         0.00000E+00
         0.00000E+00
         0.00000E+00
         0.00000E+00
         0.00000E+00
         0.00000E+00
         0.00000E+00
         0.00000E+00
         0.00000E+00
         0.00000E+00
         0.00000E+00
         0.00000E+00
         0.00000E+00
         0.00000E+00
         0.00000E+00
         0.00000E+00
         0.00000E+00
         0.00000E+00
         0.00000E+00
         0.00000E+00
         0.00000E+00
         0.00000E+00
         0.00000E+00
         0.00000E+00
         0.00000E+00
         0.00000E+00
         0.00000E+00
         0.00000E+00
         0.00000E+00
         0.00000E+00
         0.00000E+00
         0.00000E+00
         0.00000E+00
         0.00000E+00
         0.00000E+00
         0.00000E+00
         0.00000E+00
         0.00000E+00
         0.00000E+00
         0.00000E+00
         0.00000E+00
         0.00000E+00
         0.00000E+00
         0.00000E+00
         0.00000E+00
         0.00000E+00
         0.00000E+00
         0.00000E+00
         0.00000E+00
         0.00000E+00
         0.00000E+00
         0.00000E+00
         0.00000E+00
         0.00000E+00
         0.00000E+00
         0.00000E+00
         0.00000E+00
         0.00000E+00
         0.00000E+00
         0.00000E+00
         0.00000E+00
         0.00000E+00
         0.00000E+00
         0.00000E+00
         0.00000E+00
         0.00000E+00
         0.00000E+00
         0.00000E+00
         0.00000E+00
         0.00000E+00
         0.00000E+00
         0.00000E+00
         0.00000E+00
         0.00000E+00
         0.00000E+00
         0.00000E+00
         0.00000E+00
         0.00000E+00
         0.00000E+00
         0.00000E+00
         0.00000E+00
         0.00000E+00
         0.00000E+00
         0.00000E+00
         0.00000E+00
         0.00000E+00
         0.00000E+00
         0.00000E+00
         0.00000E+00
         0.00000E+00
         0.00000E+00
         0.00000E+00
         0.00000E+00
         0.00000E+00
         0.00000E+00
         0.00000E+00
         0.00000E+00
         0.00000E+00
         0.00000E+00
         0.00000E+00
         0.00000E+00
         0.00000E+00
         0.00000E+00
         0.00000E+00
         0.00000E+00
         0.00000E+00
         0.00000E+00
         0.00000E+00
         0.00000E+00
         0.00000E+00
         0.00000E+00
         0.00000E+00
         0.00000E+00
         0.00000E+00
         0.00000E+00
         0.00000E+00
         0.00000E+00
         0.00000E+00
         0.00000E+00
         0.00000E+00
         0.00000E+00
         0.00000E+00
         0.00000E+00
         0.00000E+00
         0.00000E+00
         0.00000E+00
         0.00000E+00
         0.00000E+00
         0.00000E+00
         0.00000E+00
         0.00000E+00
         0.00000E+00
         0.00000E+00
         0.00000E+00
         0.00000E+00
         0.00000E+00
         0.00000E+00
         0.00000E+00
         0.00000E+00
         0.00000E+00
         0.00000E+00
         0.00000E+00
         0.00000E+00
         0.00000E+00
         0.00000E+00
         0.00000E+00
         0.00000E+00
         0.00000E+00
         0.00000E+00
         0.00000E+00
         0.00000E+00
         0.00000E+00
         0.00000E+00
         0.00000E+00
         0.00000E+00
         0.00000E+00
         0.00000E+00
         0.00000E+00
         0.00000E+00
         0.00000E+00
         0.00000E+00
         0.00000E+00
         0.00000E+00
         0.00000E+00
         0.00000E+00
         0.00000E+00
         0.00000E+00
         0.00000E+00
         0.00000E+00
         0.00000E+00
         0.00000E+00
         0.00000E+00
         0.00000E+00
         0.00000E+00
         0.00000E+00
         0.00000E+00
         0.00000E+00
         0.00000E+00
         0.00000E+00
         0.00000E+00
         0.00000E+00
         0.00000E+00
         0.00000E+00
         0.00000E+00
         0.00000E+00
         0.00000E+00
         0.00000E+00
         0.00000E+00
         0.00000E+00
         0.00000E+00
         0.00000E+00
         0.00000E+00
         0.00000E+00
         0.00000E+00
         0.00000E+00
         0.00000E+00
         0.00000E+00
         0.00000E+00
         0.00000E+00
         0.00000E+00
         0.00000E+00
         0.00000E+00
         0.00000E+00
         0.00000E+00
         0.00000E+00
         0.00000E+00
         0.00000E+00
         0.00000E+00
         0.00000E+00
         0.00000E+00
         0.00000E+00
         0.00000E+00
         0.00000E+00
         0.00000E+00
         0.00000E+00
         0.00000E+00
         0.00000E+00
         0.00000E+00
         0.00000E+00
         0.00000E+00
         0.00000E+00
         0.00000E+00
         0.00000E+00
         0.00000E+00
         0.00000E+00
         0.00000E+00
         0.00000E+00
         0.00000E+00
         0.00000E+00
         0.00000E+00
         0.00000E+00
         0.00000E+00
         0.00000E+00
         0.00000E+00
         0.00000E+00
         0.00000E+00
         0.00000E+00
         0.00000E+00
         0.00000E+00
         0.00000E+00
         0.00000E+00
         0.00000E+00
         0.00000E+00
         0.00000E+00
         0.00000E+00
         0.00000E+00
         0.00000E+00
         0.00000E+00
         0.00000E+00
         0.00000E+00
         0.00000E+00
         0.00000E+00
         0.00000E+00
         0.00000E+00
         0.00000E+00
         0.00000E+00
         0.00000E+00
         0.00000E+00
         0.00000E+00
         0.00000E+00
         0.00000E+00
         0.00000E+00
         0.00000E+00
         0.00000E+00
         0.00000E+00
         0.00000E+00
         0.00000E+00
         0.00000E+00
         0.00000E+00
         0.00000E+00
         0.00000E+00
         0.00000E+00
         0.00000E+00
         0.00000E+00
         0.00000E+00
         0.00000E+00
         0.00000E+00
         0.00000E+00
         0.00000E+00
         0.00000E+00
         0.00000E+00
         0.00000E+00
         0.00000E+00
         0.00000E+00
         0.00000E+00
         0.00000E+00
         0.00000E+00
         0.00000E+00
         0.00000E+00
         0.00000E+00
         0.00000E+00
         0.00000E+00
         0.00000E+00
         0.00000E+00
         0.00000E+00
         0.00000E+00
         0.00000E+00
         0.00000E+00
         0.00000E+00
         0.00000E+00
         0.00000E+00
         0.00000E+00
         0.00000E+00
         0.00000E+00
         0.00000E+00
         0.00000E+00
         0.00000E+00
         0.00000E+00
         0.00000E+00
         0.00000E+00
         0.00000E+00
         0.00000E+00
         0.00000E+00
         0.00000E+00
         0.00000E+00
         0.00000E+00
         0.00000E+00
         0.00000E+00
         0.00000E+00
         0.00000E+00
         0.00000E+00
         0.00000E+00
         0.00000E+00
         0.00000E+00
         0.00000E+00
         0.00000E+00
         0.00000E+00
         0.00000E+00
         0.00000E+00
         0.00000E+00
         0.00000E+00
         0.00000E+00
         0.00000E+00
         0.00000E+00
         0.00000E+00
         0.00000E+00
         0.00000E+00
         0.00000E+00
         0.00000E+00
         0.00000E+00
         0.00000E+00
         0.00000E+00
         0.00000E+00
         0.00000E+00
         0.00000E+00
         0.00000E+00
         0.00000E+00
         0.00000E+00
         0.00000E+00
         0.00000E+00
         0.00000E+00
         0.00000E+00
         0.00000E+00
         0.00000E+00
         0.00000E+00
         0.00000E+00
         0.00000E+00
         0.00000E+00
         0.00000E+00
         0.00000E+00
         0.00000E+00
         0.00000E+00
         0.00000E+00
         0.00000E+00
         0.00000E+00
         0.00000E+00
         0.00000E+00
         0.00000E+00
         0.00000E+00
         0.00000E+00
         0.00000E+00
         0.00000E+00
         0.00000E+00
         0.00000E+00
         0.00000E+00
         0.00000E+00
         0.00000E+00
         0.00000E+00
         0.00000E+00
         0.00000E+00
         0.00000E+00
         0.00000E+00
         0.00000E+00
         0.00000E+00
         0.00000E+00
         0.00000E+00
         0.00000E+00
         0.00000E+00
         0.00000E+00
         0.00000E+00
         0.00000E+00
         0.00000E+00
         0.00000E+00
         0.00000E+00
         0.00000E+00
         0.00000E+00
         0.00000E+00
         0.00000E+00
         0.00000E+00
         0.00000E+00
         0.00000E+00
         0.00000E+00
         0.00000E+00
         0.00000E+00
         0.00000E+00
         0.00000E+00
         0.00000E+00
         0.00000E+00
         0.00000E+00
         0.00000E+00
         0.00000E+00
         0.00000E+00
         0.00000E+00
         0.00000E+00
         0.00000E+00
         0.00000E+00
         0.00000E+00
         0.00000E+00
         0.00000E+00
         0.00000E+00
         0.00000E+00
         0.00000E+00
         0.00000E+00
         0.00000E+00
         0.00000E+00
         0.00000E+00
         0.00000E+00
         0.00000E+00
         0.00000E+00
         0.00000E+00
         0.00000E+00
         0.00000E+00
         0.00000E+00
         0.00000E+00
         0.00000E+00
         0.00000E+00
         0.00000E+00
         0.00000E+00
         0.00000E+00
         0.00000E+00
         0.00000E+00
         0.00000E+00
         0.00000E+00
         0.00000E+00
         0.00000E+00
         0.00000E+00
         0.00000E+00
         0.00000E+00
         0.00000E+00
         0.00000E+00
         0.00000E+00
         0.00000E+00
         0.00000E+00
         0.00000E+00
         0.00000E+00
         0.00000E+00
         0.00000E+00
         0.00000E+00
         0.00000E+00
         0.00000E+00
         0.00000E+00
         0.00000E+00
         0.00000E+00
         0.00000E+00
         0.00000E+00
         0.00000E+00
         0.00000E+00
         0.00000E+00
         0.00000E+00
         0.00000E+00
         0.00000E+00
         0.00000E+00
         0.00000E+00
         0.00000E+00
         0.00000E+00
         0.00000E+00
         0.00000E+00
         0.00000E+00
         0.00000E+00
         0.00000E+00
         0.00000E+00
         0.00000E+00
         0.00000E+00
         0.00000E+00
         0.00000E+00
         0.00000E+00
         0.00000E+00
         0.00000E+00
         0.00000E+00
         0.00000E+00
         0.00000E+00
         0.00000E+00
         0.00000E+00
         0.00000E+00
         0.00000E+00
         0.00000E+00
         0.00000E+00
         0.00000E+00
         0.00000E+00
         0.00000E+00
         0.00000E+00
         0.00000E+00
         0.00000E+00
         0.00000E+00
         0.00000E+00
         0.00000E+00
         0.00000E+00
         0.00000E+00
         0.00000E+00
         0.00000E+00
         0.00000E+00
         0.00000E+00
         0.00000E+00
         0.00000E+00
         0.00000E+00
         0.00000E+00
         0.00000E+00
         0.00000E+00
         0.00000E+00
         0.00000E+00
         0.00000E+00
         0.00000E+00
         0.00000E+00
         0.00000E+00
         0.00000E+00
         0.00000E+00
         0.00000E+00
         0.00000E+00
         0.00000E+00
         0.00000E+00
         0.00000E+00
         0.00000E+00
         0.00000E+00
         0.00000E+00
         0.00000E+00
         0.00000E+00
         0.00000E+00
         0.00000E+00
         0.00000E+00
         0.00000E+00
         0.00000E+00
         0.00000E+00
         0.00000E+00
         0.00000E+00
         0.00000E+00
         0.00000E+00
         0.00000E+00
         0.00000E+00
         0.00000E+00
         0.00000E+00
         0.00000E+00
         0.00000E+00
         0.00000E+00
         0.00000E+00
         0.00000E+00
         0.00000E+00
         0.00000E+00
         0.00000E+00
         0.00000E+00
         0.00000E+00
         0.00000E+00
         0.00000E+00
         0.00000E+00
         0.00000E+00
         0.00000E+00
         0.00000E+00
         0.00000E+00
         0.00000E+00
         0.00000E+00
         0.00000E+00
         0.00000E+00
         0.00000E+00
         0.00000E+00
         0.00000E+00
         0.00000E+00
         0.00000E+00
         0.00000E+00
         0.00000E+00
         0.00000E+00
         0.00000E+00
         0.00000E+00
         0.00000E+00
         0.00000E+00
         0.00000E+00
         0.00000E+00
         0.00000E+00
         0.00000E+00
         0.00000E+00
         0.00000E+00
         0.00000E+00
         0.00000E+00
         0.00000E+00
         0.00000E+00
         0.00000E+00
         0.00000E+00
         0.00000E+00
         0.00000E+00
         0.00000E+00
         0.00000E+00
         0.00000E+00
         0.00000E+00
         0.00000E+00
         0.00000E+00
         0.00000E+00
         0.00000E+00
         0.00000E+00
         0.00000E+00
         0.00000E+00
         0.00000E+00
         0.00000E+00
         0.00000E+00
         0.00000E+00
         0.00000E+00
         0.00000E+00
         0.00000E+00
         0.00000E+00
         0.00000E+00
         0.00000E+00
         0.00000E+00
         0.00000E+00
         0.00000E+00
         0.00000E+00
         0.00000E+00
         0.00000E+00
         0.00000E+00
         0.00000E+00
         0.00000E+00
         0.00000E+00
         0.00000E+00
         0.00000E+00
         0.00000E+00
         0.00000E+00
         0.00000E+00
         0.00000E+00
         0.00000E+00
         0.00000E+00
         0.00000E+00
         0.00000E+00
         0.00000E+00
         0.00000E+00
         0.00000E+00
         0.00000E+00
         0.00000E+00
         0.00000E+00
         0.00000E+00
         0.00000E+00
         0.00000E+00
         0.00000E+00
         0.00000E+00
         0.00000E+00
         0.00000E+00
         0.00000E+00
         0.00000E+00
         0.00000E+00
         0.00000E+00
         0.00000E+00
         0.00000E+00
         0.00000E+00
         0.00000E+00
         0.00000E+00
         0.00000E+00
         0.00000E+00
         0.00000E+00
         0.00000E+00
         0.00000E+00
         0.00000E+00
         0.00000E+00
         0.00000E+00
         0.00000E+00
         0.00000E+00
         0.00000E+00
         0.00000E+00
         0.00000E+00
         0.00000E+00
         0.00000E+00
         0.00000E+00
         0.00000E+00
         0.00000E+00
         0.00000E+00
         0.00000E+00
         0.00000E+00
         0.00000E+00
         0.00000E+00
         0.00000E+00
         0.00000E+00
         0.00000E+00
         0.00000E+00
         0.00000E+00
         0.00000E+00
         0.00000E+00
         0.00000E+00
         0.00000E+00
         0.00000E+00
         0.00000E+00
         0.00000E+00
         0.00000E+00
         0.00000E+00
         0.00000E+00
         0.00000E+00
         0.00000E+00
         0.00000E+00
         0.00000E+00
         0.00000E+00
         0.00000E+00
         0.00000E+00
         0.00000E+00
         0.00000E+00
         0.00000E+00
         0.00000E+00
         0.00000E+00
         0.00000E+00
         0.00000E+00
         0.00000E+00
         0.00000E+00
         0.00000E+00
         0.00000E+00
         0.00000E+00
         0.00000E+00
         0.00000E+00
         0.00000E+00
         0.00000E+00
         0.00000E+00
         0.00000E+00
         0.00000E+00
         0.00000E+00
         0.00000E+00
         0.00000E+00
         0.00000E+00
         0.00000E+00
         0.00000E+00
         0.00000E+00
         0.00000E+00
         0.00000E+00
         0.00000E+00
         0.00000E+00
         0.00000E+00
         0.00000E+00
         0.00000E+00
         0.00000E+00
         0.00000E+00
         0.00000E+00
         0.00000E+00
         0.00000E+00
         0.00000E+00
         0.00000E+00
         0.00000E+00
         0.00000E+00
         0.00000E+00
         0.00000E+00
         0.00000E+00
         0.00000E+00
         0.00000E+00
         0.00000E+00
         0.00000E+00
         0.00000E+00
         0.00000E+00
         0.00000E+00
         0.00000E+00
         0.00000E+00
         0.00000E+00
         0.00000E+00
         0.00000E+00
         0.00000E+00
         0.00000E+00
         0.00000E+00
         0.00000E+00
         0.00000E+00
         0.00000E+00
         0.00000E+00
         0.00000E+00
         0.00000E+00
         0.00000E+00
         0.00000E+00
         0.00000E+00
         0.00000E+00
         0.00000E+00
         0.00000E+00
         0.00000E+00
         0.00000E+00
         0.00000E+00
         0.00000E+00
         0.00000E+00
         0.00000E+00
         0.00000E+00
         0.00000E+00
         0.00000E+00
         0.00000E+00
         0.00000E+00
         0.00000E+00
         0.00000E+00
         0.00000E+00
         0.00000E+00
         0.00000E+00
         0.00000E+00
         0.00000E+00
         0.00000E+00
         0.00000E+00
         0.00000E+00
         0.00000E+00
         0.00000E+00
         0.00000E+00
         0.00000E+00
         0.00000E+00
         0.00000E+00
         0.00000E+00
         0.00000E+00
         0.00000E+00
         0.00000E+00
         0.00000E+00
         0.00000E+00
         0.00000E+00
         0.00000E+00
         0.00000E+00
         0.00000E+00
         0.00000E+00
         0.00000E+00
         0.00000E+00
         0.00000E+00
         0.00000E+00
         0.00000E+00
         0.00000E+00
         0.00000E+00
         0.00000E+00
         0.00000E+00
         0.00000E+00
         0.00000E+00
         0.00000E+00
         0.00000E+00
         0.00000E+00
         0.00000E+00
         0.00000E+00
         0.00000E+00
         0.00000E+00
         0.00000E+00
         0.00000E+00
         0.00000E+00
         0.00000E+00
         0.00000E+00
         0.00000E+00
         0.00000E+00
         0.00000E+00
         0.00000E+00
         0.00000E+00
         0.00000E+00
         0.00000E+00
         0.00000E+00
         0.00000E+00
         0.00000E+00
         0.00000E+00
         0.00000E+00
         0.00000E+00
         0.00000E+00
         0.00000E+00
         0.00000E+00
         0.00000E+00
         0.00000E+00
         0.00000E+00
         0.00000E+00
         0.00000E+00
         0.00000E+00
         0.00000E+00
         0.00000E+00
         0.00000E+00
         0.00000E+00
         0.00000E+00
         0.00000E+00
         0.00000E+00
         0.00000E+00
         0.00000E+00
         0.00000E+00
         0.00000E+00
         0.00000E+00
         0.00000E+00
         0.00000E+00
         0.00000E+00
         0.00000E+00
         0.00000E+00
         0.00000E+00
         0.00000E+00
         0.00000E+00
         0.00000E+00
         0.00000E+00
         0.00000E+00
         0.00000E+00
         0.00000E+00
         0.00000E+00
         0.00000E+00
         0.00000E+00
         0.00000E+00
         0.00000E+00
         0.00000E+00
         0.00000E+00
         0.00000E+00
         0.00000E+00
         0.00000E+00
         0.00000E+00
         0.00000E+00
         0.00000E+00
         0.00000E+00
         0.00000E+00
         0.00000E+00
         0.00000E+00
         0.00000E+00
         0.00000E+00
         0.00000E+00
         0.00000E+00
         0.00000E+00
         0.00000E+00
         0.00000E+00
         0.00000E+00
         0.00000E+00
         0.00000E+00
         0.00000E+00
         0.00000E+00
         0.00000E+00
         0.00000E+00
         0.00000E+00
         0.00000E+00
         0.00000E+00
         0.00000E+00
         0.00000E+00
         0.00000E+00
         0.00000E+00
         0.00000E+00
         0.00000E+00
         0.00000E+00
         0.00000E+00
         0.00000E+00
         0.00000E+00
         0.00000E+00
         0.00000E+00
         0.00000E+00
         0.00000E+00
         0.00000E+00
         0.00000E+00
         0.00000E+00
         0.00000E+00
         0.00000E+00
         0.00000E+00
         0.00000E+00
         0.00000E+00
         0.00000E+00
         0.00000E+00
         0.00000E+00
         0.00000E+00
         0.00000E+00
         0.00000E+00
         0.00000E+00
         0.00000E+00
         0.00000E+00
         0.00000E+00
         0.00000E+00
         0.00000E+00
         0.00000E+00
         0.00000E+00
         0.00000E+00
         0.00000E+00
         0.00000E+00
         0.00000E+00
         0.00000E+00
         0.00000E+00
         0.00000E+00
         0.00000E+00
         0.00000E+00
         0.00000E+00
         0.00000E+00
         0.00000E+00
         0.00000E+00
         0.00000E+00
         0.00000E+00
         0.00000E+00
         0.00000E+00
         0.00000E+00
         0.00000E+00
         0.00000E+00
         0.00000E+00
         0.00000E+00
         0.00000E+00
         0.00000E+00
         0.00000E+00
         0.00000E+00
         0.00000E+00
         0.00000E+00
         0.00000E+00
         0.00000E+00
         0.00000E+00
         0.00000E+00
         0.00000E+00
         0.00000E+00
         0.00000E+00
         0.00000E+00
         0.00000E+00
         0.00000E+00
         0.00000E+00
         0.00000E+00
         0.00000E+00
         0.00000E+00
         0.00000E+00
         0.00000E+00
         0.00000E+00
         0.00000E+00
         0.00000E+00
         0.00000E+00
         0.00000E+00
         0.00000E+00
         0.00000E+00
         0.00000E+00
         0.00000E+00
         0.00000E+00
         0.00000E+00
         0.00000E+00
         0.00000E+00
         0.00000E+00
         0.00000E+00
         0.00000E+00
         0.00000E+00
         0.00000E+00
         0.00000E+00
         0.00000E+00
         0.00000E+00
         0.00000E+00
         0.00000E+00
  
SCALARS                 acceleration_z  double 1
LOOKUP_TABLE default
         0.00000E+00
         0.00000E+00
         0.00000E+00
         0.00000E+00
         0.00000E+00
         0.00000E+00
         0.00000E+00
         0.00000E+00
         0.00000E+00
         0.00000E+00
         0.00000E+00
         0.00000E+00
         0.00000E+00
         0.00000E+00
         0.00000E+00
         0.00000E+00
         0.00000E+00
         0.00000E+00
         0.00000E+00
         0.00000E+00
         0.00000E+00
         0.00000E+00
         0.00000E+00
         0.00000E+00
         0.00000E+00
         0.00000E+00
         0.00000E+00
         0.00000E+00
         0.00000E+00
         0.00000E+00
         0.00000E+00
         0.00000E+00
         0.00000E+00
         0.00000E+00
         0.00000E+00
         0.00000E+00
         0.00000E+00
         0.00000E+00
         0.00000E+00
         0.00000E+00
         0.00000E+00
         0.00000E+00
         0.00000E+00
         0.00000E+00
         0.00000E+00
         0.00000E+00
         0.00000E+00
         0.00000E+00
         0.00000E+00
         0.00000E+00
         0.00000E+00
         0.00000E+00
         0.00000E+00
         0.00000E+00
         0.00000E+00
         0.00000E+00
         0.00000E+00
         0.00000E+00
         0.00000E+00
         0.00000E+00
         0.00000E+00
         0.00000E+00
         0.00000E+00
         0.00000E+00
         0.00000E+00
         0.00000E+00
         0.00000E+00
         0.00000E+00
         0.00000E+00
         0.00000E+00
         0.00000E+00
         0.00000E+00
         0.00000E+00
         0.00000E+00
         0.00000E+00
         0.00000E+00
         0.00000E+00
         0.00000E+00
         0.00000E+00
         0.00000E+00
         0.00000E+00
         0.00000E+00
         0.00000E+00
         0.00000E+00
         0.00000E+00
         0.00000E+00
         0.00000E+00
         0.00000E+00
         0.00000E+00
         0.00000E+00
         0.00000E+00
         0.00000E+00
         0.00000E+00
         0.00000E+00
         0.00000E+00
         0.00000E+00
         0.00000E+00
         0.00000E+00
         0.00000E+00
         0.00000E+00
         0.00000E+00
         0.00000E+00
         0.00000E+00
         0.00000E+00
         0.00000E+00
         0.00000E+00
         0.00000E+00
         0.00000E+00
         0.00000E+00
         0.00000E+00
         0.00000E+00
         0.00000E+00
         0.00000E+00
         0.00000E+00
         0.00000E+00
         0.00000E+00
         0.00000E+00
         0.00000E+00
         0.00000E+00
         0.00000E+00
         0.00000E+00
         0.00000E+00
         0.00000E+00
         0.00000E+00
         0.00000E+00
         0.00000E+00
         0.00000E+00
         0.00000E+00
         0.00000E+00
         0.00000E+00
         0.00000E+00
         0.00000E+00
         0.00000E+00
         0.00000E+00
         0.00000E+00
         0.00000E+00
         0.00000E+00
         0.00000E+00
         0.00000E+00
         0.00000E+00
         0.00000E+00
         0.00000E+00
         0.00000E+00
         0.00000E+00
         0.00000E+00
         0.00000E+00
         0.00000E+00
         0.00000E+00
         0.00000E+00
         0.00000E+00
         0.00000E+00
         0.00000E+00
         0.00000E+00
         0.00000E+00
         0.00000E+00
         0.00000E+00
         0.00000E+00
         0.00000E+00
         0.00000E+00
         0.00000E+00
         0.00000E+00
         0.00000E+00
         0.00000E+00
         0.00000E+00
         0.00000E+00
         0.00000E+00
         0.00000E+00
         0.00000E+00
         0.00000E+00
         0.00000E+00
         0.00000E+00
         0.00000E+00
         0.00000E+00
         0.00000E+00
         0.00000E+00
         0.00000E+00
         0.00000E+00
         0.00000E+00
         0.00000E+00
         0.00000E+00
         0.00000E+00
         0.00000E+00
         0.00000E+00
         0.00000E+00
         0.00000E+00
         0.00000E+00
         0.00000E+00
         0.00000E+00
         0.00000E+00
         0.00000E+00
         0.00000E+00
         0.00000E+00
         0.00000E+00
         0.00000E+00
         0.00000E+00
         0.00000E+00
         0.00000E+00
         0.00000E+00
         0.00000E+00
         0.00000E+00
         0.00000E+00
         0.00000E+00
         0.00000E+00
         0.00000E+00
         0.00000E+00
         0.00000E+00
         0.00000E+00
         0.00000E+00
         0.00000E+00
         0.00000E+00
         0.00000E+00
         0.00000E+00
         0.00000E+00
         0.00000E+00
         0.00000E+00
         0.00000E+00
         0.00000E+00
         0.00000E+00
         0.00000E+00
         0.00000E+00
         0.00000E+00
         0.00000E+00
         0.00000E+00
         0.00000E+00
         0.00000E+00
         0.00000E+00
         0.00000E+00
         0.00000E+00
         0.00000E+00
         0.00000E+00
         0.00000E+00
         0.00000E+00
         0.00000E+00
         0.00000E+00
         0.00000E+00
         0.00000E+00
         0.00000E+00
         0.00000E+00
         0.00000E+00
         0.00000E+00
         0.00000E+00
         0.00000E+00
         0.00000E+00
         0.00000E+00
         0.00000E+00
         0.00000E+00
         0.00000E+00
         0.00000E+00
         0.00000E+00
         0.00000E+00
         0.00000E+00
         0.00000E+00
         0.00000E+00
         0.00000E+00
         0.00000E+00
         0.00000E+00
         0.00000E+00
         0.00000E+00
         0.00000E+00
         0.00000E+00
         0.00000E+00
         0.00000E+00
         0.00000E+00
         0.00000E+00
         0.00000E+00
         0.00000E+00
         0.00000E+00
         0.00000E+00
         0.00000E+00
         0.00000E+00
         0.00000E+00
         0.00000E+00
         0.00000E+00
         0.00000E+00
         0.00000E+00
         0.00000E+00
         0.00000E+00
         0.00000E+00
         0.00000E+00
         0.00000E+00
         0.00000E+00
         0.00000E+00
         0.00000E+00
         0.00000E+00
         0.00000E+00
         0.00000E+00
         0.00000E+00
         0.00000E+00
         0.00000E+00
         0.00000E+00
         0.00000E+00
         0.00000E+00
         0.00000E+00
         0.00000E+00
         0.00000E+00
         0.00000E+00
         0.00000E+00
         0.00000E+00
         0.00000E+00
         0.00000E+00
         0.00000E+00
         0.00000E+00
         0.00000E+00
         0.00000E+00
         0.00000E+00
         0.00000E+00
         0.00000E+00
         0.00000E+00
         0.00000E+00
         0.00000E+00
         0.00000E+00
         0.00000E+00
         0.00000E+00
         0.00000E+00
         0.00000E+00
         0.00000E+00
         0.00000E+00
         0.00000E+00
         0.00000E+00
         0.00000E+00
         0.00000E+00
         0.00000E+00
         0.00000E+00
         0.00000E+00
         0.00000E+00
         0.00000E+00
         0.00000E+00
         0.00000E+00
         0.00000E+00
         0.00000E+00
         0.00000E+00
         0.00000E+00
         0.00000E+00
         0.00000E+00
         0.00000E+00
         0.00000E+00
         0.00000E+00
         0.00000E+00
         0.00000E+00
         0.00000E+00
         0.00000E+00
         0.00000E+00
         0.00000E+00
         0.00000E+00
         0.00000E+00
         0.00000E+00
         0.00000E+00
         0.00000E+00
         0.00000E+00
         0.00000E+00
         0.00000E+00
         0.00000E+00
         0.00000E+00
         0.00000E+00
         0.00000E+00
         0.00000E+00
         0.00000E+00
         0.00000E+00
         0.00000E+00
         0.00000E+00
         0.00000E+00
         0.00000E+00
         0.00000E+00
         0.00000E+00
         0.00000E+00
         0.00000E+00
         0.00000E+00
         0.00000E+00
         0.00000E+00
         0.00000E+00
         0.00000E+00
         0.00000E+00
         0.00000E+00
         0.00000E+00
         0.00000E+00
         0.00000E+00
         0.00000E+00
         0.00000E+00
         0.00000E+00
         0.00000E+00
         0.00000E+00
         0.00000E+00
         0.00000E+00
         0.00000E+00
         0.00000E+00
         0.00000E+00
         0.00000E+00
         0.00000E+00
         0.00000E+00
         0.00000E+00
         0.00000E+00
         0.00000E+00
         0.00000E+00
         0.00000E+00
         0.00000E+00
         0.00000E+00
         0.00000E+00
         0.00000E+00
         0.00000E+00
         0.00000E+00
         0.00000E+00
         0.00000E+00
         0.00000E+00
         0.00000E+00
         0.00000E+00
         0.00000E+00
         0.00000E+00
         0.00000E+00
         0.00000E+00
         0.00000E+00
         0.00000E+00
         0.00000E+00
         0.00000E+00
         0.00000E+00
         0.00000E+00
         0.00000E+00
         0.00000E+00
         0.00000E+00
         0.00000E+00
         0.00000E+00
         0.00000E+00
         0.00000E+00
         0.00000E+00
         0.00000E+00
         0.00000E+00
         0.00000E+00
         0.00000E+00
         0.00000E+00
         0.00000E+00
         0.00000E+00
         0.00000E+00
         0.00000E+00
         0.00000E+00
         0.00000E+00
         0.00000E+00
         0.00000E+00
         0.00000E+00
         0.00000E+00
         0.00000E+00
         0.00000E+00
         0.00000E+00
         0.00000E+00
         0.00000E+00
         0.00000E+00
         0.00000E+00
         0.00000E+00
         0.00000E+00
         0.00000E+00
         0.00000E+00
         0.00000E+00
         0.00000E+00
         0.00000E+00
         0.00000E+00
         0.00000E+00
         0.00000E+00
         0.00000E+00
         0.00000E+00
         0.00000E+00
         0.00000E+00
         0.00000E+00
         0.00000E+00
         0.00000E+00
         0.00000E+00
         0.00000E+00
         0.00000E+00
         0.00000E+00
         0.00000E+00
         0.00000E+00
         0.00000E+00
         0.00000E+00
         0.00000E+00
         0.00000E+00
         0.00000E+00
         0.00000E+00
         0.00000E+00
         0.00000E+00
         0.00000E+00
         0.00000E+00
         0.00000E+00
         0.00000E+00
         0.00000E+00
         0.00000E+00
         0.00000E+00
         0.00000E+00
         0.00000E+00
         0.00000E+00
         0.00000E+00
         0.00000E+00
         0.00000E+00
         0.00000E+00
         0.00000E+00
         0.00000E+00
         0.00000E+00
         0.00000E+00
         0.00000E+00
         0.00000E+00
         0.00000E+00
         0.00000E+00
         0.00000E+00
         0.00000E+00
         0.00000E+00
         0.00000E+00
         0.00000E+00
         0.00000E+00
         0.00000E+00
         0.00000E+00
         0.00000E+00
         0.00000E+00
         0.00000E+00
         0.00000E+00
         0.00000E+00
         0.00000E+00
         0.00000E+00
         0.00000E+00
         0.00000E+00
         0.00000E+00
         0.00000E+00
         0.00000E+00
         0.00000E+00
         0.00000E+00
         0.00000E+00
         0.00000E+00
         0.00000E+00
         0.00000E+00
         0.00000E+00
         0.00000E+00
         0.00000E+00
         0.00000E+00
         0.00000E+00
         0.00000E+00
         0.00000E+00
         0.00000E+00
         0.00000E+00
         0.00000E+00
         0.00000E+00
         0.00000E+00
         0.00000E+00
         0.00000E+00
         0.00000E+00
         0.00000E+00
         0.00000E+00
         0.00000E+00
         0.00000E+00
         0.00000E+00
         0.00000E+00
         0.00000E+00
         0.00000E+00
         0.00000E+00
         0.00000E+00
         0.00000E+00
         0.00000E+00
         0.00000E+00
         0.00000E+00
         0.00000E+00
         0.00000E+00
         0.00000E+00
         0.00000E+00
         0.00000E+00
         0.00000E+00
         0.00000E+00
         0.00000E+00
         0.00000E+00
         0.00000E+00
         0.00000E+00
         0.00000E+00
         0.00000E+00
         0.00000E+00
         0.00000E+00
         0.00000E+00
         0.00000E+00
         0.00000E+00
         0.00000E+00
         0.00000E+00
         0.00000E+00
         0.00000E+00
         0.00000E+00
         0.00000E+00
         0.00000E+00
         0.00000E+00
         0.00000E+00
         0.00000E+00
         0.00000E+00
         0.00000E+00
         0.00000E+00
         0.00000E+00
         0.00000E+00
         0.00000E+00
         0.00000E+00
         0.00000E+00
         0.00000E+00
         0.00000E+00
         0.00000E+00
         0.00000E+00
         0.00000E+00
         0.00000E+00
         0.00000E+00
         0.00000E+00
         0.00000E+00
         0.00000E+00
         0.00000E+00
         0.00000E+00
         0.00000E+00
         0.00000E+00
         0.00000E+00
         0.00000E+00
         0.00000E+00
         0.00000E+00
         0.00000E+00
         0.00000E+00
         0.00000E+00
         0.00000E+00
         0.00000E+00
         0.00000E+00
         0.00000E+00
         0.00000E+00
         0.00000E+00
         0.00000E+00
         0.00000E+00
         0.00000E+00
         0.00000E+00
         0.00000E+00
         0.00000E+00
         0.00000E+00
         0.00000E+00
         0.00000E+00
         0.00000E+00
         0.00000E+00
         0.00000E+00
         0.00000E+00
         0.00000E+00
         0.00000E+00
         0.00000E+00
         0.00000E+00
         0.00000E+00
         0.00000E+00
         0.00000E+00
         0.00000E+00
         0.00000E+00
         0.00000E+00
         0.00000E+00
         0.00000E+00
         0.00000E+00
         0.00000E+00
         0.00000E+00
         0.00000E+00
         0.00000E+00
         0.00000E+00
         0.00000E+00
         0.00000E+00
         0.00000E+00
         0.00000E+00
         0.00000E+00
         0.00000E+00
         0.00000E+00
         0.00000E+00
         0.00000E+00
         0.00000E+00
         0.00000E+00
         0.00000E+00
         0.00000E+00
         0.00000E+00
         0.00000E+00
         0.00000E+00
         0.00000E+00
         0.00000E+00
         0.00000E+00
         0.00000E+00
         0.00000E+00
         0.00000E+00
         0.00000E+00
         0.00000E+00
         0.00000E+00
         0.00000E+00
         0.00000E+00
         0.00000E+00
         0.00000E+00
         0.00000E+00
         0.00000E+00
         0.00000E+00
         0.00000E+00
         0.00000E+00
         0.00000E+00
         0.00000E+00
         0.00000E+00
         0.00000E+00
         0.00000E+00
         0.00000E+00
         0.00000E+00
         0.00000E+00
         0.00000E+00
         0.00000E+00
         0.00000E+00
         0.00000E+00
         0.00000E+00
         0.00000E+00
         0.00000E+00
         0.00000E+00
         0.00000E+00
         0.00000E+00
         0.00000E+00
         0.00000E+00
         0.00000E+00
         0.00000E+00
         0.00000E+00
         0.00000E+00
         0.00000E+00
         0.00000E+00
         0.00000E+00
         0.00000E+00
         0.00000E+00
         0.00000E+00
         0.00000E+00
         0.00000E+00
         0.00000E+00
         0.00000E+00
         0.00000E+00
         0.00000E+00
         0.00000E+00
         0.00000E+00
         0.00000E+00
         0.00000E+00
         0.00000E+00
         0.00000E+00
         0.00000E+00
         0.00000E+00
         0.00000E+00
         0.00000E+00
         0.00000E+00
         0.00000E+00
         0.00000E+00
         0.00000E+00
         0.00000E+00
         0.00000E+00
         0.00000E+00
         0.00000E+00
         0.00000E+00
         0.00000E+00
         0.00000E+00
         0.00000E+00
         0.00000E+00
         0.00000E+00
         0.00000E+00
         0.00000E+00
         0.00000E+00
         0.00000E+00
         0.00000E+00
         0.00000E+00
         0.00000E+00
         0.00000E+00
         0.00000E+00
         0.00000E+00
         0.00000E+00
         0.00000E+00
         0.00000E+00
         0.00000E+00
         0.00000E+00
         0.00000E+00
         0.00000E+00
         0.00000E+00
         0.00000E+00
         0.00000E+00
         0.00000E+00
         0.00000E+00
         0.00000E+00
         0.00000E+00
         0.00000E+00
         0.00000E+00
         0.00000E+00
         0.00000E+00
         0.00000E+00
         0.00000E+00
         0.00000E+00
         0.00000E+00
         0.00000E+00
         0.00000E+00
         0.00000E+00
         0.00000E+00
         0.00000E+00
         0.00000E+00
         0.00000E+00
         0.00000E+00
         0.00000E+00
         0.00000E+00
         0.00000E+00
         0.00000E+00
         0.00000E+00
         0.00000E+00
         0.00000E+00
         0.00000E+00
         0.00000E+00
         0.00000E+00
         0.00000E+00
         0.00000E+00
         0.00000E+00
         0.00000E+00
         0.00000E+00
         0.00000E+00
         0.00000E+00
         0.00000E+00
         0.00000E+00
         0.00000E+00
         0.00000E+00
         0.00000E+00
         0.00000E+00
         0.00000E+00
         0.00000E+00
         0.00000E+00
         0.00000E+00
         0.00000E+00
         0.00000E+00
         0.00000E+00
         0.00000E+00
         0.00000E+00
         0.00000E+00
         0.00000E+00
         0.00000E+00
         0.00000E+00
         0.00000E+00
         0.00000E+00
         0.00000E+00
         0.00000E+00
         0.00000E+00
         0.00000E+00
         0.00000E+00
         0.00000E+00
         0.00000E+00
         0.00000E+00
         0.00000E+00
         0.00000E+00
         0.00000E+00
         0.00000E+00
         0.00000E+00
         0.00000E+00
         0.00000E+00
         0.00000E+00
         0.00000E+00
         0.00000E+00
         0.00000E+00
         0.00000E+00
         0.00000E+00
         0.00000E+00
         0.00000E+00
         0.00000E+00
         0.00000E+00
         0.00000E+00
         0.00000E+00
         0.00000E+00
         0.00000E+00
         0.00000E+00
         0.00000E+00
         0.00000E+00
         0.00000E+00
         0.00000E+00
         0.00000E+00
         0.00000E+00
         0.00000E+00
         0.00000E+00
         0.00000E+00
         0.00000E+00
         0.00000E+00
         0.00000E+00
         0.00000E+00
         0.00000E+00
         0.00000E+00
         0.00000E+00
         0.00000E+00
         0.00000E+00
         0.00000E+00
         0.00000E+00
         0.00000E+00
         0.00000E+00
         0.00000E+00
         0.00000E+00
         0.00000E+00
         0.00000E+00
         0.00000E+00
         0.00000E+00
         0.00000E+00
         0.00000E+00
         0.00000E+00
         0.00000E+00
         0.00000E+00
         0.00000E+00
         0.00000E+00
         0.00000E+00
         0.00000E+00
         0.00000E+00
         0.00000E+00
         0.00000E+00
         0.00000E+00
         0.00000E+00
         0.00000E+00
         0.00000E+00
         0.00000E+00
         0.00000E+00
         0.00000E+00
         0.00000E+00
         0.00000E+00
         0.00000E+00
         0.00000E+00
         0.00000E+00
         0.00000E+00
         0.00000E+00
         0.00000E+00
         0.00000E+00
         0.00000E+00
         0.00000E+00
         0.00000E+00
         0.00000E+00
         0.00000E+00
         0.00000E+00
         0.00000E+00
         0.00000E+00
         0.00000E+00
         0.00000E+00
         0.00000E+00
         0.00000E+00
         0.00000E+00
         0.00000E+00
         0.00000E+00
         0.00000E+00
         0.00000E+00
         0.00000E+00
         0.00000E+00
         0.00000E+00
         0.00000E+00
         0.00000E+00
         0.00000E+00
         0.00000E+00
         0.00000E+00
         0.00000E+00
         0.00000E+00
         0.00000E+00
         0.00000E+00
         0.00000E+00
         0.00000E+00
         0.00000E+00
         0.00000E+00
         0.00000E+00
         0.00000E+00
         0.00000E+00
         0.00000E+00
         0.00000E+00
         0.00000E+00
         0.00000E+00
         0.00000E+00
         0.00000E+00
         0.00000E+00
         0.00000E+00
         0.00000E+00
         0.00000E+00
         0.00000E+00
         0.00000E+00
         0.00000E+00
         0.00000E+00
         0.00000E+00
         0.00000E+00
         0.00000E+00
         0.00000E+00
         0.00000E+00
         0.00000E+00
         0.00000E+00
         0.00000E+00
         0.00000E+00
         0.00000E+00
         0.00000E+00
         0.00000E+00
         0.00000E+00
         0.00000E+00
         0.00000E+00
         0.00000E+00
         0.00000E+00
         0.00000E+00
         0.00000E+00
         0.00000E+00
         0.00000E+00
         0.00000E+00
         0.00000E+00
         0.00000E+00
         0.00000E+00
         0.00000E+00
         0.00000E+00
         0.00000E+00
         0.00000E+00
         0.00000E+00
         0.00000E+00
         0.00000E+00
         0.00000E+00
         0.00000E+00
         0.00000E+00
         0.00000E+00
         0.00000E+00
         0.00000E+00
         0.00000E+00
         0.00000E+00
         0.00000E+00
         0.00000E+00
         0.00000E+00
         0.00000E+00
         0.00000E+00
         0.00000E+00
         0.00000E+00
         0.00000E+00
         0.00000E+00
         0.00000E+00
         0.00000E+00
         0.00000E+00
         0.00000E+00
         0.00000E+00
         0.00000E+00
         0.00000E+00
         0.00000E+00
         0.00000E+00
         0.00000E+00
         0.00000E+00
         0.00000E+00
         0.00000E+00
         0.00000E+00
         0.00000E+00
         0.00000E+00
         0.00000E+00
         0.00000E+00
         0.00000E+00
         0.00000E+00
         0.00000E+00
         0.00000E+00
         0.00000E+00
         0.00000E+00
         0.00000E+00
         0.00000E+00
         0.00000E+00
         0.00000E+00
         0.00000E+00
         0.00000E+00
         0.00000E+00
         0.00000E+00
         0.00000E+00
         0.00000E+00
         0.00000E+00
         0.00000E+00
         0.00000E+00
         0.00000E+00
         0.00000E+00
         0.00000E+00
         0.00000E+00
         0.00000E+00
         0.00000E+00
         0.00000E+00
         0.00000E+00
         0.00000E+00
         0.00000E+00
         0.00000E+00
         0.00000E+00
         0.00000E+00
         0.00000E+00
         0.00000E+00
         0.00000E+00
         0.00000E+00
         0.00000E+00
         0.00000E+00
         0.00000E+00
         0.00000E+00
         0.00000E+00
         0.00000E+00
         0.00000E+00
         0.00000E+00
         0.00000E+00
         0.00000E+00
         0.00000E+00
         0.00000E+00
         0.00000E+00
         0.00000E+00
         0.00000E+00
         0.00000E+00
         0.00000E+00
         0.00000E+00
         0.00000E+00
         0.00000E+00
         0.00000E+00
         0.00000E+00
         0.00000E+00
         0.00000E+00
         0.00000E+00
         0.00000E+00
         0.00000E+00
         0.00000E+00
         0.00000E+00
         0.00000E+00
         0.00000E+00
         0.00000E+00
         0.00000E+00
         0.00000E+00
         0.00000E+00
         0.00000E+00
         0.00000E+00
         0.00000E+00
         0.00000E+00
         0.00000E+00
         0.00000E+00
         0.00000E+00
         0.00000E+00
         0.00000E+00
         0.00000E+00
         0.00000E+00
         0.00000E+00
         0.00000E+00
         0.00000E+00
         0.00000E+00
         0.00000E+00
         0.00000E+00
         0.00000E+00
         0.00000E+00
         0.00000E+00
         0.00000E+00
         0.00000E+00
         0.00000E+00
         0.00000E+00
         0.00000E+00
         0.00000E+00
         0.00000E+00
         0.00000E+00
         0.00000E+00
         0.00000E+00
         0.00000E+00
         0.00000E+00
         0.00000E+00
         0.00000E+00
         0.00000E+00
         0.00000E+00
         0.00000E+00
         0.00000E+00
         0.00000E+00
         0.00000E+00
         0.00000E+00
         0.00000E+00
         0.00000E+00
         0.00000E+00
         0.00000E+00
         0.00000E+00
         0.00000E+00
         0.00000E+00
         0.00000E+00
         0.00000E+00
         0.00000E+00
         0.00000E+00
         0.00000E+00
         0.00000E+00
         0.00000E+00
         0.00000E+00
         0.00000E+00
         0.00000E+00
         0.00000E+00
         0.00000E+00
         0.00000E+00
         0.00000E+00
         0.00000E+00
         0.00000E+00
         0.00000E+00
         0.00000E+00
         0.00000E+00
         0.00000E+00
         0.00000E+00
         0.00000E+00
         0.00000E+00
         0.00000E+00
         0.00000E+00
         0.00000E+00
         0.00000E+00
         0.00000E+00
         0.00000E+00
         0.00000E+00
         0.00000E+00
         0.00000E+00
         0.00000E+00
         0.00000E+00
         0.00000E+00
         0.00000E+00
         0.00000E+00
         0.00000E+00
         0.00000E+00
         0.00000E+00
         0.00000E+00
         0.00000E+00
         0.00000E+00
         0.00000E+00
         0.00000E+00
         0.00000E+00
         0.00000E+00
         0.00000E+00
         0.00000E+00
         0.00000E+00
         0.00000E+00
         0.00000E+00
         0.00000E+00
         0.00000E+00
         0.00000E+00
         0.00000E+00
         0.00000E+00
         0.00000E+00
         0.00000E+00
         0.00000E+00
         0.00000E+00
         0.00000E+00
         0.00000E+00
         0.00000E+00
         0.00000E+00
         0.00000E+00
         0.00000E+00
         0.00000E+00
         0.00000E+00
         0.00000E+00
         0.00000E+00
         0.00000E+00
         0.00000E+00
         0.00000E+00
         0.00000E+00
         0.00000E+00
         0.00000E+00
         0.00000E+00
         0.00000E+00
         0.00000E+00
         0.00000E+00
         0.00000E+00
         0.00000E+00
         0.00000E+00
         0.00000E+00
         0.00000E+00
         0.00000E+00
         0.00000E+00
         0.00000E+00
         0.00000E+00
         0.00000E+00
         0.00000E+00
         0.00000E+00
         0.00000E+00
         0.00000E+00
         0.00000E+00
         0.00000E+00
         0.00000E+00
         0.00000E+00
         0.00000E+00
         0.00000E+00
         0.00000E+00
         0.00000E+00
         0.00000E+00
         0.00000E+00
         0.00000E+00
         0.00000E+00
         0.00000E+00
         0.00000E+00
         0.00000E+00
         0.00000E+00
         0.00000E+00
         0.00000E+00
         0.00000E+00
         0.00000E+00
         0.00000E+00
         0.00000E+00
         0.00000E+00
         0.00000E+00
         0.00000E+00
         0.00000E+00
         0.00000E+00
         0.00000E+00
         0.00000E+00
         0.00000E+00
         0.00000E+00
         0.00000E+00
         0.00000E+00
         0.00000E+00
         0.00000E+00
         0.00000E+00
         0.00000E+00
         0.00000E+00
         0.00000E+00
         0.00000E+00
         0.00000E+00
         0.00000E+00
         0.00000E+00
         0.00000E+00
         0.00000E+00
         0.00000E+00
         0.00000E+00
         0.00000E+00
         0.00000E+00
         0.00000E+00
         0.00000E+00
         0.00000E+00
         0.00000E+00
         0.00000E+00
         0.00000E+00
         0.00000E+00
         0.00000E+00
         0.00000E+00
         0.00000E+00
         0.00000E+00
         0.00000E+00
         0.00000E+00
         0.00000E+00
         0.00000E+00
         0.00000E+00
         0.00000E+00
         0.00000E+00
         0.00000E+00
         0.00000E+00
         0.00000E+00
         0.00000E+00
         0.00000E+00
         0.00000E+00
         0.00000E+00
         0.00000E+00
         0.00000E+00
         0.00000E+00
         0.00000E+00
         0.00000E+00
         0.00000E+00
         0.00000E+00
         0.00000E+00
         0.00000E+00
         0.00000E+00
         0.00000E+00
         0.00000E+00
         0.00000E+00
         0.00000E+00
         0.00000E+00
         0.00000E+00
         0.00000E+00
         0.00000E+00
         0.00000E+00
         0.00000E+00
         0.00000E+00
         0.00000E+00
         0.00000E+00
         0.00000E+00
         0.00000E+00
         0.00000E+00
         0.00000E+00
         0.00000E+00
         0.00000E+00
         0.00000E+00
         0.00000E+00
         0.00000E+00
         0.00000E+00
         0.00000E+00
         0.00000E+00
         0.00000E+00
         0.00000E+00
         0.00000E+00
         0.00000E+00
         0.00000E+00
         0.00000E+00
         0.00000E+00
         0.00000E+00
         0.00000E+00
         0.00000E+00
         0.00000E+00
         0.00000E+00
         0.00000E+00
         0.00000E+00
         0.00000E+00
         0.00000E+00
         0.00000E+00
         0.00000E+00
         0.00000E+00
         0.00000E+00
         0.00000E+00
         0.00000E+00
         0.00000E+00
         0.00000E+00
         0.00000E+00
         0.00000E+00
         0.00000E+00
         0.00000E+00
         0.00000E+00
         0.00000E+00
         0.00000E+00
         0.00000E+00
         0.00000E+00
         0.00000E+00
         0.00000E+00
         0.00000E+00
         0.00000E+00
         0.00000E+00
         0.00000E+00
         0.00000E+00
         0.00000E+00
         0.00000E+00
         0.00000E+00
         0.00000E+00
         0.00000E+00
         0.00000E+00
         0.00000E+00
         0.00000E+00
         0.00000E+00
         0.00000E+00
         0.00000E+00
         0.00000E+00
         0.00000E+00
         0.00000E+00
         0.00000E+00
         0.00000E+00
         0.00000E+00
         0.00000E+00
         0.00000E+00
         0.00000E+00
         0.00000E+00
         0.00000E+00
         0.00000E+00
         0.00000E+00
         0.00000E+00
         0.00000E+00
         0.00000E+00
         0.00000E+00
         0.00000E+00
         0.00000E+00
         0.00000E+00
         0.00000E+00
         0.00000E+00
         0.00000E+00
         0.00000E+00
         0.00000E+00
         0.00000E+00
         0.00000E+00
         0.00000E+00
         0.00000E+00
         0.00000E+00
         0.00000E+00
         0.00000E+00
         0.00000E+00
         0.00000E+00
         0.00000E+00
         0.00000E+00
         0.00000E+00
         0.00000E+00
         0.00000E+00
         0.00000E+00
         0.00000E+00
         0.00000E+00
         0.00000E+00
         0.00000E+00
         0.00000E+00
         0.00000E+00
         0.00000E+00
         0.00000E+00
         0.00000E+00
         0.00000E+00
         0.00000E+00
         0.00000E+00
         0.00000E+00
         0.00000E+00
         0.00000E+00
         0.00000E+00
         0.00000E+00
         0.00000E+00
         0.00000E+00
         0.00000E+00
         0.00000E+00
         0.00000E+00
         0.00000E+00
         0.00000E+00
         0.00000E+00
         0.00000E+00
         0.00000E+00
         0.00000E+00
         0.00000E+00
         0.00000E+00
         0.00000E+00
         0.00000E+00
         0.00000E+00
         0.00000E+00
         0.00000E+00
         0.00000E+00
         0.00000E+00
         0.00000E+00
         0.00000E+00
         0.00000E+00
         0.00000E+00
         0.00000E+00
         0.00000E+00
         0.00000E+00
         0.00000E+00
         0.00000E+00
         0.00000E+00
         0.00000E+00
         0.00000E+00
         0.00000E+00
         0.00000E+00
         0.00000E+00
         0.00000E+00
         0.00000E+00
         0.00000E+00
         0.00000E+00
         0.00000E+00
         0.00000E+00
         0.00000E+00
         0.00000E+00
         0.00000E+00
         0.00000E+00
         0.00000E+00
         0.00000E+00
         0.00000E+00
         0.00000E+00
         0.00000E+00
         0.00000E+00
         0.00000E+00
         0.00000E+00
         0.00000E+00
         0.00000E+00
         0.00000E+00
         0.00000E+00
         0.00000E+00
         0.00000E+00
         0.00000E+00
         0.00000E+00
         0.00000E+00
         0.00000E+00
         0.00000E+00
         0.00000E+00
         0.00000E+00
         0.00000E+00
         0.00000E+00
         0.00000E+00
         0.00000E+00
         0.00000E+00
         0.00000E+00
         0.00000E+00
         0.00000E+00
         0.00000E+00
         0.00000E+00
         0.00000E+00
         0.00000E+00
         0.00000E+00
         0.00000E+00
         0.00000E+00
         0.00000E+00
         0.00000E+00
         0.00000E+00
         0.00000E+00
         0.00000E+00
         0.00000E+00
         0.00000E+00
         0.00000E+00
         0.00000E+00
         0.00000E+00
         0.00000E+00
         0.00000E+00
         0.00000E+00
         0.00000E+00
         0.00000E+00
         0.00000E+00
         0.00000E+00
         0.00000E+00
         0.00000E+00
         0.00000E+00
         0.00000E+00
         0.00000E+00
         0.00000E+00
         0.00000E+00
         0.00000E+00
         0.00000E+00
         0.00000E+00
         0.00000E+00
         0.00000E+00
         0.00000E+00
         0.00000E+00
         0.00000E+00
         0.00000E+00
         0.00000E+00
         0.00000E+00
         0.00000E+00
         0.00000E+00
         0.00000E+00
         0.00000E+00
         0.00000E+00
         0.00000E+00
         0.00000E+00
         0.00000E+00
         0.00000E+00
         0.00000E+00
         0.00000E+00
         0.00000E+00
         0.00000E+00
         0.00000E+00
         0.00000E+00
         0.00000E+00
         0.00000E+00
         0.00000E+00
         0.00000E+00
         0.00000E+00
         0.00000E+00
         0.00000E+00
         0.00000E+00
         0.00000E+00
         0.00000E+00
         0.00000E+00
         0.00000E+00
         0.00000E+00
         0.00000E+00
         0.00000E+00
         0.00000E+00
         0.00000E+00
         0.00000E+00
         0.00000E+00
         0.00000E+00
         0.00000E+00
         0.00000E+00
         0.00000E+00
         0.00000E+00
         0.00000E+00
         0.00000E+00
         0.00000E+00
         0.00000E+00
         0.00000E+00
         0.00000E+00
         0.00000E+00
         0.00000E+00
         0.00000E+00
         0.00000E+00
         0.00000E+00
         0.00000E+00
         0.00000E+00
         0.00000E+00
         0.00000E+00
         0.00000E+00
         0.00000E+00
         0.00000E+00
         0.00000E+00
         0.00000E+00
         0.00000E+00
         0.00000E+00
         0.00000E+00
         0.00000E+00
         0.00000E+00
         0.00000E+00
         0.00000E+00
         0.00000E+00
         0.00000E+00
         0.00000E+00
         0.00000E+00
         0.00000E+00
         0.00000E+00
         0.00000E+00
         0.00000E+00
         0.00000E+00
         0.00000E+00
         0.00000E+00
         0.00000E+00
         0.00000E+00
         0.00000E+00
         0.00000E+00
         0.00000E+00
         0.00000E+00
         0.00000E+00
         0.00000E+00
         0.00000E+00
         0.00000E+00
         0.00000E+00
         0.00000E+00
         0.00000E+00
         0.00000E+00
         0.00000E+00
         0.00000E+00
         0.00000E+00
         0.00000E+00
         0.00000E+00
         0.00000E+00
         0.00000E+00
         0.00000E+00
         0.00000E+00
         0.00000E+00
         0.00000E+00
         0.00000E+00
         0.00000E+00
         0.00000E+00
         0.00000E+00
         0.00000E+00
         0.00000E+00
         0.00000E+00
         0.00000E+00
         0.00000E+00
         0.00000E+00
         0.00000E+00
         0.00000E+00
         0.00000E+00
         0.00000E+00
         0.00000E+00
         0.00000E+00
         0.00000E+00
         0.00000E+00
         0.00000E+00
         0.00000E+00
         0.00000E+00
         0.00000E+00
         0.00000E+00
         0.00000E+00
         0.00000E+00
         0.00000E+00
         0.00000E+00
         0.00000E+00
         0.00000E+00
         0.00000E+00
         0.00000E+00
         0.00000E+00
         0.00000E+00
         0.00000E+00
         0.00000E+00
         0.00000E+00
         0.00000E+00
         0.00000E+00
         0.00000E+00
         0.00000E+00
         0.00000E+00
         0.00000E+00
         0.00000E+00
         0.00000E+00
         0.00000E+00
         0.00000E+00
         0.00000E+00
         0.00000E+00
         0.00000E+00
         0.00000E+00
         0.00000E+00
         0.00000E+00
         0.00000E+00
         0.00000E+00
         0.00000E+00
         0.00000E+00
         0.00000E+00
         0.00000E+00
         0.00000E+00
         0.00000E+00
         0.00000E+00
         0.00000E+00
         0.00000E+00
         0.00000E+00
         0.00000E+00
         0.00000E+00
         0.00000E+00
         0.00000E+00
         0.00000E+00
         0.00000E+00
         0.00000E+00
         0.00000E+00
         0.00000E+00
         0.00000E+00
         0.00000E+00
         0.00000E+00
         0.00000E+00
         0.00000E+00
         0.00000E+00
         0.00000E+00
         0.00000E+00
         0.00000E+00
         0.00000E+00
         0.00000E+00
         0.00000E+00
         0.00000E+00
         0.00000E+00
         0.00000E+00
         0.00000E+00
         0.00000E+00
         0.00000E+00
         0.00000E+00
         0.00000E+00
         0.00000E+00
         0.00000E+00
         0.00000E+00
         0.00000E+00
         0.00000E+00
         0.00000E+00
         0.00000E+00
         0.00000E+00
         0.00000E+00
         0.00000E+00
         0.00000E+00
         0.00000E+00
         0.00000E+00
         0.00000E+00
         0.00000E+00
         0.00000E+00
         0.00000E+00
         0.00000E+00
         0.00000E+00
         0.00000E+00
         0.00000E+00
         0.00000E+00
         0.00000E+00
         0.00000E+00
         0.00000E+00
         0.00000E+00
         0.00000E+00
         0.00000E+00
         0.00000E+00
         0.00000E+00
         0.00000E+00
         0.00000E+00
         0.00000E+00
         0.00000E+00
         0.00000E+00
         0.00000E+00
         0.00000E+00
         0.00000E+00
         0.00000E+00
         0.00000E+00
         0.00000E+00
         0.00000E+00
         0.00000E+00
         0.00000E+00
         0.00000E+00
         0.00000E+00
         0.00000E+00
         0.00000E+00
         0.00000E+00
         0.00000E+00
         0.00000E+00
         0.00000E+00
         0.00000E+00
         0.00000E+00
         0.00000E+00
         0.00000E+00
         0.00000E+00
         0.00000E+00
         0.00000E+00
         0.00000E+00
         0.00000E+00
         0.00000E+00
         0.00000E+00
         0.00000E+00
         0.00000E+00
         0.00000E+00
         0.00000E+00
         0.00000E+00
         0.00000E+00
         0.00000E+00
         0.00000E+00
         0.00000E+00
         0.00000E+00
         0.00000E+00
         0.00000E+00
         0.00000E+00
         0.00000E+00
         0.00000E+00
         0.00000E+00
         0.00000E+00
         0.00000E+00
         0.00000E+00
         0.00000E+00
         0.00000E+00
         0.00000E+00
         0.00000E+00
         0.00000E+00
         0.00000E+00
         0.00000E+00
         0.00000E+00
         0.00000E+00
         0.00000E+00
         0.00000E+00
         0.00000E+00
         0.00000E+00
         0.00000E+00
         0.00000E+00
         0.00000E+00
         0.00000E+00
         0.00000E+00
         0.00000E+00
         0.00000E+00
         0.00000E+00
         0.00000E+00
         0.00000E+00
         0.00000E+00
         0.00000E+00
         0.00000E+00
         0.00000E+00
         0.00000E+00
         0.00000E+00
         0.00000E+00
         0.00000E+00
         0.00000E+00
         0.00000E+00
         0.00000E+00
         0.00000E+00
         0.00000E+00
         0.00000E+00
         0.00000E+00
         0.00000E+00
         0.00000E+00
         0.00000E+00
         0.00000E+00
         0.00000E+00
         0.00000E+00
         0.00000E+00
         0.00000E+00
         0.00000E+00
         0.00000E+00
         0.00000E+00
         0.00000E+00
         0.00000E+00
         0.00000E+00
         0.00000E+00
         0.00000E+00
         0.00000E+00
         0.00000E+00
         0.00000E+00
         0.00000E+00
         0.00000E+00
         0.00000E+00
         0.00000E+00
         0.00000E+00
         0.00000E+00
         0.00000E+00
         0.00000E+00
         0.00000E+00
         0.00000E+00
         0.00000E+00
         0.00000E+00
         0.00000E+00
         0.00000E+00
         0.00000E+00
         0.00000E+00
         0.00000E+00
         0.00000E+00
         0.00000E+00
         0.00000E+00
         0.00000E+00
         0.00000E+00
         0.00000E+00
         0.00000E+00
         0.00000E+00
         0.00000E+00
         0.00000E+00
         0.00000E+00
         0.00000E+00
         0.00000E+00
         0.00000E+00
         0.00000E+00
         0.00000E+00
         0.00000E+00
         0.00000E+00
         0.00000E+00
         0.00000E+00
         0.00000E+00
         0.00000E+00
         0.00000E+00
         0.00000E+00
         0.00000E+00
         0.00000E+00
         0.00000E+00
         0.00000E+00
         0.00000E+00
         0.00000E+00
  
SCALARS                         fint_x  double 1
LOOKUP_TABLE default
         0.00000E+00
         0.00000E+00
         0.00000E+00
         0.00000E+00
         0.00000E+00
         0.00000E+00
         0.00000E+00
         0.00000E+00
         0.00000E+00
         0.00000E+00
         0.00000E+00
         0.00000E+00
         0.00000E+00
         0.00000E+00
         0.00000E+00
         0.00000E+00
         0.00000E+00
         0.00000E+00
         0.00000E+00
         0.00000E+00
         0.00000E+00
         0.00000E+00
         0.00000E+00
         0.00000E+00
         0.00000E+00
         0.00000E+00
         0.00000E+00
         0.00000E+00
         0.00000E+00
         0.00000E+00
         0.00000E+00
         0.00000E+00
         0.00000E+00
         0.00000E+00
         0.00000E+00
         0.00000E+00
         0.00000E+00
         0.00000E+00
         0.00000E+00
         0.00000E+00
         0.00000E+00
         0.00000E+00
         0.00000E+00
         0.00000E+00
         0.00000E+00
         0.00000E+00
         0.00000E+00
         0.00000E+00
         0.00000E+00
         0.00000E+00
         0.00000E+00
         0.00000E+00
         0.00000E+00
         0.00000E+00
         0.00000E+00
         0.00000E+00
         0.00000E+00
         0.00000E+00
         0.00000E+00
         0.00000E+00
         0.00000E+00
         0.00000E+00
         0.00000E+00
         0.00000E+00
         0.00000E+00
         0.00000E+00
         0.00000E+00
         0.00000E+00
         0.00000E+00
         0.00000E+00
         0.00000E+00
         0.00000E+00
         0.00000E+00
         0.00000E+00
         0.00000E+00
         0.00000E+00
         0.00000E+00
         0.00000E+00
         0.00000E+00
         0.00000E+00
         0.00000E+00
         0.00000E+00
         0.00000E+00
         0.00000E+00
         0.00000E+00
         0.00000E+00
         0.00000E+00
         0.00000E+00
         0.00000E+00
         0.00000E+00
         0.00000E+00
         0.00000E+00
         0.00000E+00
         0.00000E+00
         0.00000E+00
         0.00000E+00
         0.00000E+00
         0.00000E+00
         0.00000E+00
         0.00000E+00
         0.00000E+00
         0.00000E+00
         0.00000E+00
         0.00000E+00
         0.00000E+00
         0.00000E+00
         0.00000E+00
         0.00000E+00
         0.00000E+00
         0.00000E+00
         0.00000E+00
         0.00000E+00
         0.00000E+00
         0.00000E+00
         0.00000E+00
         0.00000E+00
         0.00000E+00
         0.00000E+00
         0.00000E+00
         0.00000E+00
         0.00000E+00
         0.00000E+00
         0.00000E+00
         0.00000E+00
         0.00000E+00
         0.00000E+00
         0.00000E+00
         0.00000E+00
         0.00000E+00
         0.00000E+00
         0.00000E+00
         0.00000E+00
         0.00000E+00
         0.00000E+00
         0.00000E+00
         0.00000E+00
         0.00000E+00
         0.00000E+00
         0.00000E+00
         0.00000E+00
         0.00000E+00
         0.00000E+00
         0.00000E+00
         0.00000E+00
         0.00000E+00
         0.00000E+00
         0.00000E+00
         0.00000E+00
         0.00000E+00
         0.00000E+00
         0.00000E+00
         0.00000E+00
         0.00000E+00
         0.00000E+00
         0.00000E+00
         0.00000E+00
         0.00000E+00
         0.00000E+00
         0.00000E+00
         0.00000E+00
         0.00000E+00
         0.00000E+00
         0.00000E+00
         0.00000E+00
         0.00000E+00
         0.00000E+00
         0.00000E+00
         0.00000E+00
         0.00000E+00
         0.00000E+00
         0.00000E+00
         0.00000E+00
         0.00000E+00
         0.00000E+00
         0.00000E+00
         0.00000E+00
         0.00000E+00
         0.00000E+00
         0.00000E+00
         0.00000E+00
         0.00000E+00
         0.00000E+00
         0.00000E+00
         0.00000E+00
         0.00000E+00
         0.00000E+00
         0.00000E+00
         0.00000E+00
         0.00000E+00
         0.00000E+00
         0.00000E+00
         0.00000E+00
         0.00000E+00
         0.00000E+00
         0.00000E+00
         0.00000E+00
         0.00000E+00
         0.00000E+00
         0.00000E+00
         0.00000E+00
         0.00000E+00
         0.00000E+00
         0.00000E+00
         0.00000E+00
         0.00000E+00
         0.00000E+00
         0.00000E+00
         0.00000E+00
         0.00000E+00
         0.00000E+00
         0.00000E+00
         0.00000E+00
         0.00000E+00
         0.00000E+00
         0.00000E+00
         0.00000E+00
         0.00000E+00
         0.00000E+00
         0.00000E+00
         0.00000E+00
         0.00000E+00
         0.00000E+00
         0.00000E+00
         0.00000E+00
         0.00000E+00
         0.00000E+00
         0.00000E+00
         0.00000E+00
         0.00000E+00
         0.00000E+00
         0.00000E+00
         0.00000E+00
         0.00000E+00
         0.00000E+00
         0.00000E+00
         0.00000E+00
         0.00000E+00
         0.00000E+00
         0.00000E+00
         0.00000E+00
         0.00000E+00
         0.00000E+00
         0.00000E+00
         0.00000E+00
         0.00000E+00
         0.00000E+00
         0.00000E+00
         0.00000E+00
         0.00000E+00
         0.00000E+00
         0.00000E+00
         0.00000E+00
         0.00000E+00
         0.00000E+00
         0.00000E+00
         0.00000E+00
         0.00000E+00
         0.00000E+00
         0.00000E+00
         0.00000E+00
         0.00000E+00
         0.00000E+00
         0.00000E+00
         0.00000E+00
         0.00000E+00
         0.00000E+00
         0.00000E+00
         0.00000E+00
         0.00000E+00
         0.00000E+00
         0.00000E+00
         0.00000E+00
         0.00000E+00
         0.00000E+00
         0.00000E+00
         0.00000E+00
         0.00000E+00
         0.00000E+00
         0.00000E+00
         0.00000E+00
         0.00000E+00
         0.00000E+00
         0.00000E+00
         0.00000E+00
         0.00000E+00
         0.00000E+00
         0.00000E+00
         0.00000E+00
         0.00000E+00
         0.00000E+00
         0.00000E+00
         0.00000E+00
         0.00000E+00
         0.00000E+00
         0.00000E+00
         0.00000E+00
         0.00000E+00
         0.00000E+00
         0.00000E+00
         0.00000E+00
         0.00000E+00
         0.00000E+00
         0.00000E+00
         0.00000E+00
         0.00000E+00
         0.00000E+00
         0.00000E+00
         0.00000E+00
         0.00000E+00
         0.00000E+00
         0.00000E+00
         0.00000E+00
         0.00000E+00
         0.00000E+00
         0.00000E+00
         0.00000E+00
         0.00000E+00
         0.00000E+00
         0.00000E+00
         0.00000E+00
         0.00000E+00
         0.00000E+00
         0.00000E+00
         0.00000E+00
         0.00000E+00
         0.00000E+00
         0.00000E+00
         0.00000E+00
         0.00000E+00
         0.00000E+00
         0.00000E+00
         0.00000E+00
         0.00000E+00
         0.00000E+00
         0.00000E+00
         0.00000E+00
         0.00000E+00
         0.00000E+00
         0.00000E+00
         0.00000E+00
         0.00000E+00
         0.00000E+00
         0.00000E+00
         0.00000E+00
         0.00000E+00
         0.00000E+00
         0.00000E+00
         0.00000E+00
         0.00000E+00
         0.00000E+00
         0.00000E+00
         0.00000E+00
         0.00000E+00
         0.00000E+00
         0.00000E+00
         0.00000E+00
         0.00000E+00
         0.00000E+00
         0.00000E+00
         0.00000E+00
         0.00000E+00
         0.00000E+00
         0.00000E+00
         0.00000E+00
         0.00000E+00
         0.00000E+00
         0.00000E+00
         0.00000E+00
         0.00000E+00
         0.00000E+00
         0.00000E+00
         0.00000E+00
         0.00000E+00
         0.00000E+00
         0.00000E+00
         0.00000E+00
         0.00000E+00
         0.00000E+00
         0.00000E+00
         0.00000E+00
         0.00000E+00
         0.00000E+00
         0.00000E+00
         0.00000E+00
         0.00000E+00
         0.00000E+00
         0.00000E+00
         0.00000E+00
         0.00000E+00
         0.00000E+00
         0.00000E+00
         0.00000E+00
         0.00000E+00
         0.00000E+00
         0.00000E+00
         0.00000E+00
         0.00000E+00
         0.00000E+00
         0.00000E+00
         0.00000E+00
         0.00000E+00
         0.00000E+00
         0.00000E+00
         0.00000E+00
         0.00000E+00
         0.00000E+00
         0.00000E+00
         0.00000E+00
         0.00000E+00
         0.00000E+00
         0.00000E+00
         0.00000E+00
         0.00000E+00
         0.00000E+00
         0.00000E+00
         0.00000E+00
         0.00000E+00
         0.00000E+00
         0.00000E+00
         0.00000E+00
         0.00000E+00
         0.00000E+00
         0.00000E+00
         0.00000E+00
         0.00000E+00
         0.00000E+00
         0.00000E+00
         0.00000E+00
         0.00000E+00
         0.00000E+00
         0.00000E+00
         0.00000E+00
         0.00000E+00
         0.00000E+00
         0.00000E+00
         0.00000E+00
         0.00000E+00
         0.00000E+00
         0.00000E+00
         0.00000E+00
         0.00000E+00
         0.00000E+00
         0.00000E+00
         0.00000E+00
         0.00000E+00
         0.00000E+00
         0.00000E+00
         0.00000E+00
         0.00000E+00
         0.00000E+00
         0.00000E+00
         0.00000E+00
         0.00000E+00
         0.00000E+00
         0.00000E+00
         0.00000E+00
         0.00000E+00
         0.00000E+00
         0.00000E+00
         0.00000E+00
         0.00000E+00
         0.00000E+00
         0.00000E+00
         0.00000E+00
         0.00000E+00
         0.00000E+00
         0.00000E+00
         0.00000E+00
         0.00000E+00
         0.00000E+00
         0.00000E+00
         0.00000E+00
         0.00000E+00
         0.00000E+00
         0.00000E+00
         0.00000E+00
         0.00000E+00
         0.00000E+00
         0.00000E+00
         0.00000E+00
         0.00000E+00
         0.00000E+00
         0.00000E+00
         0.00000E+00
         0.00000E+00
         0.00000E+00
         0.00000E+00
         0.00000E+00
         0.00000E+00
         0.00000E+00
         0.00000E+00
         0.00000E+00
         0.00000E+00
         0.00000E+00
         0.00000E+00
         0.00000E+00
         0.00000E+00
         0.00000E+00
         0.00000E+00
         0.00000E+00
         0.00000E+00
         0.00000E+00
         0.00000E+00
         0.00000E+00
         0.00000E+00
         0.00000E+00
         0.00000E+00
         0.00000E+00
         0.00000E+00
         0.00000E+00
         0.00000E+00
         0.00000E+00
         0.00000E+00
         0.00000E+00
         0.00000E+00
         0.00000E+00
         0.00000E+00
         0.00000E+00
         0.00000E+00
         0.00000E+00
         0.00000E+00
         0.00000E+00
         0.00000E+00
         0.00000E+00
         0.00000E+00
         0.00000E+00
         0.00000E+00
         0.00000E+00
         0.00000E+00
         0.00000E+00
         0.00000E+00
         0.00000E+00
         0.00000E+00
         0.00000E+00
         0.00000E+00
         0.00000E+00
         0.00000E+00
         0.00000E+00
         0.00000E+00
         0.00000E+00
         0.00000E+00
         0.00000E+00
         0.00000E+00
         0.00000E+00
         0.00000E+00
         0.00000E+00
         0.00000E+00
         0.00000E+00
         0.00000E+00
         0.00000E+00
         0.00000E+00
         0.00000E+00
         0.00000E+00
         0.00000E+00
         0.00000E+00
         0.00000E+00
         0.00000E+00
         0.00000E+00
         0.00000E+00
         0.00000E+00
         0.00000E+00
         0.00000E+00
         0.00000E+00
         0.00000E+00
         0.00000E+00
         0.00000E+00
         0.00000E+00
         0.00000E+00
         0.00000E+00
         0.00000E+00
         0.00000E+00
         0.00000E+00
         0.00000E+00
         0.00000E+00
         0.00000E+00
         0.00000E+00
         0.00000E+00
         0.00000E+00
         0.00000E+00
         0.00000E+00
         0.00000E+00
         0.00000E+00
         0.00000E+00
         0.00000E+00
         0.00000E+00
         0.00000E+00
         0.00000E+00
         0.00000E+00
         0.00000E+00
         0.00000E+00
         0.00000E+00
         0.00000E+00
         0.00000E+00
         0.00000E+00
         0.00000E+00
         0.00000E+00
         0.00000E+00
         0.00000E+00
         0.00000E+00
         0.00000E+00
         0.00000E+00
         0.00000E+00
         0.00000E+00
         0.00000E+00
         0.00000E+00
         0.00000E+00
         0.00000E+00
         0.00000E+00
         0.00000E+00
         0.00000E+00
         0.00000E+00
         0.00000E+00
         0.00000E+00
         0.00000E+00
         0.00000E+00
         0.00000E+00
         0.00000E+00
         0.00000E+00
         0.00000E+00
         0.00000E+00
         0.00000E+00
         0.00000E+00
         0.00000E+00
         0.00000E+00
         0.00000E+00
         0.00000E+00
         0.00000E+00
         0.00000E+00
         0.00000E+00
         0.00000E+00
         0.00000E+00
         0.00000E+00
         0.00000E+00
         0.00000E+00
         0.00000E+00
         0.00000E+00
         0.00000E+00
         0.00000E+00
         0.00000E+00
         0.00000E+00
         0.00000E+00
         0.00000E+00
         0.00000E+00
         0.00000E+00
         0.00000E+00
         0.00000E+00
         0.00000E+00
         0.00000E+00
         0.00000E+00
         0.00000E+00
         0.00000E+00
         0.00000E+00
         0.00000E+00
         0.00000E+00
         0.00000E+00
         0.00000E+00
         0.00000E+00
         0.00000E+00
         0.00000E+00
         0.00000E+00
         0.00000E+00
         0.00000E+00
         0.00000E+00
         0.00000E+00
         0.00000E+00
         0.00000E+00
         0.00000E+00
         0.00000E+00
         0.00000E+00
         0.00000E+00
         0.00000E+00
         0.00000E+00
         0.00000E+00
         0.00000E+00
         0.00000E+00
         0.00000E+00
         0.00000E+00
         0.00000E+00
         0.00000E+00
         0.00000E+00
         0.00000E+00
         0.00000E+00
         0.00000E+00
         0.00000E+00
         0.00000E+00
         0.00000E+00
         0.00000E+00
         0.00000E+00
         0.00000E+00
         0.00000E+00
         0.00000E+00
         0.00000E+00
         0.00000E+00
         0.00000E+00
         0.00000E+00
         0.00000E+00
         0.00000E+00
         0.00000E+00
         0.00000E+00
         0.00000E+00
         0.00000E+00
         0.00000E+00
         0.00000E+00
         0.00000E+00
         0.00000E+00
         0.00000E+00
         0.00000E+00
         0.00000E+00
         0.00000E+00
         0.00000E+00
         0.00000E+00
         0.00000E+00
         0.00000E+00
         0.00000E+00
         0.00000E+00
         0.00000E+00
         0.00000E+00
         0.00000E+00
         0.00000E+00
         0.00000E+00
         0.00000E+00
         0.00000E+00
         0.00000E+00
         0.00000E+00
         0.00000E+00
         0.00000E+00
         0.00000E+00
         0.00000E+00
         0.00000E+00
         0.00000E+00
         0.00000E+00
         0.00000E+00
         0.00000E+00
         0.00000E+00
         0.00000E+00
         0.00000E+00
         0.00000E+00
         0.00000E+00
         0.00000E+00
         0.00000E+00
         0.00000E+00
         0.00000E+00
         0.00000E+00
         0.00000E+00
         0.00000E+00
         0.00000E+00
         0.00000E+00
         0.00000E+00
         0.00000E+00
         0.00000E+00
         0.00000E+00
         0.00000E+00
         0.00000E+00
         0.00000E+00
         0.00000E+00
         0.00000E+00
         0.00000E+00
         0.00000E+00
         0.00000E+00
         0.00000E+00
         0.00000E+00
         0.00000E+00
         0.00000E+00
         0.00000E+00
         0.00000E+00
         0.00000E+00
         0.00000E+00
         0.00000E+00
         0.00000E+00
         0.00000E+00
         0.00000E+00
         0.00000E+00
         0.00000E+00
         0.00000E+00
         0.00000E+00
         0.00000E+00
         0.00000E+00
         0.00000E+00
         0.00000E+00
         0.00000E+00
         0.00000E+00
         0.00000E+00
         0.00000E+00
         0.00000E+00
         0.00000E+00
         0.00000E+00
         0.00000E+00
         0.00000E+00
         0.00000E+00
         0.00000E+00
         0.00000E+00
         0.00000E+00
         0.00000E+00
         0.00000E+00
         0.00000E+00
         0.00000E+00
         0.00000E+00
         0.00000E+00
         0.00000E+00
         0.00000E+00
         0.00000E+00
         0.00000E+00
         0.00000E+00
         0.00000E+00
         0.00000E+00
         0.00000E+00
         0.00000E+00
         0.00000E+00
         0.00000E+00
         0.00000E+00
         0.00000E+00
         0.00000E+00
         0.00000E+00
         0.00000E+00
         0.00000E+00
         0.00000E+00
         0.00000E+00
         0.00000E+00
         0.00000E+00
         0.00000E+00
         0.00000E+00
         0.00000E+00
         0.00000E+00
         0.00000E+00
         0.00000E+00
         0.00000E+00
         0.00000E+00
         0.00000E+00
         0.00000E+00
         0.00000E+00
         0.00000E+00
         0.00000E+00
         0.00000E+00
         0.00000E+00
         0.00000E+00
         0.00000E+00
         0.00000E+00
         0.00000E+00
         0.00000E+00
         0.00000E+00
         0.00000E+00
         0.00000E+00
         0.00000E+00
         0.00000E+00
         0.00000E+00
         0.00000E+00
         0.00000E+00
         0.00000E+00
         0.00000E+00
         0.00000E+00
         0.00000E+00
         0.00000E+00
         0.00000E+00
         0.00000E+00
         0.00000E+00
         0.00000E+00
         0.00000E+00
         0.00000E+00
         0.00000E+00
         0.00000E+00
         0.00000E+00
         0.00000E+00
         0.00000E+00
         0.00000E+00
         0.00000E+00
         0.00000E+00
         0.00000E+00
         0.00000E+00
         0.00000E+00
         0.00000E+00
         0.00000E+00
         0.00000E+00
         0.00000E+00
         0.00000E+00
         0.00000E+00
         0.00000E+00
         0.00000E+00
         0.00000E+00
         0.00000E+00
         0.00000E+00
         0.00000E+00
         0.00000E+00
         0.00000E+00
         0.00000E+00
         0.00000E+00
         0.00000E+00
         0.00000E+00
         0.00000E+00
         0.00000E+00
         0.00000E+00
         0.00000E+00
         0.00000E+00
         0.00000E+00
         0.00000E+00
         0.00000E+00
         0.00000E+00
         0.00000E+00
         0.00000E+00
         0.00000E+00
         0.00000E+00
         0.00000E+00
         0.00000E+00
         0.00000E+00
         0.00000E+00
         0.00000E+00
         0.00000E+00
         0.00000E+00
         0.00000E+00
         0.00000E+00
         0.00000E+00
         0.00000E+00
         0.00000E+00
         0.00000E+00
         0.00000E+00
         0.00000E+00
         0.00000E+00
         0.00000E+00
         0.00000E+00
         0.00000E+00
         0.00000E+00
         0.00000E+00
         0.00000E+00
         0.00000E+00
         0.00000E+00
         0.00000E+00
         0.00000E+00
         0.00000E+00
         0.00000E+00
         0.00000E+00
         0.00000E+00
         0.00000E+00
         0.00000E+00
         0.00000E+00
         0.00000E+00
         0.00000E+00
         0.00000E+00
         0.00000E+00
         0.00000E+00
         0.00000E+00
         0.00000E+00
         0.00000E+00
         0.00000E+00
         0.00000E+00
         0.00000E+00
         0.00000E+00
         0.00000E+00
         0.00000E+00
         0.00000E+00
         0.00000E+00
         0.00000E+00
         0.00000E+00
         0.00000E+00
         0.00000E+00
         0.00000E+00
         0.00000E+00
         0.00000E+00
         0.00000E+00
         0.00000E+00
         0.00000E+00
         0.00000E+00
         0.00000E+00
         0.00000E+00
         0.00000E+00
         0.00000E+00
         0.00000E+00
         0.00000E+00
         0.00000E+00
         0.00000E+00
         0.00000E+00
         0.00000E+00
         0.00000E+00
         0.00000E+00
         0.00000E+00
         0.00000E+00
         0.00000E+00
         0.00000E+00
         0.00000E+00
         0.00000E+00
         0.00000E+00
         0.00000E+00
         0.00000E+00
         0.00000E+00
         0.00000E+00
         0.00000E+00
         0.00000E+00
         0.00000E+00
         0.00000E+00
         0.00000E+00
         0.00000E+00
         0.00000E+00
         0.00000E+00
         0.00000E+00
         0.00000E+00
         0.00000E+00
         0.00000E+00
         0.00000E+00
         0.00000E+00
         0.00000E+00
         0.00000E+00
         0.00000E+00
         0.00000E+00
         0.00000E+00
         0.00000E+00
         0.00000E+00
         0.00000E+00
         0.00000E+00
         0.00000E+00
         0.00000E+00
         0.00000E+00
         0.00000E+00
         0.00000E+00
         0.00000E+00
         0.00000E+00
         0.00000E+00
         0.00000E+00
         0.00000E+00
         0.00000E+00
         0.00000E+00
         0.00000E+00
         0.00000E+00
         0.00000E+00
         0.00000E+00
         0.00000E+00
         0.00000E+00
         0.00000E+00
         0.00000E+00
         0.00000E+00
         0.00000E+00
         0.00000E+00
         0.00000E+00
         0.00000E+00
         0.00000E+00
         0.00000E+00
         0.00000E+00
         0.00000E+00
         0.00000E+00
         0.00000E+00
         0.00000E+00
         0.00000E+00
         0.00000E+00
         0.00000E+00
         0.00000E+00
         0.00000E+00
         0.00000E+00
         0.00000E+00
         0.00000E+00
         0.00000E+00
         0.00000E+00
         0.00000E+00
         0.00000E+00
         0.00000E+00
         0.00000E+00
         0.00000E+00
         0.00000E+00
         0.00000E+00
         0.00000E+00
         0.00000E+00
         0.00000E+00
         0.00000E+00
         0.00000E+00
         0.00000E+00
         0.00000E+00
         0.00000E+00
         0.00000E+00
         0.00000E+00
         0.00000E+00
         0.00000E+00
         0.00000E+00
         0.00000E+00
         0.00000E+00
         0.00000E+00
         0.00000E+00
         0.00000E+00
         0.00000E+00
         0.00000E+00
         0.00000E+00
         0.00000E+00
         0.00000E+00
         0.00000E+00
         0.00000E+00
         0.00000E+00
         0.00000E+00
         0.00000E+00
         0.00000E+00
         0.00000E+00
         0.00000E+00
         0.00000E+00
         0.00000E+00
         0.00000E+00
         0.00000E+00
         0.00000E+00
         0.00000E+00
         0.00000E+00
         0.00000E+00
         0.00000E+00
         0.00000E+00
         0.00000E+00
         0.00000E+00
         0.00000E+00
         0.00000E+00
         0.00000E+00
         0.00000E+00
         0.00000E+00
         0.00000E+00
         0.00000E+00
         0.00000E+00
         0.00000E+00
         0.00000E+00
         0.00000E+00
         0.00000E+00
         0.00000E+00
         0.00000E+00
         0.00000E+00
         0.00000E+00
         0.00000E+00
         0.00000E+00
         0.00000E+00
         0.00000E+00
         0.00000E+00
         0.00000E+00
         0.00000E+00
         0.00000E+00
         0.00000E+00
         0.00000E+00
         0.00000E+00
         0.00000E+00
         0.00000E+00
         0.00000E+00
         0.00000E+00
         0.00000E+00
         0.00000E+00
         0.00000E+00
         0.00000E+00
         0.00000E+00
         0.00000E+00
         0.00000E+00
         0.00000E+00
         0.00000E+00
         0.00000E+00
         0.00000E+00
         0.00000E+00
         0.00000E+00
         0.00000E+00
         0.00000E+00
         0.00000E+00
         0.00000E+00
         0.00000E+00
         0.00000E+00
         0.00000E+00
         0.00000E+00
         0.00000E+00
         0.00000E+00
         0.00000E+00
         0.00000E+00
         0.00000E+00
         0.00000E+00
         0.00000E+00
         0.00000E+00
         0.00000E+00
         0.00000E+00
         0.00000E+00
         0.00000E+00
         0.00000E+00
         0.00000E+00
         0.00000E+00
         0.00000E+00
         0.00000E+00
         0.00000E+00
         0.00000E+00
         0.00000E+00
         0.00000E+00
         0.00000E+00
         0.00000E+00
         0.00000E+00
         0.00000E+00
         0.00000E+00
         0.00000E+00
         0.00000E+00
         0.00000E+00
         0.00000E+00
         0.00000E+00
         0.00000E+00
         0.00000E+00
         0.00000E+00
         0.00000E+00
         0.00000E+00
         0.00000E+00
         0.00000E+00
         0.00000E+00
         0.00000E+00
         0.00000E+00
         0.00000E+00
         0.00000E+00
         0.00000E+00
         0.00000E+00
         0.00000E+00
         0.00000E+00
         0.00000E+00
         0.00000E+00
         0.00000E+00
         0.00000E+00
         0.00000E+00
         0.00000E+00
         0.00000E+00
         0.00000E+00
         0.00000E+00
         0.00000E+00
         0.00000E+00
         0.00000E+00
         0.00000E+00
         0.00000E+00
         0.00000E+00
         0.00000E+00
         0.00000E+00
         0.00000E+00
         0.00000E+00
         0.00000E+00
         0.00000E+00
         0.00000E+00
         0.00000E+00
         0.00000E+00
         0.00000E+00
         0.00000E+00
         0.00000E+00
         0.00000E+00
         0.00000E+00
         0.00000E+00
         0.00000E+00
         0.00000E+00
         0.00000E+00
         0.00000E+00
         0.00000E+00
         0.00000E+00
         0.00000E+00
         0.00000E+00
         0.00000E+00
         0.00000E+00
         0.00000E+00
         0.00000E+00
         0.00000E+00
         0.00000E+00
         0.00000E+00
         0.00000E+00
         0.00000E+00
         0.00000E+00
         0.00000E+00
         0.00000E+00
         0.00000E+00
         0.00000E+00
         0.00000E+00
         0.00000E+00
         0.00000E+00
         0.00000E+00
         0.00000E+00
         0.00000E+00
         0.00000E+00
         0.00000E+00
         0.00000E+00
         0.00000E+00
         0.00000E+00
         0.00000E+00
         0.00000E+00
         0.00000E+00
         0.00000E+00
         0.00000E+00
         0.00000E+00
         0.00000E+00
         0.00000E+00
         0.00000E+00
         0.00000E+00
         0.00000E+00
         0.00000E+00
         0.00000E+00
         0.00000E+00
         0.00000E+00
         0.00000E+00
         0.00000E+00
         0.00000E+00
         0.00000E+00
         0.00000E+00
         0.00000E+00
         0.00000E+00
         0.00000E+00
         0.00000E+00
         0.00000E+00
         0.00000E+00
         0.00000E+00
         0.00000E+00
         0.00000E+00
         0.00000E+00
         0.00000E+00
         0.00000E+00
         0.00000E+00
         0.00000E+00
         0.00000E+00
         0.00000E+00
         0.00000E+00
         0.00000E+00
         0.00000E+00
         0.00000E+00
         0.00000E+00
         0.00000E+00
         0.00000E+00
         0.00000E+00
         0.00000E+00
         0.00000E+00
         0.00000E+00
         0.00000E+00
         0.00000E+00
         0.00000E+00
         0.00000E+00
         0.00000E+00
         0.00000E+00
         0.00000E+00
         0.00000E+00
         0.00000E+00
         0.00000E+00
         0.00000E+00
         0.00000E+00
         0.00000E+00
         0.00000E+00
         0.00000E+00
         0.00000E+00
         0.00000E+00
         0.00000E+00
         0.00000E+00
         0.00000E+00
         0.00000E+00
         0.00000E+00
         0.00000E+00
         0.00000E+00
         0.00000E+00
         0.00000E+00
         0.00000E+00
         0.00000E+00
         0.00000E+00
         0.00000E+00
         0.00000E+00
         0.00000E+00
         0.00000E+00
         0.00000E+00
         0.00000E+00
         0.00000E+00
         0.00000E+00
         0.00000E+00
         0.00000E+00
         0.00000E+00
         0.00000E+00
         0.00000E+00
         0.00000E+00
         0.00000E+00
         0.00000E+00
         0.00000E+00
         0.00000E+00
         0.00000E+00
         0.00000E+00
         0.00000E+00
         0.00000E+00
         0.00000E+00
         0.00000E+00
         0.00000E+00
         0.00000E+00
         0.00000E+00
         0.00000E+00
         0.00000E+00
         0.00000E+00
         0.00000E+00
         0.00000E+00
         0.00000E+00
         0.00000E+00
         0.00000E+00
         0.00000E+00
         0.00000E+00
         0.00000E+00
         0.00000E+00
         0.00000E+00
         0.00000E+00
         0.00000E+00
         0.00000E+00
         0.00000E+00
         0.00000E+00
         0.00000E+00
         0.00000E+00
         0.00000E+00
         0.00000E+00
         0.00000E+00
         0.00000E+00
         0.00000E+00
         0.00000E+00
         0.00000E+00
         0.00000E+00
         0.00000E+00
         0.00000E+00
         0.00000E+00
         0.00000E+00
         0.00000E+00
         0.00000E+00
         0.00000E+00
         0.00000E+00
         0.00000E+00
         0.00000E+00
         0.00000E+00
         0.00000E+00
         0.00000E+00
         0.00000E+00
         0.00000E+00
         0.00000E+00
         0.00000E+00
         0.00000E+00
         0.00000E+00
         0.00000E+00
         0.00000E+00
         0.00000E+00
         0.00000E+00
         0.00000E+00
         0.00000E+00
         0.00000E+00
         0.00000E+00
         0.00000E+00
         0.00000E+00
         0.00000E+00
         0.00000E+00
         0.00000E+00
         0.00000E+00
         0.00000E+00
         0.00000E+00
         0.00000E+00
         0.00000E+00
         0.00000E+00
         0.00000E+00
         0.00000E+00
         0.00000E+00
         0.00000E+00
         0.00000E+00
         0.00000E+00
         0.00000E+00
         0.00000E+00
         0.00000E+00
         0.00000E+00
         0.00000E+00
         0.00000E+00
         0.00000E+00
         0.00000E+00
         0.00000E+00
         0.00000E+00
         0.00000E+00
         0.00000E+00
         0.00000E+00
         0.00000E+00
         0.00000E+00
         0.00000E+00
         0.00000E+00
         0.00000E+00
         0.00000E+00
         0.00000E+00
         0.00000E+00
         0.00000E+00
         0.00000E+00
         0.00000E+00
         0.00000E+00
         0.00000E+00
         0.00000E+00
         0.00000E+00
         0.00000E+00
         0.00000E+00
         0.00000E+00
         0.00000E+00
         0.00000E+00
         0.00000E+00
         0.00000E+00
         0.00000E+00
         0.00000E+00
         0.00000E+00
         0.00000E+00
         0.00000E+00
         0.00000E+00
         0.00000E+00
         0.00000E+00
         0.00000E+00
         0.00000E+00
         0.00000E+00
         0.00000E+00
         0.00000E+00
         0.00000E+00
         0.00000E+00
         0.00000E+00
         0.00000E+00
         0.00000E+00
         0.00000E+00
         0.00000E+00
         0.00000E+00
         0.00000E+00
         0.00000E+00
         0.00000E+00
         0.00000E+00
         0.00000E+00
         0.00000E+00
         0.00000E+00
         0.00000E+00
         0.00000E+00
         0.00000E+00
         0.00000E+00
         0.00000E+00
         0.00000E+00
         0.00000E+00
         0.00000E+00
         0.00000E+00
         0.00000E+00
         0.00000E+00
         0.00000E+00
         0.00000E+00
         0.00000E+00
         0.00000E+00
         0.00000E+00
         0.00000E+00
         0.00000E+00
         0.00000E+00
         0.00000E+00
         0.00000E+00
         0.00000E+00
         0.00000E+00
         0.00000E+00
         0.00000E+00
         0.00000E+00
         0.00000E+00
         0.00000E+00
         0.00000E+00
         0.00000E+00
         0.00000E+00
         0.00000E+00
         0.00000E+00
         0.00000E+00
         0.00000E+00
         0.00000E+00
         0.00000E+00
         0.00000E+00
         0.00000E+00
         0.00000E+00
         0.00000E+00
         0.00000E+00
         0.00000E+00
         0.00000E+00
         0.00000E+00
         0.00000E+00
         0.00000E+00
         0.00000E+00
         0.00000E+00
         0.00000E+00
         0.00000E+00
         0.00000E+00
         0.00000E+00
         0.00000E+00
         0.00000E+00
         0.00000E+00
         0.00000E+00
         0.00000E+00
         0.00000E+00
         0.00000E+00
         0.00000E+00
         0.00000E+00
         0.00000E+00
         0.00000E+00
         0.00000E+00
         0.00000E+00
         0.00000E+00
         0.00000E+00
         0.00000E+00
         0.00000E+00
         0.00000E+00
         0.00000E+00
         0.00000E+00
         0.00000E+00
         0.00000E+00
         0.00000E+00
         0.00000E+00
         0.00000E+00
         0.00000E+00
         0.00000E+00
         0.00000E+00
         0.00000E+00
         0.00000E+00
         0.00000E+00
         0.00000E+00
         0.00000E+00
         0.00000E+00
         0.00000E+00
         0.00000E+00
         0.00000E+00
         0.00000E+00
         0.00000E+00
         0.00000E+00
         0.00000E+00
         0.00000E+00
         0.00000E+00
         0.00000E+00
         0.00000E+00
         0.00000E+00
         0.00000E+00
         0.00000E+00
         0.00000E+00
         0.00000E+00
         0.00000E+00
         0.00000E+00
         0.00000E+00
         0.00000E+00
         0.00000E+00
         0.00000E+00
         0.00000E+00
         0.00000E+00
         0.00000E+00
         0.00000E+00
         0.00000E+00
         0.00000E+00
         0.00000E+00
         0.00000E+00
         0.00000E+00
         0.00000E+00
         0.00000E+00
         0.00000E+00
         0.00000E+00
         0.00000E+00
         0.00000E+00
         0.00000E+00
         0.00000E+00
         0.00000E+00
         0.00000E+00
         0.00000E+00
         0.00000E+00
         0.00000E+00
         0.00000E+00
         0.00000E+00
         0.00000E+00
         0.00000E+00
         0.00000E+00
         0.00000E+00
         0.00000E+00
         0.00000E+00
         0.00000E+00
         0.00000E+00
         0.00000E+00
         0.00000E+00
         0.00000E+00
         0.00000E+00
         0.00000E+00
         0.00000E+00
         0.00000E+00
         0.00000E+00
         0.00000E+00
         0.00000E+00
         0.00000E+00
         0.00000E+00
         0.00000E+00
         0.00000E+00
         0.00000E+00
         0.00000E+00
         0.00000E+00
         0.00000E+00
         0.00000E+00
         0.00000E+00
         0.00000E+00
         0.00000E+00
         0.00000E+00
         0.00000E+00
         0.00000E+00
         0.00000E+00
         0.00000E+00
         0.00000E+00
         0.00000E+00
         0.00000E+00
         0.00000E+00
         0.00000E+00
         0.00000E+00
         0.00000E+00
         0.00000E+00
         0.00000E+00
         0.00000E+00
         0.00000E+00
         0.00000E+00
         0.00000E+00
         0.00000E+00
         0.00000E+00
         0.00000E+00
         0.00000E+00
         0.00000E+00
         0.00000E+00
         0.00000E+00
         0.00000E+00
         0.00000E+00
         0.00000E+00
         0.00000E+00
         0.00000E+00
         0.00000E+00
         0.00000E+00
         0.00000E+00
         0.00000E+00
         0.00000E+00
         0.00000E+00
         0.00000E+00
         0.00000E+00
         0.00000E+00
         0.00000E+00
         0.00000E+00
         0.00000E+00
         0.00000E+00
         0.00000E+00
         0.00000E+00
         0.00000E+00
         0.00000E+00
         0.00000E+00
         0.00000E+00
         0.00000E+00
         0.00000E+00
         0.00000E+00
         0.00000E+00
         0.00000E+00
         0.00000E+00
         0.00000E+00
         0.00000E+00
         0.00000E+00
         0.00000E+00
         0.00000E+00
         0.00000E+00
         0.00000E+00
         0.00000E+00
         0.00000E+00
         0.00000E+00
         0.00000E+00
         0.00000E+00
         0.00000E+00
         0.00000E+00
         0.00000E+00
         0.00000E+00
         0.00000E+00
         0.00000E+00
         0.00000E+00
         0.00000E+00
         0.00000E+00
         0.00000E+00
         0.00000E+00
         0.00000E+00
         0.00000E+00
         0.00000E+00
         0.00000E+00
         0.00000E+00
         0.00000E+00
         0.00000E+00
         0.00000E+00
         0.00000E+00
         0.00000E+00
         0.00000E+00
         0.00000E+00
         0.00000E+00
         0.00000E+00
         0.00000E+00
         0.00000E+00
         0.00000E+00
         0.00000E+00
         0.00000E+00
         0.00000E+00
         0.00000E+00
         0.00000E+00
         0.00000E+00
         0.00000E+00
         0.00000E+00
         0.00000E+00
         0.00000E+00
         0.00000E+00
         0.00000E+00
         0.00000E+00
         0.00000E+00
         0.00000E+00
         0.00000E+00
         0.00000E+00
         0.00000E+00
         0.00000E+00
         0.00000E+00
         0.00000E+00
         0.00000E+00
         0.00000E+00
         0.00000E+00
         0.00000E+00
         0.00000E+00
         0.00000E+00
         0.00000E+00
         0.00000E+00
         0.00000E+00
         0.00000E+00
         0.00000E+00
         0.00000E+00
         0.00000E+00
         0.00000E+00
         0.00000E+00
         0.00000E+00
         0.00000E+00
         0.00000E+00
         0.00000E+00
         0.00000E+00
         0.00000E+00
         0.00000E+00
         0.00000E+00
         0.00000E+00
         0.00000E+00
         0.00000E+00
         0.00000E+00
         0.00000E+00
         0.00000E+00
         0.00000E+00
         0.00000E+00
         0.00000E+00
         0.00000E+00
         0.00000E+00
         0.00000E+00
         0.00000E+00
         0.00000E+00
         0.00000E+00
         0.00000E+00
         0.00000E+00
         0.00000E+00
         0.00000E+00
         0.00000E+00
         0.00000E+00
         0.00000E+00
         0.00000E+00
         0.00000E+00
         0.00000E+00
         0.00000E+00
         0.00000E+00
         0.00000E+00
         0.00000E+00
         0.00000E+00
         0.00000E+00
         0.00000E+00
         0.00000E+00
         0.00000E+00
         0.00000E+00
         0.00000E+00
         0.00000E+00
         0.00000E+00
         0.00000E+00
         0.00000E+00
         0.00000E+00
         0.00000E+00
         0.00000E+00
         0.00000E+00
         0.00000E+00
         0.00000E+00
         0.00000E+00
         0.00000E+00
         0.00000E+00
         0.00000E+00
         0.00000E+00
         0.00000E+00
         0.00000E+00
         0.00000E+00
         0.00000E+00
         0.00000E+00
         0.00000E+00
         0.00000E+00
         0.00000E+00
         0.00000E+00
         0.00000E+00
         0.00000E+00
         0.00000E+00
         0.00000E+00
         0.00000E+00
         0.00000E+00
         0.00000E+00
         0.00000E+00
         0.00000E+00
         0.00000E+00
         0.00000E+00
         0.00000E+00
         0.00000E+00
         0.00000E+00
         0.00000E+00
         0.00000E+00
         0.00000E+00
         0.00000E+00
         0.00000E+00
         0.00000E+00
         0.00000E+00
         0.00000E+00
         0.00000E+00
         0.00000E+00
         0.00000E+00
         0.00000E+00
         0.00000E+00
         0.00000E+00
         0.00000E+00
         0.00000E+00
         0.00000E+00
         0.00000E+00
         0.00000E+00
         0.00000E+00
         0.00000E+00
         0.00000E+00
         0.00000E+00
         0.00000E+00
         0.00000E+00
         0.00000E+00
         0.00000E+00
         0.00000E+00
         0.00000E+00
         0.00000E+00
         0.00000E+00
         0.00000E+00
         0.00000E+00
         0.00000E+00
         0.00000E+00
         0.00000E+00
         0.00000E+00
         0.00000E+00
         0.00000E+00
         0.00000E+00
         0.00000E+00
         0.00000E+00
         0.00000E+00
         0.00000E+00
         0.00000E+00
         0.00000E+00
         0.00000E+00
         0.00000E+00
         0.00000E+00
         0.00000E+00
         0.00000E+00
         0.00000E+00
         0.00000E+00
         0.00000E+00
         0.00000E+00
         0.00000E+00
         0.00000E+00
         0.00000E+00
         0.00000E+00
         0.00000E+00
         0.00000E+00
         0.00000E+00
         0.00000E+00
         0.00000E+00
         0.00000E+00
         0.00000E+00
         0.00000E+00
         0.00000E+00
         0.00000E+00
         0.00000E+00
         0.00000E+00
         0.00000E+00
         0.00000E+00
         0.00000E+00
         0.00000E+00
         0.00000E+00
  
SCALARS                         fint_y  double 1
LOOKUP_TABLE default
         0.00000E+00
         0.00000E+00
         0.00000E+00
         0.00000E+00
         0.00000E+00
         0.00000E+00
         0.00000E+00
         0.00000E+00
         0.00000E+00
         0.00000E+00
         0.00000E+00
         0.00000E+00
         0.00000E+00
         0.00000E+00
         0.00000E+00
         0.00000E+00
         0.00000E+00
         0.00000E+00
         0.00000E+00
         0.00000E+00
         0.00000E+00
         0.00000E+00
         0.00000E+00
         0.00000E+00
         0.00000E+00
         0.00000E+00
         0.00000E+00
         0.00000E+00
         0.00000E+00
         0.00000E+00
         0.00000E+00
         0.00000E+00
         0.00000E+00
         0.00000E+00
         0.00000E+00
         0.00000E+00
         0.00000E+00
         0.00000E+00
         0.00000E+00
         0.00000E+00
         0.00000E+00
         0.00000E+00
         0.00000E+00
         0.00000E+00
         0.00000E+00
         0.00000E+00
         0.00000E+00
         0.00000E+00
         0.00000E+00
         0.00000E+00
         0.00000E+00
         0.00000E+00
         0.00000E+00
         0.00000E+00
         0.00000E+00
         0.00000E+00
         0.00000E+00
         0.00000E+00
         0.00000E+00
         0.00000E+00
         0.00000E+00
         0.00000E+00
         0.00000E+00
         0.00000E+00
         0.00000E+00
         0.00000E+00
         0.00000E+00
         0.00000E+00
         0.00000E+00
         0.00000E+00
         0.00000E+00
         0.00000E+00
         0.00000E+00
         0.00000E+00
         0.00000E+00
         0.00000E+00
         0.00000E+00
         0.00000E+00
         0.00000E+00
         0.00000E+00
         0.00000E+00
         0.00000E+00
         0.00000E+00
         0.00000E+00
         0.00000E+00
         0.00000E+00
         0.00000E+00
         0.00000E+00
         0.00000E+00
         0.00000E+00
         0.00000E+00
         0.00000E+00
         0.00000E+00
         0.00000E+00
         0.00000E+00
         0.00000E+00
         0.00000E+00
         0.00000E+00
         0.00000E+00
         0.00000E+00
         0.00000E+00
         0.00000E+00
         0.00000E+00
         0.00000E+00
         0.00000E+00
         0.00000E+00
         0.00000E+00
         0.00000E+00
         0.00000E+00
         0.00000E+00
         0.00000E+00
         0.00000E+00
         0.00000E+00
         0.00000E+00
         0.00000E+00
         0.00000E+00
         0.00000E+00
         0.00000E+00
         0.00000E+00
         0.00000E+00
         0.00000E+00
         0.00000E+00
         0.00000E+00
         0.00000E+00
         0.00000E+00
         0.00000E+00
         0.00000E+00
         0.00000E+00
         0.00000E+00
         0.00000E+00
         0.00000E+00
         0.00000E+00
         0.00000E+00
         0.00000E+00
         0.00000E+00
         0.00000E+00
         0.00000E+00
         0.00000E+00
         0.00000E+00
         0.00000E+00
         0.00000E+00
         0.00000E+00
         0.00000E+00
         0.00000E+00
         0.00000E+00
         0.00000E+00
         0.00000E+00
         0.00000E+00
         0.00000E+00
         0.00000E+00
         0.00000E+00
         0.00000E+00
         0.00000E+00
         0.00000E+00
         0.00000E+00
         0.00000E+00
         0.00000E+00
         0.00000E+00
         0.00000E+00
         0.00000E+00
         0.00000E+00
         0.00000E+00
         0.00000E+00
         0.00000E+00
         0.00000E+00
         0.00000E+00
         0.00000E+00
         0.00000E+00
         0.00000E+00
         0.00000E+00
         0.00000E+00
         0.00000E+00
         0.00000E+00
         0.00000E+00
         0.00000E+00
         0.00000E+00
         0.00000E+00
         0.00000E+00
         0.00000E+00
         0.00000E+00
         0.00000E+00
         0.00000E+00
         0.00000E+00
         0.00000E+00
         0.00000E+00
         0.00000E+00
         0.00000E+00
         0.00000E+00
         0.00000E+00
         0.00000E+00
         0.00000E+00
         0.00000E+00
         0.00000E+00
         0.00000E+00
         0.00000E+00
         0.00000E+00
         0.00000E+00
         0.00000E+00
         0.00000E+00
         0.00000E+00
         0.00000E+00
         0.00000E+00
         0.00000E+00
         0.00000E+00
         0.00000E+00
         0.00000E+00
         0.00000E+00
         0.00000E+00
         0.00000E+00
         0.00000E+00
         0.00000E+00
         0.00000E+00
         0.00000E+00
         0.00000E+00
         0.00000E+00
         0.00000E+00
         0.00000E+00
         0.00000E+00
         0.00000E+00
         0.00000E+00
         0.00000E+00
         0.00000E+00
         0.00000E+00
         0.00000E+00
         0.00000E+00
         0.00000E+00
         0.00000E+00
         0.00000E+00
         0.00000E+00
         0.00000E+00
         0.00000E+00
         0.00000E+00
         0.00000E+00
         0.00000E+00
         0.00000E+00
         0.00000E+00
         0.00000E+00
         0.00000E+00
         0.00000E+00
         0.00000E+00
         0.00000E+00
         0.00000E+00
         0.00000E+00
         0.00000E+00
         0.00000E+00
         0.00000E+00
         0.00000E+00
         0.00000E+00
         0.00000E+00
         0.00000E+00
         0.00000E+00
         0.00000E+00
         0.00000E+00
         0.00000E+00
         0.00000E+00
         0.00000E+00
         0.00000E+00
         0.00000E+00
         0.00000E+00
         0.00000E+00
         0.00000E+00
         0.00000E+00
         0.00000E+00
         0.00000E+00
         0.00000E+00
         0.00000E+00
         0.00000E+00
         0.00000E+00
         0.00000E+00
         0.00000E+00
         0.00000E+00
         0.00000E+00
         0.00000E+00
         0.00000E+00
         0.00000E+00
         0.00000E+00
         0.00000E+00
         0.00000E+00
         0.00000E+00
         0.00000E+00
         0.00000E+00
         0.00000E+00
         0.00000E+00
         0.00000E+00
         0.00000E+00
         0.00000E+00
         0.00000E+00
         0.00000E+00
         0.00000E+00
         0.00000E+00
         0.00000E+00
         0.00000E+00
         0.00000E+00
         0.00000E+00
         0.00000E+00
         0.00000E+00
         0.00000E+00
         0.00000E+00
         0.00000E+00
         0.00000E+00
         0.00000E+00
         0.00000E+00
         0.00000E+00
         0.00000E+00
         0.00000E+00
         0.00000E+00
         0.00000E+00
         0.00000E+00
         0.00000E+00
         0.00000E+00
         0.00000E+00
         0.00000E+00
         0.00000E+00
         0.00000E+00
         0.00000E+00
         0.00000E+00
         0.00000E+00
         0.00000E+00
         0.00000E+00
         0.00000E+00
         0.00000E+00
         0.00000E+00
         0.00000E+00
         0.00000E+00
         0.00000E+00
         0.00000E+00
         0.00000E+00
         0.00000E+00
         0.00000E+00
         0.00000E+00
         0.00000E+00
         0.00000E+00
         0.00000E+00
         0.00000E+00
         0.00000E+00
         0.00000E+00
         0.00000E+00
         0.00000E+00
         0.00000E+00
         0.00000E+00
         0.00000E+00
         0.00000E+00
         0.00000E+00
         0.00000E+00
         0.00000E+00
         0.00000E+00
         0.00000E+00
         0.00000E+00
         0.00000E+00
         0.00000E+00
         0.00000E+00
         0.00000E+00
         0.00000E+00
         0.00000E+00
         0.00000E+00
         0.00000E+00
         0.00000E+00
         0.00000E+00
         0.00000E+00
         0.00000E+00
         0.00000E+00
         0.00000E+00
         0.00000E+00
         0.00000E+00
         0.00000E+00
         0.00000E+00
         0.00000E+00
         0.00000E+00
         0.00000E+00
         0.00000E+00
         0.00000E+00
         0.00000E+00
         0.00000E+00
         0.00000E+00
         0.00000E+00
         0.00000E+00
         0.00000E+00
         0.00000E+00
         0.00000E+00
         0.00000E+00
         0.00000E+00
         0.00000E+00
         0.00000E+00
         0.00000E+00
         0.00000E+00
         0.00000E+00
         0.00000E+00
         0.00000E+00
         0.00000E+00
         0.00000E+00
         0.00000E+00
         0.00000E+00
         0.00000E+00
         0.00000E+00
         0.00000E+00
         0.00000E+00
         0.00000E+00
         0.00000E+00
         0.00000E+00
         0.00000E+00
         0.00000E+00
         0.00000E+00
         0.00000E+00
         0.00000E+00
         0.00000E+00
         0.00000E+00
         0.00000E+00
         0.00000E+00
         0.00000E+00
         0.00000E+00
         0.00000E+00
         0.00000E+00
         0.00000E+00
         0.00000E+00
         0.00000E+00
         0.00000E+00
         0.00000E+00
         0.00000E+00
         0.00000E+00
         0.00000E+00
         0.00000E+00
         0.00000E+00
         0.00000E+00
         0.00000E+00
         0.00000E+00
         0.00000E+00
         0.00000E+00
         0.00000E+00
         0.00000E+00
         0.00000E+00
         0.00000E+00
         0.00000E+00
         0.00000E+00
         0.00000E+00
         0.00000E+00
         0.00000E+00
         0.00000E+00
         0.00000E+00
         0.00000E+00
         0.00000E+00
         0.00000E+00
         0.00000E+00
         0.00000E+00
         0.00000E+00
         0.00000E+00
         0.00000E+00
         0.00000E+00
         0.00000E+00
         0.00000E+00
         0.00000E+00
         0.00000E+00
         0.00000E+00
         0.00000E+00
         0.00000E+00
         0.00000E+00
         0.00000E+00
         0.00000E+00
         0.00000E+00
         0.00000E+00
         0.00000E+00
         0.00000E+00
         0.00000E+00
         0.00000E+00
         0.00000E+00
         0.00000E+00
         0.00000E+00
         0.00000E+00
         0.00000E+00
         0.00000E+00
         0.00000E+00
         0.00000E+00
         0.00000E+00
         0.00000E+00
         0.00000E+00
         0.00000E+00
         0.00000E+00
         0.00000E+00
         0.00000E+00
         0.00000E+00
         0.00000E+00
         0.00000E+00
         0.00000E+00
         0.00000E+00
         0.00000E+00
         0.00000E+00
         0.00000E+00
         0.00000E+00
         0.00000E+00
         0.00000E+00
         0.00000E+00
         0.00000E+00
         0.00000E+00
         0.00000E+00
         0.00000E+00
         0.00000E+00
         0.00000E+00
         0.00000E+00
         0.00000E+00
         0.00000E+00
         0.00000E+00
         0.00000E+00
         0.00000E+00
         0.00000E+00
         0.00000E+00
         0.00000E+00
         0.00000E+00
         0.00000E+00
         0.00000E+00
         0.00000E+00
         0.00000E+00
         0.00000E+00
         0.00000E+00
         0.00000E+00
         0.00000E+00
         0.00000E+00
         0.00000E+00
         0.00000E+00
         0.00000E+00
         0.00000E+00
         0.00000E+00
         0.00000E+00
         0.00000E+00
         0.00000E+00
         0.00000E+00
         0.00000E+00
         0.00000E+00
         0.00000E+00
         0.00000E+00
         0.00000E+00
         0.00000E+00
         0.00000E+00
         0.00000E+00
         0.00000E+00
         0.00000E+00
         0.00000E+00
         0.00000E+00
         0.00000E+00
         0.00000E+00
         0.00000E+00
         0.00000E+00
         0.00000E+00
         0.00000E+00
         0.00000E+00
         0.00000E+00
         0.00000E+00
         0.00000E+00
         0.00000E+00
         0.00000E+00
         0.00000E+00
         0.00000E+00
         0.00000E+00
         0.00000E+00
         0.00000E+00
         0.00000E+00
         0.00000E+00
         0.00000E+00
         0.00000E+00
         0.00000E+00
         0.00000E+00
         0.00000E+00
         0.00000E+00
         0.00000E+00
         0.00000E+00
         0.00000E+00
         0.00000E+00
         0.00000E+00
         0.00000E+00
         0.00000E+00
         0.00000E+00
         0.00000E+00
         0.00000E+00
         0.00000E+00
         0.00000E+00
         0.00000E+00
         0.00000E+00
         0.00000E+00
         0.00000E+00
         0.00000E+00
         0.00000E+00
         0.00000E+00
         0.00000E+00
         0.00000E+00
         0.00000E+00
         0.00000E+00
         0.00000E+00
         0.00000E+00
         0.00000E+00
         0.00000E+00
         0.00000E+00
         0.00000E+00
         0.00000E+00
         0.00000E+00
         0.00000E+00
         0.00000E+00
         0.00000E+00
         0.00000E+00
         0.00000E+00
         0.00000E+00
         0.00000E+00
         0.00000E+00
         0.00000E+00
         0.00000E+00
         0.00000E+00
         0.00000E+00
         0.00000E+00
         0.00000E+00
         0.00000E+00
         0.00000E+00
         0.00000E+00
         0.00000E+00
         0.00000E+00
         0.00000E+00
         0.00000E+00
         0.00000E+00
         0.00000E+00
         0.00000E+00
         0.00000E+00
         0.00000E+00
         0.00000E+00
         0.00000E+00
         0.00000E+00
         0.00000E+00
         0.00000E+00
         0.00000E+00
         0.00000E+00
         0.00000E+00
         0.00000E+00
         0.00000E+00
         0.00000E+00
         0.00000E+00
         0.00000E+00
         0.00000E+00
         0.00000E+00
         0.00000E+00
         0.00000E+00
         0.00000E+00
         0.00000E+00
         0.00000E+00
         0.00000E+00
         0.00000E+00
         0.00000E+00
         0.00000E+00
         0.00000E+00
         0.00000E+00
         0.00000E+00
         0.00000E+00
         0.00000E+00
         0.00000E+00
         0.00000E+00
         0.00000E+00
         0.00000E+00
         0.00000E+00
         0.00000E+00
         0.00000E+00
         0.00000E+00
         0.00000E+00
         0.00000E+00
         0.00000E+00
         0.00000E+00
         0.00000E+00
         0.00000E+00
         0.00000E+00
         0.00000E+00
         0.00000E+00
         0.00000E+00
         0.00000E+00
         0.00000E+00
         0.00000E+00
         0.00000E+00
         0.00000E+00
         0.00000E+00
         0.00000E+00
         0.00000E+00
         0.00000E+00
         0.00000E+00
         0.00000E+00
         0.00000E+00
         0.00000E+00
         0.00000E+00
         0.00000E+00
         0.00000E+00
         0.00000E+00
         0.00000E+00
         0.00000E+00
         0.00000E+00
         0.00000E+00
         0.00000E+00
         0.00000E+00
         0.00000E+00
         0.00000E+00
         0.00000E+00
         0.00000E+00
         0.00000E+00
         0.00000E+00
         0.00000E+00
         0.00000E+00
         0.00000E+00
         0.00000E+00
         0.00000E+00
         0.00000E+00
         0.00000E+00
         0.00000E+00
         0.00000E+00
         0.00000E+00
         0.00000E+00
         0.00000E+00
         0.00000E+00
         0.00000E+00
         0.00000E+00
         0.00000E+00
         0.00000E+00
         0.00000E+00
         0.00000E+00
         0.00000E+00
         0.00000E+00
         0.00000E+00
         0.00000E+00
         0.00000E+00
         0.00000E+00
         0.00000E+00
         0.00000E+00
         0.00000E+00
         0.00000E+00
         0.00000E+00
         0.00000E+00
         0.00000E+00
         0.00000E+00
         0.00000E+00
         0.00000E+00
         0.00000E+00
         0.00000E+00
         0.00000E+00
         0.00000E+00
         0.00000E+00
         0.00000E+00
         0.00000E+00
         0.00000E+00
         0.00000E+00
         0.00000E+00
         0.00000E+00
         0.00000E+00
         0.00000E+00
         0.00000E+00
         0.00000E+00
         0.00000E+00
         0.00000E+00
         0.00000E+00
         0.00000E+00
         0.00000E+00
         0.00000E+00
         0.00000E+00
         0.00000E+00
         0.00000E+00
         0.00000E+00
         0.00000E+00
         0.00000E+00
         0.00000E+00
         0.00000E+00
         0.00000E+00
         0.00000E+00
         0.00000E+00
         0.00000E+00
         0.00000E+00
         0.00000E+00
         0.00000E+00
         0.00000E+00
         0.00000E+00
         0.00000E+00
         0.00000E+00
         0.00000E+00
         0.00000E+00
         0.00000E+00
         0.00000E+00
         0.00000E+00
         0.00000E+00
         0.00000E+00
         0.00000E+00
         0.00000E+00
         0.00000E+00
         0.00000E+00
         0.00000E+00
         0.00000E+00
         0.00000E+00
         0.00000E+00
         0.00000E+00
         0.00000E+00
         0.00000E+00
         0.00000E+00
         0.00000E+00
         0.00000E+00
         0.00000E+00
         0.00000E+00
         0.00000E+00
         0.00000E+00
         0.00000E+00
         0.00000E+00
         0.00000E+00
         0.00000E+00
         0.00000E+00
         0.00000E+00
         0.00000E+00
         0.00000E+00
         0.00000E+00
         0.00000E+00
         0.00000E+00
         0.00000E+00
         0.00000E+00
         0.00000E+00
         0.00000E+00
         0.00000E+00
         0.00000E+00
         0.00000E+00
         0.00000E+00
         0.00000E+00
         0.00000E+00
         0.00000E+00
         0.00000E+00
         0.00000E+00
         0.00000E+00
         0.00000E+00
         0.00000E+00
         0.00000E+00
         0.00000E+00
         0.00000E+00
         0.00000E+00
         0.00000E+00
         0.00000E+00
         0.00000E+00
         0.00000E+00
         0.00000E+00
         0.00000E+00
         0.00000E+00
         0.00000E+00
         0.00000E+00
         0.00000E+00
         0.00000E+00
         0.00000E+00
         0.00000E+00
         0.00000E+00
         0.00000E+00
         0.00000E+00
         0.00000E+00
         0.00000E+00
         0.00000E+00
         0.00000E+00
         0.00000E+00
         0.00000E+00
         0.00000E+00
         0.00000E+00
         0.00000E+00
         0.00000E+00
         0.00000E+00
         0.00000E+00
         0.00000E+00
         0.00000E+00
         0.00000E+00
         0.00000E+00
         0.00000E+00
         0.00000E+00
         0.00000E+00
         0.00000E+00
         0.00000E+00
         0.00000E+00
         0.00000E+00
         0.00000E+00
         0.00000E+00
         0.00000E+00
         0.00000E+00
         0.00000E+00
         0.00000E+00
         0.00000E+00
         0.00000E+00
         0.00000E+00
         0.00000E+00
         0.00000E+00
         0.00000E+00
         0.00000E+00
         0.00000E+00
         0.00000E+00
         0.00000E+00
         0.00000E+00
         0.00000E+00
         0.00000E+00
         0.00000E+00
         0.00000E+00
         0.00000E+00
         0.00000E+00
         0.00000E+00
         0.00000E+00
         0.00000E+00
         0.00000E+00
         0.00000E+00
         0.00000E+00
         0.00000E+00
         0.00000E+00
         0.00000E+00
         0.00000E+00
         0.00000E+00
         0.00000E+00
         0.00000E+00
         0.00000E+00
         0.00000E+00
         0.00000E+00
         0.00000E+00
         0.00000E+00
         0.00000E+00
         0.00000E+00
         0.00000E+00
         0.00000E+00
         0.00000E+00
         0.00000E+00
         0.00000E+00
         0.00000E+00
         0.00000E+00
         0.00000E+00
         0.00000E+00
         0.00000E+00
         0.00000E+00
         0.00000E+00
         0.00000E+00
         0.00000E+00
         0.00000E+00
         0.00000E+00
         0.00000E+00
         0.00000E+00
         0.00000E+00
         0.00000E+00
         0.00000E+00
         0.00000E+00
         0.00000E+00
         0.00000E+00
         0.00000E+00
         0.00000E+00
         0.00000E+00
         0.00000E+00
         0.00000E+00
         0.00000E+00
         0.00000E+00
         0.00000E+00
         0.00000E+00
         0.00000E+00
         0.00000E+00
         0.00000E+00
         0.00000E+00
         0.00000E+00
         0.00000E+00
         0.00000E+00
         0.00000E+00
         0.00000E+00
         0.00000E+00
         0.00000E+00
         0.00000E+00
         0.00000E+00
         0.00000E+00
         0.00000E+00
         0.00000E+00
         0.00000E+00
         0.00000E+00
         0.00000E+00
         0.00000E+00
         0.00000E+00
         0.00000E+00
         0.00000E+00
         0.00000E+00
         0.00000E+00
         0.00000E+00
         0.00000E+00
         0.00000E+00
         0.00000E+00
         0.00000E+00
         0.00000E+00
         0.00000E+00
         0.00000E+00
         0.00000E+00
         0.00000E+00
         0.00000E+00
         0.00000E+00
         0.00000E+00
         0.00000E+00
         0.00000E+00
         0.00000E+00
         0.00000E+00
         0.00000E+00
         0.00000E+00
         0.00000E+00
         0.00000E+00
         0.00000E+00
         0.00000E+00
         0.00000E+00
         0.00000E+00
         0.00000E+00
         0.00000E+00
         0.00000E+00
         0.00000E+00
         0.00000E+00
         0.00000E+00
         0.00000E+00
         0.00000E+00
         0.00000E+00
         0.00000E+00
         0.00000E+00
         0.00000E+00
         0.00000E+00
         0.00000E+00
         0.00000E+00
         0.00000E+00
         0.00000E+00
         0.00000E+00
         0.00000E+00
         0.00000E+00
         0.00000E+00
         0.00000E+00
         0.00000E+00
         0.00000E+00
         0.00000E+00
         0.00000E+00
         0.00000E+00
         0.00000E+00
         0.00000E+00
         0.00000E+00
         0.00000E+00
         0.00000E+00
         0.00000E+00
         0.00000E+00
         0.00000E+00
         0.00000E+00
         0.00000E+00
         0.00000E+00
         0.00000E+00
         0.00000E+00
         0.00000E+00
         0.00000E+00
         0.00000E+00
         0.00000E+00
         0.00000E+00
         0.00000E+00
         0.00000E+00
         0.00000E+00
         0.00000E+00
         0.00000E+00
         0.00000E+00
         0.00000E+00
         0.00000E+00
         0.00000E+00
         0.00000E+00
         0.00000E+00
         0.00000E+00
         0.00000E+00
         0.00000E+00
         0.00000E+00
         0.00000E+00
         0.00000E+00
         0.00000E+00
         0.00000E+00
         0.00000E+00
         0.00000E+00
         0.00000E+00
         0.00000E+00
         0.00000E+00
         0.00000E+00
         0.00000E+00
         0.00000E+00
         0.00000E+00
         0.00000E+00
         0.00000E+00
         0.00000E+00
         0.00000E+00
         0.00000E+00
         0.00000E+00
         0.00000E+00
         0.00000E+00
         0.00000E+00
         0.00000E+00
         0.00000E+00
         0.00000E+00
         0.00000E+00
         0.00000E+00
         0.00000E+00
         0.00000E+00
         0.00000E+00
         0.00000E+00
         0.00000E+00
         0.00000E+00
         0.00000E+00
         0.00000E+00
         0.00000E+00
         0.00000E+00
         0.00000E+00
         0.00000E+00
         0.00000E+00
         0.00000E+00
         0.00000E+00
         0.00000E+00
         0.00000E+00
         0.00000E+00
         0.00000E+00
         0.00000E+00
         0.00000E+00
         0.00000E+00
         0.00000E+00
         0.00000E+00
         0.00000E+00
         0.00000E+00
         0.00000E+00
         0.00000E+00
         0.00000E+00
         0.00000E+00
         0.00000E+00
         0.00000E+00
         0.00000E+00
         0.00000E+00
         0.00000E+00
         0.00000E+00
         0.00000E+00
         0.00000E+00
         0.00000E+00
         0.00000E+00
         0.00000E+00
         0.00000E+00
         0.00000E+00
         0.00000E+00
         0.00000E+00
         0.00000E+00
         0.00000E+00
         0.00000E+00
         0.00000E+00
         0.00000E+00
         0.00000E+00
         0.00000E+00
         0.00000E+00
         0.00000E+00
         0.00000E+00
         0.00000E+00
         0.00000E+00
         0.00000E+00
         0.00000E+00
         0.00000E+00
         0.00000E+00
         0.00000E+00
         0.00000E+00
         0.00000E+00
         0.00000E+00
         0.00000E+00
         0.00000E+00
         0.00000E+00
         0.00000E+00
         0.00000E+00
         0.00000E+00
         0.00000E+00
         0.00000E+00
         0.00000E+00
         0.00000E+00
         0.00000E+00
         0.00000E+00
         0.00000E+00
         0.00000E+00
         0.00000E+00
         0.00000E+00
         0.00000E+00
         0.00000E+00
         0.00000E+00
         0.00000E+00
         0.00000E+00
         0.00000E+00
         0.00000E+00
         0.00000E+00
         0.00000E+00
         0.00000E+00
         0.00000E+00
         0.00000E+00
         0.00000E+00
         0.00000E+00
         0.00000E+00
         0.00000E+00
         0.00000E+00
         0.00000E+00
         0.00000E+00
         0.00000E+00
         0.00000E+00
         0.00000E+00
         0.00000E+00
         0.00000E+00
         0.00000E+00
         0.00000E+00
         0.00000E+00
         0.00000E+00
         0.00000E+00
         0.00000E+00
         0.00000E+00
         0.00000E+00
         0.00000E+00
         0.00000E+00
         0.00000E+00
         0.00000E+00
         0.00000E+00
         0.00000E+00
         0.00000E+00
         0.00000E+00
         0.00000E+00
         0.00000E+00
         0.00000E+00
         0.00000E+00
         0.00000E+00
         0.00000E+00
         0.00000E+00
         0.00000E+00
         0.00000E+00
         0.00000E+00
         0.00000E+00
         0.00000E+00
         0.00000E+00
         0.00000E+00
         0.00000E+00
         0.00000E+00
         0.00000E+00
         0.00000E+00
         0.00000E+00
         0.00000E+00
         0.00000E+00
         0.00000E+00
         0.00000E+00
         0.00000E+00
         0.00000E+00
         0.00000E+00
         0.00000E+00
         0.00000E+00
         0.00000E+00
         0.00000E+00
         0.00000E+00
         0.00000E+00
         0.00000E+00
         0.00000E+00
         0.00000E+00
         0.00000E+00
         0.00000E+00
         0.00000E+00
         0.00000E+00
         0.00000E+00
         0.00000E+00
         0.00000E+00
         0.00000E+00
         0.00000E+00
         0.00000E+00
         0.00000E+00
         0.00000E+00
         0.00000E+00
         0.00000E+00
         0.00000E+00
         0.00000E+00
         0.00000E+00
         0.00000E+00
         0.00000E+00
         0.00000E+00
         0.00000E+00
         0.00000E+00
         0.00000E+00
         0.00000E+00
         0.00000E+00
         0.00000E+00
         0.00000E+00
         0.00000E+00
         0.00000E+00
         0.00000E+00
         0.00000E+00
         0.00000E+00
         0.00000E+00
         0.00000E+00
         0.00000E+00
         0.00000E+00
         0.00000E+00
         0.00000E+00
         0.00000E+00
         0.00000E+00
         0.00000E+00
         0.00000E+00
         0.00000E+00
         0.00000E+00
         0.00000E+00
         0.00000E+00
         0.00000E+00
         0.00000E+00
         0.00000E+00
         0.00000E+00
         0.00000E+00
         0.00000E+00
         0.00000E+00
         0.00000E+00
         0.00000E+00
         0.00000E+00
         0.00000E+00
         0.00000E+00
         0.00000E+00
         0.00000E+00
         0.00000E+00
         0.00000E+00
         0.00000E+00
         0.00000E+00
         0.00000E+00
         0.00000E+00
         0.00000E+00
         0.00000E+00
         0.00000E+00
         0.00000E+00
         0.00000E+00
         0.00000E+00
         0.00000E+00
         0.00000E+00
         0.00000E+00
         0.00000E+00
         0.00000E+00
         0.00000E+00
         0.00000E+00
         0.00000E+00
         0.00000E+00
         0.00000E+00
         0.00000E+00
         0.00000E+00
         0.00000E+00
         0.00000E+00
         0.00000E+00
         0.00000E+00
         0.00000E+00
         0.00000E+00
         0.00000E+00
         0.00000E+00
         0.00000E+00
         0.00000E+00
         0.00000E+00
         0.00000E+00
         0.00000E+00
         0.00000E+00
         0.00000E+00
         0.00000E+00
         0.00000E+00
         0.00000E+00
         0.00000E+00
         0.00000E+00
         0.00000E+00
         0.00000E+00
         0.00000E+00
         0.00000E+00
         0.00000E+00
         0.00000E+00
         0.00000E+00
         0.00000E+00
         0.00000E+00
         0.00000E+00
         0.00000E+00
         0.00000E+00
         0.00000E+00
         0.00000E+00
         0.00000E+00
         0.00000E+00
         0.00000E+00
         0.00000E+00
         0.00000E+00
         0.00000E+00
         0.00000E+00
         0.00000E+00
         0.00000E+00
         0.00000E+00
         0.00000E+00
         0.00000E+00
         0.00000E+00
         0.00000E+00
         0.00000E+00
         0.00000E+00
         0.00000E+00
         0.00000E+00
         0.00000E+00
         0.00000E+00
         0.00000E+00
         0.00000E+00
         0.00000E+00
         0.00000E+00
         0.00000E+00
         0.00000E+00
         0.00000E+00
         0.00000E+00
         0.00000E+00
         0.00000E+00
         0.00000E+00
         0.00000E+00
         0.00000E+00
         0.00000E+00
         0.00000E+00
         0.00000E+00
         0.00000E+00
         0.00000E+00
         0.00000E+00
         0.00000E+00
         0.00000E+00
         0.00000E+00
         0.00000E+00
         0.00000E+00
         0.00000E+00
         0.00000E+00
         0.00000E+00
         0.00000E+00
         0.00000E+00
         0.00000E+00
         0.00000E+00
         0.00000E+00
         0.00000E+00
         0.00000E+00
         0.00000E+00
         0.00000E+00
         0.00000E+00
         0.00000E+00
         0.00000E+00
         0.00000E+00
         0.00000E+00
         0.00000E+00
         0.00000E+00
         0.00000E+00
         0.00000E+00
         0.00000E+00
         0.00000E+00
         0.00000E+00
         0.00000E+00
         0.00000E+00
         0.00000E+00
         0.00000E+00
         0.00000E+00
         0.00000E+00
         0.00000E+00
         0.00000E+00
         0.00000E+00
         0.00000E+00
         0.00000E+00
         0.00000E+00
         0.00000E+00
         0.00000E+00
         0.00000E+00
         0.00000E+00
         0.00000E+00
         0.00000E+00
         0.00000E+00
         0.00000E+00
         0.00000E+00
         0.00000E+00
         0.00000E+00
         0.00000E+00
         0.00000E+00
         0.00000E+00
         0.00000E+00
         0.00000E+00
         0.00000E+00
         0.00000E+00
         0.00000E+00
         0.00000E+00
         0.00000E+00
         0.00000E+00
         0.00000E+00
         0.00000E+00
         0.00000E+00
         0.00000E+00
         0.00000E+00
         0.00000E+00
         0.00000E+00
         0.00000E+00
         0.00000E+00
         0.00000E+00
         0.00000E+00
         0.00000E+00
         0.00000E+00
         0.00000E+00
         0.00000E+00
         0.00000E+00
         0.00000E+00
         0.00000E+00
         0.00000E+00
         0.00000E+00
         0.00000E+00
         0.00000E+00
         0.00000E+00
         0.00000E+00
         0.00000E+00
         0.00000E+00
         0.00000E+00
         0.00000E+00
         0.00000E+00
         0.00000E+00
         0.00000E+00
         0.00000E+00
         0.00000E+00
         0.00000E+00
         0.00000E+00
         0.00000E+00
         0.00000E+00
         0.00000E+00
         0.00000E+00
         0.00000E+00
         0.00000E+00
         0.00000E+00
         0.00000E+00
         0.00000E+00
         0.00000E+00
         0.00000E+00
         0.00000E+00
         0.00000E+00
         0.00000E+00
         0.00000E+00
         0.00000E+00
         0.00000E+00
         0.00000E+00
         0.00000E+00
         0.00000E+00
         0.00000E+00
         0.00000E+00
         0.00000E+00
         0.00000E+00
         0.00000E+00
         0.00000E+00
         0.00000E+00
         0.00000E+00
         0.00000E+00
         0.00000E+00
         0.00000E+00
         0.00000E+00
         0.00000E+00
         0.00000E+00
         0.00000E+00
         0.00000E+00
         0.00000E+00
         0.00000E+00
         0.00000E+00
         0.00000E+00
         0.00000E+00
         0.00000E+00
         0.00000E+00
         0.00000E+00
         0.00000E+00
         0.00000E+00
         0.00000E+00
         0.00000E+00
         0.00000E+00
         0.00000E+00
         0.00000E+00
         0.00000E+00
         0.00000E+00
         0.00000E+00
         0.00000E+00
         0.00000E+00
         0.00000E+00
         0.00000E+00
         0.00000E+00
         0.00000E+00
         0.00000E+00
         0.00000E+00
         0.00000E+00
         0.00000E+00
         0.00000E+00
         0.00000E+00
         0.00000E+00
         0.00000E+00
         0.00000E+00
         0.00000E+00
         0.00000E+00
         0.00000E+00
         0.00000E+00
         0.00000E+00
         0.00000E+00
         0.00000E+00
         0.00000E+00
         0.00000E+00
         0.00000E+00
         0.00000E+00
         0.00000E+00
         0.00000E+00
         0.00000E+00
         0.00000E+00
         0.00000E+00
         0.00000E+00
         0.00000E+00
         0.00000E+00
         0.00000E+00
         0.00000E+00
         0.00000E+00
         0.00000E+00
         0.00000E+00
         0.00000E+00
         0.00000E+00
         0.00000E+00
         0.00000E+00
         0.00000E+00
         0.00000E+00
         0.00000E+00
         0.00000E+00
         0.00000E+00
         0.00000E+00
         0.00000E+00
         0.00000E+00
         0.00000E+00
         0.00000E+00
         0.00000E+00
         0.00000E+00
         0.00000E+00
         0.00000E+00
         0.00000E+00
         0.00000E+00
         0.00000E+00
         0.00000E+00
         0.00000E+00
         0.00000E+00
         0.00000E+00
         0.00000E+00
         0.00000E+00
         0.00000E+00
         0.00000E+00
         0.00000E+00
         0.00000E+00
         0.00000E+00
         0.00000E+00
         0.00000E+00
         0.00000E+00
         0.00000E+00
         0.00000E+00
         0.00000E+00
         0.00000E+00
         0.00000E+00
         0.00000E+00
         0.00000E+00
         0.00000E+00
         0.00000E+00
         0.00000E+00
         0.00000E+00
         0.00000E+00
         0.00000E+00
         0.00000E+00
         0.00000E+00
         0.00000E+00
         0.00000E+00
         0.00000E+00
         0.00000E+00
         0.00000E+00
         0.00000E+00
         0.00000E+00
         0.00000E+00
         0.00000E+00
         0.00000E+00
         0.00000E+00
         0.00000E+00
         0.00000E+00
         0.00000E+00
         0.00000E+00
         0.00000E+00
         0.00000E+00
         0.00000E+00
         0.00000E+00
         0.00000E+00
         0.00000E+00
         0.00000E+00
         0.00000E+00
         0.00000E+00
         0.00000E+00
         0.00000E+00
         0.00000E+00
         0.00000E+00
         0.00000E+00
         0.00000E+00
         0.00000E+00
         0.00000E+00
         0.00000E+00
         0.00000E+00
         0.00000E+00
         0.00000E+00
         0.00000E+00
         0.00000E+00
         0.00000E+00
         0.00000E+00
         0.00000E+00
         0.00000E+00
         0.00000E+00
         0.00000E+00
         0.00000E+00
         0.00000E+00
         0.00000E+00
         0.00000E+00
         0.00000E+00
         0.00000E+00
         0.00000E+00
         0.00000E+00
         0.00000E+00
         0.00000E+00
         0.00000E+00
         0.00000E+00
         0.00000E+00
         0.00000E+00
         0.00000E+00
         0.00000E+00
         0.00000E+00
         0.00000E+00
         0.00000E+00
         0.00000E+00
         0.00000E+00
         0.00000E+00
         0.00000E+00
         0.00000E+00
         0.00000E+00
         0.00000E+00
         0.00000E+00
         0.00000E+00
         0.00000E+00
         0.00000E+00
         0.00000E+00
         0.00000E+00
         0.00000E+00
         0.00000E+00
         0.00000E+00
         0.00000E+00
         0.00000E+00
         0.00000E+00
         0.00000E+00
         0.00000E+00
         0.00000E+00
         0.00000E+00
         0.00000E+00
         0.00000E+00
         0.00000E+00
         0.00000E+00
         0.00000E+00
         0.00000E+00
         0.00000E+00
         0.00000E+00
         0.00000E+00
         0.00000E+00
         0.00000E+00
         0.00000E+00
         0.00000E+00
         0.00000E+00
         0.00000E+00
         0.00000E+00
         0.00000E+00
         0.00000E+00
         0.00000E+00
         0.00000E+00
         0.00000E+00
         0.00000E+00
         0.00000E+00
         0.00000E+00
         0.00000E+00
         0.00000E+00
         0.00000E+00
         0.00000E+00
         0.00000E+00
         0.00000E+00
         0.00000E+00
         0.00000E+00
         0.00000E+00
         0.00000E+00
         0.00000E+00
         0.00000E+00
         0.00000E+00
         0.00000E+00
         0.00000E+00
         0.00000E+00
         0.00000E+00
         0.00000E+00
         0.00000E+00
         0.00000E+00
         0.00000E+00
         0.00000E+00
         0.00000E+00
         0.00000E+00
         0.00000E+00
         0.00000E+00
         0.00000E+00
         0.00000E+00
         0.00000E+00
         0.00000E+00
         0.00000E+00
         0.00000E+00
         0.00000E+00
         0.00000E+00
         0.00000E+00
         0.00000E+00
         0.00000E+00
         0.00000E+00
         0.00000E+00
         0.00000E+00
         0.00000E+00
         0.00000E+00
         0.00000E+00
         0.00000E+00
         0.00000E+00
         0.00000E+00
         0.00000E+00
         0.00000E+00
         0.00000E+00
         0.00000E+00
         0.00000E+00
         0.00000E+00
         0.00000E+00
         0.00000E+00
         0.00000E+00
         0.00000E+00
         0.00000E+00
         0.00000E+00
         0.00000E+00
         0.00000E+00
         0.00000E+00
         0.00000E+00
         0.00000E+00
         0.00000E+00
         0.00000E+00
         0.00000E+00
         0.00000E+00
         0.00000E+00
         0.00000E+00
         0.00000E+00
         0.00000E+00
         0.00000E+00
         0.00000E+00
         0.00000E+00
         0.00000E+00
         0.00000E+00
         0.00000E+00
         0.00000E+00
         0.00000E+00
         0.00000E+00
         0.00000E+00
         0.00000E+00
         0.00000E+00
         0.00000E+00
         0.00000E+00
         0.00000E+00
         0.00000E+00
         0.00000E+00
         0.00000E+00
         0.00000E+00
         0.00000E+00
         0.00000E+00
         0.00000E+00
         0.00000E+00
         0.00000E+00
         0.00000E+00
         0.00000E+00
         0.00000E+00
         0.00000E+00
         0.00000E+00
         0.00000E+00
         0.00000E+00
         0.00000E+00
         0.00000E+00
         0.00000E+00
         0.00000E+00
         0.00000E+00
         0.00000E+00
         0.00000E+00
         0.00000E+00
         0.00000E+00
         0.00000E+00
         0.00000E+00
         0.00000E+00
         0.00000E+00
         0.00000E+00
         0.00000E+00
         0.00000E+00
         0.00000E+00
         0.00000E+00
         0.00000E+00
         0.00000E+00
         0.00000E+00
         0.00000E+00
         0.00000E+00
         0.00000E+00
         0.00000E+00
         0.00000E+00
         0.00000E+00
         0.00000E+00
         0.00000E+00
         0.00000E+00
         0.00000E+00
         0.00000E+00
         0.00000E+00
         0.00000E+00
         0.00000E+00
         0.00000E+00
         0.00000E+00
         0.00000E+00
         0.00000E+00
         0.00000E+00
         0.00000E+00
         0.00000E+00
         0.00000E+00
         0.00000E+00
         0.00000E+00
         0.00000E+00
         0.00000E+00
         0.00000E+00
         0.00000E+00
         0.00000E+00
         0.00000E+00
         0.00000E+00
         0.00000E+00
         0.00000E+00
         0.00000E+00
         0.00000E+00
         0.00000E+00
         0.00000E+00
         0.00000E+00
         0.00000E+00
         0.00000E+00
         0.00000E+00
         0.00000E+00
         0.00000E+00
         0.00000E+00
         0.00000E+00
         0.00000E+00
         0.00000E+00
         0.00000E+00
         0.00000E+00
         0.00000E+00
         0.00000E+00
         0.00000E+00
         0.00000E+00
         0.00000E+00
         0.00000E+00
         0.00000E+00
         0.00000E+00
         0.00000E+00
         0.00000E+00
         0.00000E+00
         0.00000E+00
         0.00000E+00
         0.00000E+00
         0.00000E+00
         0.00000E+00
         0.00000E+00
         0.00000E+00
         0.00000E+00
         0.00000E+00
         0.00000E+00
         0.00000E+00
         0.00000E+00
         0.00000E+00
         0.00000E+00
         0.00000E+00
         0.00000E+00
         0.00000E+00
         0.00000E+00
         0.00000E+00
         0.00000E+00
         0.00000E+00
         0.00000E+00
         0.00000E+00
         0.00000E+00
         0.00000E+00
         0.00000E+00
  
SCALARS                         fint_z  double 1
LOOKUP_TABLE default
         0.00000E+00
         0.00000E+00
         0.00000E+00
         0.00000E+00
         0.00000E+00
         0.00000E+00
         0.00000E+00
         0.00000E+00
         0.00000E+00
         0.00000E+00
         0.00000E+00
         0.00000E+00
         0.00000E+00
         0.00000E+00
         0.00000E+00
         0.00000E+00
         0.00000E+00
         0.00000E+00
         0.00000E+00
         0.00000E+00
         0.00000E+00
         0.00000E+00
         0.00000E+00
         0.00000E+00
         0.00000E+00
         0.00000E+00
         0.00000E+00
         0.00000E+00
         0.00000E+00
         0.00000E+00
         0.00000E+00
         0.00000E+00
         0.00000E+00
         0.00000E+00
         0.00000E+00
         0.00000E+00
         0.00000E+00
         0.00000E+00
         0.00000E+00
         0.00000E+00
         0.00000E+00
         0.00000E+00
         0.00000E+00
         0.00000E+00
         0.00000E+00
         0.00000E+00
         0.00000E+00
         0.00000E+00
         0.00000E+00
         0.00000E+00
         0.00000E+00
         0.00000E+00
         0.00000E+00
         0.00000E+00
         0.00000E+00
         0.00000E+00
         0.00000E+00
         0.00000E+00
         0.00000E+00
         0.00000E+00
         0.00000E+00
         0.00000E+00
         0.00000E+00
         0.00000E+00
         0.00000E+00
         0.00000E+00
         0.00000E+00
         0.00000E+00
         0.00000E+00
         0.00000E+00
         0.00000E+00
         0.00000E+00
         0.00000E+00
         0.00000E+00
         0.00000E+00
         0.00000E+00
         0.00000E+00
         0.00000E+00
         0.00000E+00
         0.00000E+00
         0.00000E+00
         0.00000E+00
         0.00000E+00
         0.00000E+00
         0.00000E+00
         0.00000E+00
         0.00000E+00
         0.00000E+00
         0.00000E+00
         0.00000E+00
         0.00000E+00
         0.00000E+00
         0.00000E+00
         0.00000E+00
         0.00000E+00
         0.00000E+00
         0.00000E+00
         0.00000E+00
         0.00000E+00
         0.00000E+00
         0.00000E+00
         0.00000E+00
         0.00000E+00
         0.00000E+00
         0.00000E+00
         0.00000E+00
         0.00000E+00
         0.00000E+00
         0.00000E+00
         0.00000E+00
         0.00000E+00
         0.00000E+00
         0.00000E+00
         0.00000E+00
         0.00000E+00
         0.00000E+00
         0.00000E+00
         0.00000E+00
         0.00000E+00
         0.00000E+00
         0.00000E+00
         0.00000E+00
         0.00000E+00
         0.00000E+00
         0.00000E+00
         0.00000E+00
         0.00000E+00
         0.00000E+00
         0.00000E+00
         0.00000E+00
         0.00000E+00
         0.00000E+00
         0.00000E+00
         0.00000E+00
         0.00000E+00
         0.00000E+00
         0.00000E+00
         0.00000E+00
         0.00000E+00
         0.00000E+00
         0.00000E+00
         0.00000E+00
         0.00000E+00
         0.00000E+00
         0.00000E+00
         0.00000E+00
         0.00000E+00
         0.00000E+00
         0.00000E+00
         0.00000E+00
         0.00000E+00
         0.00000E+00
         0.00000E+00
         0.00000E+00
         0.00000E+00
         0.00000E+00
         0.00000E+00
         0.00000E+00
         0.00000E+00
         0.00000E+00
         0.00000E+00
         0.00000E+00
         0.00000E+00
         0.00000E+00
         0.00000E+00
         0.00000E+00
         0.00000E+00
         0.00000E+00
         0.00000E+00
         0.00000E+00
         0.00000E+00
         0.00000E+00
         0.00000E+00
         0.00000E+00
         0.00000E+00
         0.00000E+00
         0.00000E+00
         0.00000E+00
         0.00000E+00
         0.00000E+00
         0.00000E+00
         0.00000E+00
         0.00000E+00
         0.00000E+00
         0.00000E+00
         0.00000E+00
         0.00000E+00
         0.00000E+00
         0.00000E+00
         0.00000E+00
         0.00000E+00
         0.00000E+00
         0.00000E+00
         0.00000E+00
         0.00000E+00
         0.00000E+00
         0.00000E+00
         0.00000E+00
         0.00000E+00
         0.00000E+00
         0.00000E+00
         0.00000E+00
         0.00000E+00
         0.00000E+00
         0.00000E+00
         0.00000E+00
         0.00000E+00
         0.00000E+00
         0.00000E+00
         0.00000E+00
         0.00000E+00
         0.00000E+00
         0.00000E+00
         0.00000E+00
         0.00000E+00
         0.00000E+00
         0.00000E+00
         0.00000E+00
         0.00000E+00
         0.00000E+00
         0.00000E+00
         0.00000E+00
         0.00000E+00
         0.00000E+00
         0.00000E+00
         0.00000E+00
         0.00000E+00
         0.00000E+00
         0.00000E+00
         0.00000E+00
         0.00000E+00
         0.00000E+00
         0.00000E+00
         0.00000E+00
         0.00000E+00
         0.00000E+00
         0.00000E+00
         0.00000E+00
         0.00000E+00
         0.00000E+00
         0.00000E+00
         0.00000E+00
         0.00000E+00
         0.00000E+00
         0.00000E+00
         0.00000E+00
         0.00000E+00
         0.00000E+00
         0.00000E+00
         0.00000E+00
         0.00000E+00
         0.00000E+00
         0.00000E+00
         0.00000E+00
         0.00000E+00
         0.00000E+00
         0.00000E+00
         0.00000E+00
         0.00000E+00
         0.00000E+00
         0.00000E+00
         0.00000E+00
         0.00000E+00
         0.00000E+00
         0.00000E+00
         0.00000E+00
         0.00000E+00
         0.00000E+00
         0.00000E+00
         0.00000E+00
         0.00000E+00
         0.00000E+00
         0.00000E+00
         0.00000E+00
         0.00000E+00
         0.00000E+00
         0.00000E+00
         0.00000E+00
         0.00000E+00
         0.00000E+00
         0.00000E+00
         0.00000E+00
         0.00000E+00
         0.00000E+00
         0.00000E+00
         0.00000E+00
         0.00000E+00
         0.00000E+00
         0.00000E+00
         0.00000E+00
         0.00000E+00
         0.00000E+00
         0.00000E+00
         0.00000E+00
         0.00000E+00
         0.00000E+00
         0.00000E+00
         0.00000E+00
         0.00000E+00
         0.00000E+00
         0.00000E+00
         0.00000E+00
         0.00000E+00
         0.00000E+00
         0.00000E+00
         0.00000E+00
         0.00000E+00
         0.00000E+00
         0.00000E+00
         0.00000E+00
         0.00000E+00
         0.00000E+00
         0.00000E+00
         0.00000E+00
         0.00000E+00
         0.00000E+00
         0.00000E+00
         0.00000E+00
         0.00000E+00
         0.00000E+00
         0.00000E+00
         0.00000E+00
         0.00000E+00
         0.00000E+00
         0.00000E+00
         0.00000E+00
         0.00000E+00
         0.00000E+00
         0.00000E+00
         0.00000E+00
         0.00000E+00
         0.00000E+00
         0.00000E+00
         0.00000E+00
         0.00000E+00
         0.00000E+00
         0.00000E+00
         0.00000E+00
         0.00000E+00
         0.00000E+00
         0.00000E+00
         0.00000E+00
         0.00000E+00
         0.00000E+00
         0.00000E+00
         0.00000E+00
         0.00000E+00
         0.00000E+00
         0.00000E+00
         0.00000E+00
         0.00000E+00
         0.00000E+00
         0.00000E+00
         0.00000E+00
         0.00000E+00
         0.00000E+00
         0.00000E+00
         0.00000E+00
         0.00000E+00
         0.00000E+00
         0.00000E+00
         0.00000E+00
         0.00000E+00
         0.00000E+00
         0.00000E+00
         0.00000E+00
         0.00000E+00
         0.00000E+00
         0.00000E+00
         0.00000E+00
         0.00000E+00
         0.00000E+00
         0.00000E+00
         0.00000E+00
         0.00000E+00
         0.00000E+00
         0.00000E+00
         0.00000E+00
         0.00000E+00
         0.00000E+00
         0.00000E+00
         0.00000E+00
         0.00000E+00
         0.00000E+00
         0.00000E+00
         0.00000E+00
         0.00000E+00
         0.00000E+00
         0.00000E+00
         0.00000E+00
         0.00000E+00
         0.00000E+00
         0.00000E+00
         0.00000E+00
         0.00000E+00
         0.00000E+00
         0.00000E+00
         0.00000E+00
         0.00000E+00
         0.00000E+00
         0.00000E+00
         0.00000E+00
         0.00000E+00
         0.00000E+00
         0.00000E+00
         0.00000E+00
         0.00000E+00
         0.00000E+00
         0.00000E+00
         0.00000E+00
         0.00000E+00
         0.00000E+00
         0.00000E+00
         0.00000E+00
         0.00000E+00
         0.00000E+00
         0.00000E+00
         0.00000E+00
         0.00000E+00
         0.00000E+00
         0.00000E+00
         0.00000E+00
         0.00000E+00
         0.00000E+00
         0.00000E+00
         0.00000E+00
         0.00000E+00
         0.00000E+00
         0.00000E+00
         0.00000E+00
         0.00000E+00
         0.00000E+00
         0.00000E+00
         0.00000E+00
         0.00000E+00
         0.00000E+00
         0.00000E+00
         0.00000E+00
         0.00000E+00
         0.00000E+00
         0.00000E+00
         0.00000E+00
         0.00000E+00
         0.00000E+00
         0.00000E+00
         0.00000E+00
         0.00000E+00
         0.00000E+00
         0.00000E+00
         0.00000E+00
         0.00000E+00
         0.00000E+00
         0.00000E+00
         0.00000E+00
         0.00000E+00
         0.00000E+00
         0.00000E+00
         0.00000E+00
         0.00000E+00
         0.00000E+00
         0.00000E+00
         0.00000E+00
         0.00000E+00
         0.00000E+00
         0.00000E+00
         0.00000E+00
         0.00000E+00
         0.00000E+00
         0.00000E+00
         0.00000E+00
         0.00000E+00
         0.00000E+00
         0.00000E+00
         0.00000E+00
         0.00000E+00
         0.00000E+00
         0.00000E+00
         0.00000E+00
         0.00000E+00
         0.00000E+00
         0.00000E+00
         0.00000E+00
         0.00000E+00
         0.00000E+00
         0.00000E+00
         0.00000E+00
         0.00000E+00
         0.00000E+00
         0.00000E+00
         0.00000E+00
         0.00000E+00
         0.00000E+00
         0.00000E+00
         0.00000E+00
         0.00000E+00
         0.00000E+00
         0.00000E+00
         0.00000E+00
         0.00000E+00
         0.00000E+00
         0.00000E+00
         0.00000E+00
         0.00000E+00
         0.00000E+00
         0.00000E+00
         0.00000E+00
         0.00000E+00
         0.00000E+00
         0.00000E+00
         0.00000E+00
         0.00000E+00
         0.00000E+00
         0.00000E+00
         0.00000E+00
         0.00000E+00
         0.00000E+00
         0.00000E+00
         0.00000E+00
         0.00000E+00
         0.00000E+00
         0.00000E+00
         0.00000E+00
         0.00000E+00
         0.00000E+00
         0.00000E+00
         0.00000E+00
         0.00000E+00
         0.00000E+00
         0.00000E+00
         0.00000E+00
         0.00000E+00
         0.00000E+00
         0.00000E+00
         0.00000E+00
         0.00000E+00
         0.00000E+00
         0.00000E+00
         0.00000E+00
         0.00000E+00
         0.00000E+00
         0.00000E+00
         0.00000E+00
         0.00000E+00
         0.00000E+00
         0.00000E+00
         0.00000E+00
         0.00000E+00
         0.00000E+00
         0.00000E+00
         0.00000E+00
         0.00000E+00
         0.00000E+00
         0.00000E+00
         0.00000E+00
         0.00000E+00
         0.00000E+00
         0.00000E+00
         0.00000E+00
         0.00000E+00
         0.00000E+00
         0.00000E+00
         0.00000E+00
         0.00000E+00
         0.00000E+00
         0.00000E+00
         0.00000E+00
         0.00000E+00
         0.00000E+00
         0.00000E+00
         0.00000E+00
         0.00000E+00
         0.00000E+00
         0.00000E+00
         0.00000E+00
         0.00000E+00
         0.00000E+00
         0.00000E+00
         0.00000E+00
         0.00000E+00
         0.00000E+00
         0.00000E+00
         0.00000E+00
         0.00000E+00
         0.00000E+00
         0.00000E+00
         0.00000E+00
         0.00000E+00
         0.00000E+00
         0.00000E+00
         0.00000E+00
         0.00000E+00
         0.00000E+00
         0.00000E+00
         0.00000E+00
         0.00000E+00
         0.00000E+00
         0.00000E+00
         0.00000E+00
         0.00000E+00
         0.00000E+00
         0.00000E+00
         0.00000E+00
         0.00000E+00
         0.00000E+00
         0.00000E+00
         0.00000E+00
         0.00000E+00
         0.00000E+00
         0.00000E+00
         0.00000E+00
         0.00000E+00
         0.00000E+00
         0.00000E+00
         0.00000E+00
         0.00000E+00
         0.00000E+00
         0.00000E+00
         0.00000E+00
         0.00000E+00
         0.00000E+00
         0.00000E+00
         0.00000E+00
         0.00000E+00
         0.00000E+00
         0.00000E+00
         0.00000E+00
         0.00000E+00
         0.00000E+00
         0.00000E+00
         0.00000E+00
         0.00000E+00
         0.00000E+00
         0.00000E+00
         0.00000E+00
         0.00000E+00
         0.00000E+00
         0.00000E+00
         0.00000E+00
         0.00000E+00
         0.00000E+00
         0.00000E+00
         0.00000E+00
         0.00000E+00
         0.00000E+00
         0.00000E+00
         0.00000E+00
         0.00000E+00
         0.00000E+00
         0.00000E+00
         0.00000E+00
         0.00000E+00
         0.00000E+00
         0.00000E+00
         0.00000E+00
         0.00000E+00
         0.00000E+00
         0.00000E+00
         0.00000E+00
         0.00000E+00
         0.00000E+00
         0.00000E+00
         0.00000E+00
         0.00000E+00
         0.00000E+00
         0.00000E+00
         0.00000E+00
         0.00000E+00
         0.00000E+00
         0.00000E+00
         0.00000E+00
         0.00000E+00
         0.00000E+00
         0.00000E+00
         0.00000E+00
         0.00000E+00
         0.00000E+00
         0.00000E+00
         0.00000E+00
         0.00000E+00
         0.00000E+00
         0.00000E+00
         0.00000E+00
         0.00000E+00
         0.00000E+00
         0.00000E+00
         0.00000E+00
         0.00000E+00
         0.00000E+00
         0.00000E+00
         0.00000E+00
         0.00000E+00
         0.00000E+00
         0.00000E+00
         0.00000E+00
         0.00000E+00
         0.00000E+00
         0.00000E+00
         0.00000E+00
         0.00000E+00
         0.00000E+00
         0.00000E+00
         0.00000E+00
         0.00000E+00
         0.00000E+00
         0.00000E+00
         0.00000E+00
         0.00000E+00
         0.00000E+00
         0.00000E+00
         0.00000E+00
         0.00000E+00
         0.00000E+00
         0.00000E+00
         0.00000E+00
         0.00000E+00
         0.00000E+00
         0.00000E+00
         0.00000E+00
         0.00000E+00
         0.00000E+00
         0.00000E+00
         0.00000E+00
         0.00000E+00
         0.00000E+00
         0.00000E+00
         0.00000E+00
         0.00000E+00
         0.00000E+00
         0.00000E+00
         0.00000E+00
         0.00000E+00
         0.00000E+00
         0.00000E+00
         0.00000E+00
         0.00000E+00
         0.00000E+00
         0.00000E+00
         0.00000E+00
         0.00000E+00
         0.00000E+00
         0.00000E+00
         0.00000E+00
         0.00000E+00
         0.00000E+00
         0.00000E+00
         0.00000E+00
         0.00000E+00
         0.00000E+00
         0.00000E+00
         0.00000E+00
         0.00000E+00
         0.00000E+00
         0.00000E+00
         0.00000E+00
         0.00000E+00
         0.00000E+00
         0.00000E+00
         0.00000E+00
         0.00000E+00
         0.00000E+00
         0.00000E+00
         0.00000E+00
         0.00000E+00
         0.00000E+00
         0.00000E+00
         0.00000E+00
         0.00000E+00
         0.00000E+00
         0.00000E+00
         0.00000E+00
         0.00000E+00
         0.00000E+00
         0.00000E+00
         0.00000E+00
         0.00000E+00
         0.00000E+00
         0.00000E+00
         0.00000E+00
         0.00000E+00
         0.00000E+00
         0.00000E+00
         0.00000E+00
         0.00000E+00
         0.00000E+00
         0.00000E+00
         0.00000E+00
         0.00000E+00
         0.00000E+00
         0.00000E+00
         0.00000E+00
         0.00000E+00
         0.00000E+00
         0.00000E+00
         0.00000E+00
         0.00000E+00
         0.00000E+00
         0.00000E+00
         0.00000E+00
         0.00000E+00
         0.00000E+00
         0.00000E+00
         0.00000E+00
         0.00000E+00
         0.00000E+00
         0.00000E+00
         0.00000E+00
         0.00000E+00
         0.00000E+00
         0.00000E+00
         0.00000E+00
         0.00000E+00
         0.00000E+00
         0.00000E+00
         0.00000E+00
         0.00000E+00
         0.00000E+00
         0.00000E+00
         0.00000E+00
         0.00000E+00
         0.00000E+00
         0.00000E+00
         0.00000E+00
         0.00000E+00
         0.00000E+00
         0.00000E+00
         0.00000E+00
         0.00000E+00
         0.00000E+00
         0.00000E+00
         0.00000E+00
         0.00000E+00
         0.00000E+00
         0.00000E+00
         0.00000E+00
         0.00000E+00
         0.00000E+00
         0.00000E+00
         0.00000E+00
         0.00000E+00
         0.00000E+00
         0.00000E+00
         0.00000E+00
         0.00000E+00
         0.00000E+00
         0.00000E+00
         0.00000E+00
         0.00000E+00
         0.00000E+00
         0.00000E+00
         0.00000E+00
         0.00000E+00
         0.00000E+00
         0.00000E+00
         0.00000E+00
         0.00000E+00
         0.00000E+00
         0.00000E+00
         0.00000E+00
         0.00000E+00
         0.00000E+00
         0.00000E+00
         0.00000E+00
         0.00000E+00
         0.00000E+00
         0.00000E+00
         0.00000E+00
         0.00000E+00
         0.00000E+00
         0.00000E+00
         0.00000E+00
         0.00000E+00
         0.00000E+00
         0.00000E+00
         0.00000E+00
         0.00000E+00
         0.00000E+00
         0.00000E+00
         0.00000E+00
         0.00000E+00
         0.00000E+00
         0.00000E+00
         0.00000E+00
         0.00000E+00
         0.00000E+00
         0.00000E+00
         0.00000E+00
         0.00000E+00
         0.00000E+00
         0.00000E+00
         0.00000E+00
         0.00000E+00
         0.00000E+00
         0.00000E+00
         0.00000E+00
         0.00000E+00
         0.00000E+00
         0.00000E+00
         0.00000E+00
         0.00000E+00
         0.00000E+00
         0.00000E+00
         0.00000E+00
         0.00000E+00
         0.00000E+00
         0.00000E+00
         0.00000E+00
         0.00000E+00
         0.00000E+00
         0.00000E+00
         0.00000E+00
         0.00000E+00
         0.00000E+00
         0.00000E+00
         0.00000E+00
         0.00000E+00
         0.00000E+00
         0.00000E+00
         0.00000E+00
         0.00000E+00
         0.00000E+00
         0.00000E+00
         0.00000E+00
         0.00000E+00
         0.00000E+00
         0.00000E+00
         0.00000E+00
         0.00000E+00
         0.00000E+00
         0.00000E+00
         0.00000E+00
         0.00000E+00
         0.00000E+00
         0.00000E+00
         0.00000E+00
         0.00000E+00
         0.00000E+00
         0.00000E+00
         0.00000E+00
         0.00000E+00
         0.00000E+00
         0.00000E+00
         0.00000E+00
         0.00000E+00
         0.00000E+00
         0.00000E+00
         0.00000E+00
         0.00000E+00
         0.00000E+00
         0.00000E+00
         0.00000E+00
         0.00000E+00
         0.00000E+00
         0.00000E+00
         0.00000E+00
         0.00000E+00
         0.00000E+00
         0.00000E+00
         0.00000E+00
         0.00000E+00
         0.00000E+00
         0.00000E+00
         0.00000E+00
         0.00000E+00
         0.00000E+00
         0.00000E+00
         0.00000E+00
         0.00000E+00
         0.00000E+00
         0.00000E+00
         0.00000E+00
         0.00000E+00
         0.00000E+00
         0.00000E+00
         0.00000E+00
         0.00000E+00
         0.00000E+00
         0.00000E+00
         0.00000E+00
         0.00000E+00
         0.00000E+00
         0.00000E+00
         0.00000E+00
         0.00000E+00
         0.00000E+00
         0.00000E+00
         0.00000E+00
         0.00000E+00
         0.00000E+00
         0.00000E+00
         0.00000E+00
         0.00000E+00
         0.00000E+00
         0.00000E+00
         0.00000E+00
         0.00000E+00
         0.00000E+00
         0.00000E+00
         0.00000E+00
         0.00000E+00
         0.00000E+00
         0.00000E+00
         0.00000E+00
         0.00000E+00
         0.00000E+00
         0.00000E+00
         0.00000E+00
         0.00000E+00
         0.00000E+00
         0.00000E+00
         0.00000E+00
         0.00000E+00
         0.00000E+00
         0.00000E+00
         0.00000E+00
         0.00000E+00
         0.00000E+00
         0.00000E+00
         0.00000E+00
         0.00000E+00
         0.00000E+00
         0.00000E+00
         0.00000E+00
         0.00000E+00
         0.00000E+00
         0.00000E+00
         0.00000E+00
         0.00000E+00
         0.00000E+00
         0.00000E+00
         0.00000E+00
         0.00000E+00
         0.00000E+00
         0.00000E+00
         0.00000E+00
         0.00000E+00
         0.00000E+00
         0.00000E+00
         0.00000E+00
         0.00000E+00
         0.00000E+00
         0.00000E+00
         0.00000E+00
         0.00000E+00
         0.00000E+00
         0.00000E+00
         0.00000E+00
         0.00000E+00
         0.00000E+00
         0.00000E+00
         0.00000E+00
         0.00000E+00
         0.00000E+00
         0.00000E+00
         0.00000E+00
         0.00000E+00
         0.00000E+00
         0.00000E+00
         0.00000E+00
         0.00000E+00
         0.00000E+00
         0.00000E+00
         0.00000E+00
         0.00000E+00
         0.00000E+00
         0.00000E+00
         0.00000E+00
         0.00000E+00
         0.00000E+00
         0.00000E+00
         0.00000E+00
         0.00000E+00
         0.00000E+00
         0.00000E+00
         0.00000E+00
         0.00000E+00
         0.00000E+00
         0.00000E+00
         0.00000E+00
         0.00000E+00
         0.00000E+00
         0.00000E+00
         0.00000E+00
         0.00000E+00
         0.00000E+00
         0.00000E+00
         0.00000E+00
         0.00000E+00
         0.00000E+00
         0.00000E+00
         0.00000E+00
         0.00000E+00
         0.00000E+00
         0.00000E+00
         0.00000E+00
         0.00000E+00
         0.00000E+00
         0.00000E+00
         0.00000E+00
         0.00000E+00
         0.00000E+00
         0.00000E+00
         0.00000E+00
         0.00000E+00
         0.00000E+00
         0.00000E+00
         0.00000E+00
         0.00000E+00
         0.00000E+00
         0.00000E+00
         0.00000E+00
         0.00000E+00
         0.00000E+00
         0.00000E+00
         0.00000E+00
         0.00000E+00
         0.00000E+00
         0.00000E+00
         0.00000E+00
         0.00000E+00
         0.00000E+00
         0.00000E+00
         0.00000E+00
         0.00000E+00
         0.00000E+00
         0.00000E+00
         0.00000E+00
         0.00000E+00
         0.00000E+00
         0.00000E+00
         0.00000E+00
         0.00000E+00
         0.00000E+00
         0.00000E+00
         0.00000E+00
         0.00000E+00
         0.00000E+00
         0.00000E+00
         0.00000E+00
         0.00000E+00
         0.00000E+00
         0.00000E+00
         0.00000E+00
         0.00000E+00
         0.00000E+00
         0.00000E+00
         0.00000E+00
         0.00000E+00
         0.00000E+00
         0.00000E+00
         0.00000E+00
         0.00000E+00
         0.00000E+00
         0.00000E+00
         0.00000E+00
         0.00000E+00
         0.00000E+00
         0.00000E+00
         0.00000E+00
         0.00000E+00
         0.00000E+00
         0.00000E+00
         0.00000E+00
         0.00000E+00
         0.00000E+00
         0.00000E+00
         0.00000E+00
         0.00000E+00
         0.00000E+00
         0.00000E+00
         0.00000E+00
         0.00000E+00
         0.00000E+00
         0.00000E+00
         0.00000E+00
         0.00000E+00
         0.00000E+00
         0.00000E+00
         0.00000E+00
         0.00000E+00
         0.00000E+00
         0.00000E+00
         0.00000E+00
         0.00000E+00
         0.00000E+00
         0.00000E+00
         0.00000E+00
         0.00000E+00
         0.00000E+00
         0.00000E+00
         0.00000E+00
         0.00000E+00
         0.00000E+00
         0.00000E+00
         0.00000E+00
         0.00000E+00
         0.00000E+00
         0.00000E+00
         0.00000E+00
         0.00000E+00
         0.00000E+00
         0.00000E+00
         0.00000E+00
         0.00000E+00
         0.00000E+00
         0.00000E+00
         0.00000E+00
         0.00000E+00
         0.00000E+00
         0.00000E+00
         0.00000E+00
         0.00000E+00
         0.00000E+00
         0.00000E+00
         0.00000E+00
         0.00000E+00
         0.00000E+00
         0.00000E+00
         0.00000E+00
         0.00000E+00
         0.00000E+00
         0.00000E+00
         0.00000E+00
         0.00000E+00
         0.00000E+00
         0.00000E+00
         0.00000E+00
         0.00000E+00
         0.00000E+00
         0.00000E+00
         0.00000E+00
         0.00000E+00
         0.00000E+00
         0.00000E+00
         0.00000E+00
         0.00000E+00
         0.00000E+00
         0.00000E+00
         0.00000E+00
         0.00000E+00
         0.00000E+00
         0.00000E+00
         0.00000E+00
         0.00000E+00
         0.00000E+00
         0.00000E+00
         0.00000E+00
         0.00000E+00
         0.00000E+00
         0.00000E+00
         0.00000E+00
         0.00000E+00
         0.00000E+00
         0.00000E+00
         0.00000E+00
         0.00000E+00
         0.00000E+00
         0.00000E+00
         0.00000E+00
         0.00000E+00
         0.00000E+00
         0.00000E+00
         0.00000E+00
         0.00000E+00
         0.00000E+00
         0.00000E+00
         0.00000E+00
         0.00000E+00
         0.00000E+00
         0.00000E+00
         0.00000E+00
         0.00000E+00
         0.00000E+00
         0.00000E+00
         0.00000E+00
         0.00000E+00
         0.00000E+00
         0.00000E+00
         0.00000E+00
         0.00000E+00
         0.00000E+00
         0.00000E+00
         0.00000E+00
         0.00000E+00
         0.00000E+00
         0.00000E+00
         0.00000E+00
         0.00000E+00
         0.00000E+00
         0.00000E+00
         0.00000E+00
         0.00000E+00
         0.00000E+00
         0.00000E+00
         0.00000E+00
         0.00000E+00
         0.00000E+00
         0.00000E+00
         0.00000E+00
         0.00000E+00
         0.00000E+00
         0.00000E+00
         0.00000E+00
         0.00000E+00
         0.00000E+00
         0.00000E+00
         0.00000E+00
         0.00000E+00
         0.00000E+00
         0.00000E+00
         0.00000E+00
         0.00000E+00
         0.00000E+00
         0.00000E+00
         0.00000E+00
         0.00000E+00
         0.00000E+00
         0.00000E+00
         0.00000E+00
         0.00000E+00
         0.00000E+00
         0.00000E+00
         0.00000E+00
         0.00000E+00
         0.00000E+00
         0.00000E+00
         0.00000E+00
         0.00000E+00
         0.00000E+00
         0.00000E+00
         0.00000E+00
         0.00000E+00
         0.00000E+00
         0.00000E+00
         0.00000E+00
         0.00000E+00
         0.00000E+00
         0.00000E+00
         0.00000E+00
         0.00000E+00
         0.00000E+00
         0.00000E+00
         0.00000E+00
         0.00000E+00
         0.00000E+00
         0.00000E+00
         0.00000E+00
         0.00000E+00
         0.00000E+00
         0.00000E+00
         0.00000E+00
         0.00000E+00
         0.00000E+00
         0.00000E+00
         0.00000E+00
         0.00000E+00
         0.00000E+00
         0.00000E+00
         0.00000E+00
         0.00000E+00
         0.00000E+00
         0.00000E+00
         0.00000E+00
         0.00000E+00
         0.00000E+00
         0.00000E+00
         0.00000E+00
         0.00000E+00
         0.00000E+00
         0.00000E+00
         0.00000E+00
         0.00000E+00
         0.00000E+00
         0.00000E+00
         0.00000E+00
         0.00000E+00
         0.00000E+00
         0.00000E+00
         0.00000E+00
         0.00000E+00
         0.00000E+00
         0.00000E+00
         0.00000E+00
         0.00000E+00
         0.00000E+00
         0.00000E+00
         0.00000E+00
         0.00000E+00
         0.00000E+00
         0.00000E+00
         0.00000E+00
         0.00000E+00
         0.00000E+00
         0.00000E+00
         0.00000E+00
         0.00000E+00
         0.00000E+00
         0.00000E+00
         0.00000E+00
         0.00000E+00
         0.00000E+00
         0.00000E+00
         0.00000E+00
         0.00000E+00
         0.00000E+00
         0.00000E+00
         0.00000E+00
         0.00000E+00
         0.00000E+00
         0.00000E+00
         0.00000E+00
         0.00000E+00
         0.00000E+00
         0.00000E+00
         0.00000E+00
         0.00000E+00
         0.00000E+00
         0.00000E+00
         0.00000E+00
         0.00000E+00
         0.00000E+00
         0.00000E+00
         0.00000E+00
         0.00000E+00
         0.00000E+00
         0.00000E+00
         0.00000E+00
         0.00000E+00
         0.00000E+00
         0.00000E+00
         0.00000E+00
         0.00000E+00
         0.00000E+00
         0.00000E+00
         0.00000E+00
         0.00000E+00
         0.00000E+00
         0.00000E+00
         0.00000E+00
         0.00000E+00
         0.00000E+00
         0.00000E+00
         0.00000E+00
         0.00000E+00
         0.00000E+00
         0.00000E+00
         0.00000E+00
         0.00000E+00
         0.00000E+00
         0.00000E+00
         0.00000E+00
         0.00000E+00
         0.00000E+00
         0.00000E+00
         0.00000E+00
         0.00000E+00
         0.00000E+00
         0.00000E+00
         0.00000E+00
         0.00000E+00
         0.00000E+00
         0.00000E+00
         0.00000E+00
         0.00000E+00
         0.00000E+00
         0.00000E+00
         0.00000E+00
         0.00000E+00
         0.00000E+00
         0.00000E+00
         0.00000E+00
         0.00000E+00
         0.00000E+00
         0.00000E+00
         0.00000E+00
         0.00000E+00
         0.00000E+00
         0.00000E+00
         0.00000E+00
         0.00000E+00
         0.00000E+00
         0.00000E+00
         0.00000E+00
         0.00000E+00
         0.00000E+00
         0.00000E+00
         0.00000E+00
         0.00000E+00
         0.00000E+00
         0.00000E+00
         0.00000E+00
         0.00000E+00
         0.00000E+00
         0.00000E+00
         0.00000E+00
         0.00000E+00
         0.00000E+00
         0.00000E+00
         0.00000E+00
         0.00000E+00
         0.00000E+00
         0.00000E+00
         0.00000E+00
         0.00000E+00
         0.00000E+00
         0.00000E+00
         0.00000E+00
         0.00000E+00
         0.00000E+00
         0.00000E+00
         0.00000E+00
         0.00000E+00
         0.00000E+00
         0.00000E+00
         0.00000E+00
         0.00000E+00
         0.00000E+00
         0.00000E+00
         0.00000E+00
         0.00000E+00
         0.00000E+00
         0.00000E+00
         0.00000E+00
         0.00000E+00
         0.00000E+00
         0.00000E+00
         0.00000E+00
         0.00000E+00
         0.00000E+00
         0.00000E+00
         0.00000E+00
         0.00000E+00
         0.00000E+00
         0.00000E+00
         0.00000E+00
         0.00000E+00
         0.00000E+00
         0.00000E+00
         0.00000E+00
         0.00000E+00
         0.00000E+00
         0.00000E+00
         0.00000E+00
         0.00000E+00
         0.00000E+00
         0.00000E+00
         0.00000E+00
         0.00000E+00
         0.00000E+00
         0.00000E+00
         0.00000E+00
         0.00000E+00
         0.00000E+00
         0.00000E+00
         0.00000E+00
         0.00000E+00
         0.00000E+00
         0.00000E+00
         0.00000E+00
         0.00000E+00
         0.00000E+00
         0.00000E+00
         0.00000E+00
         0.00000E+00
         0.00000E+00
         0.00000E+00
         0.00000E+00
         0.00000E+00
         0.00000E+00
         0.00000E+00
         0.00000E+00
         0.00000E+00
         0.00000E+00
         0.00000E+00
         0.00000E+00
         0.00000E+00
         0.00000E+00
         0.00000E+00
         0.00000E+00
         0.00000E+00
         0.00000E+00
         0.00000E+00
         0.00000E+00
         0.00000E+00
         0.00000E+00
         0.00000E+00
         0.00000E+00
         0.00000E+00
         0.00000E+00
         0.00000E+00
         0.00000E+00
         0.00000E+00
         0.00000E+00
         0.00000E+00
         0.00000E+00
         0.00000E+00
         0.00000E+00
         0.00000E+00
         0.00000E+00
         0.00000E+00
         0.00000E+00
         0.00000E+00
         0.00000E+00
         0.00000E+00
         0.00000E+00
         0.00000E+00
         0.00000E+00
         0.00000E+00
         0.00000E+00
         0.00000E+00
         0.00000E+00
         0.00000E+00
         0.00000E+00
         0.00000E+00
         0.00000E+00
         0.00000E+00
         0.00000E+00
         0.00000E+00
         0.00000E+00
         0.00000E+00
         0.00000E+00
         0.00000E+00
         0.00000E+00
         0.00000E+00
         0.00000E+00
         0.00000E+00
         0.00000E+00
         0.00000E+00
         0.00000E+00
         0.00000E+00
         0.00000E+00
         0.00000E+00
         0.00000E+00
         0.00000E+00
         0.00000E+00
         0.00000E+00
         0.00000E+00
         0.00000E+00
         0.00000E+00
         0.00000E+00
         0.00000E+00
         0.00000E+00
         0.00000E+00
         0.00000E+00
         0.00000E+00
         0.00000E+00
         0.00000E+00
         0.00000E+00
         0.00000E+00
         0.00000E+00
         0.00000E+00
         0.00000E+00
         0.00000E+00
         0.00000E+00
         0.00000E+00
         0.00000E+00
         0.00000E+00
         0.00000E+00
         0.00000E+00
         0.00000E+00
         0.00000E+00
         0.00000E+00
         0.00000E+00
         0.00000E+00
         0.00000E+00
         0.00000E+00
         0.00000E+00
         0.00000E+00
         0.00000E+00
         0.00000E+00
         0.00000E+00
         0.00000E+00
         0.00000E+00
         0.00000E+00
         0.00000E+00
         0.00000E+00
         0.00000E+00
         0.00000E+00
         0.00000E+00
         0.00000E+00
         0.00000E+00
         0.00000E+00
         0.00000E+00
         0.00000E+00
         0.00000E+00
         0.00000E+00
         0.00000E+00
         0.00000E+00
         0.00000E+00
         0.00000E+00
         0.00000E+00
         0.00000E+00
         0.00000E+00
         0.00000E+00
         0.00000E+00
         0.00000E+00
         0.00000E+00
         0.00000E+00
         0.00000E+00
         0.00000E+00
         0.00000E+00
         0.00000E+00
         0.00000E+00
         0.00000E+00
         0.00000E+00
         0.00000E+00
         0.00000E+00
         0.00000E+00
         0.00000E+00
         0.00000E+00
         0.00000E+00
         0.00000E+00
         0.00000E+00
         0.00000E+00
         0.00000E+00
         0.00000E+00
         0.00000E+00
         0.00000E+00
         0.00000E+00
         0.00000E+00
         0.00000E+00
         0.00000E+00
         0.00000E+00
         0.00000E+00
         0.00000E+00
         0.00000E+00
         0.00000E+00
         0.00000E+00
         0.00000E+00
         0.00000E+00
         0.00000E+00
         0.00000E+00
         0.00000E+00
         0.00000E+00
         0.00000E+00
         0.00000E+00
         0.00000E+00
         0.00000E+00
         0.00000E+00
         0.00000E+00
         0.00000E+00
         0.00000E+00
         0.00000E+00
         0.00000E+00
         0.00000E+00
         0.00000E+00
         0.00000E+00
         0.00000E+00
         0.00000E+00
         0.00000E+00
         0.00000E+00
         0.00000E+00
         0.00000E+00
         0.00000E+00
         0.00000E+00
         0.00000E+00
         0.00000E+00
         0.00000E+00
         0.00000E+00
         0.00000E+00
         0.00000E+00
         0.00000E+00
         0.00000E+00
         0.00000E+00
         0.00000E+00
         0.00000E+00
         0.00000E+00
         0.00000E+00
         0.00000E+00
         0.00000E+00
         0.00000E+00
         0.00000E+00
         0.00000E+00
         0.00000E+00
         0.00000E+00
         0.00000E+00
         0.00000E+00
         0.00000E+00
         0.00000E+00
         0.00000E+00
         0.00000E+00
         0.00000E+00
         0.00000E+00
         0.00000E+00
         0.00000E+00
         0.00000E+00
         0.00000E+00
         0.00000E+00
         0.00000E+00
         0.00000E+00
         0.00000E+00
         0.00000E+00
         0.00000E+00
         0.00000E+00
         0.00000E+00
         0.00000E+00
         0.00000E+00
         0.00000E+00
         0.00000E+00
         0.00000E+00
         0.00000E+00
         0.00000E+00
         0.00000E+00
         0.00000E+00
         0.00000E+00
         0.00000E+00
         0.00000E+00
         0.00000E+00
         0.00000E+00
         0.00000E+00
         0.00000E+00
         0.00000E+00
         0.00000E+00
         0.00000E+00
         0.00000E+00
         0.00000E+00
         0.00000E+00
         0.00000E+00
         0.00000E+00
         0.00000E+00
         0.00000E+00
         0.00000E+00
         0.00000E+00
         0.00000E+00
         0.00000E+00
         0.00000E+00
         0.00000E+00
         0.00000E+00
         0.00000E+00
         0.00000E+00
         0.00000E+00
         0.00000E+00
         0.00000E+00
         0.00000E+00
         0.00000E+00
         0.00000E+00
         0.00000E+00
         0.00000E+00
         0.00000E+00
         0.00000E+00
         0.00000E+00
         0.00000E+00
         0.00000E+00
         0.00000E+00
         0.00000E+00
         0.00000E+00
         0.00000E+00
         0.00000E+00
         0.00000E+00
         0.00000E+00
         0.00000E+00
         0.00000E+00
         0.00000E+00
         0.00000E+00
         0.00000E+00
         0.00000E+00
         0.00000E+00
         0.00000E+00
         0.00000E+00
         0.00000E+00
         0.00000E+00
         0.00000E+00
         0.00000E+00
         0.00000E+00
         0.00000E+00
         0.00000E+00
         0.00000E+00
         0.00000E+00
         0.00000E+00
         0.00000E+00
         0.00000E+00
         0.00000E+00
         0.00000E+00
         0.00000E+00
         0.00000E+00
         0.00000E+00
         0.00000E+00
         0.00000E+00
         0.00000E+00
         0.00000E+00
         0.00000E+00
         0.00000E+00
         0.00000E+00
         0.00000E+00
         0.00000E+00
         0.00000E+00
         0.00000E+00
         0.00000E+00
         0.00000E+00
         0.00000E+00
         0.00000E+00
         0.00000E+00
         0.00000E+00
         0.00000E+00
         0.00000E+00
         0.00000E+00
         0.00000E+00
         0.00000E+00
         0.00000E+00
         0.00000E+00
         0.00000E+00
         0.00000E+00
         0.00000E+00
         0.00000E+00
         0.00000E+00
         0.00000E+00
         0.00000E+00
         0.00000E+00
         0.00000E+00
         0.00000E+00
         0.00000E+00
         0.00000E+00
         0.00000E+00
         0.00000E+00
         0.00000E+00
         0.00000E+00
         0.00000E+00
         0.00000E+00
         0.00000E+00
         0.00000E+00
         0.00000E+00
         0.00000E+00
         0.00000E+00
         0.00000E+00
         0.00000E+00
         0.00000E+00
         0.00000E+00
         0.00000E+00
         0.00000E+00
         0.00000E+00
         0.00000E+00
         0.00000E+00
         0.00000E+00
         0.00000E+00
         0.00000E+00
         0.00000E+00
         0.00000E+00
         0.00000E+00
         0.00000E+00
         0.00000E+00
         0.00000E+00
         0.00000E+00
         0.00000E+00
         0.00000E+00
         0.00000E+00
         0.00000E+00
         0.00000E+00
         0.00000E+00
         0.00000E+00
         0.00000E+00
         0.00000E+00
  
SCALARS        characteristic_distance  double 1
LOOKUP_TABLE default
         0.00000E+00
         0.00000E+00
         0.00000E+00
         0.00000E+00
         0.00000E+00
         0.00000E+00
         0.00000E+00
         0.00000E+00
         0.00000E+00
         0.00000E+00
         0.00000E+00
         0.00000E+00
         0.00000E+00
         0.00000E+00
         0.00000E+00
         0.00000E+00
         0.00000E+00
         0.00000E+00
         0.00000E+00
         0.00000E+00
         0.00000E+00
         0.00000E+00
         0.00000E+00
         0.00000E+00
         0.00000E+00
         0.00000E+00
         0.00000E+00
         0.00000E+00
         0.00000E+00
         0.00000E+00
         0.00000E+00
         0.00000E+00
         0.00000E+00
         0.00000E+00
         0.00000E+00
         0.00000E+00
         0.00000E+00
         0.00000E+00
         0.00000E+00
         0.00000E+00
         0.00000E+00
         0.00000E+00
         0.00000E+00
         0.00000E+00
         0.00000E+00
         0.00000E+00
         0.00000E+00
         0.00000E+00
         0.00000E+00
         0.00000E+00
         0.00000E+00
         0.00000E+00
         0.00000E+00
         0.00000E+00
         0.00000E+00
         0.00000E+00
         0.00000E+00
         0.00000E+00
         0.00000E+00
         0.00000E+00
         0.00000E+00
         0.00000E+00
         0.00000E+00
         0.00000E+00
         0.00000E+00
         0.00000E+00
         0.00000E+00
         0.00000E+00
         0.00000E+00
         0.00000E+00
         0.00000E+00
         0.00000E+00
         0.00000E+00
         0.00000E+00
         0.00000E+00
         0.00000E+00
         0.00000E+00
         0.00000E+00
         0.00000E+00
         0.00000E+00
         0.00000E+00
         0.00000E+00
         0.00000E+00
         0.00000E+00
         0.00000E+00
         0.00000E+00
         0.00000E+00
         0.00000E+00
         0.00000E+00
         0.00000E+00
         0.00000E+00
         0.00000E+00
         0.00000E+00
         0.00000E+00
         0.00000E+00
         0.00000E+00
         0.00000E+00
         0.00000E+00
         0.00000E+00
         0.00000E+00
         0.00000E+00
         0.00000E+00
         0.00000E+00
         0.00000E+00
         0.00000E+00
         0.00000E+00
         0.00000E+00
         0.00000E+00
         0.00000E+00
         0.00000E+00
         0.00000E+00
         0.00000E+00
         0.00000E+00
         0.00000E+00
         0.00000E+00
         0.00000E+00
         0.00000E+00
         0.00000E+00
         0.00000E+00
         0.00000E+00
         0.00000E+00
         0.00000E+00
         0.00000E+00
         0.00000E+00
         0.00000E+00
         0.00000E+00
         0.00000E+00
         0.00000E+00
         0.00000E+00
         0.00000E+00
         0.00000E+00
         0.00000E+00
         0.00000E+00
         0.00000E+00
         0.00000E+00
         0.00000E+00
         0.00000E+00
         0.00000E+00
         0.00000E+00
         0.00000E+00
         0.00000E+00
         0.00000E+00
         0.00000E+00
         0.00000E+00
         0.00000E+00
         0.00000E+00
         0.00000E+00
         0.00000E+00
         0.00000E+00
         0.00000E+00
         0.00000E+00
         0.00000E+00
         0.00000E+00
         0.00000E+00
         0.00000E+00
         0.00000E+00
         0.00000E+00
         0.00000E+00
         0.00000E+00
         0.00000E+00
         0.00000E+00
         0.00000E+00
         0.00000E+00
         0.00000E+00
         0.00000E+00
         0.00000E+00
         0.00000E+00
         0.00000E+00
         0.00000E+00
         0.00000E+00
         0.00000E+00
         0.00000E+00
         0.00000E+00
         0.00000E+00
         0.00000E+00
         0.00000E+00
         0.00000E+00
         0.00000E+00
         0.00000E+00
         0.00000E+00
         0.00000E+00
         0.00000E+00
         0.00000E+00
         0.00000E+00
         0.00000E+00
         0.00000E+00
         0.00000E+00
         0.00000E+00
         0.00000E+00
         0.00000E+00
         0.00000E+00
         0.00000E+00
         0.00000E+00
         0.00000E+00
         0.00000E+00
         0.00000E+00
         0.00000E+00
         0.00000E+00
         0.00000E+00
         0.00000E+00
         0.00000E+00
         0.00000E+00
         0.00000E+00
         0.00000E+00
         0.00000E+00
         0.00000E+00
         0.00000E+00
         0.00000E+00
         0.00000E+00
         0.00000E+00
         0.00000E+00
         0.00000E+00
         0.00000E+00
         0.00000E+00
         0.00000E+00
         0.00000E+00
         0.00000E+00
         0.00000E+00
         0.00000E+00
         0.00000E+00
         0.00000E+00
         0.00000E+00
         0.00000E+00
         0.00000E+00
         0.00000E+00
         0.00000E+00
         0.00000E+00
         0.00000E+00
         0.00000E+00
         0.00000E+00
         0.00000E+00
         0.00000E+00
         0.00000E+00
         0.00000E+00
         0.00000E+00
         0.00000E+00
         0.00000E+00
         0.00000E+00
         0.00000E+00
         0.00000E+00
         0.00000E+00
         0.00000E+00
         0.00000E+00
         0.00000E+00
         0.00000E+00
         0.00000E+00
         0.00000E+00
         0.00000E+00
         0.00000E+00
         0.00000E+00
         0.00000E+00
         0.00000E+00
         0.00000E+00
         0.00000E+00
         0.00000E+00
         0.00000E+00
         0.00000E+00
         0.00000E+00
         0.00000E+00
         0.00000E+00
         0.00000E+00
         0.00000E+00
         0.00000E+00
         0.00000E+00
         0.00000E+00
         0.00000E+00
         0.00000E+00
         0.00000E+00
         0.00000E+00
         0.00000E+00
         0.00000E+00
         0.00000E+00
         0.00000E+00
         0.00000E+00
         0.00000E+00
         0.00000E+00
         0.00000E+00
         0.00000E+00
         0.00000E+00
         0.00000E+00
         0.00000E+00
         0.00000E+00
         0.00000E+00
         0.00000E+00
         0.00000E+00
         0.00000E+00
         0.00000E+00
         0.00000E+00
         0.00000E+00
         0.00000E+00
         0.00000E+00
         0.00000E+00
         0.00000E+00
         0.00000E+00
         0.00000E+00
         0.00000E+00
         0.00000E+00
         0.00000E+00
         0.00000E+00
         0.00000E+00
         0.00000E+00
         0.00000E+00
         0.00000E+00
         0.00000E+00
         0.00000E+00
         0.00000E+00
         0.00000E+00
         0.00000E+00
         0.00000E+00
         0.00000E+00
         0.00000E+00
         0.00000E+00
         0.00000E+00
         0.00000E+00
         0.00000E+00
         0.00000E+00
         0.00000E+00
         0.00000E+00
         0.00000E+00
         0.00000E+00
         0.00000E+00
         0.00000E+00
         0.00000E+00
         0.00000E+00
         0.00000E+00
         0.00000E+00
         0.00000E+00
         0.00000E+00
         0.00000E+00
         0.00000E+00
         0.00000E+00
         0.00000E+00
         0.00000E+00
         0.00000E+00
         0.00000E+00
         0.00000E+00
         0.00000E+00
         0.00000E+00
         0.00000E+00
         0.00000E+00
         0.00000E+00
         0.00000E+00
         0.00000E+00
         0.00000E+00
         0.00000E+00
         0.00000E+00
         0.00000E+00
         0.00000E+00
         0.00000E+00
         0.00000E+00
         0.00000E+00
         0.00000E+00
         0.00000E+00
         0.00000E+00
         0.00000E+00
         0.00000E+00
         0.00000E+00
         0.00000E+00
         0.00000E+00
         0.00000E+00
         0.00000E+00
         0.00000E+00
         0.00000E+00
         0.00000E+00
         0.00000E+00
         0.00000E+00
         0.00000E+00
         0.00000E+00
         0.00000E+00
         0.00000E+00
         0.00000E+00
         0.00000E+00
         0.00000E+00
         0.00000E+00
         0.00000E+00
         0.00000E+00
         0.00000E+00
         0.00000E+00
         0.00000E+00
         0.00000E+00
         0.00000E+00
         0.00000E+00
         0.00000E+00
         0.00000E+00
         0.00000E+00
         0.00000E+00
         0.00000E+00
         0.00000E+00
         0.00000E+00
         0.00000E+00
         0.00000E+00
         0.00000E+00
         0.00000E+00
         0.00000E+00
         0.00000E+00
         0.00000E+00
         0.00000E+00
         0.00000E+00
         0.00000E+00
         0.00000E+00
         0.00000E+00
         0.00000E+00
         0.00000E+00
         0.00000E+00
         0.00000E+00
         0.00000E+00
         0.00000E+00
         0.00000E+00
         0.00000E+00
         0.00000E+00
         0.00000E+00
         0.00000E+00
         0.00000E+00
         0.00000E+00
         0.00000E+00
         0.00000E+00
         0.00000E+00
         0.00000E+00
         0.00000E+00
         0.00000E+00
         0.00000E+00
         0.00000E+00
         0.00000E+00
         0.00000E+00
         0.00000E+00
         0.00000E+00
         0.00000E+00
         0.00000E+00
         0.00000E+00
         0.00000E+00
         0.00000E+00
         0.00000E+00
         0.00000E+00
         0.00000E+00
         0.00000E+00
         0.00000E+00
         0.00000E+00
         0.00000E+00
         0.00000E+00
         0.00000E+00
         0.00000E+00
         0.00000E+00
         0.00000E+00
         0.00000E+00
         0.00000E+00
         0.00000E+00
         0.00000E+00
         0.00000E+00
         0.00000E+00
         0.00000E+00
         0.00000E+00
         0.00000E+00
         0.00000E+00
         0.00000E+00
         0.00000E+00
         0.00000E+00
         0.00000E+00
         0.00000E+00
         0.00000E+00
         0.00000E+00
         0.00000E+00
         0.00000E+00
         0.00000E+00
         0.00000E+00
         0.00000E+00
         0.00000E+00
         0.00000E+00
         0.00000E+00
         0.00000E+00
         0.00000E+00
         0.00000E+00
         0.00000E+00
         0.00000E+00
         0.00000E+00
         0.00000E+00
         0.00000E+00
         0.00000E+00
         0.00000E+00
         0.00000E+00
         0.00000E+00
         0.00000E+00
         0.00000E+00
         0.00000E+00
         0.00000E+00
         0.00000E+00
         0.00000E+00
         0.00000E+00
         0.00000E+00
         0.00000E+00
         0.00000E+00
         0.00000E+00
         0.00000E+00
         0.00000E+00
         0.00000E+00
         0.00000E+00
         0.00000E+00
         0.00000E+00
         0.00000E+00
         0.00000E+00
         0.00000E+00
         0.00000E+00
         0.00000E+00
         0.00000E+00
         0.00000E+00
         0.00000E+00
         0.00000E+00
         0.00000E+00
         0.00000E+00
         0.00000E+00
         0.00000E+00
         0.00000E+00
         0.00000E+00
         0.00000E+00
         0.00000E+00
         0.00000E+00
         0.00000E+00
         0.00000E+00
         0.00000E+00
         0.00000E+00
         0.00000E+00
         0.00000E+00
         0.00000E+00
         0.00000E+00
         0.00000E+00
         0.00000E+00
         0.00000E+00
         0.00000E+00
         0.00000E+00
         0.00000E+00
         0.00000E+00
         0.00000E+00
         0.00000E+00
         0.00000E+00
         0.00000E+00
         0.00000E+00
         0.00000E+00
         0.00000E+00
         0.00000E+00
         0.00000E+00
         0.00000E+00
         0.00000E+00
         0.00000E+00
         0.00000E+00
         0.00000E+00
         0.00000E+00
         0.00000E+00
         0.00000E+00
         0.00000E+00
         0.00000E+00
         0.00000E+00
         0.00000E+00
         0.00000E+00
         0.00000E+00
         0.00000E+00
         0.00000E+00
         0.00000E+00
         0.00000E+00
         0.00000E+00
         0.00000E+00
         0.00000E+00
         0.00000E+00
         0.00000E+00
         0.00000E+00
         0.00000E+00
         0.00000E+00
         0.00000E+00
         0.00000E+00
         0.00000E+00
         0.00000E+00
         0.00000E+00
         0.00000E+00
         0.00000E+00
         0.00000E+00
         0.00000E+00
         0.00000E+00
         0.00000E+00
         0.00000E+00
         0.00000E+00
         0.00000E+00
         0.00000E+00
         0.00000E+00
         0.00000E+00
         0.00000E+00
         0.00000E+00
         0.00000E+00
         0.00000E+00
         0.00000E+00
         0.00000E+00
         0.00000E+00
         0.00000E+00
         0.00000E+00
         0.00000E+00
         0.00000E+00
         0.00000E+00
         0.00000E+00
         0.00000E+00
         0.00000E+00
         0.00000E+00
         0.00000E+00
         0.00000E+00
         0.00000E+00
         0.00000E+00
         0.00000E+00
         0.00000E+00
         0.00000E+00
         0.00000E+00
         0.00000E+00
         0.00000E+00
         0.00000E+00
         0.00000E+00
         0.00000E+00
         0.00000E+00
         0.00000E+00
         0.00000E+00
         0.00000E+00
         0.00000E+00
         0.00000E+00
         0.00000E+00
         0.00000E+00
         0.00000E+00
         0.00000E+00
         0.00000E+00
         0.00000E+00
         0.00000E+00
         0.00000E+00
         0.00000E+00
         0.00000E+00
         0.00000E+00
         0.00000E+00
         0.00000E+00
         0.00000E+00
         0.00000E+00
         0.00000E+00
         0.00000E+00
         0.00000E+00
         0.00000E+00
         0.00000E+00
         0.00000E+00
         0.00000E+00
         0.00000E+00
         0.00000E+00
         0.00000E+00
         0.00000E+00
         0.00000E+00
         0.00000E+00
         0.00000E+00
         0.00000E+00
         0.00000E+00
         0.00000E+00
         0.00000E+00
         0.00000E+00
         0.00000E+00
         0.00000E+00
         0.00000E+00
         0.00000E+00
         0.00000E+00
         0.00000E+00
         0.00000E+00
         0.00000E+00
         0.00000E+00
         0.00000E+00
         0.00000E+00
         0.00000E+00
         0.00000E+00
         0.00000E+00
         0.00000E+00
         0.00000E+00
         0.00000E+00
         0.00000E+00
         0.00000E+00
         0.00000E+00
         0.00000E+00
         0.00000E+00
         0.00000E+00
         0.00000E+00
         0.00000E+00
         0.00000E+00
         0.00000E+00
         0.00000E+00
         0.00000E+00
         0.00000E+00
         0.00000E+00
         0.00000E+00
         0.00000E+00
         0.00000E+00
         0.00000E+00
         0.00000E+00
         0.00000E+00
         0.00000E+00
         0.00000E+00
         0.00000E+00
         0.00000E+00
         0.00000E+00
         0.00000E+00
         0.00000E+00
         0.00000E+00
         0.00000E+00
         0.00000E+00
         0.00000E+00
         0.00000E+00
         0.00000E+00
         0.00000E+00
         0.00000E+00
         0.00000E+00
         0.00000E+00
         0.00000E+00
         0.00000E+00
         0.00000E+00
         0.00000E+00
         0.00000E+00
         0.00000E+00
         0.00000E+00
         0.00000E+00
         0.00000E+00
         0.00000E+00
         0.00000E+00
         0.00000E+00
         0.00000E+00
         0.00000E+00
         0.00000E+00
         0.00000E+00
         0.00000E+00
         0.00000E+00
         0.00000E+00
         0.00000E+00
         0.00000E+00
         0.00000E+00
         0.00000E+00
         0.00000E+00
         0.00000E+00
         0.00000E+00
         0.00000E+00
         0.00000E+00
         0.00000E+00
         0.00000E+00
         0.00000E+00
         0.00000E+00
         0.00000E+00
         0.00000E+00
         0.00000E+00
         0.00000E+00
         0.00000E+00
         0.00000E+00
         0.00000E+00
         0.00000E+00
         0.00000E+00
         0.00000E+00
         0.00000E+00
         0.00000E+00
         0.00000E+00
         0.00000E+00
         0.00000E+00
         0.00000E+00
         0.00000E+00
         0.00000E+00
         0.00000E+00
         0.00000E+00
         0.00000E+00
         0.00000E+00
         0.00000E+00
         0.00000E+00
         0.00000E+00
         0.00000E+00
         0.00000E+00
         0.00000E+00
         0.00000E+00
         0.00000E+00
         0.00000E+00
         0.00000E+00
         0.00000E+00
         0.00000E+00
         0.00000E+00
         0.00000E+00
         0.00000E+00
         0.00000E+00
         0.00000E+00
         0.00000E+00
         0.00000E+00
         0.00000E+00
         0.00000E+00
         0.00000E+00
         0.00000E+00
         0.00000E+00
         0.00000E+00
         0.00000E+00
         0.00000E+00
         0.00000E+00
         0.00000E+00
         0.00000E+00
         0.00000E+00
         0.00000E+00
         0.00000E+00
         0.00000E+00
         0.00000E+00
         0.00000E+00
         0.00000E+00
         0.00000E+00
         0.00000E+00
         0.00000E+00
         0.00000E+00
         0.00000E+00
         0.00000E+00
         0.00000E+00
         0.00000E+00
         0.00000E+00
         0.00000E+00
         0.00000E+00
         0.00000E+00
         0.00000E+00
         0.00000E+00
         0.00000E+00
         0.00000E+00
         0.00000E+00
         0.00000E+00
         0.00000E+00
         0.00000E+00
         0.00000E+00
         0.00000E+00
         0.00000E+00
         0.00000E+00
         0.00000E+00
         0.00000E+00
         0.00000E+00
         0.00000E+00
         0.00000E+00
         0.00000E+00
         0.00000E+00
         0.00000E+00
         0.00000E+00
         0.00000E+00
         0.00000E+00
         0.00000E+00
         0.00000E+00
         0.00000E+00
         0.00000E+00
         0.00000E+00
         0.00000E+00
         0.00000E+00
         0.00000E+00
         0.00000E+00
         0.00000E+00
         0.00000E+00
         0.00000E+00
         0.00000E+00
         0.00000E+00
         0.00000E+00
         0.00000E+00
         0.00000E+00
         0.00000E+00
         0.00000E+00
         0.00000E+00
         0.00000E+00
         0.00000E+00
         0.00000E+00
         0.00000E+00
         0.00000E+00
         0.00000E+00
         0.00000E+00
         0.00000E+00
         0.00000E+00
         0.00000E+00
         0.00000E+00
         0.00000E+00
         0.00000E+00
         0.00000E+00
         0.00000E+00
         0.00000E+00
         0.00000E+00
         0.00000E+00
         0.00000E+00
         0.00000E+00
         0.00000E+00
         0.00000E+00
         0.00000E+00
         0.00000E+00
         0.00000E+00
         0.00000E+00
         0.00000E+00
         0.00000E+00
         0.00000E+00
         0.00000E+00
         0.00000E+00
         0.00000E+00
         0.00000E+00
         0.00000E+00
         0.00000E+00
         0.00000E+00
         0.00000E+00
         0.00000E+00
         0.00000E+00
         0.00000E+00
         0.00000E+00
         0.00000E+00
         0.00000E+00
         0.00000E+00
         0.00000E+00
         0.00000E+00
         0.00000E+00
         0.00000E+00
         0.00000E+00
         0.00000E+00
         0.00000E+00
         0.00000E+00
         0.00000E+00
         0.00000E+00
         0.00000E+00
         0.00000E+00
         0.00000E+00
         0.00000E+00
         0.00000E+00
         0.00000E+00
         0.00000E+00
         0.00000E+00
         0.00000E+00
         0.00000E+00
         0.00000E+00
         0.00000E+00
         0.00000E+00
         0.00000E+00
         0.00000E+00
         0.00000E+00
         0.00000E+00
         0.00000E+00
         0.00000E+00
         0.00000E+00
         0.00000E+00
         0.00000E+00
         0.00000E+00
         0.00000E+00
         0.00000E+00
         0.00000E+00
         0.00000E+00
         0.00000E+00
         0.00000E+00
         0.00000E+00
         0.00000E+00
         0.00000E+00
         0.00000E+00
         0.00000E+00
         0.00000E+00
         0.00000E+00
         0.00000E+00
         0.00000E+00
         0.00000E+00
         0.00000E+00
         0.00000E+00
         0.00000E+00
         0.00000E+00
         0.00000E+00
         0.00000E+00
         0.00000E+00
         0.00000E+00
         0.00000E+00
         0.00000E+00
         0.00000E+00
         0.00000E+00
         0.00000E+00
         0.00000E+00
         0.00000E+00
         0.00000E+00
         0.00000E+00
         0.00000E+00
         0.00000E+00
         0.00000E+00
         0.00000E+00
         0.00000E+00
         0.00000E+00
         0.00000E+00
         0.00000E+00
         0.00000E+00
         0.00000E+00
         0.00000E+00
         0.00000E+00
         0.00000E+00
         0.00000E+00
         0.00000E+00
         0.00000E+00
         0.00000E+00
         0.00000E+00
         0.00000E+00
         0.00000E+00
         0.00000E+00
         0.00000E+00
         0.00000E+00
         0.00000E+00
         0.00000E+00
         0.00000E+00
         0.00000E+00
         0.00000E+00
         0.00000E+00
         0.00000E+00
         0.00000E+00
         0.00000E+00
         0.00000E+00
         0.00000E+00
         0.00000E+00
         0.00000E+00
         0.00000E+00
         0.00000E+00
         0.00000E+00
         0.00000E+00
         0.00000E+00
         0.00000E+00
         0.00000E+00
         0.00000E+00
         0.00000E+00
         0.00000E+00
         0.00000E+00
         0.00000E+00
         0.00000E+00
         0.00000E+00
         0.00000E+00
         0.00000E+00
         0.00000E+00
         0.00000E+00
         0.00000E+00
         0.00000E+00
         0.00000E+00
         0.00000E+00
         0.00000E+00
         0.00000E+00
         0.00000E+00
         0.00000E+00
         0.00000E+00
         0.00000E+00
         0.00000E+00
         0.00000E+00
         0.00000E+00
         0.00000E+00
         0.00000E+00
         0.00000E+00
         0.00000E+00
         0.00000E+00
         0.00000E+00
         0.00000E+00
         0.00000E+00
         0.00000E+00
         0.00000E+00
         0.00000E+00
         0.00000E+00
         0.00000E+00
         0.00000E+00
         0.00000E+00
         0.00000E+00
         0.00000E+00
         0.00000E+00
         0.00000E+00
         0.00000E+00
         0.00000E+00
         0.00000E+00
         0.00000E+00
         0.00000E+00
         0.00000E+00
         0.00000E+00
         0.00000E+00
         0.00000E+00
         0.00000E+00
         0.00000E+00
         0.00000E+00
         0.00000E+00
         0.00000E+00
         0.00000E+00
         0.00000E+00
         0.00000E+00
         0.00000E+00
         0.00000E+00
         0.00000E+00
         0.00000E+00
         0.00000E+00
         0.00000E+00
         0.00000E+00
         0.00000E+00
         0.00000E+00
         0.00000E+00
         0.00000E+00
         0.00000E+00
         0.00000E+00
         0.00000E+00
         0.00000E+00
         0.00000E+00
         0.00000E+00
         0.00000E+00
         0.00000E+00
         0.00000E+00
         0.00000E+00
         0.00000E+00
         0.00000E+00
         0.00000E+00
         0.00000E+00
         0.00000E+00
         0.00000E+00
         0.00000E+00
         0.00000E+00
         0.00000E+00
         0.00000E+00
         0.00000E+00
         0.00000E+00
         0.00000E+00
         0.00000E+00
         0.00000E+00
         0.00000E+00
         0.00000E+00
         0.00000E+00
         0.00000E+00
         0.00000E+00
         0.00000E+00
         0.00000E+00
         0.00000E+00
         0.00000E+00
         0.00000E+00
         0.00000E+00
         0.00000E+00
         0.00000E+00
         0.00000E+00
         0.00000E+00
         0.00000E+00
         0.00000E+00
         0.00000E+00
         0.00000E+00
         0.00000E+00
         0.00000E+00
         0.00000E+00
         0.00000E+00
         0.00000E+00
         0.00000E+00
         0.00000E+00
         0.00000E+00
         0.00000E+00
         0.00000E+00
         0.00000E+00
         0.00000E+00
         0.00000E+00
         0.00000E+00
         0.00000E+00
         0.00000E+00
         0.00000E+00
         0.00000E+00
         0.00000E+00
         0.00000E+00
         0.00000E+00
         0.00000E+00
         0.00000E+00
         0.00000E+00
         0.00000E+00
         0.00000E+00
         0.00000E+00
         0.00000E+00
         0.00000E+00
         0.00000E+00
         0.00000E+00
         0.00000E+00
         0.00000E+00
         0.00000E+00
         0.00000E+00
         0.00000E+00
         0.00000E+00
         0.00000E+00
         0.00000E+00
         0.00000E+00
         0.00000E+00
         0.00000E+00
         0.00000E+00
         0.00000E+00
         0.00000E+00
         0.00000E+00
         0.00000E+00
         0.00000E+00
         0.00000E+00
         0.00000E+00
         0.00000E+00
         0.00000E+00
         0.00000E+00
         0.00000E+00
         0.00000E+00
         0.00000E+00
         0.00000E+00
         0.00000E+00
         0.00000E+00
         0.00000E+00
         0.00000E+00
         0.00000E+00
         0.00000E+00
         0.00000E+00
         0.00000E+00
         0.00000E+00
         0.00000E+00
         0.00000E+00
         0.00000E+00
         0.00000E+00
         0.00000E+00
         0.00000E+00
         0.00000E+00
         0.00000E+00
         0.00000E+00
         0.00000E+00
         0.00000E+00
         0.00000E+00
         0.00000E+00
         0.00000E+00
         0.00000E+00
         0.00000E+00
         0.00000E+00
         0.00000E+00
         0.00000E+00
         0.00000E+00
         0.00000E+00
         0.00000E+00
         0.00000E+00
         0.00000E+00
         0.00000E+00
         0.00000E+00
         0.00000E+00
         0.00000E+00
         0.00000E+00
         0.00000E+00
         0.00000E+00
         0.00000E+00
         0.00000E+00
         0.00000E+00
         0.00000E+00
         0.00000E+00
         0.00000E+00
         0.00000E+00
         0.00000E+00
         0.00000E+00
         0.00000E+00
         0.00000E+00
         0.00000E+00
         0.00000E+00
         0.00000E+00
         0.00000E+00
         0.00000E+00
         0.00000E+00
         0.00000E+00
         0.00000E+00
         0.00000E+00
         0.00000E+00
         0.00000E+00
         0.00000E+00
         0.00000E+00
         0.00000E+00
         0.00000E+00
         0.00000E+00
         0.00000E+00
         0.00000E+00
         0.00000E+00
         0.00000E+00
         0.00000E+00
         0.00000E+00
         0.00000E+00
         0.00000E+00
         0.00000E+00
         0.00000E+00
         0.00000E+00
         0.00000E+00
         0.00000E+00
         0.00000E+00
         0.00000E+00
         0.00000E+00
         0.00000E+00
         0.00000E+00
         0.00000E+00
         0.00000E+00
         0.00000E+00
         0.00000E+00
         0.00000E+00
         0.00000E+00
         0.00000E+00
         0.00000E+00
         0.00000E+00
         0.00000E+00
         0.00000E+00
         0.00000E+00
         0.00000E+00
         0.00000E+00
         0.00000E+00
         0.00000E+00
         0.00000E+00
         0.00000E+00
         0.00000E+00
         0.00000E+00
         0.00000E+00
         0.00000E+00
         0.00000E+00
         0.00000E+00
         0.00000E+00
         0.00000E+00
         0.00000E+00
         0.00000E+00
         0.00000E+00
         0.00000E+00
         0.00000E+00
         0.00000E+00
         0.00000E+00
         0.00000E+00
         0.00000E+00
         0.00000E+00
         0.00000E+00
         0.00000E+00
         0.00000E+00
         0.00000E+00
         0.00000E+00
         0.00000E+00
         0.00000E+00
         0.00000E+00
         0.00000E+00
         0.00000E+00
         0.00000E+00
         0.00000E+00
         0.00000E+00
         0.00000E+00
         0.00000E+00
         0.00000E+00
         0.00000E+00
         0.00000E+00
         0.00000E+00
         0.00000E+00
         0.00000E+00
         0.00000E+00
         0.00000E+00
         0.00000E+00
         0.00000E+00
         0.00000E+00
         0.00000E+00
         0.00000E+00
         0.00000E+00
         0.00000E+00
         0.00000E+00
         0.00000E+00
         0.00000E+00
         0.00000E+00
         0.00000E+00
         0.00000E+00
         0.00000E+00
         0.00000E+00
         0.00000E+00
         0.00000E+00
         0.00000E+00
         0.00000E+00
         0.00000E+00
         0.00000E+00
         0.00000E+00
         0.00000E+00
         0.00000E+00
         0.00000E+00
         0.00000E+00
         0.00000E+00
         0.00000E+00
         0.00000E+00
         0.00000E+00
         0.00000E+00
         0.00000E+00
         0.00000E+00
         0.00000E+00
         0.00000E+00
         0.00000E+00
         0.00000E+00
         0.00000E+00
         0.00000E+00
         0.00000E+00
         0.00000E+00
         0.00000E+00
         0.00000E+00
         0.00000E+00
         0.00000E+00
         0.00000E+00
         0.00000E+00
         0.00000E+00
         0.00000E+00
         0.00000E+00
         0.00000E+00
         0.00000E+00
         0.00000E+00
         0.00000E+00
         0.00000E+00
         0.00000E+00
         0.00000E+00
         0.00000E+00
         0.00000E+00
         0.00000E+00
         0.00000E+00
         0.00000E+00
         0.00000E+00
         0.00000E+00
         0.00000E+00
         0.00000E+00
         0.00000E+00
         0.00000E+00
         0.00000E+00
         0.00000E+00
         0.00000E+00
         0.00000E+00
         0.00000E+00
         0.00000E+00
         0.00000E+00
         0.00000E+00
         0.00000E+00
         0.00000E+00
         0.00000E+00
         0.00000E+00
         0.00000E+00
         0.00000E+00
         0.00000E+00
         0.00000E+00
         0.00000E+00
         0.00000E+00
         0.00000E+00
         0.00000E+00
         0.00000E+00
         0.00000E+00
         0.00000E+00
         0.00000E+00
         0.00000E+00
         0.00000E+00
         0.00000E+00
         0.00000E+00
         0.00000E+00
         0.00000E+00
         0.00000E+00
         0.00000E+00
         0.00000E+00
         0.00000E+00
         0.00000E+00
         0.00000E+00
         0.00000E+00
         0.00000E+00
         0.00000E+00
         0.00000E+00
         0.00000E+00
         0.00000E+00
         0.00000E+00
         0.00000E+00
         0.00000E+00
         0.00000E+00
         0.00000E+00
         0.00000E+00
         0.00000E+00
         0.00000E+00
         0.00000E+00
         0.00000E+00
         0.00000E+00
         0.00000E+00
         0.00000E+00
         0.00000E+00
         0.00000E+00
         0.00000E+00
         0.00000E+00
         0.00000E+00
         0.00000E+00
         0.00000E+00
         0.00000E+00
         0.00000E+00
         0.00000E+00
         0.00000E+00
         0.00000E+00
         0.00000E+00
         0.00000E+00
         0.00000E+00
         0.00000E+00
         0.00000E+00
         0.00000E+00
         0.00000E+00
         0.00000E+00
         0.00000E+00
         0.00000E+00
         0.00000E+00
         0.00000E+00
         0.00000E+00
         0.00000E+00
         0.00000E+00
         0.00000E+00
         0.00000E+00
         0.00000E+00
         0.00000E+00
         0.00000E+00
         0.00000E+00
         0.00000E+00
         0.00000E+00
         0.00000E+00
         0.00000E+00
         0.00000E+00
         0.00000E+00
         0.00000E+00
         0.00000E+00
         0.00000E+00
         0.00000E+00
         0.00000E+00
         0.00000E+00
         0.00000E+00
         0.00000E+00
         0.00000E+00
         0.00000E+00
         0.00000E+00
         0.00000E+00
         0.00000E+00
         0.00000E+00
         0.00000E+00
         0.00000E+00
         0.00000E+00
         0.00000E+00
         0.00000E+00
         0.00000E+00
         0.00000E+00
         0.00000E+00
         0.00000E+00
         0.00000E+00
         0.00000E+00
         0.00000E+00
         0.00000E+00
         0.00000E+00
         0.00000E+00
         0.00000E+00
         0.00000E+00
         0.00000E+00
         0.00000E+00
         0.00000E+00
         0.00000E+00
         0.00000E+00
         0.00000E+00
         0.00000E+00
         0.00000E+00
         0.00000E+00
         0.00000E+00
         0.00000E+00
         0.00000E+00
         0.00000E+00
         0.00000E+00
         0.00000E+00
         0.00000E+00
         0.00000E+00
         0.00000E+00
         0.00000E+00
         0.00000E+00
         0.00000E+00
         0.00000E+00
         0.00000E+00
         0.00000E+00
         0.00000E+00
         0.00000E+00
         0.00000E+00
         0.00000E+00
         0.00000E+00
         0.00000E+00
         0.00000E+00
         0.00000E+00
         0.00000E+00
         0.00000E+00
         0.00000E+00
         0.00000E+00
         0.00000E+00
         0.00000E+00
         0.00000E+00
         0.00000E+00
         0.00000E+00
         0.00000E+00
         0.00000E+00
         0.00000E+00
         0.00000E+00
         0.00000E+00
         0.00000E+00
         0.00000E+00
         0.00000E+00
         0.00000E+00
         0.00000E+00
         0.00000E+00
         0.00000E+00
         0.00000E+00
         0.00000E+00
         0.00000E+00
         0.00000E+00
         0.00000E+00
         0.00000E+00
         0.00000E+00
         0.00000E+00
         0.00000E+00
         0.00000E+00
         0.00000E+00
         0.00000E+00
         0.00000E+00
         0.00000E+00
         0.00000E+00
         0.00000E+00
         0.00000E+00
         0.00000E+00
         0.00000E+00
         0.00000E+00
         0.00000E+00
         0.00000E+00
         0.00000E+00
         0.00000E+00
         0.00000E+00
         0.00000E+00
         0.00000E+00
         0.00000E+00
         0.00000E+00
         0.00000E+00
         0.00000E+00
         0.00000E+00
         0.00000E+00
         0.00000E+00
         0.00000E+00
         0.00000E+00
         0.00000E+00
         0.00000E+00
         0.00000E+00
         0.00000E+00
         0.00000E+00
         0.00000E+00
         0.00000E+00
         0.00000E+00
         0.00000E+00
         0.00000E+00
         0.00000E+00
         0.00000E+00
         0.00000E+00
         0.00000E+00
         0.00000E+00
         0.00000E+00
         0.00000E+00
         0.00000E+00
         0.00000E+00
         0.00000E+00
         0.00000E+00
         0.00000E+00
         0.00000E+00
         0.00000E+00
         0.00000E+00
         0.00000E+00
         0.00000E+00
         0.00000E+00
         0.00000E+00
         0.00000E+00
         0.00000E+00
         0.00000E+00
         0.00000E+00
         0.00000E+00
         0.00000E+00
         0.00000E+00
         0.00000E+00
         0.00000E+00
         0.00000E+00
         0.00000E+00
         0.00000E+00
         0.00000E+00
         0.00000E+00
         0.00000E+00
         0.00000E+00
         0.00000E+00
         0.00000E+00
         0.00000E+00
         0.00000E+00
         0.00000E+00
         0.00000E+00
         0.00000E+00
         0.00000E+00
         0.00000E+00
         0.00000E+00
         0.00000E+00
         0.00000E+00
         0.00000E+00
         0.00000E+00
         0.00000E+00
         0.00000E+00
         0.00000E+00
         0.00000E+00
         0.00000E+00
         0.00000E+00
         0.00000E+00
         0.00000E+00
         0.00000E+00
         0.00000E+00
         0.00000E+00
         0.00000E+00
         0.00000E+00
         0.00000E+00
         0.00000E+00
         0.00000E+00
         0.00000E+00
         0.00000E+00
         0.00000E+00
         0.00000E+00
         0.00000E+00
         0.00000E+00
         0.00000E+00
         0.00000E+00
         0.00000E+00
         0.00000E+00
         0.00000E+00
         0.00000E+00
         0.00000E+00
         0.00000E+00
         0.00000E+00
         0.00000E+00
         0.00000E+00
         0.00000E+00
         0.00000E+00
         0.00000E+00
         0.00000E+00
         0.00000E+00
         0.00000E+00
         0.00000E+00
         0.00000E+00
         0.00000E+00
         0.00000E+00
         0.00000E+00
         0.00000E+00
         0.00000E+00
         0.00000E+00
         0.00000E+00
         0.00000E+00
         0.00000E+00
         0.00000E+00
         0.00000E+00
         0.00000E+00
         0.00000E+00
         0.00000E+00
         0.00000E+00
         0.00000E+00
         0.00000E+00
         0.00000E+00
         0.00000E+00
         0.00000E+00
         0.00000E+00
         0.00000E+00
         0.00000E+00
         0.00000E+00
         0.00000E+00
         0.00000E+00
         0.00000E+00
         0.00000E+00
         0.00000E+00
         0.00000E+00
         0.00000E+00
         0.00000E+00
         0.00000E+00
         0.00000E+00
         0.00000E+00
         0.00000E+00
         0.00000E+00
         0.00000E+00
         0.00000E+00
         0.00000E+00
         0.00000E+00
         0.00000E+00
         0.00000E+00
         0.00000E+00
         0.00000E+00
         0.00000E+00
         0.00000E+00
         0.00000E+00
         0.00000E+00
         0.00000E+00
         0.00000E+00
         0.00000E+00
         0.00000E+00
         0.00000E+00
         0.00000E+00
         0.00000E+00
         0.00000E+00
         0.00000E+00
         0.00000E+00
         0.00000E+00
         0.00000E+00
         0.00000E+00
         0.00000E+00
         0.00000E+00
         0.00000E+00
         0.00000E+00
         0.00000E+00
         0.00000E+00
         0.00000E+00
         0.00000E+00
         0.00000E+00
         0.00000E+00
         0.00000E+00
         0.00000E+00
         0.00000E+00
         0.00000E+00
         0.00000E+00
         0.00000E+00
         0.00000E+00
         0.00000E+00
         0.00000E+00
         0.00000E+00
         0.00000E+00
         0.00000E+00
         0.00000E+00
         0.00000E+00
         0.00000E+00
         0.00000E+00
         0.00000E+00
         0.00000E+00
         0.00000E+00
         0.00000E+00
         0.00000E+00
         0.00000E+00
         0.00000E+00
         0.00000E+00
         0.00000E+00
         0.00000E+00
         0.00000E+00
         0.00000E+00
         0.00000E+00
         0.00000E+00
         0.00000E+00
         0.00000E+00
         0.00000E+00
         0.00000E+00
         0.00000E+00
         0.00000E+00
         0.00000E+00
         0.00000E+00
         0.00000E+00
         0.00000E+00
         0.00000E+00
         0.00000E+00
         0.00000E+00
         0.00000E+00
         0.00000E+00
         0.00000E+00
         0.00000E+00
         0.00000E+00
         0.00000E+00
         0.00000E+00
         0.00000E+00
         0.00000E+00
         0.00000E+00
         0.00000E+00
         0.00000E+00
         0.00000E+00
         0.00000E+00
         0.00000E+00
         0.00000E+00
         0.00000E+00
         0.00000E+00
         0.00000E+00
         0.00000E+00
         0.00000E+00
         0.00000E+00
         0.00000E+00
         0.00000E+00
         0.00000E+00
         0.00000E+00
         0.00000E+00
         0.00000E+00
         0.00000E+00
         0.00000E+00
         0.00000E+00
         0.00000E+00
         0.00000E+00
         0.00000E+00
         0.00000E+00
         0.00000E+00
         0.00000E+00
         0.00000E+00
         0.00000E+00
         0.00000E+00
         0.00000E+00
         0.00000E+00
         0.00000E+00
         0.00000E+00
         0.00000E+00
         0.00000E+00
         0.00000E+00
         0.00000E+00
         0.00000E+00
         0.00000E+00
         0.00000E+00
         0.00000E+00
         0.00000E+00
         0.00000E+00
         0.00000E+00
         0.00000E+00
         0.00000E+00
         0.00000E+00
         0.00000E+00
         0.00000E+00
         0.00000E+00
         0.00000E+00
         0.00000E+00
         0.00000E+00
         0.00000E+00
         0.00000E+00
         0.00000E+00
         0.00000E+00
         0.00000E+00
         0.00000E+00
         0.00000E+00
         0.00000E+00
         0.00000E+00
         0.00000E+00
         0.00000E+00
         0.00000E+00
         0.00000E+00
         0.00000E+00
         0.00000E+00
         0.00000E+00
         0.00000E+00
         0.00000E+00
         0.00000E+00
         0.00000E+00
         0.00000E+00
         0.00000E+00
         0.00000E+00
         0.00000E+00
         0.00000E+00
         0.00000E+00
         0.00000E+00
         0.00000E+00
         0.00000E+00
         0.00000E+00
         0.00000E+00
         0.00000E+00
         0.00000E+00
         0.00000E+00
         0.00000E+00
         0.00000E+00
         0.00000E+00
         0.00000E+00
         0.00000E+00
         0.00000E+00
         0.00000E+00
         0.00000E+00
         0.00000E+00
         0.00000E+00
         0.00000E+00
         0.00000E+00
         0.00000E+00
         0.00000E+00
         0.00000E+00
         0.00000E+00
         0.00000E+00
         0.00000E+00
         0.00000E+00
         0.00000E+00
         0.00000E+00
         0.00000E+00
         0.00000E+00
         0.00000E+00
         0.00000E+00
         0.00000E+00
         0.00000E+00
         0.00000E+00
         0.00000E+00
         0.00000E+00
         0.00000E+00
         0.00000E+00
         0.00000E+00
         0.00000E+00
         0.00000E+00
  
SCALARS                   max_wave_vel  double 1
LOOKUP_TABLE default
         0.00000E+00
         0.00000E+00
         0.00000E+00
         0.00000E+00
         0.00000E+00
         0.00000E+00
         0.00000E+00
         0.00000E+00
         0.00000E+00
         0.00000E+00
         0.00000E+00
         0.00000E+00
         0.00000E+00
         0.00000E+00
         0.00000E+00
         0.00000E+00
         0.00000E+00
         0.00000E+00
         0.00000E+00
         0.00000E+00
         0.00000E+00
         0.00000E+00
         0.00000E+00
         0.00000E+00
         0.00000E+00
         0.00000E+00
         0.00000E+00
         0.00000E+00
         0.00000E+00
         0.00000E+00
         0.00000E+00
         0.00000E+00
         0.00000E+00
         0.00000E+00
         0.00000E+00
         0.00000E+00
         0.00000E+00
         0.00000E+00
         0.00000E+00
         0.00000E+00
         0.00000E+00
         0.00000E+00
         0.00000E+00
         0.00000E+00
         0.00000E+00
         0.00000E+00
         0.00000E+00
         0.00000E+00
         0.00000E+00
         0.00000E+00
         0.00000E+00
         0.00000E+00
         0.00000E+00
         0.00000E+00
         0.00000E+00
         0.00000E+00
         0.00000E+00
         0.00000E+00
         0.00000E+00
         0.00000E+00
         0.00000E+00
         0.00000E+00
         0.00000E+00
         0.00000E+00
         0.00000E+00
         0.00000E+00
         0.00000E+00
         0.00000E+00
         0.00000E+00
         0.00000E+00
         0.00000E+00
         0.00000E+00
         0.00000E+00
         0.00000E+00
         0.00000E+00
         0.00000E+00
         0.00000E+00
         0.00000E+00
         0.00000E+00
         0.00000E+00
         0.00000E+00
         0.00000E+00
         0.00000E+00
         0.00000E+00
         0.00000E+00
         0.00000E+00
         0.00000E+00
         0.00000E+00
         0.00000E+00
         0.00000E+00
         0.00000E+00
         0.00000E+00
         0.00000E+00
         0.00000E+00
         0.00000E+00
         0.00000E+00
         0.00000E+00
         0.00000E+00
         0.00000E+00
         0.00000E+00
         0.00000E+00
         0.00000E+00
         0.00000E+00
         0.00000E+00
         0.00000E+00
         0.00000E+00
         0.00000E+00
         0.00000E+00
         0.00000E+00
         0.00000E+00
         0.00000E+00
         0.00000E+00
         0.00000E+00
         0.00000E+00
         0.00000E+00
         0.00000E+00
         0.00000E+00
         0.00000E+00
         0.00000E+00
         0.00000E+00
         0.00000E+00
         0.00000E+00
         0.00000E+00
         0.00000E+00
         0.00000E+00
         0.00000E+00
         0.00000E+00
         0.00000E+00
         0.00000E+00
         0.00000E+00
         0.00000E+00
         0.00000E+00
         0.00000E+00
         0.00000E+00
         0.00000E+00
         0.00000E+00
         0.00000E+00
         0.00000E+00
         0.00000E+00
         0.00000E+00
         0.00000E+00
         0.00000E+00
         0.00000E+00
         0.00000E+00
         0.00000E+00
         0.00000E+00
         0.00000E+00
         0.00000E+00
         0.00000E+00
         0.00000E+00
         0.00000E+00
         0.00000E+00
         0.00000E+00
         0.00000E+00
         0.00000E+00
         0.00000E+00
         0.00000E+00
         0.00000E+00
         0.00000E+00
         0.00000E+00
         0.00000E+00
         0.00000E+00
         0.00000E+00
         0.00000E+00
         0.00000E+00
         0.00000E+00
         0.00000E+00
         0.00000E+00
         0.00000E+00
         0.00000E+00
         0.00000E+00
         0.00000E+00
         0.00000E+00
         0.00000E+00
         0.00000E+00
         0.00000E+00
         0.00000E+00
         0.00000E+00
         0.00000E+00
         0.00000E+00
         0.00000E+00
         0.00000E+00
         0.00000E+00
         0.00000E+00
         0.00000E+00
         0.00000E+00
         0.00000E+00
         0.00000E+00
         0.00000E+00
         0.00000E+00
         0.00000E+00
         0.00000E+00
         0.00000E+00
         0.00000E+00
         0.00000E+00
         0.00000E+00
         0.00000E+00
         0.00000E+00
         0.00000E+00
         0.00000E+00
         0.00000E+00
         0.00000E+00
         0.00000E+00
         0.00000E+00
         0.00000E+00
         0.00000E+00
         0.00000E+00
         0.00000E+00
         0.00000E+00
         0.00000E+00
         0.00000E+00
         0.00000E+00
         0.00000E+00
         0.00000E+00
         0.00000E+00
         0.00000E+00
         0.00000E+00
         0.00000E+00
         0.00000E+00
         0.00000E+00
         0.00000E+00
         0.00000E+00
         0.00000E+00
         0.00000E+00
         0.00000E+00
         0.00000E+00
         0.00000E+00
         0.00000E+00
         0.00000E+00
         0.00000E+00
         0.00000E+00
         0.00000E+00
         0.00000E+00
         0.00000E+00
         0.00000E+00
         0.00000E+00
         0.00000E+00
         0.00000E+00
         0.00000E+00
         0.00000E+00
         0.00000E+00
         0.00000E+00
         0.00000E+00
         0.00000E+00
         0.00000E+00
         0.00000E+00
         0.00000E+00
         0.00000E+00
         0.00000E+00
         0.00000E+00
         0.00000E+00
         0.00000E+00
         0.00000E+00
         0.00000E+00
         0.00000E+00
         0.00000E+00
         0.00000E+00
         0.00000E+00
         0.00000E+00
         0.00000E+00
         0.00000E+00
         0.00000E+00
         0.00000E+00
         0.00000E+00
         0.00000E+00
         0.00000E+00
         0.00000E+00
         0.00000E+00
         0.00000E+00
         0.00000E+00
         0.00000E+00
         0.00000E+00
         0.00000E+00
         0.00000E+00
         0.00000E+00
         0.00000E+00
         0.00000E+00
         0.00000E+00
         0.00000E+00
         0.00000E+00
         0.00000E+00
         0.00000E+00
         0.00000E+00
         0.00000E+00
         0.00000E+00
         0.00000E+00
         0.00000E+00
         0.00000E+00
         0.00000E+00
         0.00000E+00
         0.00000E+00
         0.00000E+00
         0.00000E+00
         0.00000E+00
         0.00000E+00
         0.00000E+00
         0.00000E+00
         0.00000E+00
         0.00000E+00
         0.00000E+00
         0.00000E+00
         0.00000E+00
         0.00000E+00
         0.00000E+00
         0.00000E+00
         0.00000E+00
         0.00000E+00
         0.00000E+00
         0.00000E+00
         0.00000E+00
         0.00000E+00
         0.00000E+00
         0.00000E+00
         0.00000E+00
         0.00000E+00
         0.00000E+00
         0.00000E+00
         0.00000E+00
         0.00000E+00
         0.00000E+00
         0.00000E+00
         0.00000E+00
         0.00000E+00
         0.00000E+00
         0.00000E+00
         0.00000E+00
         0.00000E+00
         0.00000E+00
         0.00000E+00
         0.00000E+00
         0.00000E+00
         0.00000E+00
         0.00000E+00
         0.00000E+00
         0.00000E+00
         0.00000E+00
         0.00000E+00
         0.00000E+00
         0.00000E+00
         0.00000E+00
         0.00000E+00
         0.00000E+00
         0.00000E+00
         0.00000E+00
         0.00000E+00
         0.00000E+00
         0.00000E+00
         0.00000E+00
         0.00000E+00
         0.00000E+00
         0.00000E+00
         0.00000E+00
         0.00000E+00
         0.00000E+00
         0.00000E+00
         0.00000E+00
         0.00000E+00
         0.00000E+00
         0.00000E+00
         0.00000E+00
         0.00000E+00
         0.00000E+00
         0.00000E+00
         0.00000E+00
         0.00000E+00
         0.00000E+00
         0.00000E+00
         0.00000E+00
         0.00000E+00
         0.00000E+00
         0.00000E+00
         0.00000E+00
         0.00000E+00
         0.00000E+00
         0.00000E+00
         0.00000E+00
         0.00000E+00
         0.00000E+00
         0.00000E+00
         0.00000E+00
         0.00000E+00
         0.00000E+00
         0.00000E+00
         0.00000E+00
         0.00000E+00
         0.00000E+00
         0.00000E+00
         0.00000E+00
         0.00000E+00
         0.00000E+00
         0.00000E+00
         0.00000E+00
         0.00000E+00
         0.00000E+00
         0.00000E+00
         0.00000E+00
         0.00000E+00
         0.00000E+00
         0.00000E+00
         0.00000E+00
         0.00000E+00
         0.00000E+00
         0.00000E+00
         0.00000E+00
         0.00000E+00
         0.00000E+00
         0.00000E+00
         0.00000E+00
         0.00000E+00
         0.00000E+00
         0.00000E+00
         0.00000E+00
         0.00000E+00
         0.00000E+00
         0.00000E+00
         0.00000E+00
         0.00000E+00
         0.00000E+00
         0.00000E+00
         0.00000E+00
         0.00000E+00
         0.00000E+00
         0.00000E+00
         0.00000E+00
         0.00000E+00
         0.00000E+00
         0.00000E+00
         0.00000E+00
         0.00000E+00
         0.00000E+00
         0.00000E+00
         0.00000E+00
         0.00000E+00
         0.00000E+00
         0.00000E+00
         0.00000E+00
         0.00000E+00
         0.00000E+00
         0.00000E+00
         0.00000E+00
         0.00000E+00
         0.00000E+00
         0.00000E+00
         0.00000E+00
         0.00000E+00
         0.00000E+00
         0.00000E+00
         0.00000E+00
         0.00000E+00
         0.00000E+00
         0.00000E+00
         0.00000E+00
         0.00000E+00
         0.00000E+00
         0.00000E+00
         0.00000E+00
         0.00000E+00
         0.00000E+00
         0.00000E+00
         0.00000E+00
         0.00000E+00
         0.00000E+00
         0.00000E+00
         0.00000E+00
         0.00000E+00
         0.00000E+00
         0.00000E+00
         0.00000E+00
         0.00000E+00
         0.00000E+00
         0.00000E+00
         0.00000E+00
         0.00000E+00
         0.00000E+00
         0.00000E+00
         0.00000E+00
         0.00000E+00
         0.00000E+00
         0.00000E+00
         0.00000E+00
         0.00000E+00
         0.00000E+00
         0.00000E+00
         0.00000E+00
         0.00000E+00
         0.00000E+00
         0.00000E+00
         0.00000E+00
         0.00000E+00
         0.00000E+00
         0.00000E+00
         0.00000E+00
         0.00000E+00
         0.00000E+00
         0.00000E+00
         0.00000E+00
         0.00000E+00
         0.00000E+00
         0.00000E+00
         0.00000E+00
         0.00000E+00
         0.00000E+00
         0.00000E+00
         0.00000E+00
         0.00000E+00
         0.00000E+00
         0.00000E+00
         0.00000E+00
         0.00000E+00
         0.00000E+00
         0.00000E+00
         0.00000E+00
         0.00000E+00
         0.00000E+00
         0.00000E+00
         0.00000E+00
         0.00000E+00
         0.00000E+00
         0.00000E+00
         0.00000E+00
         0.00000E+00
         0.00000E+00
         0.00000E+00
         0.00000E+00
         0.00000E+00
         0.00000E+00
         0.00000E+00
         0.00000E+00
         0.00000E+00
         0.00000E+00
         0.00000E+00
         0.00000E+00
         0.00000E+00
         0.00000E+00
         0.00000E+00
         0.00000E+00
         0.00000E+00
         0.00000E+00
         0.00000E+00
         0.00000E+00
         0.00000E+00
         0.00000E+00
         0.00000E+00
         0.00000E+00
         0.00000E+00
         0.00000E+00
         0.00000E+00
         0.00000E+00
         0.00000E+00
         0.00000E+00
         0.00000E+00
         0.00000E+00
         0.00000E+00
         0.00000E+00
         0.00000E+00
         0.00000E+00
         0.00000E+00
         0.00000E+00
         0.00000E+00
         0.00000E+00
         0.00000E+00
         0.00000E+00
         0.00000E+00
         0.00000E+00
         0.00000E+00
         0.00000E+00
         0.00000E+00
         0.00000E+00
         0.00000E+00
         0.00000E+00
         0.00000E+00
         0.00000E+00
         0.00000E+00
         0.00000E+00
         0.00000E+00
         0.00000E+00
         0.00000E+00
         0.00000E+00
         0.00000E+00
         0.00000E+00
         0.00000E+00
         0.00000E+00
         0.00000E+00
         0.00000E+00
         0.00000E+00
         0.00000E+00
         0.00000E+00
         0.00000E+00
         0.00000E+00
         0.00000E+00
         0.00000E+00
         0.00000E+00
         0.00000E+00
         0.00000E+00
         0.00000E+00
         0.00000E+00
         0.00000E+00
         0.00000E+00
         0.00000E+00
         0.00000E+00
         0.00000E+00
         0.00000E+00
         0.00000E+00
         0.00000E+00
         0.00000E+00
         0.00000E+00
         0.00000E+00
         0.00000E+00
         0.00000E+00
         0.00000E+00
         0.00000E+00
         0.00000E+00
         0.00000E+00
         0.00000E+00
         0.00000E+00
         0.00000E+00
         0.00000E+00
         0.00000E+00
         0.00000E+00
         0.00000E+00
         0.00000E+00
         0.00000E+00
         0.00000E+00
         0.00000E+00
         0.00000E+00
         0.00000E+00
         0.00000E+00
         0.00000E+00
         0.00000E+00
         0.00000E+00
         0.00000E+00
         0.00000E+00
         0.00000E+00
         0.00000E+00
         0.00000E+00
         0.00000E+00
         0.00000E+00
         0.00000E+00
         0.00000E+00
         0.00000E+00
         0.00000E+00
         0.00000E+00
         0.00000E+00
         0.00000E+00
         0.00000E+00
         0.00000E+00
         0.00000E+00
         0.00000E+00
         0.00000E+00
         0.00000E+00
         0.00000E+00
         0.00000E+00
         0.00000E+00
         0.00000E+00
         0.00000E+00
         0.00000E+00
         0.00000E+00
         0.00000E+00
         0.00000E+00
         0.00000E+00
         0.00000E+00
         0.00000E+00
         0.00000E+00
         0.00000E+00
         0.00000E+00
         0.00000E+00
         0.00000E+00
         0.00000E+00
         0.00000E+00
         0.00000E+00
         0.00000E+00
         0.00000E+00
         0.00000E+00
         0.00000E+00
         0.00000E+00
         0.00000E+00
         0.00000E+00
         0.00000E+00
         0.00000E+00
         0.00000E+00
         0.00000E+00
         0.00000E+00
         0.00000E+00
         0.00000E+00
         0.00000E+00
         0.00000E+00
         0.00000E+00
         0.00000E+00
         0.00000E+00
         0.00000E+00
         0.00000E+00
         0.00000E+00
         0.00000E+00
         0.00000E+00
         0.00000E+00
         0.00000E+00
         0.00000E+00
         0.00000E+00
         0.00000E+00
         0.00000E+00
         0.00000E+00
         0.00000E+00
         0.00000E+00
         0.00000E+00
         0.00000E+00
         0.00000E+00
         0.00000E+00
         0.00000E+00
         0.00000E+00
         0.00000E+00
         0.00000E+00
         0.00000E+00
         0.00000E+00
         0.00000E+00
         0.00000E+00
         0.00000E+00
         0.00000E+00
         0.00000E+00
         0.00000E+00
         0.00000E+00
         0.00000E+00
         0.00000E+00
         0.00000E+00
         0.00000E+00
         0.00000E+00
         0.00000E+00
         0.00000E+00
         0.00000E+00
         0.00000E+00
         0.00000E+00
         0.00000E+00
         0.00000E+00
         0.00000E+00
         0.00000E+00
         0.00000E+00
         0.00000E+00
         0.00000E+00
         0.00000E+00
         0.00000E+00
         0.00000E+00
         0.00000E+00
         0.00000E+00
         0.00000E+00
         0.00000E+00
         0.00000E+00
         0.00000E+00
         0.00000E+00
         0.00000E+00
         0.00000E+00
         0.00000E+00
         0.00000E+00
         0.00000E+00
         0.00000E+00
         0.00000E+00
         0.00000E+00
         0.00000E+00
         0.00000E+00
         0.00000E+00
         0.00000E+00
         0.00000E+00
         0.00000E+00
         0.00000E+00
         0.00000E+00
         0.00000E+00
         0.00000E+00
         0.00000E+00
         0.00000E+00
         0.00000E+00
         0.00000E+00
         0.00000E+00
         0.00000E+00
         0.00000E+00
         0.00000E+00
         0.00000E+00
         0.00000E+00
         0.00000E+00
         0.00000E+00
         0.00000E+00
         0.00000E+00
         0.00000E+00
         0.00000E+00
         0.00000E+00
         0.00000E+00
         0.00000E+00
         0.00000E+00
         0.00000E+00
         0.00000E+00
         0.00000E+00
         0.00000E+00
         0.00000E+00
         0.00000E+00
         0.00000E+00
         0.00000E+00
         0.00000E+00
         0.00000E+00
         0.00000E+00
         0.00000E+00
         0.00000E+00
         0.00000E+00
         0.00000E+00
         0.00000E+00
         0.00000E+00
         0.00000E+00
         0.00000E+00
         0.00000E+00
         0.00000E+00
         0.00000E+00
         0.00000E+00
         0.00000E+00
         0.00000E+00
         0.00000E+00
         0.00000E+00
         0.00000E+00
         0.00000E+00
         0.00000E+00
         0.00000E+00
         0.00000E+00
         0.00000E+00
         0.00000E+00
         0.00000E+00
         0.00000E+00
         0.00000E+00
         0.00000E+00
         0.00000E+00
         0.00000E+00
         0.00000E+00
         0.00000E+00
         0.00000E+00
         0.00000E+00
         0.00000E+00
         0.00000E+00
         0.00000E+00
         0.00000E+00
         0.00000E+00
         0.00000E+00
         0.00000E+00
         0.00000E+00
         0.00000E+00
         0.00000E+00
         0.00000E+00
         0.00000E+00
         0.00000E+00
         0.00000E+00
         0.00000E+00
         0.00000E+00
         0.00000E+00
         0.00000E+00
         0.00000E+00
         0.00000E+00
         0.00000E+00
         0.00000E+00
         0.00000E+00
         0.00000E+00
         0.00000E+00
         0.00000E+00
         0.00000E+00
         0.00000E+00
         0.00000E+00
         0.00000E+00
         0.00000E+00
         0.00000E+00
         0.00000E+00
         0.00000E+00
         0.00000E+00
         0.00000E+00
         0.00000E+00
         0.00000E+00
         0.00000E+00
         0.00000E+00
         0.00000E+00
         0.00000E+00
         0.00000E+00
         0.00000E+00
         0.00000E+00
         0.00000E+00
         0.00000E+00
         0.00000E+00
         0.00000E+00
         0.00000E+00
         0.00000E+00
         0.00000E+00
         0.00000E+00
         0.00000E+00
         0.00000E+00
         0.00000E+00
         0.00000E+00
         0.00000E+00
         0.00000E+00
         0.00000E+00
         0.00000E+00
         0.00000E+00
         0.00000E+00
         0.00000E+00
         0.00000E+00
         0.00000E+00
         0.00000E+00
         0.00000E+00
         0.00000E+00
         0.00000E+00
         0.00000E+00
         0.00000E+00
         0.00000E+00
         0.00000E+00
         0.00000E+00
         0.00000E+00
         0.00000E+00
         0.00000E+00
         0.00000E+00
         0.00000E+00
         0.00000E+00
         0.00000E+00
         0.00000E+00
         0.00000E+00
         0.00000E+00
         0.00000E+00
         0.00000E+00
         0.00000E+00
         0.00000E+00
         0.00000E+00
         0.00000E+00
         0.00000E+00
         0.00000E+00
         0.00000E+00
         0.00000E+00
         0.00000E+00
         0.00000E+00
         0.00000E+00
         0.00000E+00
         0.00000E+00
         0.00000E+00
         0.00000E+00
         0.00000E+00
         0.00000E+00
         0.00000E+00
         0.00000E+00
         0.00000E+00
         0.00000E+00
         0.00000E+00
         0.00000E+00
         0.00000E+00
         0.00000E+00
         0.00000E+00
         0.00000E+00
         0.00000E+00
         0.00000E+00
         0.00000E+00
         0.00000E+00
         0.00000E+00
         0.00000E+00
         0.00000E+00
         0.00000E+00
         0.00000E+00
         0.00000E+00
         0.00000E+00
         0.00000E+00
         0.00000E+00
         0.00000E+00
         0.00000E+00
         0.00000E+00
         0.00000E+00
         0.00000E+00
         0.00000E+00
         0.00000E+00
         0.00000E+00
         0.00000E+00
         0.00000E+00
         0.00000E+00
         0.00000E+00
         0.00000E+00
         0.00000E+00
         0.00000E+00
         0.00000E+00
         0.00000E+00
         0.00000E+00
         0.00000E+00
         0.00000E+00
         0.00000E+00
         0.00000E+00
         0.00000E+00
         0.00000E+00
         0.00000E+00
         0.00000E+00
         0.00000E+00
         0.00000E+00
         0.00000E+00
         0.00000E+00
         0.00000E+00
         0.00000E+00
         0.00000E+00
         0.00000E+00
         0.00000E+00
         0.00000E+00
         0.00000E+00
         0.00000E+00
         0.00000E+00
         0.00000E+00
         0.00000E+00
         0.00000E+00
         0.00000E+00
         0.00000E+00
         0.00000E+00
         0.00000E+00
         0.00000E+00
         0.00000E+00
         0.00000E+00
         0.00000E+00
         0.00000E+00
         0.00000E+00
         0.00000E+00
         0.00000E+00
         0.00000E+00
         0.00000E+00
         0.00000E+00
         0.00000E+00
         0.00000E+00
         0.00000E+00
         0.00000E+00
         0.00000E+00
         0.00000E+00
         0.00000E+00
         0.00000E+00
         0.00000E+00
         0.00000E+00
         0.00000E+00
         0.00000E+00
         0.00000E+00
         0.00000E+00
         0.00000E+00
         0.00000E+00
         0.00000E+00
         0.00000E+00
         0.00000E+00
         0.00000E+00
         0.00000E+00
         0.00000E+00
         0.00000E+00
         0.00000E+00
         0.00000E+00
         0.00000E+00
         0.00000E+00
         0.00000E+00
         0.00000E+00
         0.00000E+00
         0.00000E+00
         0.00000E+00
         0.00000E+00
         0.00000E+00
         0.00000E+00
         0.00000E+00
         0.00000E+00
         0.00000E+00
         0.00000E+00
         0.00000E+00
         0.00000E+00
         0.00000E+00
         0.00000E+00
         0.00000E+00
         0.00000E+00
         0.00000E+00
         0.00000E+00
         0.00000E+00
         0.00000E+00
         0.00000E+00
         0.00000E+00
         0.00000E+00
         0.00000E+00
         0.00000E+00
         0.00000E+00
         0.00000E+00
         0.00000E+00
         0.00000E+00
         0.00000E+00
         0.00000E+00
         0.00000E+00
         0.00000E+00
         0.00000E+00
         0.00000E+00
         0.00000E+00
         0.00000E+00
         0.00000E+00
         0.00000E+00
         0.00000E+00
         0.00000E+00
         0.00000E+00
         0.00000E+00
         0.00000E+00
         0.00000E+00
         0.00000E+00
         0.00000E+00
         0.00000E+00
         0.00000E+00
         0.00000E+00
         0.00000E+00
         0.00000E+00
         0.00000E+00
         0.00000E+00
         0.00000E+00
         0.00000E+00
         0.00000E+00
         0.00000E+00
         0.00000E+00
         0.00000E+00
         0.00000E+00
         0.00000E+00
         0.00000E+00
         0.00000E+00
         0.00000E+00
         0.00000E+00
         0.00000E+00
         0.00000E+00
         0.00000E+00
         0.00000E+00
         0.00000E+00
         0.00000E+00
         0.00000E+00
         0.00000E+00
         0.00000E+00
         0.00000E+00
         0.00000E+00
         0.00000E+00
         0.00000E+00
         0.00000E+00
         0.00000E+00
         0.00000E+00
         0.00000E+00
         0.00000E+00
         0.00000E+00
         0.00000E+00
         0.00000E+00
         0.00000E+00
         0.00000E+00
         0.00000E+00
         0.00000E+00
         0.00000E+00
         0.00000E+00
         0.00000E+00
         0.00000E+00
         0.00000E+00
         0.00000E+00
         0.00000E+00
         0.00000E+00
         0.00000E+00
         0.00000E+00
         0.00000E+00
         0.00000E+00
         0.00000E+00
         0.00000E+00
         0.00000E+00
         0.00000E+00
         0.00000E+00
         0.00000E+00
         0.00000E+00
         0.00000E+00
         0.00000E+00
         0.00000E+00
         0.00000E+00
         0.00000E+00
         0.00000E+00
         0.00000E+00
         0.00000E+00
         0.00000E+00
         0.00000E+00
         0.00000E+00
         0.00000E+00
         0.00000E+00
         0.00000E+00
         0.00000E+00
         0.00000E+00
         0.00000E+00
         0.00000E+00
         0.00000E+00
         0.00000E+00
         0.00000E+00
         0.00000E+00
         0.00000E+00
         0.00000E+00
         0.00000E+00
         0.00000E+00
         0.00000E+00
         0.00000E+00
         0.00000E+00
         0.00000E+00
         0.00000E+00
         0.00000E+00
         0.00000E+00
         0.00000E+00
         0.00000E+00
         0.00000E+00
         0.00000E+00
         0.00000E+00
         0.00000E+00
         0.00000E+00
         0.00000E+00
         0.00000E+00
         0.00000E+00
         0.00000E+00
         0.00000E+00
         0.00000E+00
         0.00000E+00
         0.00000E+00
         0.00000E+00
         0.00000E+00
         0.00000E+00
         0.00000E+00
         0.00000E+00
         0.00000E+00
         0.00000E+00
         0.00000E+00
         0.00000E+00
         0.00000E+00
         0.00000E+00
         0.00000E+00
         0.00000E+00
         0.00000E+00
         0.00000E+00
         0.00000E+00
         0.00000E+00
         0.00000E+00
         0.00000E+00
         0.00000E+00
         0.00000E+00
         0.00000E+00
         0.00000E+00
         0.00000E+00
         0.00000E+00
         0.00000E+00
         0.00000E+00
         0.00000E+00
         0.00000E+00
         0.00000E+00
         0.00000E+00
         0.00000E+00
         0.00000E+00
         0.00000E+00
         0.00000E+00
         0.00000E+00
         0.00000E+00
         0.00000E+00
         0.00000E+00
         0.00000E+00
         0.00000E+00
         0.00000E+00
         0.00000E+00
         0.00000E+00
         0.00000E+00
         0.00000E+00
         0.00000E+00
         0.00000E+00
         0.00000E+00
         0.00000E+00
         0.00000E+00
         0.00000E+00
         0.00000E+00
         0.00000E+00
         0.00000E+00
         0.00000E+00
         0.00000E+00
         0.00000E+00
         0.00000E+00
         0.00000E+00
         0.00000E+00
         0.00000E+00
         0.00000E+00
         0.00000E+00
         0.00000E+00
         0.00000E+00
         0.00000E+00
         0.00000E+00
         0.00000E+00
         0.00000E+00
         0.00000E+00
         0.00000E+00
         0.00000E+00
         0.00000E+00
         0.00000E+00
         0.00000E+00
         0.00000E+00
         0.00000E+00
         0.00000E+00
         0.00000E+00
         0.00000E+00
         0.00000E+00
         0.00000E+00
         0.00000E+00
         0.00000E+00
         0.00000E+00
         0.00000E+00
         0.00000E+00
         0.00000E+00
         0.00000E+00
         0.00000E+00
         0.00000E+00
         0.00000E+00
         0.00000E+00
         0.00000E+00
         0.00000E+00
         0.00000E+00
         0.00000E+00
         0.00000E+00
         0.00000E+00
         0.00000E+00
         0.00000E+00
         0.00000E+00
         0.00000E+00
         0.00000E+00
         0.00000E+00
         0.00000E+00
         0.00000E+00
         0.00000E+00
         0.00000E+00
         0.00000E+00
         0.00000E+00
         0.00000E+00
         0.00000E+00
         0.00000E+00
         0.00000E+00
         0.00000E+00
         0.00000E+00
         0.00000E+00
         0.00000E+00
         0.00000E+00
         0.00000E+00
         0.00000E+00
         0.00000E+00
         0.00000E+00
         0.00000E+00
         0.00000E+00
         0.00000E+00
         0.00000E+00
         0.00000E+00
         0.00000E+00
         0.00000E+00
         0.00000E+00
         0.00000E+00
         0.00000E+00
         0.00000E+00
         0.00000E+00
         0.00000E+00
         0.00000E+00
         0.00000E+00
         0.00000E+00
         0.00000E+00
         0.00000E+00
         0.00000E+00
         0.00000E+00
         0.00000E+00
         0.00000E+00
         0.00000E+00
         0.00000E+00
         0.00000E+00
         0.00000E+00
         0.00000E+00
         0.00000E+00
         0.00000E+00
         0.00000E+00
         0.00000E+00
         0.00000E+00
         0.00000E+00
         0.00000E+00
         0.00000E+00
         0.00000E+00
         0.00000E+00
         0.00000E+00
         0.00000E+00
         0.00000E+00
         0.00000E+00
         0.00000E+00
         0.00000E+00
         0.00000E+00
         0.00000E+00
         0.00000E+00
         0.00000E+00
         0.00000E+00
         0.00000E+00
         0.00000E+00
         0.00000E+00
         0.00000E+00
         0.00000E+00
         0.00000E+00
         0.00000E+00
         0.00000E+00
         0.00000E+00
         0.00000E+00
         0.00000E+00
         0.00000E+00
         0.00000E+00
         0.00000E+00
         0.00000E+00
         0.00000E+00
         0.00000E+00
         0.00000E+00
         0.00000E+00
         0.00000E+00
         0.00000E+00
         0.00000E+00
         0.00000E+00
         0.00000E+00
         0.00000E+00
         0.00000E+00
         0.00000E+00
         0.00000E+00
         0.00000E+00
         0.00000E+00
         0.00000E+00
         0.00000E+00
         0.00000E+00
         0.00000E+00
         0.00000E+00
         0.00000E+00
         0.00000E+00
         0.00000E+00
         0.00000E+00
         0.00000E+00
         0.00000E+00
         0.00000E+00
         0.00000E+00
         0.00000E+00
         0.00000E+00
         0.00000E+00
         0.00000E+00
         0.00000E+00
         0.00000E+00
         0.00000E+00
         0.00000E+00
         0.00000E+00
         0.00000E+00
         0.00000E+00
         0.00000E+00
         0.00000E+00
         0.00000E+00
         0.00000E+00
         0.00000E+00
         0.00000E+00
         0.00000E+00
         0.00000E+00
         0.00000E+00
         0.00000E+00
         0.00000E+00
         0.00000E+00
         0.00000E+00
         0.00000E+00
         0.00000E+00
         0.00000E+00
         0.00000E+00
         0.00000E+00
         0.00000E+00
         0.00000E+00
         0.00000E+00
         0.00000E+00
         0.00000E+00
         0.00000E+00
         0.00000E+00
         0.00000E+00
         0.00000E+00
         0.00000E+00
         0.00000E+00
         0.00000E+00
         0.00000E+00
         0.00000E+00
         0.00000E+00
         0.00000E+00
         0.00000E+00
         0.00000E+00
         0.00000E+00
         0.00000E+00
         0.00000E+00
         0.00000E+00
         0.00000E+00
         0.00000E+00
         0.00000E+00
         0.00000E+00
         0.00000E+00
         0.00000E+00
         0.00000E+00
         0.00000E+00
         0.00000E+00
         0.00000E+00
         0.00000E+00
         0.00000E+00
         0.00000E+00
         0.00000E+00
         0.00000E+00
         0.00000E+00
         0.00000E+00
         0.00000E+00
         0.00000E+00
         0.00000E+00
         0.00000E+00
         0.00000E+00
         0.00000E+00
         0.00000E+00
         0.00000E+00
         0.00000E+00
         0.00000E+00
         0.00000E+00
         0.00000E+00
         0.00000E+00
         0.00000E+00
         0.00000E+00
         0.00000E+00
         0.00000E+00
         0.00000E+00
         0.00000E+00
         0.00000E+00
         0.00000E+00
         0.00000E+00
         0.00000E+00
         0.00000E+00
         0.00000E+00
         0.00000E+00
         0.00000E+00
         0.00000E+00
         0.00000E+00
         0.00000E+00
         0.00000E+00
         0.00000E+00
         0.00000E+00
         0.00000E+00
         0.00000E+00
         0.00000E+00
         0.00000E+00
         0.00000E+00
         0.00000E+00
         0.00000E+00
         0.00000E+00
         0.00000E+00
         0.00000E+00
         0.00000E+00
         0.00000E+00
         0.00000E+00
         0.00000E+00
         0.00000E+00
         0.00000E+00
         0.00000E+00
         0.00000E+00
         0.00000E+00
         0.00000E+00
         0.00000E+00
         0.00000E+00
         0.00000E+00
         0.00000E+00
         0.00000E+00
         0.00000E+00
         0.00000E+00
         0.00000E+00
         0.00000E+00
         0.00000E+00
         0.00000E+00
         0.00000E+00
         0.00000E+00
         0.00000E+00
         0.00000E+00
         0.00000E+00
         0.00000E+00
         0.00000E+00
         0.00000E+00
         0.00000E+00
         0.00000E+00
         0.00000E+00
         0.00000E+00
         0.00000E+00
         0.00000E+00
         0.00000E+00
         0.00000E+00
         0.00000E+00
         0.00000E+00
         0.00000E+00
         0.00000E+00
         0.00000E+00
         0.00000E+00
         0.00000E+00
         0.00000E+00
         0.00000E+00
         0.00000E+00
         0.00000E+00
         0.00000E+00
         0.00000E+00
         0.00000E+00
         0.00000E+00
         0.00000E+00
         0.00000E+00
         0.00000E+00
         0.00000E+00
         0.00000E+00
         0.00000E+00
         0.00000E+00
         0.00000E+00
         0.00000E+00
         0.00000E+00
         0.00000E+00
         0.00000E+00
         0.00000E+00
         0.00000E+00
         0.00000E+00
         0.00000E+00
         0.00000E+00
         0.00000E+00
         0.00000E+00
         0.00000E+00
         0.00000E+00
         0.00000E+00
         0.00000E+00
         0.00000E+00
         0.00000E+00
         0.00000E+00
         0.00000E+00
         0.00000E+00
         0.00000E+00
         0.00000E+00
         0.00000E+00
         0.00000E+00
         0.00000E+00
         0.00000E+00
         0.00000E+00
         0.00000E+00
         0.00000E+00
         0.00000E+00
         0.00000E+00
         0.00000E+00
         0.00000E+00
         0.00000E+00
         0.00000E+00
         0.00000E+00
         0.00000E+00
         0.00000E+00
         0.00000E+00
         0.00000E+00
         0.00000E+00
         0.00000E+00
         0.00000E+00
         0.00000E+00
         0.00000E+00
         0.00000E+00
         0.00000E+00
         0.00000E+00
         0.00000E+00
         0.00000E+00
         0.00000E+00
         0.00000E+00
         0.00000E+00
         0.00000E+00
         0.00000E+00
         0.00000E+00
         0.00000E+00
         0.00000E+00
         0.00000E+00
         0.00000E+00
         0.00000E+00
         0.00000E+00
         0.00000E+00
         0.00000E+00
         0.00000E+00
         0.00000E+00
         0.00000E+00
         0.00000E+00
         0.00000E+00
         0.00000E+00
         0.00000E+00
         0.00000E+00
         0.00000E+00
         0.00000E+00
         0.00000E+00
         0.00000E+00
         0.00000E+00
         0.00000E+00
         0.00000E+00
         0.00000E+00
         0.00000E+00
         0.00000E+00
         0.00000E+00
         0.00000E+00
         0.00000E+00
         0.00000E+00
         0.00000E+00
         0.00000E+00
         0.00000E+00
         0.00000E+00
         0.00000E+00
         0.00000E+00
         0.00000E+00
         0.00000E+00
         0.00000E+00
         0.00000E+00
         0.00000E+00
         0.00000E+00
         0.00000E+00
         0.00000E+00
         0.00000E+00
         0.00000E+00
         0.00000E+00
         0.00000E+00
         0.00000E+00
         0.00000E+00
         0.00000E+00
         0.00000E+00
         0.00000E+00
         0.00000E+00
         0.00000E+00
         0.00000E+00
         0.00000E+00
         0.00000E+00
         0.00000E+00
         0.00000E+00
         0.00000E+00
         0.00000E+00
         0.00000E+00
         0.00000E+00
         0.00000E+00
         0.00000E+00
         0.00000E+00
         0.00000E+00
         0.00000E+00
         0.00000E+00
         0.00000E+00
         0.00000E+00
         0.00000E+00
         0.00000E+00
         0.00000E+00
         0.00000E+00
         0.00000E+00
         0.00000E+00
         0.00000E+00
         0.00000E+00
         0.00000E+00
         0.00000E+00
         0.00000E+00
         0.00000E+00
         0.00000E+00
         0.00000E+00
         0.00000E+00
         0.00000E+00
         0.00000E+00
         0.00000E+00
         0.00000E+00
         0.00000E+00
         0.00000E+00
         0.00000E+00
         0.00000E+00
         0.00000E+00
         0.00000E+00
         0.00000E+00
         0.00000E+00
         0.00000E+00
         0.00000E+00
         0.00000E+00
         0.00000E+00
         0.00000E+00
         0.00000E+00
         0.00000E+00
         0.00000E+00
         0.00000E+00
         0.00000E+00
         0.00000E+00
         0.00000E+00
         0.00000E+00
         0.00000E+00
         0.00000E+00
         0.00000E+00
         0.00000E+00
         0.00000E+00
         0.00000E+00
         0.00000E+00
         0.00000E+00
         0.00000E+00
         0.00000E+00
         0.00000E+00
         0.00000E+00
         0.00000E+00
         0.00000E+00
         0.00000E+00
         0.00000E+00
         0.00000E+00
         0.00000E+00
         0.00000E+00
         0.00000E+00
         0.00000E+00
         0.00000E+00
         0.00000E+00
         0.00000E+00
         0.00000E+00
         0.00000E+00
         0.00000E+00
         0.00000E+00
         0.00000E+00
         0.00000E+00
         0.00000E+00
         0.00000E+00
         0.00000E+00
         0.00000E+00
         0.00000E+00
         0.00000E+00
         0.00000E+00
         0.00000E+00
         0.00000E+00
         0.00000E+00
         0.00000E+00
         0.00000E+00
         0.00000E+00
         0.00000E+00
         0.00000E+00
         0.00000E+00
         0.00000E+00
         0.00000E+00
         0.00000E+00
         0.00000E+00
         0.00000E+00
         0.00000E+00
         0.00000E+00
         0.00000E+00
         0.00000E+00
         0.00000E+00
         0.00000E+00
         0.00000E+00
         0.00000E+00
         0.00000E+00
         0.00000E+00
         0.00000E+00
         0.00000E+00
         0.00000E+00
         0.00000E+00
         0.00000E+00
         0.00000E+00
         0.00000E+00
         0.00000E+00
         0.00000E+00
         0.00000E+00
         0.00000E+00
         0.00000E+00
         0.00000E+00
         0.00000E+00
         0.00000E+00
         0.00000E+00
         0.00000E+00
         0.00000E+00
         0.00000E+00
         0.00000E+00
         0.00000E+00
         0.00000E+00
         0.00000E+00
         0.00000E+00
         0.00000E+00
         0.00000E+00
         0.00000E+00
         0.00000E+00
         0.00000E+00
         0.00000E+00
         0.00000E+00
         0.00000E+00
         0.00000E+00
         0.00000E+00
         0.00000E+00
         0.00000E+00
         0.00000E+00
         0.00000E+00
         0.00000E+00
         0.00000E+00
         0.00000E+00
         0.00000E+00
         0.00000E+00
         0.00000E+00
         0.00000E+00
         0.00000E+00
         0.00000E+00
         0.00000E+00
         0.00000E+00
         0.00000E+00
         0.00000E+00
         0.00000E+00
         0.00000E+00
         0.00000E+00
         0.00000E+00
         0.00000E+00
         0.00000E+00
         0.00000E+00
         0.00000E+00
         0.00000E+00
         0.00000E+00
         0.00000E+00
         0.00000E+00
         0.00000E+00
         0.00000E+00
         0.00000E+00
         0.00000E+00
         0.00000E+00
         0.00000E+00
         0.00000E+00
         0.00000E+00
         0.00000E+00
         0.00000E+00
         0.00000E+00
         0.00000E+00
         0.00000E+00
         0.00000E+00
         0.00000E+00
         0.00000E+00
         0.00000E+00
         0.00000E+00
         0.00000E+00
         0.00000E+00
         0.00000E+00
         0.00000E+00
         0.00000E+00
         0.00000E+00
         0.00000E+00
         0.00000E+00
         0.00000E+00
         0.00000E+00
         0.00000E+00
         0.00000E+00
         0.00000E+00
         0.00000E+00
         0.00000E+00
         0.00000E+00
         0.00000E+00
         0.00000E+00
         0.00000E+00
         0.00000E+00
         0.00000E+00
         0.00000E+00
         0.00000E+00
         0.00000E+00
         0.00000E+00
         0.00000E+00
         0.00000E+00
         0.00000E+00
         0.00000E+00
         0.00000E+00
         0.00000E+00
         0.00000E+00
         0.00000E+00
         0.00000E+00
         0.00000E+00
         0.00000E+00
         0.00000E+00
         0.00000E+00
         0.00000E+00
         0.00000E+00
         0.00000E+00
         0.00000E+00
         0.00000E+00
         0.00000E+00
         0.00000E+00
         0.00000E+00
         0.00000E+00
         0.00000E+00
         0.00000E+00
         0.00000E+00
         0.00000E+00
         0.00000E+00
         0.00000E+00
  
SCALARS                      eps_shear  double 1
LOOKUP_TABLE default
         0.00000E+00
         0.00000E+00
         0.00000E+00
         0.00000E+00
         0.00000E+00
         0.00000E+00
         0.00000E+00
         0.00000E+00
         0.00000E+00
         0.00000E+00
         0.00000E+00
         0.00000E+00
         0.00000E+00
         0.00000E+00
         0.00000E+00
         0.00000E+00
         0.00000E+00
         0.00000E+00
         0.00000E+00
         0.00000E+00
         0.00000E+00
         0.00000E+00
         0.00000E+00
         0.00000E+00
         0.00000E+00
         0.00000E+00
         0.00000E+00
         0.00000E+00
         0.00000E+00
         0.00000E+00
         0.00000E+00
         0.00000E+00
         0.00000E+00
         0.00000E+00
         0.00000E+00
         0.00000E+00
         0.00000E+00
         0.00000E+00
         0.00000E+00
         0.00000E+00
         0.00000E+00
         0.00000E+00
         0.00000E+00
         0.00000E+00
         0.00000E+00
         0.00000E+00
         0.00000E+00
         0.00000E+00
         0.00000E+00
         0.00000E+00
         0.00000E+00
         0.00000E+00
         0.00000E+00
         0.00000E+00
         0.00000E+00
         0.00000E+00
         0.00000E+00
         0.00000E+00
         0.00000E+00
         0.00000E+00
         0.00000E+00
         0.00000E+00
         0.00000E+00
         0.00000E+00
         0.00000E+00
         0.00000E+00
         0.00000E+00
         0.00000E+00
         0.00000E+00
         0.00000E+00
         0.00000E+00
         0.00000E+00
         0.00000E+00
         0.00000E+00
         0.00000E+00
         0.00000E+00
         0.00000E+00
         0.00000E+00
         0.00000E+00
         0.00000E+00
         0.00000E+00
         0.00000E+00
         0.00000E+00
         0.00000E+00
         0.00000E+00
         0.00000E+00
         0.00000E+00
         0.00000E+00
         0.00000E+00
         0.00000E+00
         0.00000E+00
         0.00000E+00
         0.00000E+00
         0.00000E+00
         0.00000E+00
         0.00000E+00
         0.00000E+00
         0.00000E+00
         0.00000E+00
         0.00000E+00
         0.00000E+00
         0.00000E+00
         0.00000E+00
         0.00000E+00
         0.00000E+00
         0.00000E+00
         0.00000E+00
         0.00000E+00
         0.00000E+00
         0.00000E+00
         0.00000E+00
         0.00000E+00
         0.00000E+00
         0.00000E+00
         0.00000E+00
         0.00000E+00
         0.00000E+00
         0.00000E+00
         0.00000E+00
         0.00000E+00
         0.00000E+00
         0.00000E+00
         0.00000E+00
         0.00000E+00
         0.00000E+00
         0.00000E+00
         0.00000E+00
         0.00000E+00
         0.00000E+00
         0.00000E+00
         0.00000E+00
         0.00000E+00
         0.00000E+00
         0.00000E+00
         0.00000E+00
         0.00000E+00
         0.00000E+00
         0.00000E+00
         0.00000E+00
         0.00000E+00
         0.00000E+00
         0.00000E+00
         0.00000E+00
         0.00000E+00
         0.00000E+00
         0.00000E+00
         0.00000E+00
         0.00000E+00
         0.00000E+00
         0.00000E+00
         0.00000E+00
         0.00000E+00
         0.00000E+00
         0.00000E+00
         0.00000E+00
         0.00000E+00
         0.00000E+00
         0.00000E+00
         0.00000E+00
         0.00000E+00
         0.00000E+00
         0.00000E+00
         0.00000E+00
         0.00000E+00
         0.00000E+00
         0.00000E+00
         0.00000E+00
         0.00000E+00
         0.00000E+00
         0.00000E+00
         0.00000E+00
         0.00000E+00
         0.00000E+00
         0.00000E+00
         0.00000E+00
         0.00000E+00
         0.00000E+00
         0.00000E+00
         0.00000E+00
         0.00000E+00
         0.00000E+00
         0.00000E+00
         0.00000E+00
         0.00000E+00
         0.00000E+00
         0.00000E+00
         0.00000E+00
         0.00000E+00
         0.00000E+00
         0.00000E+00
         0.00000E+00
         0.00000E+00
         0.00000E+00
         0.00000E+00
         0.00000E+00
         0.00000E+00
         0.00000E+00
         0.00000E+00
         0.00000E+00
         0.00000E+00
         0.00000E+00
         0.00000E+00
         0.00000E+00
         0.00000E+00
         0.00000E+00
         0.00000E+00
         0.00000E+00
         0.00000E+00
         0.00000E+00
         0.00000E+00
         0.00000E+00
         0.00000E+00
         0.00000E+00
         0.00000E+00
         0.00000E+00
         0.00000E+00
         0.00000E+00
         0.00000E+00
         0.00000E+00
         0.00000E+00
         0.00000E+00
         0.00000E+00
         0.00000E+00
         0.00000E+00
         0.00000E+00
         0.00000E+00
         0.00000E+00
         0.00000E+00
         0.00000E+00
         0.00000E+00
         0.00000E+00
         0.00000E+00
         0.00000E+00
         0.00000E+00
         0.00000E+00
         0.00000E+00
         0.00000E+00
         0.00000E+00
         0.00000E+00
         0.00000E+00
         0.00000E+00
         0.00000E+00
         0.00000E+00
         0.00000E+00
         0.00000E+00
         0.00000E+00
         0.00000E+00
         0.00000E+00
         0.00000E+00
         0.00000E+00
         0.00000E+00
         0.00000E+00
         0.00000E+00
         0.00000E+00
         0.00000E+00
         0.00000E+00
         0.00000E+00
         0.00000E+00
         0.00000E+00
         0.00000E+00
         0.00000E+00
         0.00000E+00
         0.00000E+00
         0.00000E+00
         0.00000E+00
         0.00000E+00
         0.00000E+00
         0.00000E+00
         0.00000E+00
         0.00000E+00
         0.00000E+00
         0.00000E+00
         0.00000E+00
         0.00000E+00
         0.00000E+00
         0.00000E+00
         0.00000E+00
         0.00000E+00
         0.00000E+00
         0.00000E+00
         0.00000E+00
         0.00000E+00
         0.00000E+00
         0.00000E+00
         0.00000E+00
         0.00000E+00
         0.00000E+00
         0.00000E+00
         0.00000E+00
         0.00000E+00
         0.00000E+00
         0.00000E+00
         0.00000E+00
         0.00000E+00
         0.00000E+00
         0.00000E+00
         0.00000E+00
         0.00000E+00
         0.00000E+00
         0.00000E+00
         0.00000E+00
         0.00000E+00
         0.00000E+00
         0.00000E+00
         0.00000E+00
         0.00000E+00
         0.00000E+00
         0.00000E+00
         0.00000E+00
         0.00000E+00
         0.00000E+00
         0.00000E+00
         0.00000E+00
         0.00000E+00
         0.00000E+00
         0.00000E+00
         0.00000E+00
         0.00000E+00
         0.00000E+00
         0.00000E+00
         0.00000E+00
         0.00000E+00
         0.00000E+00
         0.00000E+00
         0.00000E+00
         0.00000E+00
         0.00000E+00
         0.00000E+00
         0.00000E+00
         0.00000E+00
         0.00000E+00
         0.00000E+00
         0.00000E+00
         0.00000E+00
         0.00000E+00
         0.00000E+00
         0.00000E+00
         0.00000E+00
         0.00000E+00
         0.00000E+00
         0.00000E+00
         0.00000E+00
         0.00000E+00
         0.00000E+00
         0.00000E+00
         0.00000E+00
         0.00000E+00
         0.00000E+00
         0.00000E+00
         0.00000E+00
         0.00000E+00
         0.00000E+00
         0.00000E+00
         0.00000E+00
         0.00000E+00
         0.00000E+00
         0.00000E+00
         0.00000E+00
         0.00000E+00
         0.00000E+00
         0.00000E+00
         0.00000E+00
         0.00000E+00
         0.00000E+00
         0.00000E+00
         0.00000E+00
         0.00000E+00
         0.00000E+00
         0.00000E+00
         0.00000E+00
         0.00000E+00
         0.00000E+00
         0.00000E+00
         0.00000E+00
         0.00000E+00
         0.00000E+00
         0.00000E+00
         0.00000E+00
         0.00000E+00
         0.00000E+00
         0.00000E+00
         0.00000E+00
         0.00000E+00
         0.00000E+00
         0.00000E+00
         0.00000E+00
         0.00000E+00
         0.00000E+00
         0.00000E+00
         0.00000E+00
         0.00000E+00
         0.00000E+00
         0.00000E+00
         0.00000E+00
         0.00000E+00
         0.00000E+00
         0.00000E+00
         0.00000E+00
         0.00000E+00
         0.00000E+00
         0.00000E+00
         0.00000E+00
         0.00000E+00
         0.00000E+00
         0.00000E+00
         0.00000E+00
         0.00000E+00
         0.00000E+00
         0.00000E+00
         0.00000E+00
         0.00000E+00
         0.00000E+00
         0.00000E+00
         0.00000E+00
         0.00000E+00
         0.00000E+00
         0.00000E+00
         0.00000E+00
         0.00000E+00
         0.00000E+00
         0.00000E+00
         0.00000E+00
         0.00000E+00
         0.00000E+00
         0.00000E+00
         0.00000E+00
         0.00000E+00
         0.00000E+00
         0.00000E+00
         0.00000E+00
         0.00000E+00
         0.00000E+00
         0.00000E+00
         0.00000E+00
         0.00000E+00
         0.00000E+00
         0.00000E+00
         0.00000E+00
         0.00000E+00
         0.00000E+00
         0.00000E+00
         0.00000E+00
         0.00000E+00
         0.00000E+00
         0.00000E+00
         0.00000E+00
         0.00000E+00
         0.00000E+00
         0.00000E+00
         0.00000E+00
         0.00000E+00
         0.00000E+00
         0.00000E+00
         0.00000E+00
         0.00000E+00
         0.00000E+00
         0.00000E+00
         0.00000E+00
         0.00000E+00
         0.00000E+00
         0.00000E+00
         0.00000E+00
         0.00000E+00
         0.00000E+00
         0.00000E+00
         0.00000E+00
         0.00000E+00
         0.00000E+00
         0.00000E+00
         0.00000E+00
         0.00000E+00
         0.00000E+00
         0.00000E+00
         0.00000E+00
         0.00000E+00
         0.00000E+00
         0.00000E+00
         0.00000E+00
         0.00000E+00
         0.00000E+00
         0.00000E+00
         0.00000E+00
         0.00000E+00
         0.00000E+00
         0.00000E+00
         0.00000E+00
         0.00000E+00
         0.00000E+00
         0.00000E+00
         0.00000E+00
         0.00000E+00
         0.00000E+00
         0.00000E+00
         0.00000E+00
         0.00000E+00
         0.00000E+00
         0.00000E+00
         0.00000E+00
         0.00000E+00
         0.00000E+00
         0.00000E+00
         0.00000E+00
         0.00000E+00
         0.00000E+00
         0.00000E+00
         0.00000E+00
         0.00000E+00
         0.00000E+00
         0.00000E+00
         0.00000E+00
         0.00000E+00
         0.00000E+00
         0.00000E+00
         0.00000E+00
         0.00000E+00
         0.00000E+00
         0.00000E+00
         0.00000E+00
         0.00000E+00
         0.00000E+00
         0.00000E+00
         0.00000E+00
         0.00000E+00
         0.00000E+00
         0.00000E+00
         0.00000E+00
         0.00000E+00
         0.00000E+00
         0.00000E+00
         0.00000E+00
         0.00000E+00
         0.00000E+00
         0.00000E+00
         0.00000E+00
         0.00000E+00
         0.00000E+00
         0.00000E+00
         0.00000E+00
         0.00000E+00
         0.00000E+00
         0.00000E+00
         0.00000E+00
         0.00000E+00
         0.00000E+00
         0.00000E+00
         0.00000E+00
         0.00000E+00
         0.00000E+00
         0.00000E+00
         0.00000E+00
         0.00000E+00
         0.00000E+00
         0.00000E+00
         0.00000E+00
         0.00000E+00
         0.00000E+00
         0.00000E+00
         0.00000E+00
         0.00000E+00
         0.00000E+00
         0.00000E+00
         0.00000E+00
         0.00000E+00
         0.00000E+00
         0.00000E+00
         0.00000E+00
         0.00000E+00
         0.00000E+00
         0.00000E+00
         0.00000E+00
         0.00000E+00
         0.00000E+00
         0.00000E+00
         0.00000E+00
         0.00000E+00
         0.00000E+00
         0.00000E+00
         0.00000E+00
         0.00000E+00
         0.00000E+00
         0.00000E+00
         0.00000E+00
         0.00000E+00
         0.00000E+00
         0.00000E+00
         0.00000E+00
         0.00000E+00
         0.00000E+00
         0.00000E+00
         0.00000E+00
         0.00000E+00
         0.00000E+00
         0.00000E+00
         0.00000E+00
         0.00000E+00
         0.00000E+00
         0.00000E+00
         0.00000E+00
         0.00000E+00
         0.00000E+00
         0.00000E+00
         0.00000E+00
         0.00000E+00
         0.00000E+00
         0.00000E+00
         0.00000E+00
         0.00000E+00
         0.00000E+00
         0.00000E+00
         0.00000E+00
         0.00000E+00
         0.00000E+00
         0.00000E+00
         0.00000E+00
         0.00000E+00
         0.00000E+00
         0.00000E+00
         0.00000E+00
         0.00000E+00
         0.00000E+00
         0.00000E+00
         0.00000E+00
         0.00000E+00
         0.00000E+00
         0.00000E+00
         0.00000E+00
         0.00000E+00
         0.00000E+00
         0.00000E+00
         0.00000E+00
         0.00000E+00
         0.00000E+00
         0.00000E+00
         0.00000E+00
         0.00000E+00
         0.00000E+00
         0.00000E+00
         0.00000E+00
         0.00000E+00
         0.00000E+00
         0.00000E+00
         0.00000E+00
         0.00000E+00
         0.00000E+00
         0.00000E+00
         0.00000E+00
         0.00000E+00
         0.00000E+00
         0.00000E+00
         0.00000E+00
         0.00000E+00
         0.00000E+00
         0.00000E+00
         0.00000E+00
         0.00000E+00
         0.00000E+00
         0.00000E+00
         0.00000E+00
         0.00000E+00
         0.00000E+00
         0.00000E+00
         0.00000E+00
         0.00000E+00
         0.00000E+00
         0.00000E+00
         0.00000E+00
         0.00000E+00
         0.00000E+00
         0.00000E+00
         0.00000E+00
         0.00000E+00
         0.00000E+00
         0.00000E+00
         0.00000E+00
         0.00000E+00
         0.00000E+00
         0.00000E+00
         0.00000E+00
         0.00000E+00
         0.00000E+00
         0.00000E+00
         0.00000E+00
         0.00000E+00
         0.00000E+00
         0.00000E+00
         0.00000E+00
         0.00000E+00
         0.00000E+00
         0.00000E+00
         0.00000E+00
         0.00000E+00
         0.00000E+00
         0.00000E+00
         0.00000E+00
         0.00000E+00
         0.00000E+00
         0.00000E+00
         0.00000E+00
         0.00000E+00
         0.00000E+00
         0.00000E+00
         0.00000E+00
         0.00000E+00
         0.00000E+00
         0.00000E+00
         0.00000E+00
         0.00000E+00
         0.00000E+00
         0.00000E+00
         0.00000E+00
         0.00000E+00
         0.00000E+00
         0.00000E+00
         0.00000E+00
         0.00000E+00
         0.00000E+00
         0.00000E+00
         0.00000E+00
         0.00000E+00
         0.00000E+00
         0.00000E+00
         0.00000E+00
         0.00000E+00
         0.00000E+00
         0.00000E+00
         0.00000E+00
         0.00000E+00
         0.00000E+00
         0.00000E+00
         0.00000E+00
         0.00000E+00
         0.00000E+00
         0.00000E+00
         0.00000E+00
         0.00000E+00
         0.00000E+00
         0.00000E+00
         0.00000E+00
         0.00000E+00
         0.00000E+00
         0.00000E+00
         0.00000E+00
         0.00000E+00
         0.00000E+00
         0.00000E+00
         0.00000E+00
         0.00000E+00
         0.00000E+00
         0.00000E+00
         0.00000E+00
         0.00000E+00
         0.00000E+00
         0.00000E+00
         0.00000E+00
         0.00000E+00
         0.00000E+00
         0.00000E+00
         0.00000E+00
         0.00000E+00
         0.00000E+00
         0.00000E+00
         0.00000E+00
         0.00000E+00
         0.00000E+00
         0.00000E+00
         0.00000E+00
         0.00000E+00
         0.00000E+00
         0.00000E+00
         0.00000E+00
         0.00000E+00
         0.00000E+00
         0.00000E+00
         0.00000E+00
         0.00000E+00
         0.00000E+00
         0.00000E+00
         0.00000E+00
         0.00000E+00
         0.00000E+00
         0.00000E+00
         0.00000E+00
         0.00000E+00
         0.00000E+00
         0.00000E+00
         0.00000E+00
         0.00000E+00
         0.00000E+00
         0.00000E+00
         0.00000E+00
         0.00000E+00
         0.00000E+00
         0.00000E+00
         0.00000E+00
         0.00000E+00
         0.00000E+00
         0.00000E+00
         0.00000E+00
         0.00000E+00
         0.00000E+00
         0.00000E+00
         0.00000E+00
         0.00000E+00
         0.00000E+00
         0.00000E+00
         0.00000E+00
         0.00000E+00
         0.00000E+00
         0.00000E+00
         0.00000E+00
         0.00000E+00
         0.00000E+00
         0.00000E+00
         0.00000E+00
         0.00000E+00
         0.00000E+00
         0.00000E+00
         0.00000E+00
         0.00000E+00
         0.00000E+00
         0.00000E+00
         0.00000E+00
         0.00000E+00
         0.00000E+00
         0.00000E+00
         0.00000E+00
         0.00000E+00
         0.00000E+00
         0.00000E+00
         0.00000E+00
         0.00000E+00
         0.00000E+00
         0.00000E+00
         0.00000E+00
         0.00000E+00
         0.00000E+00
         0.00000E+00
         0.00000E+00
         0.00000E+00
         0.00000E+00
         0.00000E+00
         0.00000E+00
         0.00000E+00
         0.00000E+00
         0.00000E+00
         0.00000E+00
         0.00000E+00
         0.00000E+00
         0.00000E+00
         0.00000E+00
         0.00000E+00
         0.00000E+00
         0.00000E+00
         0.00000E+00
         0.00000E+00
         0.00000E+00
         0.00000E+00
         0.00000E+00
         0.00000E+00
         0.00000E+00
         0.00000E+00
         0.00000E+00
         0.00000E+00
         0.00000E+00
         0.00000E+00
         0.00000E+00
         0.00000E+00
         0.00000E+00
         0.00000E+00
         0.00000E+00
         0.00000E+00
         0.00000E+00
         0.00000E+00
         0.00000E+00
         0.00000E+00
         0.00000E+00
         0.00000E+00
         0.00000E+00
         0.00000E+00
         0.00000E+00
         0.00000E+00
         0.00000E+00
         0.00000E+00
         0.00000E+00
         0.00000E+00
         0.00000E+00
         0.00000E+00
         0.00000E+00
         0.00000E+00
         0.00000E+00
         0.00000E+00
         0.00000E+00
         0.00000E+00
         0.00000E+00
         0.00000E+00
         0.00000E+00
         0.00000E+00
         0.00000E+00
         0.00000E+00
         0.00000E+00
         0.00000E+00
         0.00000E+00
         0.00000E+00
         0.00000E+00
         0.00000E+00
         0.00000E+00
         0.00000E+00
         0.00000E+00
         0.00000E+00
         0.00000E+00
         0.00000E+00
         0.00000E+00
         0.00000E+00
         0.00000E+00
         0.00000E+00
         0.00000E+00
         0.00000E+00
         0.00000E+00
         0.00000E+00
         0.00000E+00
         0.00000E+00
         0.00000E+00
         0.00000E+00
         0.00000E+00
         0.00000E+00
         0.00000E+00
         0.00000E+00
         0.00000E+00
         0.00000E+00
         0.00000E+00
         0.00000E+00
         0.00000E+00
         0.00000E+00
         0.00000E+00
         0.00000E+00
         0.00000E+00
         0.00000E+00
         0.00000E+00
         0.00000E+00
         0.00000E+00
         0.00000E+00
         0.00000E+00
         0.00000E+00
         0.00000E+00
         0.00000E+00
         0.00000E+00
         0.00000E+00
         0.00000E+00
         0.00000E+00
         0.00000E+00
         0.00000E+00
         0.00000E+00
         0.00000E+00
         0.00000E+00
         0.00000E+00
         0.00000E+00
         0.00000E+00
         0.00000E+00
         0.00000E+00
         0.00000E+00
         0.00000E+00
         0.00000E+00
         0.00000E+00
         0.00000E+00
         0.00000E+00
         0.00000E+00
         0.00000E+00
         0.00000E+00
         0.00000E+00
         0.00000E+00
         0.00000E+00
         0.00000E+00
         0.00000E+00
         0.00000E+00
         0.00000E+00
         0.00000E+00
         0.00000E+00
         0.00000E+00
         0.00000E+00
         0.00000E+00
         0.00000E+00
         0.00000E+00
         0.00000E+00
         0.00000E+00
         0.00000E+00
         0.00000E+00
         0.00000E+00
         0.00000E+00
         0.00000E+00
         0.00000E+00
         0.00000E+00
         0.00000E+00
         0.00000E+00
         0.00000E+00
         0.00000E+00
         0.00000E+00
         0.00000E+00
         0.00000E+00
         0.00000E+00
         0.00000E+00
         0.00000E+00
         0.00000E+00
         0.00000E+00
         0.00000E+00
         0.00000E+00
         0.00000E+00
         0.00000E+00
         0.00000E+00
         0.00000E+00
         0.00000E+00
         0.00000E+00
         0.00000E+00
         0.00000E+00
         0.00000E+00
         0.00000E+00
         0.00000E+00
         0.00000E+00
         0.00000E+00
         0.00000E+00
         0.00000E+00
         0.00000E+00
         0.00000E+00
         0.00000E+00
         0.00000E+00
         0.00000E+00
         0.00000E+00
         0.00000E+00
         0.00000E+00
         0.00000E+00
         0.00000E+00
         0.00000E+00
         0.00000E+00
         0.00000E+00
         0.00000E+00
         0.00000E+00
         0.00000E+00
         0.00000E+00
         0.00000E+00
         0.00000E+00
         0.00000E+00
         0.00000E+00
         0.00000E+00
         0.00000E+00
         0.00000E+00
         0.00000E+00
         0.00000E+00
         0.00000E+00
         0.00000E+00
         0.00000E+00
         0.00000E+00
         0.00000E+00
         0.00000E+00
         0.00000E+00
         0.00000E+00
         0.00000E+00
         0.00000E+00
         0.00000E+00
         0.00000E+00
         0.00000E+00
         0.00000E+00
         0.00000E+00
         0.00000E+00
         0.00000E+00
         0.00000E+00
         0.00000E+00
         0.00000E+00
         0.00000E+00
         0.00000E+00
         0.00000E+00
         0.00000E+00
         0.00000E+00
         0.00000E+00
         0.00000E+00
         0.00000E+00
         0.00000E+00
         0.00000E+00
         0.00000E+00
         0.00000E+00
         0.00000E+00
         0.00000E+00
         0.00000E+00
         0.00000E+00
         0.00000E+00
         0.00000E+00
         0.00000E+00
         0.00000E+00
         0.00000E+00
         0.00000E+00
         0.00000E+00
         0.00000E+00
         0.00000E+00
         0.00000E+00
         0.00000E+00
         0.00000E+00
         0.00000E+00
         0.00000E+00
         0.00000E+00
         0.00000E+00
         0.00000E+00
         0.00000E+00
         0.00000E+00
         0.00000E+00
         0.00000E+00
         0.00000E+00
         0.00000E+00
         0.00000E+00
         0.00000E+00
         0.00000E+00
         0.00000E+00
         0.00000E+00
         0.00000E+00
         0.00000E+00
         0.00000E+00
         0.00000E+00
         0.00000E+00
         0.00000E+00
         0.00000E+00
         0.00000E+00
         0.00000E+00
         0.00000E+00
         0.00000E+00
         0.00000E+00
         0.00000E+00
         0.00000E+00
         0.00000E+00
         0.00000E+00
         0.00000E+00
         0.00000E+00
         0.00000E+00
         0.00000E+00
         0.00000E+00
         0.00000E+00
         0.00000E+00
         0.00000E+00
         0.00000E+00
         0.00000E+00
         0.00000E+00
         0.00000E+00
         0.00000E+00
         0.00000E+00
         0.00000E+00
         0.00000E+00
         0.00000E+00
         0.00000E+00
         0.00000E+00
         0.00000E+00
         0.00000E+00
         0.00000E+00
         0.00000E+00
         0.00000E+00
         0.00000E+00
         0.00000E+00
         0.00000E+00
         0.00000E+00
         0.00000E+00
         0.00000E+00
         0.00000E+00
         0.00000E+00
         0.00000E+00
         0.00000E+00
         0.00000E+00
         0.00000E+00
         0.00000E+00
         0.00000E+00
         0.00000E+00
         0.00000E+00
         0.00000E+00
         0.00000E+00
         0.00000E+00
         0.00000E+00
         0.00000E+00
         0.00000E+00
         0.00000E+00
         0.00000E+00
         0.00000E+00
         0.00000E+00
         0.00000E+00
         0.00000E+00
         0.00000E+00
         0.00000E+00
         0.00000E+00
         0.00000E+00
         0.00000E+00
         0.00000E+00
         0.00000E+00
         0.00000E+00
         0.00000E+00
         0.00000E+00
         0.00000E+00
         0.00000E+00
         0.00000E+00
         0.00000E+00
         0.00000E+00
         0.00000E+00
         0.00000E+00
         0.00000E+00
         0.00000E+00
         0.00000E+00
         0.00000E+00
         0.00000E+00
         0.00000E+00
         0.00000E+00
         0.00000E+00
         0.00000E+00
         0.00000E+00
         0.00000E+00
         0.00000E+00
         0.00000E+00
         0.00000E+00
         0.00000E+00
         0.00000E+00
         0.00000E+00
         0.00000E+00
         0.00000E+00
         0.00000E+00
         0.00000E+00
         0.00000E+00
         0.00000E+00
         0.00000E+00
         0.00000E+00
         0.00000E+00
         0.00000E+00
         0.00000E+00
         0.00000E+00
         0.00000E+00
         0.00000E+00
         0.00000E+00
         0.00000E+00
         0.00000E+00
         0.00000E+00
         0.00000E+00
         0.00000E+00
         0.00000E+00
         0.00000E+00
         0.00000E+00
         0.00000E+00
         0.00000E+00
         0.00000E+00
         0.00000E+00
         0.00000E+00
         0.00000E+00
         0.00000E+00
         0.00000E+00
         0.00000E+00
         0.00000E+00
         0.00000E+00
         0.00000E+00
         0.00000E+00
         0.00000E+00
         0.00000E+00
         0.00000E+00
         0.00000E+00
         0.00000E+00
         0.00000E+00
         0.00000E+00
         0.00000E+00
         0.00000E+00
         0.00000E+00
         0.00000E+00
         0.00000E+00
         0.00000E+00
         0.00000E+00
         0.00000E+00
         0.00000E+00
         0.00000E+00
         0.00000E+00
         0.00000E+00
         0.00000E+00
         0.00000E+00
         0.00000E+00
         0.00000E+00
         0.00000E+00
         0.00000E+00
         0.00000E+00
         0.00000E+00
         0.00000E+00
         0.00000E+00
         0.00000E+00
         0.00000E+00
         0.00000E+00
         0.00000E+00
         0.00000E+00
         0.00000E+00
         0.00000E+00
         0.00000E+00
         0.00000E+00
         0.00000E+00
         0.00000E+00
         0.00000E+00
         0.00000E+00
         0.00000E+00
         0.00000E+00
         0.00000E+00
         0.00000E+00
         0.00000E+00
         0.00000E+00
         0.00000E+00
         0.00000E+00
         0.00000E+00
         0.00000E+00
         0.00000E+00
         0.00000E+00
         0.00000E+00
         0.00000E+00
         0.00000E+00
         0.00000E+00
         0.00000E+00
         0.00000E+00
         0.00000E+00
         0.00000E+00
         0.00000E+00
         0.00000E+00
         0.00000E+00
         0.00000E+00
         0.00000E+00
         0.00000E+00
         0.00000E+00
         0.00000E+00
         0.00000E+00
         0.00000E+00
         0.00000E+00
         0.00000E+00
         0.00000E+00
         0.00000E+00
         0.00000E+00
         0.00000E+00
         0.00000E+00
         0.00000E+00
         0.00000E+00
         0.00000E+00
         0.00000E+00
         0.00000E+00
         0.00000E+00
         0.00000E+00
         0.00000E+00
         0.00000E+00
         0.00000E+00
         0.00000E+00
         0.00000E+00
         0.00000E+00
         0.00000E+00
         0.00000E+00
         0.00000E+00
         0.00000E+00
         0.00000E+00
         0.00000E+00
         0.00000E+00
         0.00000E+00
         0.00000E+00
         0.00000E+00
         0.00000E+00
         0.00000E+00
         0.00000E+00
         0.00000E+00
         0.00000E+00
         0.00000E+00
         0.00000E+00
         0.00000E+00
         0.00000E+00
         0.00000E+00
         0.00000E+00
         0.00000E+00
         0.00000E+00
         0.00000E+00
         0.00000E+00
         0.00000E+00
         0.00000E+00
         0.00000E+00
         0.00000E+00
         0.00000E+00
         0.00000E+00
         0.00000E+00
         0.00000E+00
         0.00000E+00
         0.00000E+00
         0.00000E+00
         0.00000E+00
         0.00000E+00
         0.00000E+00
         0.00000E+00
         0.00000E+00
         0.00000E+00
         0.00000E+00
         0.00000E+00
         0.00000E+00
         0.00000E+00
         0.00000E+00
         0.00000E+00
         0.00000E+00
         0.00000E+00
         0.00000E+00
         0.00000E+00
         0.00000E+00
         0.00000E+00
         0.00000E+00
         0.00000E+00
         0.00000E+00
         0.00000E+00
         0.00000E+00
         0.00000E+00
         0.00000E+00
         0.00000E+00
         0.00000E+00
         0.00000E+00
         0.00000E+00
         0.00000E+00
         0.00000E+00
         0.00000E+00
         0.00000E+00
         0.00000E+00
         0.00000E+00
         0.00000E+00
         0.00000E+00
         0.00000E+00
         0.00000E+00
         0.00000E+00
         0.00000E+00
         0.00000E+00
         0.00000E+00
         0.00000E+00
         0.00000E+00
         0.00000E+00
         0.00000E+00
         0.00000E+00
         0.00000E+00
         0.00000E+00
         0.00000E+00
         0.00000E+00
         0.00000E+00
         0.00000E+00
         0.00000E+00
         0.00000E+00
         0.00000E+00
         0.00000E+00
         0.00000E+00
         0.00000E+00
         0.00000E+00
         0.00000E+00
         0.00000E+00
         0.00000E+00
         0.00000E+00
         0.00000E+00
         0.00000E+00
         0.00000E+00
         0.00000E+00
         0.00000E+00
         0.00000E+00
         0.00000E+00
         0.00000E+00
         0.00000E+00
         0.00000E+00
         0.00000E+00
         0.00000E+00
         0.00000E+00
         0.00000E+00
         0.00000E+00
         0.00000E+00
         0.00000E+00
         0.00000E+00
         0.00000E+00
         0.00000E+00
         0.00000E+00
         0.00000E+00
         0.00000E+00
         0.00000E+00
         0.00000E+00
         0.00000E+00
         0.00000E+00
         0.00000E+00
         0.00000E+00
         0.00000E+00
         0.00000E+00
         0.00000E+00
         0.00000E+00
         0.00000E+00
         0.00000E+00
         0.00000E+00
         0.00000E+00
         0.00000E+00
         0.00000E+00
         0.00000E+00
         0.00000E+00
         0.00000E+00
         0.00000E+00
         0.00000E+00
         0.00000E+00
         0.00000E+00
         0.00000E+00
         0.00000E+00
         0.00000E+00
         0.00000E+00
         0.00000E+00
         0.00000E+00
         0.00000E+00
         0.00000E+00
         0.00000E+00
         0.00000E+00
         0.00000E+00
         0.00000E+00
         0.00000E+00
         0.00000E+00
         0.00000E+00
         0.00000E+00
         0.00000E+00
         0.00000E+00
         0.00000E+00
         0.00000E+00
         0.00000E+00
         0.00000E+00
         0.00000E+00
         0.00000E+00
         0.00000E+00
         0.00000E+00
         0.00000E+00
         0.00000E+00
         0.00000E+00
         0.00000E+00
         0.00000E+00
         0.00000E+00
         0.00000E+00
         0.00000E+00
         0.00000E+00
         0.00000E+00
         0.00000E+00
         0.00000E+00
         0.00000E+00
         0.00000E+00
         0.00000E+00
         0.00000E+00
         0.00000E+00
         0.00000E+00
         0.00000E+00
         0.00000E+00
         0.00000E+00
         0.00000E+00
         0.00000E+00
         0.00000E+00
         0.00000E+00
         0.00000E+00
         0.00000E+00
         0.00000E+00
         0.00000E+00
         0.00000E+00
         0.00000E+00
         0.00000E+00
         0.00000E+00
         0.00000E+00
         0.00000E+00
         0.00000E+00
         0.00000E+00
         0.00000E+00
         0.00000E+00
         0.00000E+00
         0.00000E+00
         0.00000E+00
         0.00000E+00
         0.00000E+00
         0.00000E+00
         0.00000E+00
         0.00000E+00
         0.00000E+00
         0.00000E+00
         0.00000E+00
         0.00000E+00
         0.00000E+00
         0.00000E+00
         0.00000E+00
         0.00000E+00
         0.00000E+00
         0.00000E+00
         0.00000E+00
         0.00000E+00
         0.00000E+00
         0.00000E+00
         0.00000E+00
         0.00000E+00
         0.00000E+00
         0.00000E+00
         0.00000E+00
         0.00000E+00
         0.00000E+00
         0.00000E+00
         0.00000E+00
         0.00000E+00
         0.00000E+00
         0.00000E+00
         0.00000E+00
         0.00000E+00
         0.00000E+00
         0.00000E+00
         0.00000E+00
         0.00000E+00
         0.00000E+00
         0.00000E+00
         0.00000E+00
         0.00000E+00
         0.00000E+00
         0.00000E+00
         0.00000E+00
         0.00000E+00
         0.00000E+00
         0.00000E+00
         0.00000E+00
         0.00000E+00
         0.00000E+00
         0.00000E+00
         0.00000E+00
         0.00000E+00
         0.00000E+00
         0.00000E+00
         0.00000E+00
         0.00000E+00
         0.00000E+00
         0.00000E+00
         0.00000E+00
         0.00000E+00
         0.00000E+00
         0.00000E+00
         0.00000E+00
         0.00000E+00
         0.00000E+00
         0.00000E+00
         0.00000E+00
         0.00000E+00
         0.00000E+00
         0.00000E+00
         0.00000E+00
         0.00000E+00
         0.00000E+00
         0.00000E+00
         0.00000E+00
         0.00000E+00
         0.00000E+00
         0.00000E+00
         0.00000E+00
         0.00000E+00
         0.00000E+00
         0.00000E+00
         0.00000E+00
         0.00000E+00
         0.00000E+00
         0.00000E+00
         0.00000E+00
         0.00000E+00
         0.00000E+00
         0.00000E+00
         0.00000E+00
         0.00000E+00
         0.00000E+00
         0.00000E+00
         0.00000E+00
         0.00000E+00
         0.00000E+00
         0.00000E+00
         0.00000E+00
         0.00000E+00
         0.00000E+00
         0.00000E+00
         0.00000E+00
         0.00000E+00
         0.00000E+00
         0.00000E+00
         0.00000E+00
         0.00000E+00
         0.00000E+00
         0.00000E+00
         0.00000E+00
         0.00000E+00
         0.00000E+00
         0.00000E+00
         0.00000E+00
         0.00000E+00
         0.00000E+00
         0.00000E+00
         0.00000E+00
         0.00000E+00
         0.00000E+00
         0.00000E+00
         0.00000E+00
         0.00000E+00
         0.00000E+00
         0.00000E+00
         0.00000E+00
         0.00000E+00
         0.00000E+00
         0.00000E+00
         0.00000E+00
         0.00000E+00
         0.00000E+00
         0.00000E+00
         0.00000E+00
         0.00000E+00
         0.00000E+00
         0.00000E+00
         0.00000E+00
         0.00000E+00
         0.00000E+00
         0.00000E+00
         0.00000E+00
         0.00000E+00
         0.00000E+00
         0.00000E+00
         0.00000E+00
         0.00000E+00
         0.00000E+00
         0.00000E+00
         0.00000E+00
         0.00000E+00
         0.00000E+00
         0.00000E+00
         0.00000E+00
         0.00000E+00
         0.00000E+00
         0.00000E+00
         0.00000E+00
         0.00000E+00
         0.00000E+00
         0.00000E+00
         0.00000E+00
         0.00000E+00
         0.00000E+00
         0.00000E+00
         0.00000E+00
         0.00000E+00
         0.00000E+00
         0.00000E+00
         0.00000E+00
         0.00000E+00
         0.00000E+00
         0.00000E+00
         0.00000E+00
         0.00000E+00
         0.00000E+00
         0.00000E+00
         0.00000E+00
         0.00000E+00
         0.00000E+00
         0.00000E+00
         0.00000E+00
         0.00000E+00
         0.00000E+00
         0.00000E+00
         0.00000E+00
         0.00000E+00
         0.00000E+00
         0.00000E+00
         0.00000E+00
         0.00000E+00
         0.00000E+00
         0.00000E+00
         0.00000E+00
         0.00000E+00
         0.00000E+00
         0.00000E+00
         0.00000E+00
         0.00000E+00
         0.00000E+00
         0.00000E+00
         0.00000E+00
         0.00000E+00
         0.00000E+00
         0.00000E+00
         0.00000E+00
         0.00000E+00
         0.00000E+00
         0.00000E+00
         0.00000E+00
         0.00000E+00
         0.00000E+00
         0.00000E+00
         0.00000E+00
         0.00000E+00
         0.00000E+00
         0.00000E+00
         0.00000E+00
         0.00000E+00
         0.00000E+00
         0.00000E+00
         0.00000E+00
         0.00000E+00
         0.00000E+00
         0.00000E+00
         0.00000E+00
         0.00000E+00
         0.00000E+00
         0.00000E+00
         0.00000E+00
         0.00000E+00
         0.00000E+00
         0.00000E+00
         0.00000E+00
         0.00000E+00
         0.00000E+00
         0.00000E+00
         0.00000E+00
         0.00000E+00
         0.00000E+00
         0.00000E+00
         0.00000E+00
         0.00000E+00
         0.00000E+00
         0.00000E+00
         0.00000E+00
         0.00000E+00
         0.00000E+00
         0.00000E+00
         0.00000E+00
         0.00000E+00
         0.00000E+00
         0.00000E+00
         0.00000E+00
         0.00000E+00
         0.00000E+00
         0.00000E+00
         0.00000E+00
         0.00000E+00
         0.00000E+00
         0.00000E+00
         0.00000E+00
         0.00000E+00
         0.00000E+00
         0.00000E+00
         0.00000E+00
         0.00000E+00
         0.00000E+00
         0.00000E+00
         0.00000E+00
         0.00000E+00
         0.00000E+00
         0.00000E+00
         0.00000E+00
         0.00000E+00
         0.00000E+00
         0.00000E+00
         0.00000E+00
         0.00000E+00
         0.00000E+00
         0.00000E+00
         0.00000E+00
         0.00000E+00
         0.00000E+00
         0.00000E+00
         0.00000E+00
         0.00000E+00
         0.00000E+00
         0.00000E+00
         0.00000E+00
         0.00000E+00
         0.00000E+00
         0.00000E+00
         0.00000E+00
         0.00000E+00
         0.00000E+00
         0.00000E+00
         0.00000E+00
         0.00000E+00
         0.00000E+00
         0.00000E+00
         0.00000E+00
         0.00000E+00
         0.00000E+00
         0.00000E+00
         0.00000E+00
         0.00000E+00
         0.00000E+00
         0.00000E+00
         0.00000E+00
         0.00000E+00
         0.00000E+00
         0.00000E+00
         0.00000E+00
         0.00000E+00
         0.00000E+00
         0.00000E+00
         0.00000E+00
         0.00000E+00
         0.00000E+00
         0.00000E+00
         0.00000E+00
         0.00000E+00
         0.00000E+00
         0.00000E+00
         0.00000E+00
         0.00000E+00
         0.00000E+00
         0.00000E+00
         0.00000E+00
         0.00000E+00
         0.00000E+00
         0.00000E+00
         0.00000E+00
         0.00000E+00
         0.00000E+00
         0.00000E+00
         0.00000E+00
         0.00000E+00
         0.00000E+00
         0.00000E+00
         0.00000E+00
         0.00000E+00
         0.00000E+00
         0.00000E+00
         0.00000E+00
         0.00000E+00
         0.00000E+00
         0.00000E+00
         0.00000E+00
         0.00000E+00
         0.00000E+00
         0.00000E+00
         0.00000E+00
         0.00000E+00
         0.00000E+00
         0.00000E+00
         0.00000E+00
         0.00000E+00
         0.00000E+00
         0.00000E+00
         0.00000E+00
         0.00000E+00
         0.00000E+00
         0.00000E+00
         0.00000E+00
         0.00000E+00
         0.00000E+00
         0.00000E+00
         0.00000E+00
         0.00000E+00
         0.00000E+00
         0.00000E+00
         0.00000E+00
         0.00000E+00
         0.00000E+00
         0.00000E+00
         0.00000E+00
         0.00000E+00
         0.00000E+00
         0.00000E+00
         0.00000E+00
         0.00000E+00
         0.00000E+00
         0.00000E+00
         0.00000E+00
         0.00000E+00
         0.00000E+00
         0.00000E+00
         0.00000E+00
         0.00000E+00
         0.00000E+00
         0.00000E+00
  
SCALARS                        eps_vol  double 1
LOOKUP_TABLE default
         0.00000E+00
         0.00000E+00
         0.00000E+00
         0.00000E+00
         0.00000E+00
         0.00000E+00
         0.00000E+00
         0.00000E+00
         0.00000E+00
         0.00000E+00
         0.00000E+00
         0.00000E+00
         0.00000E+00
         0.00000E+00
         0.00000E+00
         0.00000E+00
         0.00000E+00
         0.00000E+00
         0.00000E+00
         0.00000E+00
         0.00000E+00
         0.00000E+00
         0.00000E+00
         0.00000E+00
         0.00000E+00
         0.00000E+00
         0.00000E+00
         0.00000E+00
         0.00000E+00
         0.00000E+00
         0.00000E+00
         0.00000E+00
         0.00000E+00
         0.00000E+00
         0.00000E+00
         0.00000E+00
         0.00000E+00
         0.00000E+00
         0.00000E+00
         0.00000E+00
         0.00000E+00
         0.00000E+00
         0.00000E+00
         0.00000E+00
         0.00000E+00
         0.00000E+00
         0.00000E+00
         0.00000E+00
         0.00000E+00
         0.00000E+00
         0.00000E+00
         0.00000E+00
         0.00000E+00
         0.00000E+00
         0.00000E+00
         0.00000E+00
         0.00000E+00
         0.00000E+00
         0.00000E+00
         0.00000E+00
         0.00000E+00
         0.00000E+00
         0.00000E+00
         0.00000E+00
         0.00000E+00
         0.00000E+00
         0.00000E+00
         0.00000E+00
         0.00000E+00
         0.00000E+00
         0.00000E+00
         0.00000E+00
         0.00000E+00
         0.00000E+00
         0.00000E+00
         0.00000E+00
         0.00000E+00
         0.00000E+00
         0.00000E+00
         0.00000E+00
         0.00000E+00
         0.00000E+00
         0.00000E+00
         0.00000E+00
         0.00000E+00
         0.00000E+00
         0.00000E+00
         0.00000E+00
         0.00000E+00
         0.00000E+00
         0.00000E+00
         0.00000E+00
         0.00000E+00
         0.00000E+00
         0.00000E+00
         0.00000E+00
         0.00000E+00
         0.00000E+00
         0.00000E+00
         0.00000E+00
         0.00000E+00
         0.00000E+00
         0.00000E+00
         0.00000E+00
         0.00000E+00
         0.00000E+00
         0.00000E+00
         0.00000E+00
         0.00000E+00
         0.00000E+00
         0.00000E+00
         0.00000E+00
         0.00000E+00
         0.00000E+00
         0.00000E+00
         0.00000E+00
         0.00000E+00
         0.00000E+00
         0.00000E+00
         0.00000E+00
         0.00000E+00
         0.00000E+00
         0.00000E+00
         0.00000E+00
         0.00000E+00
         0.00000E+00
         0.00000E+00
         0.00000E+00
         0.00000E+00
         0.00000E+00
         0.00000E+00
         0.00000E+00
         0.00000E+00
         0.00000E+00
         0.00000E+00
         0.00000E+00
         0.00000E+00
         0.00000E+00
         0.00000E+00
         0.00000E+00
         0.00000E+00
         0.00000E+00
         0.00000E+00
         0.00000E+00
         0.00000E+00
         0.00000E+00
         0.00000E+00
         0.00000E+00
         0.00000E+00
         0.00000E+00
         0.00000E+00
         0.00000E+00
         0.00000E+00
         0.00000E+00
         0.00000E+00
         0.00000E+00
         0.00000E+00
         0.00000E+00
         0.00000E+00
         0.00000E+00
         0.00000E+00
         0.00000E+00
         0.00000E+00
         0.00000E+00
         0.00000E+00
         0.00000E+00
         0.00000E+00
         0.00000E+00
         0.00000E+00
         0.00000E+00
         0.00000E+00
         0.00000E+00
         0.00000E+00
         0.00000E+00
         0.00000E+00
         0.00000E+00
         0.00000E+00
         0.00000E+00
         0.00000E+00
         0.00000E+00
         0.00000E+00
         0.00000E+00
         0.00000E+00
         0.00000E+00
         0.00000E+00
         0.00000E+00
         0.00000E+00
         0.00000E+00
         0.00000E+00
         0.00000E+00
         0.00000E+00
         0.00000E+00
         0.00000E+00
         0.00000E+00
         0.00000E+00
         0.00000E+00
         0.00000E+00
         0.00000E+00
         0.00000E+00
         0.00000E+00
         0.00000E+00
         0.00000E+00
         0.00000E+00
         0.00000E+00
         0.00000E+00
         0.00000E+00
         0.00000E+00
         0.00000E+00
         0.00000E+00
         0.00000E+00
         0.00000E+00
         0.00000E+00
         0.00000E+00
         0.00000E+00
         0.00000E+00
         0.00000E+00
         0.00000E+00
         0.00000E+00
         0.00000E+00
         0.00000E+00
         0.00000E+00
         0.00000E+00
         0.00000E+00
         0.00000E+00
         0.00000E+00
         0.00000E+00
         0.00000E+00
         0.00000E+00
         0.00000E+00
         0.00000E+00
         0.00000E+00
         0.00000E+00
         0.00000E+00
         0.00000E+00
         0.00000E+00
         0.00000E+00
         0.00000E+00
         0.00000E+00
         0.00000E+00
         0.00000E+00
         0.00000E+00
         0.00000E+00
         0.00000E+00
         0.00000E+00
         0.00000E+00
         0.00000E+00
         0.00000E+00
         0.00000E+00
         0.00000E+00
         0.00000E+00
         0.00000E+00
         0.00000E+00
         0.00000E+00
         0.00000E+00
         0.00000E+00
         0.00000E+00
         0.00000E+00
         0.00000E+00
         0.00000E+00
         0.00000E+00
         0.00000E+00
         0.00000E+00
         0.00000E+00
         0.00000E+00
         0.00000E+00
         0.00000E+00
         0.00000E+00
         0.00000E+00
         0.00000E+00
         0.00000E+00
         0.00000E+00
         0.00000E+00
         0.00000E+00
         0.00000E+00
         0.00000E+00
         0.00000E+00
         0.00000E+00
         0.00000E+00
         0.00000E+00
         0.00000E+00
         0.00000E+00
         0.00000E+00
         0.00000E+00
         0.00000E+00
         0.00000E+00
         0.00000E+00
         0.00000E+00
         0.00000E+00
         0.00000E+00
         0.00000E+00
         0.00000E+00
         0.00000E+00
         0.00000E+00
         0.00000E+00
         0.00000E+00
         0.00000E+00
         0.00000E+00
         0.00000E+00
         0.00000E+00
         0.00000E+00
         0.00000E+00
         0.00000E+00
         0.00000E+00
         0.00000E+00
         0.00000E+00
         0.00000E+00
         0.00000E+00
         0.00000E+00
         0.00000E+00
         0.00000E+00
         0.00000E+00
         0.00000E+00
         0.00000E+00
         0.00000E+00
         0.00000E+00
         0.00000E+00
         0.00000E+00
         0.00000E+00
         0.00000E+00
         0.00000E+00
         0.00000E+00
         0.00000E+00
         0.00000E+00
         0.00000E+00
         0.00000E+00
         0.00000E+00
         0.00000E+00
         0.00000E+00
         0.00000E+00
         0.00000E+00
         0.00000E+00
         0.00000E+00
         0.00000E+00
         0.00000E+00
         0.00000E+00
         0.00000E+00
         0.00000E+00
         0.00000E+00
         0.00000E+00
         0.00000E+00
         0.00000E+00
         0.00000E+00
         0.00000E+00
         0.00000E+00
         0.00000E+00
         0.00000E+00
         0.00000E+00
         0.00000E+00
         0.00000E+00
         0.00000E+00
         0.00000E+00
         0.00000E+00
         0.00000E+00
         0.00000E+00
         0.00000E+00
         0.00000E+00
         0.00000E+00
         0.00000E+00
         0.00000E+00
         0.00000E+00
         0.00000E+00
         0.00000E+00
         0.00000E+00
         0.00000E+00
         0.00000E+00
         0.00000E+00
         0.00000E+00
         0.00000E+00
         0.00000E+00
         0.00000E+00
         0.00000E+00
         0.00000E+00
         0.00000E+00
         0.00000E+00
         0.00000E+00
         0.00000E+00
         0.00000E+00
         0.00000E+00
         0.00000E+00
         0.00000E+00
         0.00000E+00
         0.00000E+00
         0.00000E+00
         0.00000E+00
         0.00000E+00
         0.00000E+00
         0.00000E+00
         0.00000E+00
         0.00000E+00
         0.00000E+00
         0.00000E+00
         0.00000E+00
         0.00000E+00
         0.00000E+00
         0.00000E+00
         0.00000E+00
         0.00000E+00
         0.00000E+00
         0.00000E+00
         0.00000E+00
         0.00000E+00
         0.00000E+00
         0.00000E+00
         0.00000E+00
         0.00000E+00
         0.00000E+00
         0.00000E+00
         0.00000E+00
         0.00000E+00
         0.00000E+00
         0.00000E+00
         0.00000E+00
         0.00000E+00
         0.00000E+00
         0.00000E+00
         0.00000E+00
         0.00000E+00
         0.00000E+00
         0.00000E+00
         0.00000E+00
         0.00000E+00
         0.00000E+00
         0.00000E+00
         0.00000E+00
         0.00000E+00
         0.00000E+00
         0.00000E+00
         0.00000E+00
         0.00000E+00
         0.00000E+00
         0.00000E+00
         0.00000E+00
         0.00000E+00
         0.00000E+00
         0.00000E+00
         0.00000E+00
         0.00000E+00
         0.00000E+00
         0.00000E+00
         0.00000E+00
         0.00000E+00
         0.00000E+00
         0.00000E+00
         0.00000E+00
         0.00000E+00
         0.00000E+00
         0.00000E+00
         0.00000E+00
         0.00000E+00
         0.00000E+00
         0.00000E+00
         0.00000E+00
         0.00000E+00
         0.00000E+00
         0.00000E+00
         0.00000E+00
         0.00000E+00
         0.00000E+00
         0.00000E+00
         0.00000E+00
         0.00000E+00
         0.00000E+00
         0.00000E+00
         0.00000E+00
         0.00000E+00
         0.00000E+00
         0.00000E+00
         0.00000E+00
         0.00000E+00
         0.00000E+00
         0.00000E+00
         0.00000E+00
         0.00000E+00
         0.00000E+00
         0.00000E+00
         0.00000E+00
         0.00000E+00
         0.00000E+00
         0.00000E+00
         0.00000E+00
         0.00000E+00
         0.00000E+00
         0.00000E+00
         0.00000E+00
         0.00000E+00
         0.00000E+00
         0.00000E+00
         0.00000E+00
         0.00000E+00
         0.00000E+00
         0.00000E+00
         0.00000E+00
         0.00000E+00
         0.00000E+00
         0.00000E+00
         0.00000E+00
         0.00000E+00
         0.00000E+00
         0.00000E+00
         0.00000E+00
         0.00000E+00
         0.00000E+00
         0.00000E+00
         0.00000E+00
         0.00000E+00
         0.00000E+00
         0.00000E+00
         0.00000E+00
         0.00000E+00
         0.00000E+00
         0.00000E+00
         0.00000E+00
         0.00000E+00
         0.00000E+00
         0.00000E+00
         0.00000E+00
         0.00000E+00
         0.00000E+00
         0.00000E+00
         0.00000E+00
         0.00000E+00
         0.00000E+00
         0.00000E+00
         0.00000E+00
         0.00000E+00
         0.00000E+00
         0.00000E+00
         0.00000E+00
         0.00000E+00
         0.00000E+00
         0.00000E+00
         0.00000E+00
         0.00000E+00
         0.00000E+00
         0.00000E+00
         0.00000E+00
         0.00000E+00
         0.00000E+00
         0.00000E+00
         0.00000E+00
         0.00000E+00
         0.00000E+00
         0.00000E+00
         0.00000E+00
         0.00000E+00
         0.00000E+00
         0.00000E+00
         0.00000E+00
         0.00000E+00
         0.00000E+00
         0.00000E+00
         0.00000E+00
         0.00000E+00
         0.00000E+00
         0.00000E+00
         0.00000E+00
         0.00000E+00
         0.00000E+00
         0.00000E+00
         0.00000E+00
         0.00000E+00
         0.00000E+00
         0.00000E+00
         0.00000E+00
         0.00000E+00
         0.00000E+00
         0.00000E+00
         0.00000E+00
         0.00000E+00
         0.00000E+00
         0.00000E+00
         0.00000E+00
         0.00000E+00
         0.00000E+00
         0.00000E+00
         0.00000E+00
         0.00000E+00
         0.00000E+00
         0.00000E+00
         0.00000E+00
         0.00000E+00
         0.00000E+00
         0.00000E+00
         0.00000E+00
         0.00000E+00
         0.00000E+00
         0.00000E+00
         0.00000E+00
         0.00000E+00
         0.00000E+00
         0.00000E+00
         0.00000E+00
         0.00000E+00
         0.00000E+00
         0.00000E+00
         0.00000E+00
         0.00000E+00
         0.00000E+00
         0.00000E+00
         0.00000E+00
         0.00000E+00
         0.00000E+00
         0.00000E+00
         0.00000E+00
         0.00000E+00
         0.00000E+00
         0.00000E+00
         0.00000E+00
         0.00000E+00
         0.00000E+00
         0.00000E+00
         0.00000E+00
         0.00000E+00
         0.00000E+00
         0.00000E+00
         0.00000E+00
         0.00000E+00
         0.00000E+00
         0.00000E+00
         0.00000E+00
         0.00000E+00
         0.00000E+00
         0.00000E+00
         0.00000E+00
         0.00000E+00
         0.00000E+00
         0.00000E+00
         0.00000E+00
         0.00000E+00
         0.00000E+00
         0.00000E+00
         0.00000E+00
         0.00000E+00
         0.00000E+00
         0.00000E+00
         0.00000E+00
         0.00000E+00
         0.00000E+00
         0.00000E+00
         0.00000E+00
         0.00000E+00
         0.00000E+00
         0.00000E+00
         0.00000E+00
         0.00000E+00
         0.00000E+00
         0.00000E+00
         0.00000E+00
         0.00000E+00
         0.00000E+00
         0.00000E+00
         0.00000E+00
         0.00000E+00
         0.00000E+00
         0.00000E+00
         0.00000E+00
         0.00000E+00
         0.00000E+00
         0.00000E+00
         0.00000E+00
         0.00000E+00
         0.00000E+00
         0.00000E+00
         0.00000E+00
         0.00000E+00
         0.00000E+00
         0.00000E+00
         0.00000E+00
         0.00000E+00
         0.00000E+00
         0.00000E+00
         0.00000E+00
         0.00000E+00
         0.00000E+00
         0.00000E+00
         0.00000E+00
         0.00000E+00
         0.00000E+00
         0.00000E+00
         0.00000E+00
         0.00000E+00
         0.00000E+00
         0.00000E+00
         0.00000E+00
         0.00000E+00
         0.00000E+00
         0.00000E+00
         0.00000E+00
         0.00000E+00
         0.00000E+00
         0.00000E+00
         0.00000E+00
         0.00000E+00
         0.00000E+00
         0.00000E+00
         0.00000E+00
         0.00000E+00
         0.00000E+00
         0.00000E+00
         0.00000E+00
         0.00000E+00
         0.00000E+00
         0.00000E+00
         0.00000E+00
         0.00000E+00
         0.00000E+00
         0.00000E+00
         0.00000E+00
         0.00000E+00
         0.00000E+00
         0.00000E+00
         0.00000E+00
         0.00000E+00
         0.00000E+00
         0.00000E+00
         0.00000E+00
         0.00000E+00
         0.00000E+00
         0.00000E+00
         0.00000E+00
         0.00000E+00
         0.00000E+00
         0.00000E+00
         0.00000E+00
         0.00000E+00
         0.00000E+00
         0.00000E+00
         0.00000E+00
         0.00000E+00
         0.00000E+00
         0.00000E+00
         0.00000E+00
         0.00000E+00
         0.00000E+00
         0.00000E+00
         0.00000E+00
         0.00000E+00
         0.00000E+00
         0.00000E+00
         0.00000E+00
         0.00000E+00
         0.00000E+00
         0.00000E+00
         0.00000E+00
         0.00000E+00
         0.00000E+00
         0.00000E+00
         0.00000E+00
         0.00000E+00
         0.00000E+00
         0.00000E+00
         0.00000E+00
         0.00000E+00
         0.00000E+00
         0.00000E+00
         0.00000E+00
         0.00000E+00
         0.00000E+00
         0.00000E+00
         0.00000E+00
         0.00000E+00
         0.00000E+00
         0.00000E+00
         0.00000E+00
         0.00000E+00
         0.00000E+00
         0.00000E+00
         0.00000E+00
         0.00000E+00
         0.00000E+00
         0.00000E+00
         0.00000E+00
         0.00000E+00
         0.00000E+00
         0.00000E+00
         0.00000E+00
         0.00000E+00
         0.00000E+00
         0.00000E+00
         0.00000E+00
         0.00000E+00
         0.00000E+00
         0.00000E+00
         0.00000E+00
         0.00000E+00
         0.00000E+00
         0.00000E+00
         0.00000E+00
         0.00000E+00
         0.00000E+00
         0.00000E+00
         0.00000E+00
         0.00000E+00
         0.00000E+00
         0.00000E+00
         0.00000E+00
         0.00000E+00
         0.00000E+00
         0.00000E+00
         0.00000E+00
         0.00000E+00
         0.00000E+00
         0.00000E+00
         0.00000E+00
         0.00000E+00
         0.00000E+00
         0.00000E+00
         0.00000E+00
         0.00000E+00
         0.00000E+00
         0.00000E+00
         0.00000E+00
         0.00000E+00
         0.00000E+00
         0.00000E+00
         0.00000E+00
         0.00000E+00
         0.00000E+00
         0.00000E+00
         0.00000E+00
         0.00000E+00
         0.00000E+00
         0.00000E+00
         0.00000E+00
         0.00000E+00
         0.00000E+00
         0.00000E+00
         0.00000E+00
         0.00000E+00
         0.00000E+00
         0.00000E+00
         0.00000E+00
         0.00000E+00
         0.00000E+00
         0.00000E+00
         0.00000E+00
         0.00000E+00
         0.00000E+00
         0.00000E+00
         0.00000E+00
         0.00000E+00
         0.00000E+00
         0.00000E+00
         0.00000E+00
         0.00000E+00
         0.00000E+00
         0.00000E+00
         0.00000E+00
         0.00000E+00
         0.00000E+00
         0.00000E+00
         0.00000E+00
         0.00000E+00
         0.00000E+00
         0.00000E+00
         0.00000E+00
         0.00000E+00
         0.00000E+00
         0.00000E+00
         0.00000E+00
         0.00000E+00
         0.00000E+00
         0.00000E+00
         0.00000E+00
         0.00000E+00
         0.00000E+00
         0.00000E+00
         0.00000E+00
         0.00000E+00
         0.00000E+00
         0.00000E+00
         0.00000E+00
         0.00000E+00
         0.00000E+00
         0.00000E+00
         0.00000E+00
         0.00000E+00
         0.00000E+00
         0.00000E+00
         0.00000E+00
         0.00000E+00
         0.00000E+00
         0.00000E+00
         0.00000E+00
         0.00000E+00
         0.00000E+00
         0.00000E+00
         0.00000E+00
         0.00000E+00
         0.00000E+00
         0.00000E+00
         0.00000E+00
         0.00000E+00
         0.00000E+00
         0.00000E+00
         0.00000E+00
         0.00000E+00
         0.00000E+00
         0.00000E+00
         0.00000E+00
         0.00000E+00
         0.00000E+00
         0.00000E+00
         0.00000E+00
         0.00000E+00
         0.00000E+00
         0.00000E+00
         0.00000E+00
         0.00000E+00
         0.00000E+00
         0.00000E+00
         0.00000E+00
         0.00000E+00
         0.00000E+00
         0.00000E+00
         0.00000E+00
         0.00000E+00
         0.00000E+00
         0.00000E+00
         0.00000E+00
         0.00000E+00
         0.00000E+00
         0.00000E+00
         0.00000E+00
         0.00000E+00
         0.00000E+00
         0.00000E+00
         0.00000E+00
         0.00000E+00
         0.00000E+00
         0.00000E+00
         0.00000E+00
         0.00000E+00
         0.00000E+00
         0.00000E+00
         0.00000E+00
         0.00000E+00
         0.00000E+00
         0.00000E+00
         0.00000E+00
         0.00000E+00
         0.00000E+00
         0.00000E+00
         0.00000E+00
         0.00000E+00
         0.00000E+00
         0.00000E+00
         0.00000E+00
         0.00000E+00
         0.00000E+00
         0.00000E+00
         0.00000E+00
         0.00000E+00
         0.00000E+00
         0.00000E+00
         0.00000E+00
         0.00000E+00
         0.00000E+00
         0.00000E+00
         0.00000E+00
         0.00000E+00
         0.00000E+00
         0.00000E+00
         0.00000E+00
         0.00000E+00
         0.00000E+00
         0.00000E+00
         0.00000E+00
         0.00000E+00
         0.00000E+00
         0.00000E+00
         0.00000E+00
         0.00000E+00
         0.00000E+00
         0.00000E+00
         0.00000E+00
         0.00000E+00
         0.00000E+00
         0.00000E+00
         0.00000E+00
         0.00000E+00
         0.00000E+00
         0.00000E+00
         0.00000E+00
         0.00000E+00
         0.00000E+00
         0.00000E+00
         0.00000E+00
         0.00000E+00
         0.00000E+00
         0.00000E+00
         0.00000E+00
         0.00000E+00
         0.00000E+00
         0.00000E+00
         0.00000E+00
         0.00000E+00
         0.00000E+00
         0.00000E+00
         0.00000E+00
         0.00000E+00
         0.00000E+00
         0.00000E+00
         0.00000E+00
         0.00000E+00
         0.00000E+00
         0.00000E+00
         0.00000E+00
         0.00000E+00
         0.00000E+00
         0.00000E+00
         0.00000E+00
         0.00000E+00
         0.00000E+00
         0.00000E+00
         0.00000E+00
         0.00000E+00
         0.00000E+00
         0.00000E+00
         0.00000E+00
         0.00000E+00
         0.00000E+00
         0.00000E+00
         0.00000E+00
         0.00000E+00
         0.00000E+00
         0.00000E+00
         0.00000E+00
         0.00000E+00
         0.00000E+00
         0.00000E+00
         0.00000E+00
         0.00000E+00
         0.00000E+00
         0.00000E+00
         0.00000E+00
         0.00000E+00
         0.00000E+00
         0.00000E+00
         0.00000E+00
         0.00000E+00
         0.00000E+00
         0.00000E+00
         0.00000E+00
         0.00000E+00
         0.00000E+00
         0.00000E+00
         0.00000E+00
         0.00000E+00
         0.00000E+00
         0.00000E+00
         0.00000E+00
         0.00000E+00
         0.00000E+00
         0.00000E+00
         0.00000E+00
         0.00000E+00
         0.00000E+00
         0.00000E+00
         0.00000E+00
         0.00000E+00
         0.00000E+00
         0.00000E+00
         0.00000E+00
         0.00000E+00
         0.00000E+00
         0.00000E+00
         0.00000E+00
         0.00000E+00
         0.00000E+00
         0.00000E+00
         0.00000E+00
         0.00000E+00
         0.00000E+00
         0.00000E+00
         0.00000E+00
         0.00000E+00
         0.00000E+00
         0.00000E+00
         0.00000E+00
         0.00000E+00
         0.00000E+00
         0.00000E+00
         0.00000E+00
         0.00000E+00
         0.00000E+00
         0.00000E+00
         0.00000E+00
         0.00000E+00
         0.00000E+00
         0.00000E+00
         0.00000E+00
         0.00000E+00
         0.00000E+00
         0.00000E+00
         0.00000E+00
         0.00000E+00
         0.00000E+00
         0.00000E+00
         0.00000E+00
         0.00000E+00
         0.00000E+00
         0.00000E+00
         0.00000E+00
         0.00000E+00
         0.00000E+00
         0.00000E+00
         0.00000E+00
         0.00000E+00
         0.00000E+00
         0.00000E+00
         0.00000E+00
         0.00000E+00
         0.00000E+00
         0.00000E+00
         0.00000E+00
         0.00000E+00
         0.00000E+00
         0.00000E+00
         0.00000E+00
         0.00000E+00
         0.00000E+00
         0.00000E+00
         0.00000E+00
         0.00000E+00
         0.00000E+00
         0.00000E+00
         0.00000E+00
         0.00000E+00
         0.00000E+00
         0.00000E+00
         0.00000E+00
         0.00000E+00
         0.00000E+00
         0.00000E+00
         0.00000E+00
         0.00000E+00
         0.00000E+00
         0.00000E+00
         0.00000E+00
         0.00000E+00
         0.00000E+00
         0.00000E+00
         0.00000E+00
         0.00000E+00
         0.00000E+00
         0.00000E+00
         0.00000E+00
         0.00000E+00
         0.00000E+00
         0.00000E+00
         0.00000E+00
         0.00000E+00
         0.00000E+00
         0.00000E+00
         0.00000E+00
         0.00000E+00
         0.00000E+00
         0.00000E+00
         0.00000E+00
         0.00000E+00
         0.00000E+00
         0.00000E+00
         0.00000E+00
         0.00000E+00
         0.00000E+00
         0.00000E+00
         0.00000E+00
         0.00000E+00
         0.00000E+00
         0.00000E+00
         0.00000E+00
         0.00000E+00
         0.00000E+00
         0.00000E+00
         0.00000E+00
         0.00000E+00
         0.00000E+00
         0.00000E+00
         0.00000E+00
         0.00000E+00
         0.00000E+00
         0.00000E+00
         0.00000E+00
         0.00000E+00
         0.00000E+00
         0.00000E+00
         0.00000E+00
         0.00000E+00
         0.00000E+00
         0.00000E+00
         0.00000E+00
         0.00000E+00
         0.00000E+00
         0.00000E+00
         0.00000E+00
         0.00000E+00
         0.00000E+00
         0.00000E+00
         0.00000E+00
         0.00000E+00
         0.00000E+00
         0.00000E+00
         0.00000E+00
         0.00000E+00
         0.00000E+00
         0.00000E+00
         0.00000E+00
         0.00000E+00
         0.00000E+00
         0.00000E+00
         0.00000E+00
         0.00000E+00
         0.00000E+00
         0.00000E+00
         0.00000E+00
         0.00000E+00
         0.00000E+00
         0.00000E+00
         0.00000E+00
         0.00000E+00
         0.00000E+00
         0.00000E+00
         0.00000E+00
         0.00000E+00
         0.00000E+00
         0.00000E+00
         0.00000E+00
         0.00000E+00
         0.00000E+00
         0.00000E+00
         0.00000E+00
         0.00000E+00
         0.00000E+00
         0.00000E+00
         0.00000E+00
         0.00000E+00
         0.00000E+00
         0.00000E+00
         0.00000E+00
         0.00000E+00
         0.00000E+00
         0.00000E+00
         0.00000E+00
         0.00000E+00
         0.00000E+00
         0.00000E+00
         0.00000E+00
         0.00000E+00
         0.00000E+00
         0.00000E+00
         0.00000E+00
         0.00000E+00
         0.00000E+00
         0.00000E+00
         0.00000E+00
         0.00000E+00
         0.00000E+00
         0.00000E+00
         0.00000E+00
         0.00000E+00
         0.00000E+00
         0.00000E+00
         0.00000E+00
         0.00000E+00
         0.00000E+00
         0.00000E+00
         0.00000E+00
         0.00000E+00
         0.00000E+00
         0.00000E+00
         0.00000E+00
         0.00000E+00
         0.00000E+00
         0.00000E+00
         0.00000E+00
         0.00000E+00
         0.00000E+00
         0.00000E+00
         0.00000E+00
         0.00000E+00
         0.00000E+00
         0.00000E+00
         0.00000E+00
         0.00000E+00
         0.00000E+00
         0.00000E+00
         0.00000E+00
         0.00000E+00
         0.00000E+00
         0.00000E+00
         0.00000E+00
         0.00000E+00
         0.00000E+00
         0.00000E+00
         0.00000E+00
         0.00000E+00
         0.00000E+00
         0.00000E+00
         0.00000E+00
         0.00000E+00
         0.00000E+00
         0.00000E+00
         0.00000E+00
         0.00000E+00
         0.00000E+00
         0.00000E+00
         0.00000E+00
         0.00000E+00
         0.00000E+00
         0.00000E+00
         0.00000E+00
         0.00000E+00
         0.00000E+00
         0.00000E+00
         0.00000E+00
         0.00000E+00
         0.00000E+00
         0.00000E+00
         0.00000E+00
         0.00000E+00
         0.00000E+00
         0.00000E+00
         0.00000E+00
         0.00000E+00
         0.00000E+00
         0.00000E+00
         0.00000E+00
         0.00000E+00
         0.00000E+00
         0.00000E+00
         0.00000E+00
         0.00000E+00
         0.00000E+00
         0.00000E+00
         0.00000E+00
         0.00000E+00
         0.00000E+00
         0.00000E+00
         0.00000E+00
         0.00000E+00
         0.00000E+00
         0.00000E+00
         0.00000E+00
         0.00000E+00
         0.00000E+00
         0.00000E+00
         0.00000E+00
         0.00000E+00
         0.00000E+00
         0.00000E+00
         0.00000E+00
         0.00000E+00
         0.00000E+00
         0.00000E+00
         0.00000E+00
         0.00000E+00
         0.00000E+00
         0.00000E+00
         0.00000E+00
         0.00000E+00
         0.00000E+00
         0.00000E+00
         0.00000E+00
         0.00000E+00
         0.00000E+00
         0.00000E+00
         0.00000E+00
         0.00000E+00
         0.00000E+00
         0.00000E+00
         0.00000E+00
         0.00000E+00
         0.00000E+00
         0.00000E+00
         0.00000E+00
         0.00000E+00
         0.00000E+00
         0.00000E+00
         0.00000E+00
         0.00000E+00
         0.00000E+00
         0.00000E+00
         0.00000E+00
         0.00000E+00
         0.00000E+00
         0.00000E+00
         0.00000E+00
         0.00000E+00
         0.00000E+00
         0.00000E+00
         0.00000E+00
         0.00000E+00
         0.00000E+00
         0.00000E+00
         0.00000E+00
         0.00000E+00
         0.00000E+00
         0.00000E+00
         0.00000E+00
         0.00000E+00
         0.00000E+00
         0.00000E+00
         0.00000E+00
         0.00000E+00
         0.00000E+00
         0.00000E+00
         0.00000E+00
         0.00000E+00
         0.00000E+00
         0.00000E+00
         0.00000E+00
         0.00000E+00
         0.00000E+00
         0.00000E+00
         0.00000E+00
         0.00000E+00
         0.00000E+00
         0.00000E+00
         0.00000E+00
         0.00000E+00
         0.00000E+00
         0.00000E+00
         0.00000E+00
         0.00000E+00
         0.00000E+00
         0.00000E+00
         0.00000E+00
         0.00000E+00
         0.00000E+00
         0.00000E+00
         0.00000E+00
         0.00000E+00
         0.00000E+00
         0.00000E+00
         0.00000E+00
         0.00000E+00
         0.00000E+00
         0.00000E+00
         0.00000E+00
         0.00000E+00
         0.00000E+00
         0.00000E+00
         0.00000E+00
         0.00000E+00
         0.00000E+00
         0.00000E+00
         0.00000E+00
         0.00000E+00
         0.00000E+00
         0.00000E+00
         0.00000E+00
         0.00000E+00
         0.00000E+00
         0.00000E+00
         0.00000E+00
         0.00000E+00
         0.00000E+00
         0.00000E+00
         0.00000E+00
         0.00000E+00
         0.00000E+00
         0.00000E+00
         0.00000E+00
         0.00000E+00
         0.00000E+00
         0.00000E+00
         0.00000E+00
         0.00000E+00
         0.00000E+00
         0.00000E+00
         0.00000E+00
         0.00000E+00
         0.00000E+00
         0.00000E+00
         0.00000E+00
         0.00000E+00
         0.00000E+00
         0.00000E+00
         0.00000E+00
         0.00000E+00
         0.00000E+00
         0.00000E+00
         0.00000E+00
         0.00000E+00
         0.00000E+00
         0.00000E+00
         0.00000E+00
         0.00000E+00
         0.00000E+00
         0.00000E+00
         0.00000E+00
         0.00000E+00
         0.00000E+00
         0.00000E+00
         0.00000E+00
         0.00000E+00
         0.00000E+00
         0.00000E+00
         0.00000E+00
         0.00000E+00
         0.00000E+00
         0.00000E+00
         0.00000E+00
         0.00000E+00
         0.00000E+00
         0.00000E+00
         0.00000E+00
         0.00000E+00
         0.00000E+00
         0.00000E+00
         0.00000E+00
         0.00000E+00
         0.00000E+00
         0.00000E+00
         0.00000E+00
         0.00000E+00
         0.00000E+00
         0.00000E+00
         0.00000E+00
         0.00000E+00
         0.00000E+00
         0.00000E+00
         0.00000E+00
         0.00000E+00
         0.00000E+00
         0.00000E+00
         0.00000E+00
         0.00000E+00
         0.00000E+00
         0.00000E+00
         0.00000E+00
         0.00000E+00
         0.00000E+00
         0.00000E+00
         0.00000E+00
         0.00000E+00
         0.00000E+00
         0.00000E+00
         0.00000E+00
         0.00000E+00
         0.00000E+00
         0.00000E+00
         0.00000E+00
         0.00000E+00
         0.00000E+00
         0.00000E+00
         0.00000E+00
         0.00000E+00
         0.00000E+00
         0.00000E+00
         0.00000E+00
         0.00000E+00
         0.00000E+00
         0.00000E+00
         0.00000E+00
         0.00000E+00
         0.00000E+00
         0.00000E+00
         0.00000E+00
         0.00000E+00
         0.00000E+00
         0.00000E+00
         0.00000E+00
         0.00000E+00
         0.00000E+00
         0.00000E+00
         0.00000E+00
         0.00000E+00
         0.00000E+00
         0.00000E+00
         0.00000E+00
         0.00000E+00
         0.00000E+00
         0.00000E+00
         0.00000E+00
         0.00000E+00
         0.00000E+00
         0.00000E+00
         0.00000E+00
         0.00000E+00
         0.00000E+00
         0.00000E+00
         0.00000E+00
         0.00000E+00
         0.00000E+00
         0.00000E+00
         0.00000E+00
         0.00000E+00
         0.00000E+00
         0.00000E+00
         0.00000E+00
         0.00000E+00
         0.00000E+00
         0.00000E+00
         0.00000E+00
         0.00000E+00
         0.00000E+00
         0.00000E+00
         0.00000E+00
         0.00000E+00
         0.00000E+00
         0.00000E+00
         0.00000E+00
         0.00000E+00
         0.00000E+00
         0.00000E+00
         0.00000E+00
         0.00000E+00
         0.00000E+00
         0.00000E+00
         0.00000E+00
         0.00000E+00
         0.00000E+00
         0.00000E+00
         0.00000E+00
         0.00000E+00
         0.00000E+00
         0.00000E+00
         0.00000E+00
         0.00000E+00
         0.00000E+00
         0.00000E+00
         0.00000E+00
         0.00000E+00
         0.00000E+00
         0.00000E+00
         0.00000E+00
         0.00000E+00
         0.00000E+00
         0.00000E+00
         0.00000E+00
         0.00000E+00
         0.00000E+00
         0.00000E+00
         0.00000E+00
         0.00000E+00
         0.00000E+00
         0.00000E+00
         0.00000E+00
         0.00000E+00
         0.00000E+00
         0.00000E+00
         0.00000E+00
         0.00000E+00
         0.00000E+00
         0.00000E+00
         0.00000E+00
         0.00000E+00
         0.00000E+00
         0.00000E+00
         0.00000E+00
         0.00000E+00
         0.00000E+00
         0.00000E+00
         0.00000E+00
         0.00000E+00
         0.00000E+00
         0.00000E+00
         0.00000E+00
         0.00000E+00
         0.00000E+00
         0.00000E+00
         0.00000E+00
         0.00000E+00
         0.00000E+00
         0.00000E+00
         0.00000E+00
         0.00000E+00
         0.00000E+00
         0.00000E+00
         0.00000E+00
         0.00000E+00
         0.00000E+00
         0.00000E+00
         0.00000E+00
         0.00000E+00
         0.00000E+00
         0.00000E+00
         0.00000E+00
         0.00000E+00
         0.00000E+00
         0.00000E+00
         0.00000E+00
         0.00000E+00
         0.00000E+00
         0.00000E+00
         0.00000E+00
         0.00000E+00
         0.00000E+00
         0.00000E+00
         0.00000E+00
         0.00000E+00
         0.00000E+00
         0.00000E+00
         0.00000E+00
         0.00000E+00
         0.00000E+00
         0.00000E+00
         0.00000E+00
         0.00000E+00
         0.00000E+00
         0.00000E+00
         0.00000E+00
         0.00000E+00
         0.00000E+00
         0.00000E+00
         0.00000E+00
         0.00000E+00
         0.00000E+00
         0.00000E+00
         0.00000E+00
         0.00000E+00
         0.00000E+00
         0.00000E+00
         0.00000E+00
         0.00000E+00
         0.00000E+00
         0.00000E+00
         0.00000E+00
         0.00000E+00
         0.00000E+00
         0.00000E+00
         0.00000E+00
         0.00000E+00
         0.00000E+00
         0.00000E+00
         0.00000E+00
         0.00000E+00
         0.00000E+00
         0.00000E+00
         0.00000E+00
         0.00000E+00
         0.00000E+00
         0.00000E+00
         0.00000E+00
         0.00000E+00
         0.00000E+00
         0.00000E+00
         0.00000E+00
         0.00000E+00
         0.00000E+00
         0.00000E+00
         0.00000E+00
         0.00000E+00
         0.00000E+00
         0.00000E+00
         0.00000E+00
         0.00000E+00
         0.00000E+00
         0.00000E+00
         0.00000E+00
         0.00000E+00
         0.00000E+00
         0.00000E+00
         0.00000E+00
         0.00000E+00
         0.00000E+00
         0.00000E+00
         0.00000E+00
         0.00000E+00
         0.00000E+00
         0.00000E+00
         0.00000E+00
         0.00000E+00
         0.00000E+00
         0.00000E+00
         0.00000E+00
         0.00000E+00
         0.00000E+00
         0.00000E+00
         0.00000E+00
         0.00000E+00
         0.00000E+00
         0.00000E+00
         0.00000E+00
         0.00000E+00
         0.00000E+00
         0.00000E+00
         0.00000E+00
         0.00000E+00
         0.00000E+00
         0.00000E+00
         0.00000E+00
         0.00000E+00
         0.00000E+00
         0.00000E+00
         0.00000E+00
         0.00000E+00
         0.00000E+00
         0.00000E+00
         0.00000E+00
         0.00000E+00
         0.00000E+00
         0.00000E+00
         0.00000E+00
         0.00000E+00
         0.00000E+00
         0.00000E+00
         0.00000E+00
         0.00000E+00
         0.00000E+00
         0.00000E+00
         0.00000E+00
         0.00000E+00
         0.00000E+00
         0.00000E+00
         0.00000E+00
         0.00000E+00
         0.00000E+00
         0.00000E+00
         0.00000E+00
         0.00000E+00
         0.00000E+00
         0.00000E+00
         0.00000E+00
         0.00000E+00
         0.00000E+00
         0.00000E+00
         0.00000E+00
         0.00000E+00
         0.00000E+00
         0.00000E+00
         0.00000E+00
         0.00000E+00
         0.00000E+00
         0.00000E+00
         0.00000E+00
         0.00000E+00
         0.00000E+00
         0.00000E+00
         0.00000E+00
         0.00000E+00
         0.00000E+00
         0.00000E+00
         0.00000E+00
         0.00000E+00
         0.00000E+00
         0.00000E+00
         0.00000E+00
         0.00000E+00
         0.00000E+00
         0.00000E+00
         0.00000E+00
         0.00000E+00
         0.00000E+00
         0.00000E+00
         0.00000E+00
         0.00000E+00
         0.00000E+00
         0.00000E+00
         0.00000E+00
         0.00000E+00
         0.00000E+00
         0.00000E+00
         0.00000E+00
         0.00000E+00
         0.00000E+00
         0.00000E+00
         0.00000E+00
         0.00000E+00
         0.00000E+00
         0.00000E+00
         0.00000E+00
         0.00000E+00
         0.00000E+00
         0.00000E+00
         0.00000E+00
         0.00000E+00
         0.00000E+00
         0.00000E+00
         0.00000E+00
         0.00000E+00
         0.00000E+00
         0.00000E+00
         0.00000E+00
         0.00000E+00
         0.00000E+00
         0.00000E+00
         0.00000E+00
         0.00000E+00
         0.00000E+00
         0.00000E+00
         0.00000E+00
         0.00000E+00
         0.00000E+00
         0.00000E+00
         0.00000E+00
         0.00000E+00
         0.00000E+00
         0.00000E+00
         0.00000E+00
         0.00000E+00
         0.00000E+00
         0.00000E+00
         0.00000E+00
         0.00000E+00
         0.00000E+00
         0.00000E+00
         0.00000E+00
         0.00000E+00
         0.00000E+00
         0.00000E+00
         0.00000E+00
         0.00000E+00
         0.00000E+00
         0.00000E+00
         0.00000E+00
         0.00000E+00
         0.00000E+00
         0.00000E+00
         0.00000E+00
         0.00000E+00
         0.00000E+00
         0.00000E+00
         0.00000E+00
         0.00000E+00
         0.00000E+00
         0.00000E+00
         0.00000E+00
         0.00000E+00
         0.00000E+00
         0.00000E+00
         0.00000E+00
         0.00000E+00
         0.00000E+00
         0.00000E+00
         0.00000E+00
         0.00000E+00
         0.00000E+00
         0.00000E+00
         0.00000E+00
         0.00000E+00
         0.00000E+00
         0.00000E+00
         0.00000E+00
         0.00000E+00
         0.00000E+00
         0.00000E+00
         0.00000E+00
         0.00000E+00
         0.00000E+00
         0.00000E+00
         0.00000E+00
         0.00000E+00
         0.00000E+00
         0.00000E+00
         0.00000E+00
         0.00000E+00
         0.00000E+00
  
SCALARS                            eps  double 1
LOOKUP_TABLE default
         0.16206E+02
         0.16010E+02
         0.16134E+02
         0.16357E+02
         0.00000E+00
         0.00000E+00
         0.00000E+00
         0.00000E+00
         0.16004E+02
         0.16070E+02
         0.00000E+00
         0.00000E+00
         0.15726E+02
         0.15715E+02
         0.00000E+00
         0.00000E+00
         0.16324E+02
         0.15731E+02
         0.00000E+00
         0.00000E+00
         0.15512E+02
         0.15343E+02
         0.15613E+02
         0.00000E+00
         0.00000E+00
         0.00000E+00
         0.15349E+02
         0.15102E+02
         0.00000E+00
         0.00000E+00
         0.16314E+02
         0.16056E+02
         0.16564E+02
         0.00000E+00
         0.00000E+00
         0.00000E+00
         0.16165E+02
         0.15835E+02
         0.00000E+00
         0.00000E+00
         0.16034E+02
         0.15781E+02
         0.00000E+00
         0.00000E+00
         0.16249E+02
         0.16344E+02
         0.00000E+00
         0.00000E+00
         0.15576E+02
         0.00000E+00
         0.16326E+02
         0.00000E+00
         0.15278E+02
         0.00000E+00
         0.15200E+02
         0.00000E+00
         0.15201E+02
         0.15478E+02
         0.00000E+00
         0.00000E+00
         0.16308E+02
         0.16209E+02
         0.00000E+00
         0.00000E+00
         0.16370E+02
         0.00000E+00
         0.16253E+02
         0.00000E+00
         0.15944E+02
         0.15912E+02
         0.00000E+00
         0.00000E+00
         0.15841E+02
         0.00000E+00
         0.15014E+02
         0.00000E+00
         0.14970E+02
         0.00000E+00
         0.14992E+02
         0.00000E+00
         0.15114E+02
         0.15237E+02
         0.00000E+00
         0.00000E+00
         0.15488E+02
         0.00000E+00
         0.16245E+02
         0.00000E+00
         0.16127E+02
         0.00000E+00
         0.16032E+02
         0.15977E+02
         0.00000E+00
         0.00000E+00
         0.16042E+02
         0.00000E+00
         0.16088E+02
         0.00000E+00
         0.16047E+02
         0.00000E+00
         0.16033E+02
         0.16075E+02
         0.00000E+00
         0.00000E+00
         0.15805E+02
         0.15918E+02
         0.00000E+00
         0.00000E+00
         0.15785E+02
         0.00000E+00
         0.15916E+02
         0.00000E+00
         0.15788E+02
         0.00000E+00
         0.15506E+02
         0.00000E+00
         0.15234E+02
         0.00000E+00
         0.15070E+02
         0.00000E+00
         0.15053E+02
         0.00000E+00
         0.15058E+02
         0.00000E+00
         0.15236E+02
         0.00000E+00
         0.15570E+02
         0.00000E+00
         0.15936E+02
         0.00000E+00
         0.16148E+02
         0.00000E+00
         0.16358E+02
         0.00000E+00
         0.16496E+02
         0.00000E+00
         0.16492E+02
         0.00000E+00
         0.16152E+02
         0.00000E+00
         0.15914E+02
         0.00000E+00
         0.15835E+02
         0.00000E+00
         0.15963E+02
         0.00000E+00
         0.16029E+02
         0.00000E+00
         0.15916E+02
         0.00000E+00
         0.15915E+02
         0.00000E+00
         0.16001E+02
         0.00000E+00
         0.16111E+02
         0.00000E+00
         0.39133E+00
         0.40062E+00
         0.39933E+00
         0.38745E+00
         0.41012E+00
         0.39830E+00
         0.41298E+00
         0.40518E+00
         0.38928E+00
         0.39903E+00
         0.42168E+00
         0.42454E+00
         0.41732E+00
         0.41673E+00
         0.42148E+00
         0.38800E+00
         0.39016E+00
         0.38418E+00
         0.40165E+00
         0.39834E+00
         0.40318E+00
         0.40004E+00
         0.40590E+00
         0.40428E+00
         0.39862E+00
         0.39901E+00
         0.40880E+00
         0.40788E+00
         0.41542E+00
         0.40414E+00
         0.38906E+00
         0.40075E+00
         0.38914E+00
         0.39672E+00
         0.42642E+00
         0.41644E+00
         0.41188E+00
         0.41733E+00
         0.41800E+00
         0.42710E+00
         0.43402E+00
         0.41762E+00
         0.40301E+00
         0.40490E+00
         0.41234E+00
         0.42607E+00
         0.41427E+00
         0.40233E+00
         0.40313E+00
         0.41235E+00
         0.42223E+00
         0.40904E+00
         0.45234E+00
         0.43943E+00
         0.44167E+00
         0.43877E+00
         0.43971E+00
         0.44693E+00
         0.45417E+00
         0.45628E+00
         0.45516E+00
         0.45602E+00
         0.45910E+00
         0.44022E+00
         0.43307E+00
         0.43036E+00
         0.42616E+00
         0.42304E+00
         0.42329E+00
         0.42894E+00
         0.44807E+00
         0.44351E+00
         0.43670E+00
         0.43664E+00
         0.43781E+00
         0.44413E+00
         0.43483E+00
         0.43149E+00
         0.96491E-02
         0.45264E-02
         0.40907E-02
         0.18214E-02
         0.10145E-01
         0.60263E-02
         0.91173E-03
         0.94368E-02
         0.47212E-02
         0.87064E-02
         0.26253E-02
         0.21894E-01
         0.15825E-01
         0.63014E-02
         0.23090E-01
         0.61365E-02
         0.15607E-02
         0.00000E+00
         0.31018E-02
         0.25323E-03
         0.16506E-01
         0.15282E-01
         0.14796E-01
         0.15092E-02
         0.44907E-02
         0.00000E+00
         0.57656E-02
         0.00000E+00
         0.13511E-03
         0.51385E-02
         0.47805E-02
         0.10794E-02
         0.19918E-02
         0.13032E-02
         0.14066E-01
         0.71205E-02
         0.10162E-01
         0.18213E-01
         0.13250E-01
         0.12107E-01
         0.18576E-01
         0.16530E-01
         0.16662E-01
         0.12158E-01
         0.10510E-01
         0.15578E-01
         0.90924E-02
         0.72517E-02
         0.54223E-02
         0.69780E-02
         0.13458E-01
         0.82254E-02
         0.70638E-01
         0.72418E-01
         0.75866E-01
         0.75289E-01
         0.80506E-01
         0.86717E-01
         0.83059E-01
         0.73441E-01
         0.71474E-01
         0.76754E-01
         0.75149E-01
         0.74075E-01
         0.60596E-01
         0.57425E-01
         0.63444E-01
         0.68217E-01
         0.70932E-01
         0.77804E-01
         0.74698E-01
         0.76822E-01
         0.68804E-01
         0.65142E-01
         0.69715E-01
         0.68070E-01
         0.70155E-01
         0.69533E-01
         0.96588E-02
         0.45281E-02
         0.40948E-02
         0.18285E-02
         0.10139E-01
         0.60209E-02
         0.92390E-03
         0.94490E-02
         0.47348E-02
         0.87415E-02
         0.26251E-02
         0.21893E-01
         0.15833E-01
         0.62792E-02
         0.23117E-01
         0.61439E-02
         0.15738E-02
         0.00000E+00
         0.31054E-02
         0.24585E-03
         0.16508E-01
         0.15281E-01
         0.14795E-01
         0.15091E-02
         0.45237E-02
         0.00000E+00
         0.57686E-02
         0.00000E+00
         0.15050E-03
         0.51531E-02
         0.47881E-02
         0.10780E-02
         0.19832E-02
         0.13072E-02
         0.14073E-01
         0.71176E-02
         0.10159E-01
         0.18247E-01
         0.13287E-01
         0.12128E-01
         0.18591E-01
         0.16540E-01
         0.16664E-01
         0.12158E-01
         0.10507E-01
         0.15577E-01
         0.90926E-02
         0.72511E-02
         0.54100E-02
         0.69641E-02
         0.13448E-01
         0.82078E-02
         0.70611E-01
         0.72399E-01
         0.75866E-01
         0.75290E-01
         0.80492E-01
         0.86686E-01
         0.83022E-01
         0.73420E-01
         0.71454E-01
         0.76730E-01
         0.75135E-01
         0.74077E-01
         0.60590E-01
         0.57422E-01
         0.63452E-01
         0.68234E-01
         0.70951E-01
         0.77821E-01
         0.74693E-01
         0.76817E-01
         0.68796E-01
         0.65138E-01
         0.69690E-01
         0.68023E-01
         0.70113E-01
         0.69494E-01
         0.96686E-02
         0.45300E-02
         0.40989E-02
         0.18356E-02
         0.10132E-01
         0.60158E-02
         0.93613E-03
         0.94612E-02
         0.47485E-02
         0.87763E-02
         0.26251E-02
         0.21893E-01
         0.15840E-01
         0.62569E-02
         0.23144E-01
         0.61515E-02
         0.15871E-02
         0.00000E+00
         0.31091E-02
         0.23862E-03
         0.16510E-01
         0.15279E-01
         0.14794E-01
         0.15089E-02
         0.45563E-02
         0.00000E+00
         0.57714E-02
         0.00000E+00
         0.16576E-03
         0.51672E-02
         0.47959E-02
         0.10767E-02
         0.19745E-02
         0.13112E-02
         0.14081E-01
         0.71149E-02
         0.10156E-01
         0.18280E-01
         0.13324E-01
         0.12149E-01
         0.18606E-01
         0.16551E-01
         0.16667E-01
         0.12158E-01
         0.10505E-01
         0.15577E-01
         0.90928E-02
         0.72503E-02
         0.53979E-02
         0.69501E-02
         0.13439E-01
         0.81903E-02
         0.70585E-01
         0.72381E-01
         0.75865E-01
         0.75290E-01
         0.80478E-01
         0.86656E-01
         0.82986E-01
         0.73400E-01
         0.71435E-01
         0.76705E-01
         0.75122E-01
         0.74080E-01
         0.60584E-01
         0.57420E-01
         0.63460E-01
         0.68252E-01
         0.70970E-01
         0.77839E-01
         0.74689E-01
         0.76813E-01
         0.68788E-01
         0.65133E-01
         0.69665E-01
         0.67976E-01
         0.70072E-01
         0.69455E-01
         0.96784E-02
         0.45317E-02
         0.41031E-02
         0.18427E-02
         0.10126E-01
         0.60106E-02
         0.94847E-03
         0.94733E-02
         0.47621E-02
         0.88104E-02
         0.26251E-02
         0.21892E-01
         0.15848E-01
         0.62348E-02
         0.23172E-01
         0.61599E-02
         0.16009E-02
         0.00000E+00
         0.31131E-02
         0.23104E-03
         0.16512E-01
         0.15279E-01
         0.14794E-01
         0.15084E-02
         0.45882E-02
         0.00000E+00
         0.57739E-02
         0.00000E+00
         0.18015E-03
         0.51801E-02
         0.48039E-02
         0.10756E-02
         0.19658E-02
         0.13152E-02
         0.14089E-01
         0.71121E-02
         0.10153E-01
         0.18314E-01
         0.13362E-01
         0.12172E-01
         0.18621E-01
         0.16562E-01
         0.16671E-01
         0.12160E-01
         0.10504E-01
         0.15577E-01
         0.90937E-02
         0.72497E-02
         0.53857E-02
         0.69361E-02
         0.13430E-01
         0.81726E-02
         0.70558E-01
         0.72363E-01
         0.75865E-01
         0.75291E-01
         0.80464E-01
         0.86625E-01
         0.82950E-01
         0.73379E-01
         0.71416E-01
         0.76681E-01
         0.75109E-01
         0.74084E-01
         0.60580E-01
         0.57418E-01
         0.63469E-01
         0.68272E-01
         0.70992E-01
         0.77858E-01
         0.74685E-01
         0.76808E-01
         0.68780E-01
         0.65129E-01
         0.69640E-01
         0.67929E-01
         0.70030E-01
         0.69416E-01
         0.96880E-02
         0.45334E-02
         0.41072E-02
         0.18498E-02
         0.10120E-01
         0.60053E-02
         0.96070E-03
         0.94852E-02
         0.47756E-02
         0.88438E-02
         0.26252E-02
         0.21891E-01
         0.15856E-01
         0.62126E-02
         0.23199E-01
         0.61688E-02
         0.16152E-02
         0.00000E+00
         0.31172E-02
         0.22328E-03
         0.16515E-01
         0.15278E-01
         0.14795E-01
         0.15077E-02
         0.46194E-02
         0.00000E+00
         0.57761E-02
         0.00000E+00
         0.19366E-03
         0.51916E-02
         0.48123E-02
         0.10747E-02
         0.19571E-02
         0.13192E-02
         0.14097E-01
         0.71092E-02
         0.10150E-01
         0.18348E-01
         0.13401E-01
         0.12195E-01
         0.18638E-01
         0.16573E-01
         0.16675E-01
         0.12163E-01
         0.10503E-01
         0.15577E-01
         0.90952E-02
         0.72496E-02
         0.53737E-02
         0.69219E-02
         0.13421E-01
         0.81550E-02
         0.70531E-01
         0.72345E-01
         0.75864E-01
         0.75291E-01
         0.80450E-01
         0.86595E-01
         0.82914E-01
         0.73359E-01
         0.71397E-01
         0.76657E-01
         0.75096E-01
         0.74089E-01
         0.60577E-01
         0.57416E-01
         0.63479E-01
         0.68295E-01
         0.71017E-01
         0.77878E-01
         0.74681E-01
         0.76803E-01
         0.68772E-01
         0.65124E-01
         0.69615E-01
         0.67882E-01
         0.69989E-01
         0.69377E-01
         0.96972E-02
         0.45347E-02
         0.41112E-02
         0.18569E-02
         0.10114E-01
         0.60001E-02
         0.97263E-03
         0.94964E-02
         0.47892E-02
         0.88762E-02
         0.26259E-02
         0.21890E-01
         0.15863E-01
         0.61905E-02
         0.23227E-01
         0.61781E-02
         0.16297E-02
         0.00000E+00
         0.31213E-02
         0.21573E-03
         0.16519E-01
         0.15278E-01
         0.14797E-01
         0.15070E-02
         0.46500E-02
         0.00000E+00
         0.57781E-02
         0.00000E+00
         0.20706E-03
         0.52027E-02
         0.48205E-02
         0.10735E-02
         0.19485E-02
         0.13232E-02
         0.14105E-01
         0.71068E-02
         0.10147E-01
         0.18382E-01
         0.13440E-01
         0.12220E-01
         0.18655E-01
         0.16585E-01
         0.16680E-01
         0.12167E-01
         0.10503E-01
         0.15579E-01
         0.90969E-02
         0.72498E-02
         0.53623E-02
         0.69082E-02
         0.13412E-01
         0.81379E-02
         0.70504E-01
         0.72327E-01
         0.75864E-01
         0.75292E-01
         0.80436E-01
         0.86564E-01
         0.82877E-01
         0.73338E-01
         0.71378E-01
         0.76632E-01
         0.75083E-01
         0.74094E-01
         0.60575E-01
         0.57415E-01
         0.63489E-01
         0.68319E-01
         0.71043E-01
         0.77897E-01
         0.74677E-01
         0.76798E-01
         0.68765E-01
         0.65120E-01
         0.69590E-01
         0.67835E-01
         0.69947E-01
         0.69338E-01
         0.97056E-02
         0.45350E-02
         0.41150E-02
         0.18641E-02
         0.10109E-01
         0.59950E-02
         0.98413E-03
         0.95059E-02
         0.48031E-02
         0.89072E-02
         0.26274E-02
         0.21891E-01
         0.15872E-01
         0.61686E-02
         0.23254E-01
         0.61874E-02
         0.16438E-02
         0.00000E+00
         0.31255E-02
         0.20828E-03
         0.16522E-01
         0.15278E-01
         0.14799E-01
         0.15064E-02
         0.46795E-02
         0.00000E+00
         0.57805E-02
         0.00000E+00
         0.22067E-03
         0.52138E-02
         0.48281E-02
         0.10715E-02
         0.19397E-02
         0.13271E-02
         0.14113E-01
         0.71049E-02
         0.10145E-01
         0.18416E-01
         0.13479E-01
         0.12244E-01
         0.18673E-01
         0.16597E-01
         0.16685E-01
         0.12171E-01
         0.10504E-01
         0.15582E-01
         0.90996E-02
         0.72511E-02
         0.53525E-02
         0.68952E-02
         0.13403E-01
         0.81207E-02
         0.70477E-01
         0.72309E-01
         0.75863E-01
         0.75292E-01
         0.80422E-01
         0.86533E-01
         0.82841E-01
         0.73317E-01
         0.71359E-01
         0.76608E-01
         0.75070E-01
         0.74099E-01
         0.60573E-01
         0.57414E-01
         0.63499E-01
         0.68343E-01
         0.71069E-01
         0.77917E-01
         0.74672E-01
         0.76794E-01
         0.68758E-01
         0.65117E-01
         0.69565E-01
         0.67789E-01
         0.69906E-01
         0.69299E-01
         0.97137E-02
         0.45350E-02
         0.41187E-02
         0.18713E-02
         0.10103E-01
         0.59898E-02
         0.99526E-03
         0.95145E-02
         0.48171E-02
         0.89376E-02
         0.26293E-02
         0.21891E-01
         0.15881E-01
         0.61467E-02
         0.23282E-01
         0.61967E-02
         0.16579E-02
         0.00000E+00
         0.31297E-02
         0.20116E-03
         0.16526E-01
         0.15278E-01
         0.14801E-01
         0.15058E-02
         0.47087E-02
         0.00000E+00
         0.57829E-02
         0.00000E+00
         0.23469E-03
         0.52250E-02
         0.48354E-02
         0.10690E-02
         0.19309E-02
         0.13309E-02
         0.14121E-01
         0.71034E-02
         0.10143E-01
         0.18451E-01
         0.13518E-01
         0.12269E-01
         0.18690E-01
         0.16609E-01
         0.16690E-01
         0.12175E-01
         0.10506E-01
         0.15585E-01
         0.91026E-02
         0.72526E-02
         0.53434E-02
         0.68823E-02
         0.13395E-01
         0.81039E-02
         0.70450E-01
         0.72291E-01
         0.75862E-01
         0.75293E-01
         0.80408E-01
         0.86503E-01
         0.82804E-01
         0.73297E-01
         0.71340E-01
         0.76583E-01
         0.75057E-01
         0.74104E-01
         0.60570E-01
         0.57413E-01
         0.63509E-01
         0.68367E-01
         0.71094E-01
         0.77936E-01
         0.74666E-01
         0.76789E-01
         0.68751E-01
         0.65114E-01
         0.69539E-01
         0.67742E-01
         0.69865E-01
         0.69261E-01
         0.97218E-02
         0.45350E-02
         0.41224E-02
         0.18785E-02
         0.10097E-01
         0.59845E-02
         0.10064E-02
         0.95233E-02
         0.48312E-02
         0.89679E-02
         0.26312E-02
         0.21891E-01
         0.15889E-01
         0.61251E-02
         0.23310E-01
         0.62060E-02
         0.16719E-02
         0.00000E+00
         0.31338E-02
         0.19383E-03
         0.16529E-01
         0.15278E-01
         0.14803E-01
         0.15054E-02
         0.47377E-02
         0.00000E+00
         0.57855E-02
         0.00000E+00
         0.24882E-03
         0.52361E-02
         0.48428E-02
         0.10665E-02
         0.19222E-02
         0.13347E-02
         0.14130E-01
         0.71015E-02
         0.10141E-01
         0.18485E-01
         0.13558E-01
         0.12293E-01
         0.18708E-01
         0.16621E-01
         0.16696E-01
         0.12180E-01
         0.10507E-01
         0.15588E-01
         0.91055E-02
         0.72542E-02
         0.53344E-02
         0.68697E-02
         0.13388E-01
         0.80869E-02
         0.70423E-01
         0.72273E-01
         0.75861E-01
         0.75293E-01
         0.80395E-01
         0.86472E-01
         0.82767E-01
         0.73276E-01
         0.71322E-01
         0.76558E-01
         0.75045E-01
         0.74110E-01
         0.60568E-01
         0.57412E-01
         0.63519E-01
         0.68391E-01
         0.71120E-01
         0.77955E-01
         0.74661E-01
         0.76784E-01
         0.68745E-01
         0.65111E-01
         0.69514E-01
         0.67695E-01
         0.69824E-01
         0.69222E-01
         0.97297E-02
         0.45349E-02
         0.41260E-02
         0.18857E-02
         0.10092E-01
         0.59792E-02
         0.10176E-02
         0.95320E-02
         0.48452E-02
         0.89983E-02
         0.26333E-02
         0.21891E-01
         0.15898E-01
         0.61034E-02
         0.23338E-01
         0.62153E-02
         0.16860E-02
         0.00000E+00
         0.31379E-02
         0.18664E-03
         0.16532E-01
         0.15278E-01
         0.14805E-01
         0.15049E-02
         0.47668E-02
         0.00000E+00
         0.57880E-02
         0.00000E+00
         0.26307E-03
         0.52472E-02
         0.48501E-02
         0.10640E-02
         0.19135E-02
         0.13386E-02
         0.14138E-01
         0.71001E-02
         0.10139E-01
         0.18520E-01
         0.13598E-01
         0.12318E-01
         0.18725E-01
         0.16633E-01
         0.16701E-01
         0.12184E-01
         0.10509E-01
         0.15591E-01
         0.91085E-02
         0.72561E-02
         0.53253E-02
         0.68568E-02
         0.13379E-01
         0.80699E-02
         0.70396E-01
         0.72255E-01
         0.75860E-01
         0.75293E-01
         0.80381E-01
         0.86441E-01
         0.82730E-01
         0.73255E-01
         0.71303E-01
         0.76533E-01
         0.75032E-01
         0.74115E-01
         0.60565E-01
         0.57411E-01
         0.63529E-01
         0.68415E-01
         0.71146E-01
         0.77974E-01
         0.74656E-01
         0.76779E-01
         0.68738E-01
         0.65108E-01
         0.69488E-01
         0.67649E-01
         0.69783E-01
         0.69183E-01
         0.97377E-02
         0.45347E-02
         0.41297E-02
         0.18929E-02
         0.10086E-01
         0.59742E-02
         0.10289E-02
         0.95406E-02
         0.48593E-02
         0.90286E-02
         0.26355E-02
         0.21891E-01
         0.15907E-01
         0.60818E-02
         0.23366E-01
         0.62245E-02
         0.17001E-02
         0.00000E+00
         0.31421E-02
         0.17926E-03
         0.16536E-01
         0.15278E-01
         0.14807E-01
         0.15045E-02
         0.47958E-02
         0.00000E+00
         0.57907E-02
         0.00000E+00
         0.27743E-03
         0.52583E-02
         0.48574E-02
         0.10615E-02
         0.19049E-02
         0.13424E-02
         0.14147E-01
         0.70984E-02
         0.10138E-01
         0.18555E-01
         0.13637E-01
         0.12342E-01
         0.18743E-01
         0.16645E-01
         0.16706E-01
         0.12188E-01
         0.10510E-01
         0.15594E-01
         0.91116E-02
         0.72577E-02
         0.53163E-02
         0.68441E-02
         0.13372E-01
         0.80531E-02
         0.70369E-01
         0.72237E-01
         0.75859E-01
         0.75293E-01
         0.80367E-01
         0.86410E-01
         0.82693E-01
         0.73234E-01
         0.71284E-01
         0.76508E-01
         0.75019E-01
         0.74120E-01
         0.60563E-01
         0.57410E-01
         0.63539E-01
         0.68439E-01
         0.71172E-01
         0.77992E-01
         0.74650E-01
         0.76773E-01
         0.68732E-01
         0.65104E-01
         0.69463E-01
         0.67602E-01
         0.69742E-01
         0.69144E-01
         0.97456E-02
         0.45347E-02
         0.41334E-02
         0.19002E-02
         0.10080E-01
         0.59690E-02
         0.10402E-02
         0.95493E-02
         0.48735E-02
         0.90588E-02
         0.26378E-02
         0.21891E-01
         0.15915E-01
         0.60603E-02
         0.23393E-01
         0.62338E-02
         0.17143E-02
         0.00000E+00
         0.31462E-02
         0.17210E-03
         0.16539E-01
         0.15278E-01
         0.14809E-01
         0.15042E-02
         0.48247E-02
         0.00000E+00
         0.57933E-02
         0.00000E+00
         0.29175E-03
         0.52694E-02
         0.48647E-02
         0.10591E-02
         0.18962E-02
         0.13463E-02
         0.14155E-01
         0.70967E-02
         0.10136E-01
         0.18589E-01
         0.13677E-01
         0.12366E-01
         0.18760E-01
         0.16657E-01
         0.16711E-01
         0.12192E-01
         0.10511E-01
         0.15597E-01
         0.91145E-02
         0.72595E-02
         0.53074E-02
         0.68314E-02
         0.13364E-01
         0.80362E-02
         0.70342E-01
         0.72219E-01
         0.75858E-01
         0.75294E-01
         0.80353E-01
         0.86379E-01
         0.82657E-01
         0.73214E-01
         0.71266E-01
         0.76483E-01
         0.75006E-01
         0.74125E-01
         0.60560E-01
         0.57408E-01
         0.63550E-01
         0.68463E-01
         0.71197E-01
         0.78011E-01
         0.74645E-01
         0.76768E-01
         0.68725E-01
         0.65101E-01
         0.69437E-01
         0.67555E-01
         0.69701E-01
         0.69106E-01
         0.97536E-02
         0.45346E-02
         0.41371E-02
         0.19075E-02
         0.10075E-01
         0.59638E-02
         0.10514E-02
         0.95580E-02
         0.48876E-02
         0.90890E-02
         0.26402E-02
         0.21891E-01
         0.15924E-01
         0.60386E-02
         0.23422E-01
         0.62431E-02
         0.17284E-02
         0.00000E+00
         0.31503E-02
         0.16483E-03
         0.16542E-01
         0.15278E-01
         0.14811E-01
         0.15038E-02
         0.48535E-02
         0.00000E+00
         0.57958E-02
         0.00000E+00
         0.30638E-03
         0.52804E-02
         0.48720E-02
         0.10566E-02
         0.18876E-02
         0.13502E-02
         0.14164E-01
         0.70953E-02
         0.10134E-01
         0.18624E-01
         0.13717E-01
         0.12391E-01
         0.18778E-01
         0.16669E-01
         0.16716E-01
         0.12197E-01
         0.10513E-01
         0.15599E-01
         0.91176E-02
         0.72612E-02
         0.52985E-02
         0.68187E-02
         0.13356E-01
         0.80192E-02
         0.70315E-01
         0.72201E-01
         0.75857E-01
         0.75294E-01
         0.80339E-01
         0.86349E-01
         0.82620E-01
         0.73193E-01
         0.71247E-01
         0.76458E-01
         0.74993E-01
         0.74130E-01
         0.60558E-01
         0.57407E-01
         0.63560E-01
         0.68487E-01
         0.71223E-01
         0.78030E-01
         0.74640E-01
         0.76764E-01
         0.68719E-01
         0.65098E-01
         0.69412E-01
         0.67509E-01
         0.69660E-01
         0.69067E-01
         0.97615E-02
         0.45346E-02
         0.41407E-02
         0.19148E-02
         0.10069E-01
         0.59585E-02
         0.10628E-02
         0.95666E-02
         0.49017E-02
         0.91192E-02
         0.26427E-02
         0.21891E-01
         0.15933E-01
         0.60171E-02
         0.23449E-01
         0.62523E-02
         0.17426E-02
         0.00000E+00
         0.31545E-02
         0.15771E-03
         0.16546E-01
         0.15278E-01
         0.14813E-01
         0.15034E-02
         0.48824E-02
         0.00000E+00
         0.57983E-02
         0.00000E+00
         0.32116E-03
         0.52914E-02
         0.48793E-02
         0.10541E-02
         0.18791E-02
         0.13540E-02
         0.14172E-01
         0.70937E-02
         0.10132E-01
         0.18659E-01
         0.13756E-01
         0.12415E-01
         0.18795E-01
         0.16681E-01
         0.16721E-01
         0.12201E-01
         0.10514E-01
         0.15603E-01
         0.91208E-02
         0.72629E-02
         0.52894E-02
         0.68060E-02
         0.13348E-01
         0.80024E-02
         0.70288E-01
         0.72184E-01
         0.75856E-01
         0.75295E-01
         0.80325E-01
         0.86318E-01
         0.82582E-01
         0.73171E-01
         0.71228E-01
         0.76432E-01
         0.74980E-01
         0.74135E-01
         0.60555E-01
         0.57406E-01
         0.63570E-01
         0.68511E-01
         0.71249E-01
         0.78049E-01
         0.74635E-01
         0.76759E-01
         0.68713E-01
         0.65095E-01
         0.69386E-01
         0.67462E-01
         0.69619E-01
         0.69028E-01
         0.97694E-02
         0.45346E-02
         0.41444E-02
         0.19221E-02
         0.10064E-01
         0.59533E-02
         0.10741E-02
         0.95753E-02
         0.49158E-02
         0.91494E-02
         0.26452E-02
         0.21892E-01
         0.15942E-01
         0.59955E-02
         0.23477E-01
         0.62615E-02
         0.17568E-02
         0.00000E+00
         0.31586E-02
         0.15040E-03
         0.16549E-01
         0.15278E-01
         0.14815E-01
         0.15031E-02
         0.49113E-02
         0.00000E+00
         0.58008E-02
         0.00000E+00
         0.33606E-03
         0.53025E-02
         0.48866E-02
         0.10516E-02
         0.18705E-02
         0.13579E-02
         0.14181E-01
         0.70924E-02
         0.10130E-01
         0.18694E-01
         0.13796E-01
         0.12439E-01
         0.18813E-01
         0.16693E-01
         0.16727E-01
         0.12205E-01
         0.10516E-01
         0.15606E-01
         0.91236E-02
         0.72647E-02
         0.52803E-02
         0.67931E-02
         0.13340E-01
         0.79855E-02
         0.70261E-01
         0.72166E-01
         0.75854E-01
         0.75295E-01
         0.80312E-01
         0.86287E-01
         0.82545E-01
         0.73150E-01
         0.71209E-01
         0.76407E-01
         0.74967E-01
         0.74140E-01
         0.60553E-01
         0.57405E-01
         0.63580E-01
         0.68535E-01
         0.71275E-01
         0.78068E-01
         0.74630E-01
         0.76754E-01
         0.68706E-01
         0.65092E-01
         0.69361E-01
         0.67416E-01
         0.69579E-01
         0.68989E-01
         0.97772E-02
         0.45344E-02
         0.41480E-02
         0.19294E-02
         0.10058E-01
         0.59483E-02
         0.10854E-02
         0.95839E-02
         0.49301E-02
         0.91796E-02
         0.26479E-02
         0.21892E-01
         0.15950E-01
         0.59741E-02
         0.23505E-01
         0.62708E-02
         0.17711E-02
         0.00000E+00
         0.31628E-02
         0.14327E-03
         0.16553E-01
         0.15278E-01
         0.14817E-01
         0.15027E-02
         0.49401E-02
         0.00000E+00
         0.58033E-02
         0.00000E+00
         0.35108E-03
         0.53134E-02
         0.48938E-02
         0.10492E-02
         0.18621E-02
         0.13618E-02
         0.14190E-01
         0.70907E-02
         0.10129E-01
         0.18728E-01
         0.13836E-01
         0.12463E-01
         0.18830E-01
         0.16705E-01
         0.16732E-01
         0.12210E-01
         0.10517E-01
         0.15609E-01
         0.91267E-02
         0.72663E-02
         0.52715E-02
         0.67804E-02
         0.13332E-01
         0.79685E-02
         0.70233E-01
         0.72148E-01
         0.75853E-01
         0.75295E-01
         0.80298E-01
         0.86256E-01
         0.82507E-01
         0.73129E-01
         0.71191E-01
         0.76382E-01
         0.74955E-01
         0.74146E-01
         0.60550E-01
         0.57404E-01
         0.63591E-01
         0.68559E-01
         0.71301E-01
         0.78087E-01
         0.74624E-01
         0.76749E-01
         0.68700E-01
         0.65088E-01
         0.69335E-01
         0.67369E-01
         0.69538E-01
         0.68951E-01
         0.97851E-02
         0.45343E-02
         0.41517E-02
         0.19367E-02
         0.10053E-01
         0.59431E-02
         0.10969E-02
         0.95925E-02
         0.49443E-02
         0.92096E-02
         0.26506E-02
         0.21892E-01
         0.15959E-01
         0.59525E-02
         0.23533E-01
         0.62801E-02
         0.17854E-02
         0.00000E+00
         0.31669E-02
         0.13603E-03
         0.16556E-01
         0.15278E-01
         0.14819E-01
         0.15025E-02
         0.49688E-02
         0.00000E+00
         0.58057E-02
         0.00000E+00
         0.36604E-03
         0.53242E-02
         0.49012E-02
         0.10468E-02
         0.18538E-02
         0.13658E-02
         0.14198E-01
         0.70891E-02
         0.10127E-01
         0.18763E-01
         0.13876E-01
         0.12487E-01
         0.18847E-01
         0.16717E-01
         0.16737E-01
         0.12214E-01
         0.10519E-01
         0.15612E-01
         0.91299E-02
         0.72682E-02
         0.52626E-02
         0.67676E-02
         0.13324E-01
         0.79518E-02
         0.70206E-01
         0.72130E-01
         0.75852E-01
         0.75296E-01
         0.80284E-01
         0.86224E-01
         0.82470E-01
         0.73108E-01
         0.71172E-01
         0.76356E-01
         0.74942E-01
         0.74151E-01
         0.60548E-01
         0.57403E-01
         0.63601E-01
         0.68583E-01
         0.71326E-01
         0.78106E-01
         0.74619E-01
         0.76744E-01
         0.68693E-01
         0.65085E-01
         0.69310E-01
         0.67322E-01
         0.69497E-01
         0.68912E-01
         0.97929E-02
         0.45342E-02
         0.41554E-02
         0.19441E-02
         0.10047E-01
         0.59378E-02
         0.11082E-02
         0.96010E-02
         0.49586E-02
         0.92395E-02
         0.26533E-02
         0.21892E-01
         0.15968E-01
         0.59309E-02
         0.23561E-01
         0.62893E-02
         0.17997E-02
         0.00000E+00
         0.31711E-02
         0.12914E-03
         0.16559E-01
         0.15278E-01
         0.14821E-01
         0.15021E-02
         0.49975E-02
         0.00000E+00
         0.58072E-02
         0.00000E+00
         0.38128E-03
         0.53345E-02
         0.49085E-02
         0.10443E-02
         0.18454E-02
         0.13697E-02
         0.14207E-01
         0.70878E-02
         0.10125E-01
         0.18798E-01
         0.13916E-01
         0.12510E-01
         0.18863E-01
         0.16728E-01
         0.16741E-01
         0.12218E-01
         0.10520E-01
         0.15615E-01
         0.91328E-02
         0.72700E-02
         0.52536E-02
         0.67549E-02
         0.13317E-01
         0.79349E-02
         0.70179E-01
         0.72112E-01
         0.75851E-01
         0.75296E-01
         0.80270E-01
         0.86193E-01
         0.82432E-01
         0.73087E-01
         0.71153E-01
         0.76328E-01
         0.74930E-01
         0.74159E-01
         0.60547E-01
         0.57402E-01
         0.63611E-01
         0.68606E-01
         0.71352E-01
         0.78125E-01
         0.74614E-01
         0.76739E-01
         0.68687E-01
         0.65082E-01
         0.69284E-01
         0.67276E-01
         0.69456E-01
         0.68873E-01
         0.98008E-02
         0.45342E-02
         0.41590E-02
         0.19515E-02
         0.10041E-01
         0.59326E-02
         0.11196E-02
         0.96095E-02
         0.49729E-02
         0.92691E-02
         0.26561E-02
         0.21892E-01
         0.15976E-01
         0.59091E-02
         0.23589E-01
         0.62985E-02
         0.18140E-02
         0.00000E+00
         0.31753E-02
         0.12219E-03
         0.16563E-01
         0.15277E-01
         0.14823E-01
         0.15018E-02
         0.50260E-02
         0.00000E+00
         0.58082E-02
         0.00000E+00
         0.39663E-03
         0.53442E-02
         0.49157E-02
         0.10419E-02
         0.18370E-02
         0.13736E-02
         0.14216E-01
         0.70862E-02
         0.10123E-01
         0.18833E-01
         0.13955E-01
         0.12532E-01
         0.18879E-01
         0.16737E-01
         0.16745E-01
         0.12223E-01
         0.10522E-01
         0.15618E-01
         0.91359E-02
         0.72717E-02
         0.52447E-02
         0.67420E-02
         0.13308E-01
         0.79178E-02
         0.70152E-01
         0.72095E-01
         0.75849E-01
         0.75296E-01
         0.80256E-01
         0.86162E-01
         0.82394E-01
         0.73066E-01
         0.71134E-01
         0.76300E-01
         0.74917E-01
         0.74169E-01
         0.60548E-01
         0.57401E-01
         0.63621E-01
         0.68630E-01
         0.71378E-01
         0.78143E-01
         0.74609E-01
         0.76733E-01
         0.68680E-01
         0.65079E-01
         0.69258E-01
         0.67229E-01
         0.69416E-01
         0.68835E-01
         0.98087E-02
         0.45342E-02
         0.41629E-02
         0.19589E-02
         0.10036E-01
         0.59276E-02
         0.11311E-02
         0.96180E-02
         0.49874E-02
         0.92986E-02
         0.26591E-02
         0.21893E-01
         0.15985E-01
         0.58873E-02
         0.23616E-01
         0.63078E-02
         0.18284E-02
         0.00000E+00
         0.31795E-02
         0.11545E-03
         0.16566E-01
         0.15277E-01
         0.14824E-01
         0.15016E-02
         0.50545E-02
         0.00000E+00
         0.58090E-02
         0.00000E+00
         0.41201E-03
         0.53538E-02
         0.49231E-02
         0.10395E-02
         0.18288E-02
         0.13777E-02
         0.14225E-01
         0.70849E-02
         0.10121E-01
         0.18869E-01
         0.13995E-01
         0.12554E-01
         0.18893E-01
         0.16746E-01
         0.16749E-01
         0.12227E-01
         0.10523E-01
         0.15621E-01
         0.91390E-02
         0.72736E-02
         0.52359E-02
         0.67293E-02
         0.13301E-01
         0.79012E-02
         0.70125E-01
         0.72077E-01
         0.75848E-01
         0.75297E-01
         0.80242E-01
         0.86131E-01
         0.82357E-01
         0.73045E-01
         0.71115E-01
         0.76271E-01
         0.74905E-01
         0.74179E-01
         0.60548E-01
         0.57400E-01
         0.63631E-01
         0.68654E-01
         0.71404E-01
         0.78162E-01
         0.74604E-01
         0.76729E-01
         0.68674E-01
         0.65075E-01
         0.69232E-01
         0.67183E-01
         0.69375E-01
         0.68796E-01
         0.10423E-01
         0.55071E-02
         0.51656E-02
         0.30909E-02
         0.10854E-01
         0.68944E-02
         0.28688E-02
         0.10394E-01
         0.58392E-02
         0.10111E-01
         0.43310E-02
         0.22643E-01
         0.16726E-01
         0.71215E-02
         0.24403E-01
         0.70257E-02
         0.31811E-02
         0.12905E-02
         0.43793E-02
         0.21709E-02
         0.17190E-01
         0.15936E-01
         0.15436E-01
         0.28944E-02
         0.61687E-02
         0.12522E-02
         0.70412E-02
         0.16297E-02
         0.27040E-02
         0.64920E-02
         0.57485E-02
         0.25190E-02
         0.29826E-02
         0.27303E-02
         0.15043E-01
         0.80707E-02
         0.10931E-01
         0.19676E-01
         0.14885E-01
         0.13460E-01
         0.19654E-01
         0.17476E-01
         0.17411E-01
         0.12872E-01
         0.11277E-01
         0.16396E-01
         0.10021E-01
         0.81550E-02
         0.62298E-02
         0.76652E-02
         0.14071E-01
         0.87701E-02
         0.71219E-01
         0.73149E-01
         0.76968E-01
         0.76372E-01
         0.81359E-01
         0.87318E-01
         0.83541E-01
         0.74214E-01
         0.72295E-01
         0.77491E-01
         0.76090E-01
         0.75292E-01
         0.61483E-01
         0.58264E-01
         0.64519E-01
         0.69581E-01
         0.72350E-01
         0.79223E-01
         0.75736E-01
         0.77870E-01
         0.69683E-01
         0.66037E-01
         0.70222E-01
         0.68141E-01
         0.70330E-01
         0.69752E-01
         0.42599E-01
         0.41614E-01
         0.40858E-01
         0.36529E-01
         0.48404E-01
         0.43715E-01
         0.43978E-01
         0.47752E-01
         0.39071E-01
         0.47542E-01
         0.48791E-01
         0.64765E-01
         0.56006E-01
         0.51239E-01
         0.67967E-01
         0.38963E-01
         0.39994E-01
         0.34253E-01
         0.41719E-01
         0.43201E-01
         0.52620E-01
         0.52738E-01
         0.49712E-01
         0.39622E-01
         0.46053E-01
         0.37746E-01
         0.51064E-01
         0.48481E-01
         0.48968E-01
         0.47768E-01
         0.38688E-01
         0.39336E-01
         0.36784E-01
         0.38402E-01
         0.54846E-01
         0.47175E-01
         0.48867E-01
         0.63100E-01
         0.58610E-01
         0.57128E-01
         0.62153E-01
         0.58191E-01
         0.55659E-01
         0.47022E-01
         0.47577E-01
         0.55638E-01
         0.48459E-01
         0.44905E-01
         0.43160E-01
         0.45339E-01
         0.52406E-01
         0.45989E-01
         0.12315E+00
         0.12352E+00
         0.12851E+00
         0.12648E+00
         0.13306E+00
         0.14216E+00
         0.14012E+00
         0.13111E+00
         0.12946E+00
         0.13558E+00
         0.13251E+00
         0.12809E+00
         0.10921E+00
         0.10346E+00
         0.10910E+00
         0.11406E+00
         0.11713E+00
         0.12756E+00
         0.12749E+00
         0.12995E+00
         0.11843E+00
         0.11350E+00
         0.11909E+00
         0.11687E+00
         0.11829E+00
         0.11729E+00
  
SCALARS                            dam  double 1
LOOKUP_TABLE default
         0.00000E+00
         0.00000E+00
         0.00000E+00
         0.00000E+00
         0.00000E+00
         0.00000E+00
         0.00000E+00
         0.00000E+00
         0.00000E+00
         0.00000E+00
         0.00000E+00
         0.00000E+00
         0.00000E+00
         0.00000E+00
         0.00000E+00
         0.00000E+00
         0.00000E+00
         0.00000E+00
         0.00000E+00
         0.00000E+00
         0.00000E+00
         0.00000E+00
         0.00000E+00
         0.00000E+00
         0.00000E+00
         0.00000E+00
         0.00000E+00
         0.00000E+00
         0.00000E+00
         0.00000E+00
         0.00000E+00
         0.00000E+00
         0.00000E+00
         0.00000E+00
         0.00000E+00
         0.00000E+00
         0.00000E+00
         0.00000E+00
         0.00000E+00
         0.00000E+00
         0.00000E+00
         0.00000E+00
         0.00000E+00
         0.00000E+00
         0.00000E+00
         0.00000E+00
         0.00000E+00
         0.00000E+00
         0.00000E+00
         0.00000E+00
         0.00000E+00
         0.00000E+00
         0.00000E+00
         0.00000E+00
         0.00000E+00
         0.00000E+00
         0.00000E+00
         0.00000E+00
         0.00000E+00
         0.00000E+00
         0.00000E+00
         0.00000E+00
         0.00000E+00
         0.00000E+00
         0.00000E+00
         0.00000E+00
         0.00000E+00
         0.00000E+00
         0.00000E+00
         0.00000E+00
         0.00000E+00
         0.00000E+00
         0.00000E+00
         0.00000E+00
         0.00000E+00
         0.00000E+00
         0.00000E+00
         0.00000E+00
         0.00000E+00
         0.00000E+00
         0.00000E+00
         0.00000E+00
         0.00000E+00
         0.00000E+00
         0.00000E+00
         0.00000E+00
         0.00000E+00
         0.00000E+00
         0.00000E+00
         0.00000E+00
         0.00000E+00
         0.00000E+00
         0.00000E+00
         0.00000E+00
         0.00000E+00
         0.00000E+00
         0.00000E+00
         0.00000E+00
         0.00000E+00
         0.00000E+00
         0.00000E+00
         0.00000E+00
         0.00000E+00
         0.00000E+00
         0.00000E+00
         0.00000E+00
         0.00000E+00
         0.00000E+00
         0.00000E+00
         0.00000E+00
         0.00000E+00
         0.00000E+00
         0.00000E+00
         0.00000E+00
         0.00000E+00
         0.00000E+00
         0.00000E+00
         0.00000E+00
         0.00000E+00
         0.00000E+00
         0.00000E+00
         0.00000E+00
         0.00000E+00
         0.00000E+00
         0.00000E+00
         0.00000E+00
         0.00000E+00
         0.00000E+00
         0.00000E+00
         0.00000E+00
         0.00000E+00
         0.00000E+00
         0.00000E+00
         0.00000E+00
         0.00000E+00
         0.00000E+00
         0.00000E+00
         0.00000E+00
         0.00000E+00
         0.00000E+00
         0.00000E+00
         0.00000E+00
         0.00000E+00
         0.00000E+00
         0.00000E+00
         0.00000E+00
         0.00000E+00
         0.00000E+00
         0.00000E+00
         0.00000E+00
         0.00000E+00
         0.00000E+00
         0.00000E+00
         0.00000E+00
         0.00000E+00
         0.00000E+00
         0.00000E+00
         0.00000E+00
         0.00000E+00
         0.00000E+00
         0.00000E+00
         0.00000E+00
         0.00000E+00
         0.00000E+00
         0.00000E+00
         0.00000E+00
         0.00000E+00
         0.00000E+00
         0.00000E+00
         0.00000E+00
         0.00000E+00
         0.00000E+00
         0.00000E+00
         0.00000E+00
         0.00000E+00
         0.00000E+00
         0.00000E+00
         0.00000E+00
         0.00000E+00
         0.00000E+00
         0.00000E+00
         0.00000E+00
         0.00000E+00
         0.00000E+00
         0.00000E+00
         0.00000E+00
         0.00000E+00
         0.00000E+00
         0.00000E+00
         0.00000E+00
         0.00000E+00
         0.00000E+00
         0.00000E+00
         0.00000E+00
         0.00000E+00
         0.00000E+00
         0.00000E+00
         0.00000E+00
         0.00000E+00
         0.00000E+00
         0.00000E+00
         0.00000E+00
         0.00000E+00
         0.00000E+00
         0.00000E+00
         0.00000E+00
         0.00000E+00
         0.00000E+00
         0.00000E+00
         0.00000E+00
         0.00000E+00
         0.00000E+00
         0.00000E+00
         0.00000E+00
         0.00000E+00
         0.00000E+00
         0.00000E+00
         0.00000E+00
         0.00000E+00
         0.00000E+00
         0.00000E+00
         0.00000E+00
         0.00000E+00
         0.00000E+00
         0.00000E+00
         0.00000E+00
         0.00000E+00
         0.00000E+00
         0.00000E+00
         0.00000E+00
         0.00000E+00
         0.00000E+00
         0.00000E+00
         0.00000E+00
         0.00000E+00
         0.00000E+00
         0.00000E+00
         0.00000E+00
         0.00000E+00
         0.00000E+00
         0.00000E+00
         0.00000E+00
         0.00000E+00
         0.00000E+00
         0.00000E+00
         0.00000E+00
         0.00000E+00
         0.00000E+00
         0.00000E+00
         0.00000E+00
         0.00000E+00
         0.00000E+00
         0.00000E+00
         0.00000E+00
         0.00000E+00
         0.00000E+00
         0.00000E+00
         0.00000E+00
         0.00000E+00
         0.00000E+00
         0.00000E+00
         0.00000E+00
         0.00000E+00
         0.00000E+00
         0.00000E+00
         0.00000E+00
         0.00000E+00
         0.00000E+00
         0.00000E+00
         0.00000E+00
         0.00000E+00
         0.00000E+00
         0.00000E+00
         0.00000E+00
         0.00000E+00
         0.00000E+00
         0.00000E+00
         0.00000E+00
         0.00000E+00
         0.00000E+00
         0.00000E+00
         0.00000E+00
         0.00000E+00
         0.00000E+00
         0.00000E+00
         0.00000E+00
         0.00000E+00
         0.00000E+00
         0.00000E+00
         0.00000E+00
         0.00000E+00
         0.00000E+00
         0.00000E+00
         0.00000E+00
         0.00000E+00
         0.00000E+00
         0.00000E+00
         0.00000E+00
         0.00000E+00
         0.00000E+00
         0.00000E+00
         0.00000E+00
         0.00000E+00
         0.00000E+00
         0.00000E+00
         0.00000E+00
         0.00000E+00
         0.00000E+00
         0.00000E+00
         0.00000E+00
         0.00000E+00
         0.00000E+00
         0.00000E+00
         0.00000E+00
         0.00000E+00
         0.00000E+00
         0.00000E+00
         0.00000E+00
         0.00000E+00
         0.00000E+00
         0.00000E+00
         0.00000E+00
         0.00000E+00
         0.00000E+00
         0.00000E+00
         0.00000E+00
         0.00000E+00
         0.00000E+00
         0.00000E+00
         0.00000E+00
         0.00000E+00
         0.00000E+00
         0.00000E+00
         0.00000E+00
         0.00000E+00
         0.00000E+00
         0.00000E+00
         0.00000E+00
         0.00000E+00
         0.00000E+00
         0.00000E+00
         0.00000E+00
         0.00000E+00
         0.00000E+00
         0.00000E+00
         0.00000E+00
         0.00000E+00
         0.00000E+00
         0.00000E+00
         0.00000E+00
         0.00000E+00
         0.00000E+00
         0.00000E+00
         0.00000E+00
         0.00000E+00
         0.00000E+00
         0.00000E+00
         0.00000E+00
         0.00000E+00
         0.00000E+00
         0.00000E+00
         0.00000E+00
         0.00000E+00
         0.00000E+00
         0.00000E+00
         0.00000E+00
         0.00000E+00
         0.00000E+00
         0.00000E+00
         0.00000E+00
         0.00000E+00
         0.00000E+00
         0.00000E+00
         0.00000E+00
         0.00000E+00
         0.00000E+00
         0.00000E+00
         0.00000E+00
         0.00000E+00
         0.00000E+00
         0.00000E+00
         0.00000E+00
         0.00000E+00
         0.00000E+00
         0.00000E+00
         0.00000E+00
         0.00000E+00
         0.00000E+00
         0.00000E+00
         0.00000E+00
         0.00000E+00
         0.00000E+00
         0.00000E+00
         0.00000E+00
         0.00000E+00
         0.00000E+00
         0.00000E+00
         0.00000E+00
         0.00000E+00
         0.00000E+00
         0.00000E+00
         0.00000E+00
         0.00000E+00
         0.00000E+00
         0.00000E+00
         0.00000E+00
         0.00000E+00
         0.00000E+00
         0.00000E+00
         0.00000E+00
         0.00000E+00
         0.00000E+00
         0.00000E+00
         0.00000E+00
         0.00000E+00
         0.00000E+00
         0.00000E+00
         0.00000E+00
         0.00000E+00
         0.00000E+00
         0.00000E+00
         0.00000E+00
         0.00000E+00
         0.00000E+00
         0.00000E+00
         0.00000E+00
         0.00000E+00
         0.00000E+00
         0.00000E+00
         0.00000E+00
         0.00000E+00
         0.00000E+00
         0.00000E+00
         0.00000E+00
         0.00000E+00
         0.00000E+00
         0.00000E+00
         0.00000E+00
         0.00000E+00
         0.00000E+00
         0.00000E+00
         0.00000E+00
         0.00000E+00
         0.00000E+00
         0.00000E+00
         0.00000E+00
         0.00000E+00
         0.00000E+00
         0.00000E+00
         0.00000E+00
         0.00000E+00
         0.00000E+00
         0.00000E+00
         0.00000E+00
         0.00000E+00
         0.00000E+00
         0.00000E+00
         0.00000E+00
         0.00000E+00
         0.00000E+00
         0.00000E+00
         0.00000E+00
         0.00000E+00
         0.00000E+00
         0.00000E+00
         0.00000E+00
         0.00000E+00
         0.00000E+00
         0.00000E+00
         0.00000E+00
         0.00000E+00
         0.00000E+00
         0.00000E+00
         0.00000E+00
         0.00000E+00
         0.00000E+00
         0.00000E+00
         0.00000E+00
         0.00000E+00
         0.00000E+00
         0.00000E+00
         0.00000E+00
         0.00000E+00
         0.00000E+00
         0.00000E+00
         0.00000E+00
         0.00000E+00
         0.00000E+00
         0.00000E+00
         0.00000E+00
         0.00000E+00
         0.00000E+00
         0.00000E+00
         0.00000E+00
         0.00000E+00
         0.00000E+00
         0.00000E+00
         0.00000E+00
         0.00000E+00
         0.00000E+00
         0.00000E+00
         0.00000E+00
         0.00000E+00
         0.00000E+00
         0.00000E+00
         0.00000E+00
         0.00000E+00
         0.00000E+00
         0.00000E+00
         0.00000E+00
         0.00000E+00
         0.00000E+00
         0.00000E+00
         0.00000E+00
         0.00000E+00
         0.00000E+00
         0.00000E+00
         0.00000E+00
         0.00000E+00
         0.00000E+00
         0.00000E+00
         0.00000E+00
         0.00000E+00
         0.00000E+00
         0.00000E+00
         0.00000E+00
         0.00000E+00
         0.00000E+00
         0.00000E+00
         0.00000E+00
         0.00000E+00
         0.00000E+00
         0.00000E+00
         0.00000E+00
         0.00000E+00
         0.00000E+00
         0.00000E+00
         0.00000E+00
         0.00000E+00
         0.00000E+00
         0.00000E+00
         0.00000E+00
         0.00000E+00
         0.00000E+00
         0.00000E+00
         0.00000E+00
         0.00000E+00
         0.00000E+00
         0.00000E+00
         0.00000E+00
         0.00000E+00
         0.00000E+00
         0.00000E+00
         0.00000E+00
         0.00000E+00
         0.00000E+00
         0.00000E+00
         0.00000E+00
         0.00000E+00
         0.00000E+00
         0.00000E+00
         0.00000E+00
         0.00000E+00
         0.00000E+00
         0.00000E+00
         0.00000E+00
         0.00000E+00
         0.00000E+00
         0.00000E+00
         0.00000E+00
         0.00000E+00
         0.00000E+00
         0.00000E+00
         0.00000E+00
         0.00000E+00
         0.00000E+00
         0.00000E+00
         0.00000E+00
         0.00000E+00
         0.00000E+00
         0.00000E+00
         0.00000E+00
         0.00000E+00
         0.00000E+00
         0.00000E+00
         0.00000E+00
         0.00000E+00
         0.00000E+00
         0.00000E+00
         0.00000E+00
         0.00000E+00
         0.00000E+00
         0.00000E+00
         0.00000E+00
         0.00000E+00
         0.00000E+00
         0.00000E+00
         0.00000E+00
         0.00000E+00
         0.00000E+00
         0.00000E+00
         0.00000E+00
         0.00000E+00
         0.00000E+00
         0.00000E+00
         0.00000E+00
         0.00000E+00
         0.00000E+00
         0.00000E+00
         0.00000E+00
         0.00000E+00
         0.00000E+00
         0.00000E+00
         0.00000E+00
         0.00000E+00
         0.00000E+00
         0.00000E+00
         0.00000E+00
         0.00000E+00
         0.00000E+00
         0.00000E+00
         0.00000E+00
         0.00000E+00
         0.00000E+00
         0.00000E+00
         0.00000E+00
         0.00000E+00
         0.00000E+00
         0.00000E+00
         0.00000E+00
         0.00000E+00
         0.00000E+00
         0.00000E+00
         0.00000E+00
         0.00000E+00
         0.00000E+00
         0.00000E+00
         0.00000E+00
         0.00000E+00
         0.00000E+00
         0.00000E+00
         0.00000E+00
         0.00000E+00
         0.00000E+00
         0.00000E+00
         0.00000E+00
         0.00000E+00
         0.00000E+00
         0.00000E+00
         0.00000E+00
         0.00000E+00
         0.00000E+00
         0.00000E+00
         0.00000E+00
         0.00000E+00
         0.00000E+00
         0.00000E+00
         0.00000E+00
         0.00000E+00
         0.00000E+00
         0.00000E+00
         0.00000E+00
         0.00000E+00
         0.00000E+00
         0.00000E+00
         0.00000E+00
         0.00000E+00
         0.00000E+00
         0.00000E+00
         0.00000E+00
         0.00000E+00
         0.00000E+00
         0.00000E+00
         0.00000E+00
         0.00000E+00
         0.00000E+00
         0.00000E+00
         0.00000E+00
         0.00000E+00
         0.00000E+00
         0.00000E+00
         0.00000E+00
         0.00000E+00
         0.00000E+00
         0.00000E+00
         0.00000E+00
         0.00000E+00
         0.00000E+00
         0.00000E+00
         0.00000E+00
         0.00000E+00
         0.00000E+00
         0.00000E+00
         0.00000E+00
         0.00000E+00
         0.00000E+00
         0.00000E+00
         0.00000E+00
         0.00000E+00
         0.00000E+00
         0.00000E+00
         0.00000E+00
         0.00000E+00
         0.00000E+00
         0.00000E+00
         0.00000E+00
         0.00000E+00
         0.00000E+00
         0.00000E+00
         0.00000E+00
         0.00000E+00
         0.00000E+00
         0.00000E+00
         0.00000E+00
         0.00000E+00
         0.00000E+00
         0.00000E+00
         0.00000E+00
         0.00000E+00
         0.00000E+00
         0.00000E+00
         0.00000E+00
         0.00000E+00
         0.00000E+00
         0.00000E+00
         0.00000E+00
         0.00000E+00
         0.00000E+00
         0.00000E+00
         0.00000E+00
         0.00000E+00
         0.00000E+00
         0.00000E+00
         0.00000E+00
         0.00000E+00
         0.00000E+00
         0.00000E+00
         0.00000E+00
         0.00000E+00
         0.00000E+00
         0.00000E+00
         0.00000E+00
         0.00000E+00
         0.00000E+00
         0.00000E+00
         0.00000E+00
         0.00000E+00
         0.00000E+00
         0.00000E+00
         0.00000E+00
         0.00000E+00
         0.00000E+00
         0.00000E+00
         0.00000E+00
         0.00000E+00
         0.00000E+00
         0.00000E+00
         0.00000E+00
         0.00000E+00
         0.00000E+00
         0.00000E+00
         0.00000E+00
         0.00000E+00
         0.00000E+00
         0.00000E+00
         0.00000E+00
         0.00000E+00
         0.00000E+00
         0.00000E+00
         0.00000E+00
         0.00000E+00
         0.00000E+00
         0.00000E+00
         0.00000E+00
         0.00000E+00
         0.00000E+00
         0.00000E+00
         0.00000E+00
         0.00000E+00
         0.00000E+00
         0.00000E+00
         0.00000E+00
         0.00000E+00
         0.00000E+00
         0.00000E+00
         0.00000E+00
         0.00000E+00
         0.00000E+00
         0.00000E+00
         0.00000E+00
         0.00000E+00
         0.00000E+00
         0.00000E+00
         0.00000E+00
         0.00000E+00
         0.00000E+00
         0.00000E+00
         0.00000E+00
         0.00000E+00
         0.00000E+00
         0.00000E+00
         0.00000E+00
         0.00000E+00
         0.00000E+00
         0.00000E+00
         0.00000E+00
         0.00000E+00
         0.00000E+00
         0.00000E+00
         0.00000E+00
         0.00000E+00
         0.00000E+00
         0.00000E+00
         0.00000E+00
         0.00000E+00
         0.00000E+00
         0.00000E+00
         0.00000E+00
         0.00000E+00
         0.00000E+00
         0.00000E+00
         0.00000E+00
         0.00000E+00
         0.00000E+00
         0.00000E+00
         0.00000E+00
         0.00000E+00
         0.00000E+00
         0.00000E+00
         0.00000E+00
         0.00000E+00
         0.00000E+00
         0.00000E+00
         0.00000E+00
         0.00000E+00
         0.00000E+00
         0.00000E+00
         0.00000E+00
         0.00000E+00
         0.00000E+00
         0.00000E+00
         0.00000E+00
         0.00000E+00
         0.00000E+00
         0.00000E+00
         0.00000E+00
         0.00000E+00
         0.00000E+00
         0.00000E+00
         0.00000E+00
         0.00000E+00
         0.00000E+00
         0.00000E+00
         0.00000E+00
         0.00000E+00
         0.00000E+00
         0.00000E+00
         0.00000E+00
         0.00000E+00
         0.00000E+00
         0.00000E+00
         0.00000E+00
         0.00000E+00
         0.00000E+00
         0.00000E+00
         0.00000E+00
         0.00000E+00
         0.00000E+00
         0.00000E+00
         0.00000E+00
         0.00000E+00
         0.00000E+00
         0.00000E+00
         0.00000E+00
         0.00000E+00
         0.00000E+00
         0.00000E+00
         0.00000E+00
         0.00000E+00
         0.00000E+00
         0.00000E+00
         0.00000E+00
         0.00000E+00
         0.00000E+00
         0.00000E+00
         0.00000E+00
         0.00000E+00
         0.00000E+00
         0.00000E+00
         0.00000E+00
         0.00000E+00
         0.00000E+00
         0.00000E+00
         0.00000E+00
         0.00000E+00
         0.00000E+00
         0.00000E+00
         0.00000E+00
         0.00000E+00
         0.00000E+00
         0.00000E+00
         0.00000E+00
         0.00000E+00
         0.00000E+00
         0.00000E+00
         0.00000E+00
         0.00000E+00
         0.00000E+00
         0.00000E+00
         0.00000E+00
         0.00000E+00
         0.00000E+00
         0.00000E+00
         0.00000E+00
         0.00000E+00
         0.00000E+00
         0.00000E+00
         0.00000E+00
         0.00000E+00
         0.00000E+00
         0.00000E+00
         0.00000E+00
         0.00000E+00
         0.00000E+00
         0.00000E+00
         0.00000E+00
         0.00000E+00
         0.00000E+00
         0.00000E+00
         0.00000E+00
         0.00000E+00
         0.00000E+00
         0.00000E+00
         0.00000E+00
         0.00000E+00
         0.00000E+00
         0.00000E+00
         0.00000E+00
         0.00000E+00
         0.00000E+00
         0.00000E+00
         0.00000E+00
         0.00000E+00
         0.00000E+00
         0.00000E+00
         0.00000E+00
         0.00000E+00
         0.00000E+00
         0.00000E+00
         0.00000E+00
         0.00000E+00
         0.00000E+00
         0.00000E+00
         0.00000E+00
         0.00000E+00
         0.00000E+00
         0.00000E+00
         0.00000E+00
         0.00000E+00
         0.00000E+00
         0.00000E+00
         0.00000E+00
         0.00000E+00
         0.00000E+00
         0.00000E+00
         0.00000E+00
         0.00000E+00
         0.00000E+00
         0.00000E+00
         0.00000E+00
         0.00000E+00
         0.00000E+00
         0.00000E+00
         0.00000E+00
         0.00000E+00
         0.00000E+00
         0.00000E+00
         0.00000E+00
         0.00000E+00
         0.00000E+00
         0.00000E+00
         0.00000E+00
         0.00000E+00
         0.00000E+00
         0.00000E+00
         0.00000E+00
         0.00000E+00
         0.00000E+00
         0.00000E+00
         0.00000E+00
         0.00000E+00
         0.00000E+00
         0.00000E+00
         0.00000E+00
         0.00000E+00
         0.00000E+00
         0.00000E+00
         0.00000E+00
         0.00000E+00
         0.00000E+00
         0.00000E+00
         0.00000E+00
         0.00000E+00
         0.00000E+00
         0.00000E+00
         0.00000E+00
         0.00000E+00
         0.00000E+00
         0.00000E+00
         0.00000E+00
         0.00000E+00
         0.00000E+00
         0.00000E+00
         0.00000E+00
         0.00000E+00
         0.00000E+00
         0.00000E+00
         0.00000E+00
         0.00000E+00
         0.00000E+00
         0.00000E+00
         0.00000E+00
         0.00000E+00
         0.00000E+00
         0.00000E+00
         0.00000E+00
         0.00000E+00
         0.00000E+00
         0.00000E+00
         0.00000E+00
         0.00000E+00
         0.00000E+00
         0.00000E+00
         0.00000E+00
         0.00000E+00
         0.00000E+00
         0.00000E+00
         0.00000E+00
         0.00000E+00
         0.00000E+00
         0.00000E+00
         0.00000E+00
         0.00000E+00
         0.00000E+00
         0.00000E+00
         0.00000E+00
         0.00000E+00
         0.00000E+00
         0.00000E+00
         0.00000E+00
         0.00000E+00
         0.00000E+00
         0.00000E+00
         0.00000E+00
         0.00000E+00
         0.00000E+00
         0.00000E+00
         0.00000E+00
         0.00000E+00
         0.00000E+00
         0.00000E+00
         0.00000E+00
         0.00000E+00
         0.00000E+00
         0.00000E+00
         0.00000E+00
         0.00000E+00
         0.00000E+00
         0.00000E+00
         0.00000E+00
         0.00000E+00
         0.00000E+00
         0.00000E+00
         0.00000E+00
         0.00000E+00
         0.00000E+00
         0.00000E+00
         0.00000E+00
         0.00000E+00
         0.00000E+00
         0.00000E+00
         0.00000E+00
         0.00000E+00
         0.00000E+00
         0.00000E+00
         0.00000E+00
         0.00000E+00
         0.00000E+00
         0.00000E+00
         0.00000E+00
         0.00000E+00
         0.00000E+00
         0.00000E+00
         0.00000E+00
         0.00000E+00
         0.00000E+00
         0.00000E+00
         0.00000E+00
         0.00000E+00
         0.00000E+00
         0.00000E+00
         0.00000E+00
         0.00000E+00
         0.00000E+00
         0.00000E+00
         0.00000E+00
         0.00000E+00
         0.00000E+00
         0.00000E+00
         0.00000E+00
         0.00000E+00
         0.00000E+00
         0.00000E+00
         0.00000E+00
         0.00000E+00
         0.00000E+00
         0.00000E+00
         0.00000E+00
         0.00000E+00
         0.00000E+00
         0.00000E+00
         0.00000E+00
         0.00000E+00
         0.00000E+00
         0.00000E+00
         0.00000E+00
         0.00000E+00
         0.00000E+00
         0.00000E+00
         0.00000E+00
         0.00000E+00
         0.00000E+00
         0.00000E+00
         0.00000E+00
         0.00000E+00
         0.00000E+00
         0.00000E+00
         0.00000E+00
         0.00000E+00
         0.00000E+00
         0.00000E+00
         0.00000E+00
         0.00000E+00
         0.00000E+00
         0.00000E+00
         0.00000E+00
         0.00000E+00
         0.00000E+00
         0.00000E+00
         0.00000E+00
         0.00000E+00
         0.00000E+00
         0.00000E+00
         0.00000E+00
         0.00000E+00
         0.00000E+00
         0.00000E+00
         0.00000E+00
         0.00000E+00
         0.00000E+00
         0.00000E+00
         0.00000E+00
         0.00000E+00
         0.00000E+00
         0.00000E+00
         0.00000E+00
         0.00000E+00
         0.00000E+00
         0.00000E+00
         0.00000E+00
         0.00000E+00
         0.00000E+00
         0.00000E+00
         0.00000E+00
         0.00000E+00
         0.00000E+00
         0.00000E+00
         0.00000E+00
         0.00000E+00
         0.00000E+00
         0.00000E+00
         0.00000E+00
         0.00000E+00
         0.00000E+00
         0.00000E+00
         0.00000E+00
         0.00000E+00
         0.00000E+00
         0.00000E+00
         0.00000E+00
         0.00000E+00
         0.00000E+00
         0.00000E+00
         0.00000E+00
         0.00000E+00
         0.00000E+00
         0.00000E+00
         0.00000E+00
         0.00000E+00
         0.00000E+00
         0.00000E+00
         0.00000E+00
         0.00000E+00
         0.00000E+00
         0.00000E+00
         0.00000E+00
         0.00000E+00
         0.00000E+00
         0.00000E+00
         0.00000E+00
         0.00000E+00
         0.00000E+00
         0.00000E+00
         0.00000E+00
         0.00000E+00
         0.00000E+00
         0.00000E+00
         0.00000E+00
         0.00000E+00
         0.00000E+00
         0.00000E+00
         0.00000E+00
         0.00000E+00
         0.00000E+00
         0.00000E+00
         0.00000E+00
         0.00000E+00
         0.00000E+00
         0.00000E+00
         0.00000E+00
         0.00000E+00
         0.00000E+00
         0.00000E+00
         0.00000E+00
         0.00000E+00
         0.00000E+00
         0.00000E+00
         0.00000E+00
         0.00000E+00
         0.00000E+00
         0.00000E+00
         0.00000E+00
         0.00000E+00
         0.00000E+00
         0.00000E+00
         0.00000E+00
         0.00000E+00
         0.00000E+00
         0.00000E+00
         0.00000E+00
         0.00000E+00
         0.00000E+00
         0.00000E+00
         0.00000E+00
         0.00000E+00
         0.00000E+00
         0.00000E+00
         0.00000E+00
         0.00000E+00
         0.00000E+00
         0.00000E+00
         0.00000E+00
         0.00000E+00
         0.00000E+00
         0.00000E+00
         0.00000E+00
         0.00000E+00
         0.00000E+00
         0.00000E+00
         0.00000E+00
         0.00000E+00
         0.00000E+00
         0.00000E+00
         0.00000E+00
         0.00000E+00
         0.00000E+00
         0.00000E+00
         0.00000E+00
         0.00000E+00
         0.00000E+00
         0.00000E+00
         0.00000E+00
         0.00000E+00
         0.00000E+00
         0.00000E+00
         0.00000E+00
         0.00000E+00
         0.00000E+00
         0.00000E+00
         0.00000E+00
         0.00000E+00
         0.00000E+00
         0.00000E+00
         0.00000E+00
         0.00000E+00
         0.00000E+00
         0.00000E+00
         0.00000E+00
         0.00000E+00
         0.00000E+00
         0.00000E+00
         0.00000E+00
         0.00000E+00
         0.00000E+00
         0.00000E+00
         0.00000E+00
         0.00000E+00
         0.00000E+00
         0.00000E+00
         0.00000E+00
         0.00000E+00
         0.00000E+00
         0.00000E+00
         0.00000E+00
         0.00000E+00
         0.00000E+00
         0.00000E+00
         0.00000E+00
         0.00000E+00
         0.00000E+00
         0.00000E+00
         0.00000E+00
         0.00000E+00
         0.00000E+00
         0.00000E+00
         0.00000E+00
         0.00000E+00
         0.00000E+00
         0.00000E+00
         0.00000E+00
         0.00000E+00
         0.00000E+00
         0.00000E+00
         0.00000E+00
         0.00000E+00
         0.00000E+00
         0.00000E+00
         0.00000E+00
         0.00000E+00
         0.00000E+00
         0.00000E+00
         0.00000E+00
         0.00000E+00
         0.00000E+00
         0.00000E+00
         0.00000E+00
         0.00000E+00
         0.00000E+00
         0.00000E+00
         0.00000E+00
         0.00000E+00
         0.00000E+00
         0.00000E+00
         0.00000E+00
         0.00000E+00
         0.00000E+00
         0.00000E+00
         0.00000E+00
         0.00000E+00
         0.00000E+00
         0.00000E+00
         0.00000E+00
         0.00000E+00
         0.00000E+00
         0.00000E+00
         0.00000E+00
         0.00000E+00
         0.00000E+00
         0.00000E+00
         0.00000E+00
         0.00000E+00
         0.00000E+00
         0.00000E+00
         0.00000E+00
         0.00000E+00
         0.00000E+00
         0.00000E+00
         0.00000E+00
         0.00000E+00
         0.00000E+00
         0.00000E+00
         0.00000E+00
         0.00000E+00
         0.00000E+00
         0.00000E+00
         0.00000E+00
         0.00000E+00
         0.00000E+00
         0.00000E+00
         0.00000E+00
         0.00000E+00
         0.00000E+00
         0.00000E+00
         0.00000E+00
         0.00000E+00
         0.00000E+00
         0.00000E+00
         0.00000E+00
         0.00000E+00
         0.00000E+00
         0.00000E+00
         0.00000E+00
         0.00000E+00
         0.00000E+00
         0.00000E+00
         0.00000E+00
         0.00000E+00
         0.00000E+00
         0.00000E+00
         0.00000E+00
         0.00000E+00
         0.00000E+00
         0.00000E+00
         0.00000E+00
         0.00000E+00
         0.00000E+00
         0.00000E+00
         0.00000E+00
         0.00000E+00
         0.00000E+00
         0.00000E+00
         0.00000E+00
         0.00000E+00
         0.00000E+00
         0.00000E+00
         0.00000E+00
         0.00000E+00
         0.00000E+00
         0.00000E+00
         0.00000E+00
         0.00000E+00
         0.00000E+00
         0.00000E+00
         0.00000E+00
         0.00000E+00
         0.00000E+00
         0.00000E+00
         0.00000E+00
         0.00000E+00
         0.00000E+00
         0.00000E+00
         0.00000E+00
         0.00000E+00
         0.00000E+00
         0.00000E+00
         0.00000E+00
         0.00000E+00
         0.00000E+00
         0.00000E+00
         0.00000E+00
         0.00000E+00
         0.00000E+00
         0.00000E+00
         0.00000E+00
         0.00000E+00
         0.00000E+00
         0.00000E+00
         0.00000E+00
         0.00000E+00
         0.00000E+00
         0.00000E+00
         0.00000E+00
         0.00000E+00
         0.00000E+00
         0.00000E+00
         0.00000E+00
         0.00000E+00
         0.00000E+00
         0.00000E+00
         0.00000E+00
         0.00000E+00
         0.00000E+00
         0.00000E+00
         0.00000E+00
         0.00000E+00
         0.00000E+00
         0.00000E+00
         0.00000E+00
         0.00000E+00
         0.00000E+00
         0.00000E+00
         0.00000E+00
         0.00000E+00
         0.00000E+00
         0.00000E+00
         0.00000E+00
         0.00000E+00
         0.00000E+00
         0.00000E+00
         0.00000E+00
         0.00000E+00
         0.00000E+00
         0.00000E+00
         0.00000E+00
         0.00000E+00
         0.00000E+00
         0.00000E+00
         0.00000E+00
         0.00000E+00
         0.00000E+00
         0.00000E+00
         0.00000E+00
         0.00000E+00
         0.00000E+00
         0.00000E+00
         0.00000E+00
         0.00000E+00
         0.00000E+00
         0.00000E+00
         0.00000E+00
         0.00000E+00
         0.00000E+00
         0.00000E+00
         0.00000E+00
         0.00000E+00
         0.00000E+00
         0.00000E+00
         0.00000E+00
         0.00000E+00
         0.00000E+00
         0.00000E+00
         0.00000E+00
         0.00000E+00
         0.00000E+00
         0.00000E+00
         0.00000E+00
         0.00000E+00
         0.00000E+00
         0.00000E+00
         0.00000E+00
         0.00000E+00
         0.00000E+00
         0.00000E+00
         0.00000E+00
         0.00000E+00
         0.00000E+00
         0.00000E+00
         0.00000E+00
         0.00000E+00
         0.00000E+00
         0.00000E+00
         0.00000E+00
         0.00000E+00
         0.00000E+00
         0.00000E+00
         0.00000E+00
         0.00000E+00
         0.00000E+00
         0.00000E+00
         0.00000E+00
         0.00000E+00
         0.00000E+00
         0.00000E+00
         0.00000E+00
         0.00000E+00
         0.00000E+00
         0.00000E+00
         0.00000E+00
         0.00000E+00
         0.00000E+00
         0.00000E+00
         0.00000E+00
         0.00000E+00
         0.00000E+00
         0.00000E+00
         0.00000E+00
         0.00000E+00
         0.00000E+00
         0.00000E+00
         0.00000E+00
         0.00000E+00
         0.00000E+00
         0.00000E+00
         0.00000E+00
         0.00000E+00
         0.00000E+00
         0.00000E+00
         0.00000E+00
         0.00000E+00
         0.00000E+00
         0.00000E+00
         0.00000E+00
         0.00000E+00
         0.00000E+00
         0.00000E+00
         0.00000E+00
         0.00000E+00
         0.00000E+00
         0.00000E+00
         0.00000E+00
         0.00000E+00
         0.00000E+00
         0.00000E+00
         0.00000E+00
         0.00000E+00
         0.00000E+00
         0.00000E+00
         0.00000E+00
         0.00000E+00
         0.00000E+00
         0.00000E+00
         0.00000E+00
         0.00000E+00
         0.00000E+00
         0.00000E+00
         0.00000E+00
         0.00000E+00
         0.00000E+00
         0.00000E+00
         0.00000E+00
         0.00000E+00
         0.00000E+00
         0.00000E+00
         0.00000E+00
         0.00000E+00
         0.00000E+00
         0.00000E+00
         0.00000E+00
         0.00000E+00
         0.00000E+00
         0.00000E+00
         0.00000E+00
         0.00000E+00
         0.00000E+00
         0.00000E+00
         0.00000E+00
         0.00000E+00
         0.00000E+00
         0.00000E+00
         0.00000E+00
         0.00000E+00
         0.00000E+00
         0.00000E+00
         0.00000E+00
         0.00000E+00
         0.00000E+00
         0.00000E+00
         0.00000E+00
         0.00000E+00
         0.00000E+00
         0.00000E+00
         0.00000E+00
         0.00000E+00
         0.00000E+00
         0.00000E+00
         0.00000E+00
         0.00000E+00
         0.00000E+00
         0.00000E+00
         0.00000E+00
         0.00000E+00
         0.00000E+00
         0.00000E+00
         0.00000E+00
         0.00000E+00
         0.00000E+00
         0.00000E+00
         0.00000E+00
         0.00000E+00
         0.00000E+00
         0.00000E+00
         0.00000E+00
         0.00000E+00
         0.00000E+00
         0.00000E+00
         0.00000E+00
         0.00000E+00
         0.00000E+00
         0.00000E+00
         0.00000E+00
         0.00000E+00
         0.00000E+00
         0.00000E+00
         0.00000E+00
         0.00000E+00
         0.00000E+00
         0.00000E+00
         0.00000E+00
         0.00000E+00
         0.00000E+00
         0.00000E+00
         0.00000E+00
         0.00000E+00
         0.00000E+00
         0.00000E+00
         0.00000E+00
         0.00000E+00
         0.00000E+00
         0.00000E+00
         0.00000E+00
         0.00000E+00
         0.00000E+00
         0.00000E+00
         0.00000E+00
         0.00000E+00
         0.00000E+00
         0.00000E+00
         0.00000E+00
         0.00000E+00
         0.00000E+00
         0.00000E+00
         0.00000E+00
         0.00000E+00
         0.00000E+00
         0.00000E+00
         0.00000E+00
         0.00000E+00
         0.00000E+00
         0.00000E+00
         0.00000E+00
         0.00000E+00
         0.00000E+00
         0.00000E+00
         0.00000E+00
         0.00000E+00
         0.00000E+00
         0.00000E+00
         0.00000E+00
         0.00000E+00
         0.00000E+00
         0.00000E+00
         0.00000E+00
         0.00000E+00
         0.00000E+00
         0.00000E+00
         0.00000E+00
         0.00000E+00
         0.00000E+00
         0.00000E+00
         0.00000E+00
         0.00000E+00
         0.00000E+00
         0.00000E+00
         0.00000E+00
         0.00000E+00
         0.00000E+00
         0.00000E+00
         0.00000E+00
         0.00000E+00
         0.00000E+00
         0.00000E+00
         0.00000E+00
         0.00000E+00
         0.00000E+00
         0.00000E+00
         0.00000E+00
         0.00000E+00
         0.00000E+00
         0.00000E+00
         0.00000E+00
         0.00000E+00
         0.00000E+00
         0.00000E+00
         0.00000E+00
         0.00000E+00
         0.00000E+00
         0.00000E+00
         0.00000E+00
         0.00000E+00
         0.00000E+00
         0.00000E+00
         0.00000E+00
         0.00000E+00
         0.00000E+00
         0.00000E+00
         0.00000E+00
         0.00000E+00
         0.00000E+00
         0.00000E+00
         0.00000E+00
         0.00000E+00
         0.00000E+00
         0.00000E+00
         0.00000E+00
         0.00000E+00
         0.00000E+00
         0.00000E+00
         0.00000E+00
         0.00000E+00
         0.00000E+00
         0.00000E+00
         0.00000E+00
         0.00000E+00
         0.00000E+00
         0.00000E+00
         0.00000E+00
         0.00000E+00
         0.00000E+00
         0.00000E+00
         0.00000E+00
         0.00000E+00
         0.00000E+00
         0.00000E+00
         0.00000E+00
         0.00000E+00
         0.00000E+00
         0.00000E+00
         0.00000E+00
         0.00000E+00
         0.00000E+00
         0.00000E+00
         0.00000E+00
         0.00000E+00
         0.00000E+00
         0.00000E+00
         0.00000E+00
         0.00000E+00
         0.00000E+00
         0.00000E+00
         0.00000E+00
         0.00000E+00
         0.00000E+00
         0.00000E+00
         0.00000E+00
         0.00000E+00
         0.00000E+00
         0.00000E+00
         0.00000E+00
         0.00000E+00
         0.00000E+00
         0.00000E+00
         0.00000E+00
         0.00000E+00
         0.00000E+00
         0.00000E+00
         0.00000E+00
         0.00000E+00
         0.00000E+00
         0.00000E+00
         0.00000E+00
         0.00000E+00
         0.00000E+00
         0.00000E+00
         0.00000E+00
         0.00000E+00
         0.00000E+00
         0.00000E+00
         0.00000E+00
         0.00000E+00
         0.00000E+00
         0.00000E+00
         0.00000E+00
         0.00000E+00
         0.00000E+00
         0.00000E+00
         0.00000E+00
         0.00000E+00
         0.00000E+00
         0.00000E+00
         0.00000E+00
         0.00000E+00
         0.00000E+00
         0.00000E+00
         0.00000E+00
         0.00000E+00
         0.00000E+00
         0.00000E+00
         0.00000E+00
         0.00000E+00
         0.00000E+00
         0.00000E+00
         0.00000E+00
         0.00000E+00
         0.00000E+00
         0.00000E+00
         0.00000E+00
         0.00000E+00
         0.00000E+00
         0.00000E+00
         0.00000E+00
         0.00000E+00
         0.00000E+00
         0.00000E+00
         0.00000E+00
         0.00000E+00
         0.00000E+00
         0.00000E+00
         0.00000E+00
         0.00000E+00
         0.00000E+00
         0.00000E+00
         0.00000E+00
         0.00000E+00
         0.00000E+00
         0.00000E+00
         0.00000E+00
         0.00000E+00
         0.00000E+00
         0.00000E+00
         0.00000E+00
         0.00000E+00
         0.00000E+00
         0.00000E+00
         0.00000E+00
         0.00000E+00
         0.00000E+00
         0.00000E+00
         0.00000E+00
         0.00000E+00
         0.00000E+00
         0.00000E+00
         0.00000E+00
         0.00000E+00
         0.00000E+00
         0.00000E+00
         0.00000E+00
         0.00000E+00
         0.00000E+00
         0.00000E+00
         0.00000E+00
         0.00000E+00
         0.00000E+00
         0.00000E+00
         0.00000E+00
         0.00000E+00
         0.00000E+00
         0.00000E+00
         0.00000E+00
         0.00000E+00
         0.00000E+00
         0.00000E+00
         0.00000E+00
         0.00000E+00
         0.00000E+00
         0.00000E+00
         0.00000E+00
         0.00000E+00
         0.00000E+00
         0.00000E+00
         0.00000E+00
         0.00000E+00
         0.00000E+00
         0.00000E+00
         0.00000E+00
         0.00000E+00
         0.00000E+00
         0.00000E+00
         0.00000E+00
         0.00000E+00
         0.00000E+00
         0.00000E+00
         0.00000E+00
         0.00000E+00
         0.00000E+00
         0.00000E+00
         0.00000E+00
         0.00000E+00
         0.00000E+00
         0.00000E+00
         0.00000E+00
  
SCALARS           initial_coordinate_x  double 1
LOOKUP_TABLE default
         0.10378E-02
         0.17452E-02
         0.23177E-02
         0.16698E-02
         0.10379E-02
         0.17453E-02
         0.23178E-02
         0.16700E-02
         0.30377E-02
         0.27791E-02
         0.30377E-02
         0.27788E-02
         0.12850E-02
         0.65139E-03
         0.12851E-02
         0.65164E-03
         0.12757E-03
        -0.12822E-03
         0.12783E-03
        -0.12804E-03
         0.94500E-03
         0.11327E-02
         0.17490E-02
         0.94533E-03
         0.11330E-02
         0.17494E-02
         0.40588E-03
         0.39779E-03
         0.40594E-03
         0.39781E-03
        -0.76303E-03
        -0.86604E-03
         0.46119E-03
        -0.76268E-03
        -0.86593E-03
         0.46164E-03
        -0.18300E-02
        -0.18440E-02
        -0.18297E-02
        -0.18441E-02
        -0.27238E-02
        -0.28028E-02
        -0.27238E-02
        -0.28031E-02
        -0.25365E-02
        -0.19287E-02
        -0.25363E-02
        -0.19283E-02
        -0.99363E-03
        -0.99377E-03
        -0.14380E-02
        -0.14377E-02
        -0.31574E-03
        -0.31594E-03
        -0.11068E-02
        -0.11071E-02
        -0.18845E-02
        -0.18713E-02
        -0.18846E-02
        -0.18714E-02
        -0.15871E-03
        -0.94089E-03
        -0.15844E-03
        -0.94029E-03
         0.78856E-03
         0.78922E-03
         0.17211E-02
         0.17211E-02
         0.32050E-02
         0.28046E-02
         0.32047E-02
         0.28047E-02
         0.23059E-02
         0.23060E-02
        -0.40614E-03
        -0.40627E-03
        -0.12092E-02
        -0.12092E-02
        -0.19448E-02
        -0.19448E-02
        -0.25029E-02
        -0.26371E-02
        -0.25029E-02
        -0.26372E-02
        -0.27671E-02
        -0.27674E-02
        -0.21123E-02
        -0.21122E-02
        -0.16087E-02
        -0.16087E-02
        -0.11939E-02
        -0.58641E-03
        -0.11937E-02
        -0.58606E-03
         0.20912E-03
         0.20952E-03
         0.10586E-02
         0.10589E-02
         0.18413E-02
         0.18413E-02
         0.24544E-02
         0.26022E-02
         0.24543E-02
         0.26021E-02
         0.37964E-02
         0.39100E-02
         0.37964E-02
         0.39100E-02
         0.34621E-02
         0.34621E-02
         0.29267E-02
         0.29267E-02
         0.22211E-02
         0.22211E-02
         0.13865E-02
         0.13865E-02
         0.47130E-03
         0.47130E-03
        -0.47130E-03
        -0.47130E-03
        -0.13865E-02
        -0.13865E-02
        -0.22211E-02
        -0.22211E-02
        -0.29267E-02
        -0.29267E-02
        -0.34621E-02
        -0.34621E-02
        -0.37964E-02
        -0.37964E-02
        -0.39100E-02
        -0.39100E-02
        -0.37964E-02
        -0.37964E-02
        -0.34621E-02
        -0.34621E-02
        -0.29267E-02
        -0.29267E-02
        -0.22211E-02
        -0.22211E-02
        -0.13865E-02
        -0.13865E-02
        -0.47130E-03
        -0.47130E-03
         0.47130E-03
         0.47130E-03
         0.13865E-02
         0.13865E-02
         0.22211E-02
         0.22211E-02
         0.29267E-02
         0.29267E-02
         0.34621E-02
         0.34621E-02
         0.37964E-02
         0.37964E-02
         0.10376E-02
         0.17450E-02
         0.23175E-02
         0.16696E-02
         0.30377E-02
         0.27795E-02
         0.12849E-02
         0.65115E-03
         0.12731E-03
        -0.12841E-03
         0.94467E-03
         0.11323E-02
         0.17487E-02
         0.40583E-03
         0.39777E-03
        -0.76338E-03
        -0.86615E-03
         0.46074E-03
        -0.18303E-02
        -0.18439E-02
        -0.27238E-02
        -0.28025E-02
        -0.25366E-02
        -0.19292E-02
        -0.99349E-03
        -0.14384E-02
        -0.31554E-03
        -0.11064E-02
        -0.18845E-02
        -0.18712E-02
        -0.15899E-03
        -0.94149E-03
         0.78790E-03
         0.17210E-02
         0.32053E-02
         0.28046E-02
         0.23058E-02
        -0.40600E-03
        -0.12092E-02
        -0.19447E-02
        -0.25028E-02
        -0.26370E-02
        -0.27668E-02
        -0.21125E-02
        -0.16088E-02
        -0.11940E-02
        -0.58676E-03
         0.20871E-03
         0.10583E-02
         0.18413E-02
         0.24545E-02
         0.26022E-02
         0.37964E-02
         0.39100E-02
         0.34621E-02
         0.29267E-02
         0.22211E-02
         0.13865E-02
         0.47130E-03
        -0.47130E-03
        -0.13865E-02
        -0.22211E-02
        -0.29267E-02
        -0.34621E-02
        -0.37964E-02
        -0.39100E-02
        -0.37964E-02
        -0.34621E-02
        -0.29267E-02
        -0.22211E-02
        -0.13865E-02
        -0.47130E-03
         0.47130E-03
         0.13865E-02
         0.22211E-02
         0.29267E-02
         0.34621E-02
         0.37964E-02
         0.10375E-02
         0.17448E-02
         0.23174E-02
         0.16694E-02
         0.30377E-02
         0.27798E-02
         0.12848E-02
         0.65090E-03
         0.12705E-03
        -0.12859E-03
         0.94434E-03
         0.11320E-02
         0.17483E-02
         0.40577E-03
         0.39776E-03
        -0.76374E-03
        -0.86626E-03
         0.46029E-03
        -0.18306E-02
        -0.18438E-02
        -0.27238E-02
        -0.28022E-02
        -0.25368E-02
        -0.19296E-02
        -0.99334E-03
        -0.14387E-02
        -0.31534E-03
        -0.11061E-02
        -0.18844E-02
        -0.18710E-02
        -0.15926E-03
        -0.94209E-03
         0.78724E-03
         0.17210E-02
         0.32056E-02
         0.28046E-02
         0.23057E-02
        -0.40586E-03
        -0.12092E-02
        -0.19447E-02
        -0.25028E-02
        -0.26369E-02
        -0.27665E-02
        -0.21126E-02
        -0.16088E-02
        -0.11941E-02
        -0.58711E-03
         0.20830E-03
         0.10580E-02
         0.18414E-02
         0.24546E-02
         0.26023E-02
         0.37964E-02
         0.39100E-02
         0.34621E-02
         0.29267E-02
         0.22211E-02
         0.13865E-02
         0.47130E-03
        -0.47130E-03
        -0.13865E-02
        -0.22211E-02
        -0.29267E-02
        -0.34621E-02
        -0.37964E-02
        -0.39100E-02
        -0.37964E-02
        -0.34621E-02
        -0.29267E-02
        -0.22211E-02
        -0.13865E-02
        -0.47130E-03
         0.47130E-03
         0.13865E-02
         0.22211E-02
         0.29267E-02
         0.34621E-02
         0.37964E-02
         0.10374E-02
         0.17446E-02
         0.23173E-02
         0.16692E-02
         0.30376E-02
         0.27801E-02
         0.12847E-02
         0.65065E-03
         0.12678E-03
        -0.12878E-03
         0.94401E-03
         0.11316E-02
         0.17479E-02
         0.40572E-03
         0.39774E-03
        -0.76409E-03
        -0.86637E-03
         0.45985E-03
        -0.18309E-02
        -0.18437E-02
        -0.27237E-02
        -0.28020E-02
        -0.25369E-02
        -0.19300E-02
        -0.99320E-03
        -0.14391E-02
        -0.31514E-03
        -0.11057E-02
        -0.18844E-02
        -0.18709E-02
        -0.15954E-03
        -0.94269E-03
         0.78658E-03
         0.17209E-02
         0.32060E-02
         0.28046E-02
         0.23056E-02
        -0.40572E-03
        -0.12092E-02
        -0.19446E-02
        -0.25028E-02
        -0.26368E-02
        -0.27662E-02
        -0.21128E-02
        -0.16088E-02
        -0.11942E-02
        -0.58746E-03
         0.20790E-03
         0.10577E-02
         0.18414E-02
         0.24548E-02
         0.26024E-02
         0.37964E-02
         0.39100E-02
         0.34621E-02
         0.29267E-02
         0.22211E-02
         0.13865E-02
         0.47130E-03
        -0.47130E-03
        -0.13865E-02
        -0.22211E-02
        -0.29267E-02
        -0.34621E-02
        -0.37964E-02
        -0.39100E-02
        -0.37964E-02
        -0.34621E-02
        -0.29267E-02
        -0.22211E-02
        -0.13865E-02
        -0.47130E-03
         0.47130E-03
         0.13865E-02
         0.22211E-02
         0.29267E-02
         0.34621E-02
         0.37964E-02
         0.10373E-02
         0.17445E-02
         0.23172E-02
         0.16689E-02
         0.30376E-02
         0.27805E-02
         0.12846E-02
         0.65041E-03
         0.12652E-03
        -0.12896E-03
         0.94367E-03
         0.11313E-02
         0.17475E-02
         0.40566E-03
         0.39772E-03
        -0.76444E-03
        -0.86648E-03
         0.45940E-03
        -0.18312E-02
        -0.18436E-02
        -0.27237E-02
        -0.28017E-02
        -0.25371E-02
        -0.19305E-02
        -0.99305E-03
        -0.14394E-02
        -0.31494E-03
        -0.11054E-02
        -0.18843E-02
        -0.18708E-02
        -0.15981E-03
        -0.94328E-03
         0.78592E-03
         0.17209E-02
         0.32063E-02
         0.28045E-02
         0.23055E-02
        -0.40558E-03
        -0.12092E-02
        -0.19446E-02
        -0.25027E-02
        -0.26367E-02
        -0.27658E-02
        -0.21129E-02
        -0.16089E-02
        -0.11943E-02
        -0.58781E-03
         0.20749E-03
         0.10574E-02
         0.18415E-02
         0.24549E-02
         0.26025E-02
         0.37964E-02
         0.39100E-02
         0.34621E-02
         0.29267E-02
         0.22211E-02
         0.13865E-02
         0.47130E-03
        -0.47130E-03
        -0.13865E-02
        -0.22211E-02
        -0.29267E-02
        -0.34621E-02
        -0.37964E-02
        -0.39100E-02
        -0.37964E-02
        -0.34621E-02
        -0.29267E-02
        -0.22211E-02
        -0.13865E-02
        -0.47130E-03
         0.47130E-03
         0.13865E-02
         0.22211E-02
         0.29267E-02
         0.34621E-02
         0.37964E-02
         0.10372E-02
         0.17443E-02
         0.23171E-02
         0.16687E-02
         0.30376E-02
         0.27808E-02
         0.12845E-02
         0.65016E-03
         0.12626E-03
        -0.12915E-03
         0.94334E-03
         0.11310E-02
         0.17471E-02
         0.40561E-03
         0.39770E-03
        -0.76480E-03
        -0.86659E-03
         0.45895E-03
        -0.18315E-02
        -0.18435E-02
        -0.27237E-02
        -0.28014E-02
        -0.25372E-02
        -0.19309E-02
        -0.99291E-03
        -0.14398E-02
        -0.31474E-03
        -0.11051E-02
        -0.18843E-02
        -0.18706E-02
        -0.16009E-03
        -0.94388E-03
         0.78526E-03
         0.17208E-02
         0.32066E-02
         0.28045E-02
         0.23053E-02
        -0.40545E-03
        -0.12092E-02
        -0.19446E-02
        -0.25027E-02
        -0.26366E-02
        -0.27655E-02
        -0.21130E-02
        -0.16089E-02
        -0.11944E-02
        -0.58816E-03
         0.20709E-03
         0.10571E-02
         0.18415E-02
         0.24550E-02
         0.26025E-02
         0.37964E-02
         0.39100E-02
         0.34621E-02
         0.29267E-02
         0.22211E-02
         0.13865E-02
         0.47130E-03
        -0.47130E-03
        -0.13865E-02
        -0.22211E-02
        -0.29267E-02
        -0.34621E-02
        -0.37964E-02
        -0.39100E-02
        -0.37964E-02
        -0.34621E-02
        -0.29267E-02
        -0.22211E-02
        -0.13865E-02
        -0.47130E-03
         0.47130E-03
         0.13865E-02
         0.22211E-02
         0.29267E-02
         0.34621E-02
         0.37964E-02
         0.10371E-02
         0.17441E-02
         0.23169E-02
         0.16685E-02
         0.30376E-02
         0.27812E-02
         0.12844E-02
         0.64992E-03
         0.12600E-03
        -0.12933E-03
         0.94301E-03
         0.11306E-02
         0.17467E-02
         0.40556E-03
         0.39769E-03
        -0.76515E-03
        -0.86670E-03
         0.45850E-03
        -0.18318E-02
        -0.18434E-02
        -0.27236E-02
        -0.28011E-02
        -0.25374E-02
        -0.19313E-02
        -0.99277E-03
        -0.14401E-02
        -0.31454E-03
        -0.11047E-02
        -0.18842E-02
        -0.18705E-02
        -0.16036E-03
        -0.94448E-03
         0.78460E-03
         0.17208E-02
         0.32070E-02
         0.28045E-02
         0.23052E-02
        -0.40531E-03
        -0.12092E-02
        -0.19445E-02
        -0.25027E-02
        -0.26366E-02
        -0.27652E-02
        -0.21132E-02
        -0.16090E-02
        -0.11946E-02
        -0.58851E-03
         0.20668E-03
         0.10567E-02
         0.18416E-02
         0.24551E-02
         0.26026E-02
         0.37964E-02
         0.39100E-02
         0.34621E-02
         0.29267E-02
         0.22211E-02
         0.13865E-02
         0.47130E-03
        -0.47130E-03
        -0.13865E-02
        -0.22211E-02
        -0.29267E-02
        -0.34621E-02
        -0.37964E-02
        -0.39100E-02
        -0.37964E-02
        -0.34621E-02
        -0.29267E-02
        -0.22211E-02
        -0.13865E-02
        -0.47130E-03
         0.47130E-03
         0.13865E-02
         0.22211E-02
         0.29267E-02
         0.34621E-02
         0.37964E-02
         0.10370E-02
         0.17439E-02
         0.23168E-02
         0.16683E-02
         0.30375E-02
         0.27815E-02
         0.12843E-02
         0.64967E-03
         0.12573E-03
        -0.12952E-03
         0.94268E-03
         0.11303E-02
         0.17463E-02
         0.40550E-03
         0.39767E-03
        -0.76551E-03
        -0.86680E-03
         0.45806E-03
        -0.18321E-02
        -0.18433E-02
        -0.27236E-02
        -0.28009E-02
        -0.25375E-02
        -0.19317E-02
        -0.99262E-03
        -0.14405E-02
        -0.31434E-03
        -0.11044E-02
        -0.18842E-02
        -0.18704E-02
        -0.16064E-03
        -0.94508E-03
         0.78394E-03
         0.17208E-02
         0.32073E-02
         0.28045E-02
         0.23051E-02
        -0.40517E-03
        -0.12092E-02
        -0.19445E-02
        -0.25026E-02
        -0.26365E-02
        -0.27649E-02
        -0.21133E-02
        -0.16090E-02
        -0.11947E-02
        -0.58886E-03
         0.20627E-03
         0.10564E-02
         0.18416E-02
         0.24553E-02
         0.26027E-02
         0.37964E-02
         0.39100E-02
         0.34621E-02
         0.29267E-02
         0.22211E-02
         0.13865E-02
         0.47130E-03
        -0.47130E-03
        -0.13865E-02
        -0.22211E-02
        -0.29267E-02
        -0.34621E-02
        -0.37964E-02
        -0.39100E-02
        -0.37964E-02
        -0.34621E-02
        -0.29267E-02
        -0.22211E-02
        -0.13865E-02
        -0.47130E-03
         0.47130E-03
         0.13865E-02
         0.22211E-02
         0.29267E-02
         0.34621E-02
         0.37964E-02
         0.10368E-02
         0.17438E-02
         0.23167E-02
         0.16681E-02
         0.30375E-02
         0.27819E-02
         0.12842E-02
         0.64943E-03
         0.12547E-03
        -0.12970E-03
         0.94235E-03
         0.11300E-02
         0.17459E-02
         0.40545E-03
         0.39766E-03
        -0.76586E-03
        -0.86691E-03
         0.45761E-03
        -0.18324E-02
        -0.18432E-02
        -0.27236E-02
        -0.28006E-02
        -0.25377E-02
        -0.19322E-02
        -0.99248E-03
        -0.14408E-02
        -0.31414E-03
        -0.11040E-02
        -0.18841E-02
        -0.18703E-02
        -0.16091E-03
        -0.94568E-03
         0.78328E-03
         0.17207E-02
         0.32076E-02
         0.28044E-02
         0.23050E-02
        -0.40503E-03
        -0.12092E-02
        -0.19445E-02
        -0.25026E-02
        -0.26364E-02
        -0.27646E-02
        -0.21134E-02
        -0.16091E-02
        -0.11948E-02
        -0.58921E-03
         0.20587E-03
         0.10561E-02
         0.18416E-02
         0.24554E-02
         0.26027E-02
         0.37964E-02
         0.39100E-02
         0.34621E-02
         0.29267E-02
         0.22211E-02
         0.13865E-02
         0.47130E-03
        -0.47130E-03
        -0.13865E-02
        -0.22211E-02
        -0.29267E-02
        -0.34621E-02
        -0.37964E-02
        -0.39100E-02
        -0.37964E-02
        -0.34621E-02
        -0.29267E-02
        -0.22211E-02
        -0.13865E-02
        -0.47130E-03
         0.47130E-03
         0.13865E-02
         0.22211E-02
         0.29267E-02
         0.34621E-02
         0.37964E-02
         0.10367E-02
         0.17436E-02
         0.23166E-02
         0.16679E-02
         0.30375E-02
         0.27822E-02
         0.12841E-02
         0.64918E-03
         0.12521E-03
        -0.12989E-03
         0.94202E-03
         0.11296E-02
         0.17455E-02
         0.40539E-03
         0.39764E-03
        -0.76621E-03
        -0.86702E-03
         0.45716E-03
        -0.18326E-02
        -0.18431E-02
        -0.27235E-02
        -0.28003E-02
        -0.25379E-02
        -0.19326E-02
        -0.99233E-03
        -0.14412E-02
        -0.31394E-03
        -0.11037E-02
        -0.18841E-02
        -0.18701E-02
        -0.16119E-03
        -0.94628E-03
         0.78262E-03
         0.17207E-02
         0.32079E-02
         0.28044E-02
         0.23049E-02
        -0.40490E-03
        -0.12093E-02
        -0.19444E-02
        -0.25026E-02
        -0.26363E-02
        -0.27643E-02
        -0.21136E-02
        -0.16091E-02
        -0.11949E-02
        -0.58956E-03
         0.20546E-03
         0.10558E-02
         0.18417E-02
         0.24555E-02
         0.26028E-02
         0.37964E-02
         0.39100E-02
         0.34621E-02
         0.29267E-02
         0.22211E-02
         0.13865E-02
         0.47130E-03
        -0.47130E-03
        -0.13865E-02
        -0.22211E-02
        -0.29267E-02
        -0.34621E-02
        -0.37964E-02
        -0.39100E-02
        -0.37964E-02
        -0.34621E-02
        -0.29267E-02
        -0.22211E-02
        -0.13865E-02
        -0.47130E-03
         0.47130E-03
         0.13865E-02
         0.22211E-02
         0.29267E-02
         0.34621E-02
         0.37964E-02
         0.10366E-02
         0.17434E-02
         0.23164E-02
         0.16677E-02
         0.30375E-02
         0.27825E-02
         0.12840E-02
         0.64894E-03
         0.12495E-03
        -0.13007E-03
         0.94169E-03
         0.11293E-02
         0.17451E-02
         0.40534E-03
         0.39762E-03
        -0.76657E-03
        -0.86713E-03
         0.45671E-03
        -0.18329E-02
        -0.18430E-02
        -0.27235E-02
        -0.28001E-02
        -0.25380E-02
        -0.19330E-02
        -0.99219E-03
        -0.14415E-02
        -0.31374E-03
        -0.11033E-02
        -0.18840E-02
        -0.18700E-02
        -0.16146E-03
        -0.94687E-03
         0.78195E-03
         0.17207E-02
         0.32083E-02
         0.28044E-02
         0.23048E-02
        -0.40476E-03
        -0.12093E-02
        -0.19444E-02
        -0.25026E-02
        -0.26362E-02
        -0.27640E-02
        -0.21137E-02
        -0.16091E-02
        -0.11950E-02
        -0.58991E-03
         0.20505E-03
         0.10555E-02
         0.18417E-02
         0.24556E-02
         0.26029E-02
         0.37964E-02
         0.39100E-02
         0.34621E-02
         0.29267E-02
         0.22211E-02
         0.13865E-02
         0.47130E-03
        -0.47130E-03
        -0.13865E-02
        -0.22211E-02
        -0.29267E-02
        -0.34621E-02
        -0.37964E-02
        -0.39100E-02
        -0.37964E-02
        -0.34621E-02
        -0.29267E-02
        -0.22211E-02
        -0.13865E-02
        -0.47130E-03
         0.47130E-03
         0.13865E-02
         0.22211E-02
         0.29267E-02
         0.34621E-02
         0.37964E-02
         0.10365E-02
         0.17432E-02
         0.23163E-02
         0.16675E-02
         0.30374E-02
         0.27829E-02
         0.12839E-02
         0.64869E-03
         0.12468E-03
        -0.13026E-03
         0.94135E-03
         0.11289E-02
         0.17447E-02
         0.40528E-03
         0.39760E-03
        -0.76692E-03
        -0.86724E-03
         0.45626E-03
        -0.18332E-02
        -0.18430E-02
        -0.27235E-02
        -0.27998E-02
        -0.25382E-02
        -0.19334E-02
        -0.99205E-03
        -0.14419E-02
        -0.31354E-03
        -0.11030E-02
        -0.18840E-02
        -0.18699E-02
        -0.16174E-03
        -0.94747E-03
         0.78129E-03
         0.17206E-02
         0.32086E-02
         0.28044E-02
         0.23047E-02
        -0.40462E-03
        -0.12093E-02
        -0.19444E-02
        -0.25025E-02
        -0.26361E-02
        -0.27637E-02
        -0.21139E-02
        -0.16092E-02
        -0.11951E-02
        -0.59025E-03
         0.20465E-03
         0.10552E-02
         0.18418E-02
         0.24558E-02
         0.26030E-02
         0.37964E-02
         0.39100E-02
         0.34621E-02
         0.29267E-02
         0.22211E-02
         0.13865E-02
         0.47130E-03
        -0.47130E-03
        -0.13865E-02
        -0.22211E-02
        -0.29267E-02
        -0.34621E-02
        -0.37964E-02
        -0.39100E-02
        -0.37964E-02
        -0.34621E-02
        -0.29267E-02
        -0.22211E-02
        -0.13865E-02
        -0.47130E-03
         0.47130E-03
         0.13865E-02
         0.22211E-02
         0.29267E-02
         0.34621E-02
         0.37964E-02
         0.10364E-02
         0.17430E-02
         0.23162E-02
         0.16672E-02
         0.30374E-02
         0.27832E-02
         0.12838E-02
         0.64845E-03
         0.12442E-03
        -0.13044E-03
         0.94102E-03
         0.11286E-02
         0.17443E-02
         0.40523E-03
         0.39759E-03
        -0.76727E-03
        -0.86735E-03
         0.45582E-03
        -0.18335E-02
        -0.18429E-02
        -0.27235E-02
        -0.27995E-02
        -0.25383E-02
        -0.19339E-02
        -0.99190E-03
        -0.14422E-02
        -0.31334E-03
        -0.11026E-02
        -0.18839E-02
        -0.18697E-02
        -0.16201E-03
        -0.94807E-03
         0.78063E-03
         0.17206E-02
         0.32089E-02
         0.28043E-02
         0.23046E-02
        -0.40448E-03
        -0.12093E-02
        -0.19443E-02
        -0.25025E-02
        -0.26360E-02
        -0.27633E-02
        -0.21140E-02
        -0.16092E-02
        -0.11953E-02
        -0.59060E-03
         0.20424E-03
         0.10549E-02
         0.18418E-02
         0.24559E-02
         0.26030E-02
         0.37964E-02
         0.39100E-02
         0.34621E-02
         0.29267E-02
         0.22211E-02
         0.13865E-02
         0.47130E-03
        -0.47130E-03
        -0.13865E-02
        -0.22211E-02
        -0.29267E-02
        -0.34621E-02
        -0.37964E-02
        -0.39100E-02
        -0.37964E-02
        -0.34621E-02
        -0.29267E-02
        -0.22211E-02
        -0.13865E-02
        -0.47130E-03
         0.47130E-03
         0.13865E-02
         0.22211E-02
         0.29267E-02
         0.34621E-02
         0.37964E-02
         0.10363E-02
         0.17429E-02
         0.23161E-02
         0.16670E-02
         0.30374E-02
         0.27836E-02
         0.12837E-02
         0.64820E-03
         0.12416E-03
        -0.13063E-03
         0.94069E-03
         0.11282E-02
         0.17439E-02
         0.40518E-03
         0.39757E-03
        -0.76763E-03
        -0.86746E-03
         0.45537E-03
        -0.18338E-02
        -0.18428E-02
        -0.27234E-02
        -0.27992E-02
        -0.25385E-02
        -0.19343E-02
        -0.99176E-03
        -0.14425E-02
        -0.31314E-03
        -0.11023E-02
        -0.18839E-02
        -0.18696E-02
        -0.16229E-03
        -0.94867E-03
         0.77997E-03
         0.17205E-02
         0.32092E-02
         0.28043E-02
         0.23044E-02
        -0.40434E-03
        -0.12093E-02
        -0.19443E-02
        -0.25025E-02
        -0.26359E-02
        -0.27630E-02
        -0.21141E-02
        -0.16093E-02
        -0.11954E-02
        -0.59095E-03
         0.20384E-03
         0.10546E-02
         0.18419E-02
         0.24560E-02
         0.26031E-02
         0.37964E-02
         0.39100E-02
         0.34621E-02
         0.29267E-02
         0.22211E-02
         0.13865E-02
         0.47130E-03
        -0.47130E-03
        -0.13865E-02
        -0.22211E-02
        -0.29267E-02
        -0.34621E-02
        -0.37964E-02
        -0.39100E-02
        -0.37964E-02
        -0.34621E-02
        -0.29267E-02
        -0.22211E-02
        -0.13865E-02
        -0.47130E-03
         0.47130E-03
         0.13865E-02
         0.22211E-02
         0.29267E-02
         0.34621E-02
         0.37964E-02
         0.10362E-02
         0.17427E-02
         0.23160E-02
         0.16668E-02
         0.30373E-02
         0.27839E-02
         0.12836E-02
         0.64796E-03
         0.12390E-03
        -0.13082E-03
         0.94036E-03
         0.11279E-02
         0.17435E-02
         0.40512E-03
         0.39755E-03
        -0.76798E-03
        -0.86756E-03
         0.45492E-03
        -0.18341E-02
        -0.18427E-02
        -0.27234E-02
        -0.27990E-02
        -0.25386E-02
        -0.19347E-02
        -0.99161E-03
        -0.14429E-02
        -0.31294E-03
        -0.11019E-02
        -0.18838E-02
        -0.18695E-02
        -0.16256E-03
        -0.94927E-03
         0.77931E-03
         0.17205E-02
         0.32096E-02
         0.28043E-02
         0.23043E-02
        -0.40420E-03
        -0.12093E-02
        -0.19443E-02
        -0.25024E-02
        -0.26358E-02
        -0.27627E-02
        -0.21143E-02
        -0.16093E-02
        -0.11955E-02
        -0.59130E-03
         0.20343E-03
         0.10543E-02
         0.18419E-02
         0.24561E-02
         0.26032E-02
         0.37964E-02
         0.39100E-02
         0.34621E-02
         0.29267E-02
         0.22211E-02
         0.13865E-02
         0.47130E-03
        -0.47130E-03
        -0.13865E-02
        -0.22211E-02
        -0.29267E-02
        -0.34621E-02
        -0.37964E-02
        -0.39100E-02
        -0.37964E-02
        -0.34621E-02
        -0.29267E-02
        -0.22211E-02
        -0.13865E-02
        -0.47130E-03
         0.47130E-03
         0.13865E-02
         0.22211E-02
         0.29267E-02
         0.34621E-02
         0.37964E-02
         0.10360E-02
         0.17425E-02
         0.23158E-02
         0.16666E-02
         0.30373E-02
         0.27842E-02
         0.12835E-02
         0.64771E-03
         0.12363E-03
        -0.13100E-03
         0.94003E-03
         0.11276E-02
         0.17432E-02
         0.40507E-03
         0.39754E-03
        -0.76834E-03
        -0.86767E-03
         0.45447E-03
        -0.18344E-02
        -0.18426E-02
        -0.27234E-02
        -0.27987E-02
        -0.25388E-02
        -0.19352E-02
        -0.99147E-03
        -0.14433E-02
        -0.31274E-03
        -0.11016E-02
        -0.18838E-02
        -0.18694E-02
        -0.16284E-03
        -0.94986E-03
         0.77865E-03
         0.17205E-02
         0.32099E-02
         0.28042E-02
         0.23042E-02
        -0.40407E-03
        -0.12093E-02
        -0.19442E-02
        -0.25024E-02
        -0.26358E-02
        -0.27624E-02
        -0.21144E-02
        -0.16094E-02
        -0.11956E-02
        -0.59165E-03
         0.20302E-03
         0.10540E-02
         0.18419E-02
         0.24563E-02
         0.26033E-02
         0.37964E-02
         0.39100E-02
         0.34621E-02
         0.29267E-02
         0.22211E-02
         0.13865E-02
         0.47130E-03
        -0.47130E-03
        -0.13865E-02
        -0.22211E-02
        -0.29267E-02
        -0.34621E-02
        -0.37964E-02
        -0.39100E-02
        -0.37964E-02
        -0.34621E-02
        -0.29267E-02
        -0.22211E-02
        -0.13865E-02
        -0.47130E-03
         0.47130E-03
         0.13865E-02
         0.22211E-02
         0.29267E-02
         0.34621E-02
         0.37964E-02
         0.10359E-02
         0.17423E-02
         0.23157E-02
         0.16664E-02
         0.30373E-02
         0.27846E-02
         0.12834E-02
         0.64747E-03
         0.12337E-03
        -0.13118E-03
         0.93970E-03
         0.11272E-02
         0.17428E-02
         0.40501E-03
         0.39752E-03
        -0.76869E-03
        -0.86778E-03
         0.45402E-03
        -0.18347E-02
        -0.18425E-02
        -0.27234E-02
        -0.27984E-02
        -0.25389E-02
        -0.19356E-02
        -0.99133E-03
        -0.14436E-02
        -0.31254E-03
        -0.11013E-02
        -0.18837E-02
        -0.18692E-02
        -0.16311E-03
        -0.95046E-03
         0.77799E-03
         0.17204E-02
         0.32102E-02
         0.28042E-02
         0.23041E-02
        -0.40393E-03
        -0.12093E-02
        -0.19442E-02
        -0.25024E-02
        -0.26357E-02
        -0.27621E-02
        -0.21146E-02
        -0.16094E-02
        -0.11957E-02
        -0.59200E-03
         0.20262E-03
         0.10536E-02
         0.18420E-02
         0.24564E-02
         0.26033E-02
         0.37964E-02
         0.39100E-02
         0.34621E-02
         0.29267E-02
         0.22211E-02
         0.13865E-02
         0.47130E-03
        -0.47130E-03
        -0.13865E-02
        -0.22211E-02
        -0.29267E-02
        -0.34621E-02
        -0.37964E-02
        -0.39100E-02
        -0.37964E-02
        -0.34621E-02
        -0.29267E-02
        -0.22211E-02
        -0.13865E-02
        -0.47130E-03
         0.47130E-03
         0.13865E-02
         0.22211E-02
         0.29267E-02
         0.34621E-02
         0.37964E-02
         0.10358E-02
         0.17422E-02
         0.23156E-02
         0.16662E-02
         0.30373E-02
         0.27849E-02
         0.12833E-02
         0.64722E-03
         0.12311E-03
        -0.13137E-03
         0.93937E-03
         0.11269E-02
         0.17424E-02
         0.40496E-03
         0.39750E-03
        -0.76904E-03
        -0.86789E-03
         0.45358E-03
        -0.18350E-02
        -0.18424E-02
        -0.27233E-02
        -0.27981E-02
        -0.25391E-02
        -0.19360E-02
        -0.99118E-03
        -0.14440E-02
        -0.31234E-03
        -0.11009E-02
        -0.18836E-02
        -0.18691E-02
        -0.16339E-03
        -0.95106E-03
         0.77733E-03
         0.17204E-02
         0.32105E-02
         0.28042E-02
         0.23040E-02
        -0.40379E-03
        -0.12093E-02
        -0.19441E-02
        -0.25023E-02
        -0.26356E-02
        -0.27618E-02
        -0.21147E-02
        -0.16094E-02
        -0.11958E-02
        -0.59235E-03
         0.20221E-03
         0.10533E-02
         0.18420E-02
         0.24565E-02
         0.26034E-02
         0.37964E-02
         0.39100E-02
         0.34621E-02
         0.29267E-02
         0.22211E-02
         0.13865E-02
         0.47130E-03
        -0.47130E-03
        -0.13865E-02
        -0.22211E-02
        -0.29267E-02
        -0.34621E-02
        -0.37964E-02
        -0.39100E-02
        -0.37964E-02
        -0.34621E-02
        -0.29267E-02
        -0.22211E-02
        -0.13865E-02
        -0.47130E-03
         0.47130E-03
         0.13865E-02
         0.22211E-02
         0.29267E-02
         0.34621E-02
         0.37964E-02
         0.10357E-02
         0.17420E-02
         0.23155E-02
         0.16660E-02
         0.30372E-02
         0.27853E-02
         0.12832E-02
         0.64698E-03
         0.12285E-03
        -0.13155E-03
         0.93903E-03
         0.11266E-02
         0.17420E-02
         0.40490E-03
         0.39749E-03
        -0.76940E-03
        -0.86800E-03
         0.45313E-03
        -0.18353E-02
        -0.18423E-02
        -0.27233E-02
        -0.27979E-02
        -0.25393E-02
        -0.19365E-02
        -0.99104E-03
        -0.14443E-02
        -0.31214E-03
        -0.11006E-02
        -0.18836E-02
        -0.18690E-02
        -0.16366E-03
        -0.95166E-03
         0.77667E-03
         0.17203E-02
         0.32109E-02
         0.28042E-02
         0.23039E-02
        -0.40365E-03
        -0.12093E-02
        -0.19441E-02
        -0.25023E-02
        -0.26355E-02
        -0.27615E-02
        -0.21148E-02
        -0.16095E-02
        -0.11960E-02
        -0.59270E-03
         0.20180E-03
         0.10530E-02
         0.18421E-02
         0.24566E-02
         0.26035E-02
         0.37964E-02
         0.39100E-02
         0.34621E-02
         0.29267E-02
         0.22211E-02
         0.13865E-02
         0.47130E-03
        -0.47130E-03
        -0.13865E-02
        -0.22211E-02
        -0.29267E-02
        -0.34621E-02
        -0.37964E-02
        -0.39100E-02
        -0.37964E-02
        -0.34621E-02
        -0.29267E-02
        -0.22211E-02
        -0.13865E-02
        -0.47130E-03
         0.47130E-03
         0.13865E-02
         0.22211E-02
         0.29267E-02
         0.34621E-02
         0.37964E-02
         0.10356E-02
         0.17418E-02
         0.23153E-02
         0.16657E-02
         0.30372E-02
         0.27856E-02
         0.12830E-02
         0.64673E-03
         0.12259E-03
        -0.13174E-03
         0.93870E-03
         0.11262E-02
         0.17416E-02
         0.40485E-03
         0.39747E-03
        -0.76975E-03
        -0.86811E-03
         0.45268E-03
        -0.18356E-02
        -0.18422E-02
        -0.27233E-02
        -0.27976E-02
        -0.25394E-02
        -0.19369E-02
        -0.99090E-03
        -0.14446E-02
        -0.31194E-03
        -0.11002E-02
        -0.18835E-02
        -0.18689E-02
        -0.16394E-03
        -0.95226E-03
         0.77601E-03
         0.17203E-02
         0.32112E-02
         0.28042E-02
         0.23038E-02
        -0.40352E-03
        -0.12093E-02
        -0.19441E-02
        -0.25023E-02
        -0.26354E-02
        -0.27612E-02
        -0.21150E-02
        -0.16095E-02
        -0.11961E-02
        -0.59305E-03
         0.20140E-03
         0.10527E-02
         0.18421E-02
         0.24568E-02
         0.26036E-02
         0.37964E-02
         0.39100E-02
         0.34621E-02
         0.29267E-02
         0.22211E-02
         0.13865E-02
         0.47130E-03
        -0.47130E-03
        -0.13865E-02
        -0.22211E-02
        -0.29267E-02
        -0.34621E-02
        -0.37964E-02
        -0.39100E-02
        -0.37964E-02
        -0.34621E-02
        -0.29267E-02
        -0.22211E-02
        -0.13865E-02
        -0.47130E-03
         0.47130E-03
         0.13865E-02
         0.22211E-02
         0.29267E-02
         0.34621E-02
         0.37964E-02
         0.10355E-02
         0.17416E-02
         0.23152E-02
         0.16655E-02
         0.30372E-02
         0.27860E-02
         0.12829E-02
         0.64649E-03
         0.12232E-03
        -0.13193E-03
         0.93837E-03
         0.11259E-02
         0.17412E-02
         0.40480E-03
         0.39745E-03
        -0.77011E-03
        -0.86822E-03
         0.45223E-03
        -0.18359E-02
        -0.18421E-02
        -0.27232E-02
        -0.27973E-02
        -0.25396E-02
        -0.19373E-02
        -0.99075E-03
        -0.14450E-02
        -0.31173E-03
        -0.10999E-02
        -0.18835E-02
        -0.18687E-02
        -0.16421E-03
        -0.95285E-03
         0.77535E-03
         0.17202E-02
         0.32115E-02
         0.28041E-02
         0.23037E-02
        -0.40338E-03
        -0.12093E-02
        -0.19440E-02
        -0.25023E-02
        -0.26353E-02
        -0.27609E-02
        -0.21151E-02
        -0.16096E-02
        -0.11962E-02
        -0.59340E-03
         0.20099E-03
         0.10524E-02
         0.18422E-02
         0.24569E-02
         0.26036E-02
         0.37964E-02
         0.39100E-02
         0.34621E-02
         0.29267E-02
         0.22211E-02
         0.13865E-02
         0.47130E-03
        -0.47130E-03
        -0.13865E-02
        -0.22211E-02
        -0.29267E-02
        -0.34621E-02
        -0.37964E-02
        -0.39100E-02
        -0.37964E-02
        -0.34621E-02
        -0.29267E-02
        -0.22211E-02
        -0.13865E-02
        -0.47130E-03
         0.47130E-03
         0.13865E-02
         0.22211E-02
         0.29267E-02
         0.34621E-02
         0.37964E-02
         0.10354E-02
         0.17414E-02
         0.23151E-02
         0.16653E-02
         0.30372E-02
         0.27863E-02
         0.12829E-02
         0.64624E-03
         0.12206E-03
        -0.13211E-03
         0.93804E-03
         0.11255E-02
         0.17408E-02
         0.40474E-03
         0.39744E-03
        -0.77046E-03
        -0.86832E-03
         0.45179E-03
        -0.18362E-02
        -0.18420E-02
        -0.27232E-02
        -0.27970E-02
        -0.25397E-02
        -0.19377E-02
        -0.99061E-03
        -0.14453E-02
        -0.31153E-03
        -0.10995E-02
        -0.18834E-02
        -0.18686E-02
        -0.16449E-03
        -0.95345E-03
         0.77469E-03
         0.17202E-02
         0.32119E-02
         0.28041E-02
         0.23036E-02
        -0.40324E-03
        -0.12093E-02
        -0.19440E-02
        -0.25022E-02
        -0.26352E-02
        -0.27606E-02
        -0.21152E-02
        -0.16096E-02
        -0.11963E-02
        -0.59375E-03
         0.20059E-03
         0.10521E-02
         0.18422E-02
         0.24570E-02
         0.26037E-02
         0.37964E-02
         0.39100E-02
         0.34621E-02
         0.29267E-02
         0.22211E-02
         0.13865E-02
         0.47130E-03
        -0.47130E-03
        -0.13865E-02
        -0.22211E-02
        -0.29267E-02
        -0.34621E-02
        -0.37964E-02
        -0.39100E-02
        -0.37964E-02
        -0.34621E-02
        -0.29267E-02
        -0.22211E-02
        -0.13865E-02
        -0.47130E-03
         0.47130E-03
         0.13865E-02
         0.22211E-02
         0.29267E-02
         0.34621E-02
         0.37964E-02
         0.10352E-02
         0.17413E-02
         0.23150E-02
         0.16651E-02
         0.30371E-02
         0.27866E-02
         0.12827E-02
         0.64600E-03
         0.12180E-03
        -0.13230E-03
         0.93771E-03
         0.11252E-02
         0.17404E-02
         0.40469E-03
         0.39742E-03
        -0.77081E-03
        -0.86843E-03
         0.45134E-03
        -0.18365E-02
        -0.18419E-02
        -0.27232E-02
        -0.27968E-02
        -0.25399E-02
        -0.19382E-02
        -0.99046E-03
        -0.14457E-02
        -0.31133E-03
        -0.10992E-02
        -0.18834E-02
        -0.18685E-02
        -0.16476E-03
        -0.95405E-03
         0.77402E-03
         0.17202E-02
         0.32122E-02
         0.28041E-02
         0.23034E-02
        -0.40310E-03
        -0.12093E-02
        -0.19440E-02
        -0.25022E-02
        -0.26351E-02
        -0.27602E-02
        -0.21154E-02
        -0.16097E-02
        -0.11964E-02
        -0.59409E-03
         0.20018E-03
         0.10518E-02
         0.18422E-02
         0.24571E-02
         0.26038E-02
         0.37964E-02
         0.39100E-02
         0.34621E-02
         0.29267E-02
         0.22211E-02
         0.13865E-02
         0.47130E-03
        -0.47130E-03
        -0.13865E-02
        -0.22211E-02
        -0.29267E-02
        -0.34621E-02
        -0.37964E-02
        -0.39100E-02
        -0.37964E-02
        -0.34621E-02
        -0.29267E-02
        -0.22211E-02
        -0.13865E-02
        -0.47130E-03
         0.47130E-03
         0.13865E-02
         0.22211E-02
         0.29267E-02
         0.34621E-02
         0.37964E-02
         0.10351E-02
         0.17411E-02
         0.23149E-02
         0.16649E-02
         0.30371E-02
         0.27870E-02
         0.12826E-02
         0.64575E-03
         0.12154E-03
        -0.13248E-03
         0.93738E-03
         0.11249E-02
         0.17400E-02
         0.40463E-03
         0.39740E-03
        -0.77117E-03
        -0.86854E-03
         0.45089E-03
        -0.18368E-02
        -0.18418E-02
        -0.27232E-02
        -0.27965E-02
        -0.25400E-02
        -0.19386E-02
        -0.99032E-03
        -0.14460E-02
        -0.31113E-03
        -0.10988E-02
        -0.18833E-02
        -0.18683E-02
        -0.16504E-03
        -0.95465E-03
         0.77336E-03
         0.17201E-02
         0.32125E-02
         0.28041E-02
         0.23033E-02
        -0.40296E-03
        -0.12093E-02
        -0.19439E-02
        -0.25022E-02
        -0.26350E-02
        -0.27599E-02
        -0.21155E-02
        -0.16097E-02
        -0.11965E-02
        -0.59444E-03
         0.19977E-03
         0.10515E-02
         0.18423E-02
         0.24573E-02
         0.26039E-02
         0.37964E-02
         0.39100E-02
         0.34621E-02
         0.29267E-02
         0.22211E-02
         0.13865E-02
         0.47130E-03
        -0.47130E-03
        -0.13865E-02
        -0.22211E-02
        -0.29267E-02
        -0.34621E-02
        -0.37964E-02
        -0.39100E-02
        -0.37964E-02
        -0.34621E-02
        -0.29267E-02
        -0.22211E-02
        -0.13865E-02
        -0.47130E-03
         0.47130E-03
         0.13865E-02
         0.22211E-02
         0.29267E-02
         0.34621E-02
         0.37964E-02
  
SCALARS           initial_coordinate_y  double 1
LOOKUP_TABLE default
         0.67292E-03
         0.12308E-02
         0.59151E-03
        -0.33775E-03
         0.67237E-03
         0.12301E-02
         0.59098E-03
        -0.33851E-03
         0.14882E-03
        -0.67643E-03
         0.14846E-03
        -0.67692E-03
         0.18412E-02
         0.14576E-02
         0.18410E-02
         0.14566E-02
         0.29933E-03
         0.11672E-02
         0.29819E-03
         0.11655E-02
         0.22748E-02
         0.28286E-02
         0.24238E-02
         0.22746E-02
         0.28291E-02
         0.24236E-02
         0.21685E-02
         0.29366E-02
         0.21684E-02
         0.29369E-02
        -0.10033E-02
         0.78969E-04
        -0.70318E-03
        -0.10032E-02
         0.78160E-04
        -0.70391E-03
        -0.71196E-03
         0.82749E-04
        -0.71210E-03
         0.82626E-04
        -0.77865E-03
         0.40713E-04
        -0.77882E-03
         0.40439E-04
        -0.15195E-02
        -0.13230E-02
        -0.15195E-02
        -0.13231E-02
         0.98847E-03
         0.98712E-03
        -0.17325E-02
        -0.17325E-02
         0.20220E-02
         0.20217E-02
         0.18615E-02
         0.18616E-02
         0.17175E-02
         0.90940E-03
         0.17175E-02
         0.90916E-03
        -0.19800E-02
        -0.23489E-02
        -0.19800E-02
        -0.23489E-02
        -0.17074E-02
        -0.17074E-02
        -0.14894E-02
        -0.14892E-02
         0.76036E-03
         0.12477E-02
         0.75936E-03
         0.12473E-02
         0.18665E-02
         0.18664E-02
         0.29038E-02
         0.29049E-02
         0.27207E-02
         0.27212E-02
         0.24642E-02
         0.24645E-02
         0.22359E-02
         0.16503E-02
         0.22359E-02
         0.16503E-02
         0.87493E-03
         0.87466E-03
        -0.21373E-02
        -0.21373E-02
        -0.26931E-02
        -0.26931E-02
        -0.31291E-02
        -0.30382E-02
        -0.31291E-02
        -0.30382E-02
        -0.28748E-02
        -0.28748E-02
        -0.26423E-02
        -0.26420E-02
        -0.23707E-02
        -0.23705E-02
        -0.21445E-02
        -0.15105E-02
        -0.21439E-02
        -0.15106E-02
         0.93572E-03
         0.00000E+00
         0.93572E-03
         0.00000E+00
         0.18171E-02
         0.18171E-02
         0.25928E-02
         0.25928E-02
         0.32179E-02
         0.32179E-02
         0.36559E-02
         0.36559E-02
         0.38815E-02
         0.38815E-02
         0.38815E-02
         0.38815E-02
         0.36559E-02
         0.36559E-02
         0.32179E-02
         0.32179E-02
         0.25928E-02
         0.25928E-02
         0.18171E-02
         0.18171E-02
         0.93572E-03
         0.93572E-03
         0.22152E-17
        -0.47884E-18
        -0.93572E-03
        -0.93572E-03
        -0.18171E-02
        -0.18171E-02
        -0.25928E-02
        -0.25928E-02
        -0.32179E-02
        -0.32179E-02
        -0.36559E-02
        -0.36559E-02
        -0.38815E-02
        -0.38815E-02
        -0.38815E-02
        -0.38815E-02
        -0.36559E-02
        -0.36559E-02
        -0.32179E-02
        -0.32179E-02
        -0.25928E-02
        -0.25928E-02
        -0.18171E-02
        -0.18171E-02
        -0.93572E-03
        -0.93572E-03
         0.67348E-03
         0.12314E-02
         0.59203E-03
        -0.33700E-03
         0.14918E-03
        -0.67594E-03
         0.18414E-02
         0.14586E-02
         0.30048E-03
         0.11690E-02
         0.22749E-02
         0.28282E-02
         0.24239E-02
         0.21685E-02
         0.29364E-02
        -0.10035E-02
         0.79778E-04
        -0.70245E-03
        -0.71182E-03
         0.82873E-04
        -0.77848E-03
         0.40986E-04
        -0.15194E-02
        -0.13228E-02
         0.98983E-03
        -0.17324E-02
         0.20223E-02
         0.18614E-02
         0.17175E-02
         0.90964E-03
        -0.19800E-02
        -0.23489E-02
        -0.17074E-02
        -0.14896E-02
         0.76137E-03
         0.12481E-02
         0.18665E-02
         0.29027E-02
         0.27202E-02
         0.24640E-02
         0.22359E-02
         0.16503E-02
         0.87519E-03
        -0.21373E-02
        -0.26932E-02
        -0.31291E-02
        -0.30382E-02
        -0.28748E-02
        -0.26426E-02
        -0.23709E-02
        -0.21450E-02
        -0.15104E-02
         0.93572E-03
         0.00000E+00
         0.18171E-02
         0.25928E-02
         0.32179E-02
         0.36559E-02
         0.38815E-02
         0.38815E-02
         0.36559E-02
         0.32179E-02
         0.25928E-02
         0.18171E-02
         0.93572E-03
        -0.47884E-18
        -0.93572E-03
        -0.18171E-02
        -0.25928E-02
        -0.32179E-02
        -0.36559E-02
        -0.38815E-02
        -0.38815E-02
        -0.36559E-02
        -0.32179E-02
        -0.25928E-02
        -0.18171E-02
        -0.93572E-03
         0.67403E-03
         0.12321E-02
         0.59255E-03
        -0.33624E-03
         0.14955E-03
        -0.67544E-03
         0.18415E-02
         0.14596E-02
         0.30163E-03
         0.11707E-02
         0.22750E-02
         0.28277E-02
         0.24241E-02
         0.21685E-02
         0.29361E-02
        -0.10036E-02
         0.80588E-04
        -0.70173E-03
        -0.71168E-03
         0.82996E-04
        -0.77831E-03
         0.41259E-04
        -0.15194E-02
        -0.13227E-02
         0.99119E-03
        -0.17324E-02
         0.20226E-02
         0.18613E-02
         0.17175E-02
         0.90988E-03
        -0.19801E-02
        -0.23490E-02
        -0.17074E-02
        -0.14899E-02
         0.76237E-03
         0.12485E-02
         0.18666E-02
         0.29017E-02
         0.27198E-02
         0.24638E-02
         0.22359E-02
         0.16503E-02
         0.87545E-03
        -0.21374E-02
        -0.26932E-02
        -0.31291E-02
        -0.30382E-02
        -0.28748E-02
        -0.26428E-02
        -0.23711E-02
        -0.21456E-02
        -0.15103E-02
         0.93572E-03
         0.00000E+00
         0.18171E-02
         0.25928E-02
         0.32179E-02
         0.36559E-02
         0.38815E-02
         0.38815E-02
         0.36559E-02
         0.32179E-02
         0.25928E-02
         0.18171E-02
         0.93572E-03
         0.39516E-17
        -0.93572E-03
        -0.18171E-02
        -0.25928E-02
        -0.32179E-02
        -0.36559E-02
        -0.38815E-02
        -0.38815E-02
        -0.36559E-02
        -0.32179E-02
        -0.25928E-02
        -0.18171E-02
        -0.93572E-03
         0.67459E-03
         0.12328E-02
         0.59308E-03
        -0.33549E-03
         0.14991E-03
        -0.67495E-03
         0.18417E-02
         0.14606E-02
         0.30278E-03
         0.11725E-02
         0.22752E-02
         0.28273E-02
         0.24242E-02
         0.21686E-02
         0.29359E-02
        -0.10038E-02
         0.81397E-04
        -0.70100E-03
        -0.71154E-03
         0.83120E-04
        -0.77814E-03
         0.41533E-04
        -0.15193E-02
        -0.13227E-02
         0.99254E-03
        -0.17324E-02
         0.20228E-02
         0.18611E-02
         0.17175E-02
         0.91012E-03
        -0.19801E-02
        -0.23490E-02
        -0.17074E-02
        -0.14901E-02
         0.76338E-03
         0.12490E-02
         0.18666E-02
         0.29006E-02
         0.27193E-02
         0.24636E-02
         0.22359E-02
         0.16503E-02
         0.87571E-03
        -0.21374E-02
        -0.26932E-02
        -0.31291E-02
        -0.30382E-02
        -0.28748E-02
        -0.26431E-02
        -0.23713E-02
        -0.21461E-02
        -0.15102E-02
         0.93572E-03
         0.00000E+00
         0.18171E-02
         0.25928E-02
         0.32179E-02
         0.36559E-02
         0.38815E-02
         0.38815E-02
         0.36559E-02
         0.32179E-02
         0.25928E-02
         0.18171E-02
         0.93572E-03
        -0.47884E-18
        -0.93572E-03
        -0.18171E-02
        -0.25928E-02
        -0.32179E-02
        -0.36559E-02
        -0.38815E-02
        -0.38815E-02
        -0.36559E-02
        -0.32179E-02
        -0.25928E-02
        -0.18171E-02
        -0.93572E-03
         0.67514E-03
         0.12334E-02
         0.59360E-03
        -0.33474E-03
         0.15027E-03
        -0.67446E-03
         0.18419E-02
         0.14616E-02
         0.30393E-03
         0.11742E-02
         0.22753E-02
         0.28269E-02
         0.24244E-02
         0.21686E-02
         0.29356E-02
        -0.10039E-02
         0.82206E-04
        -0.70028E-03
        -0.71140E-03
         0.83243E-04
        -0.77797E-03
         0.41806E-04
        -0.15193E-02
        -0.13226E-02
         0.99390E-03
        -0.17323E-02
         0.20231E-02
         0.18610E-02
         0.17175E-02
         0.91036E-03
        -0.19801E-02
        -0.23490E-02
        -0.17074E-02
        -0.14904E-02
         0.76439E-03
         0.12494E-02
         0.18666E-02
         0.28995E-02
         0.27188E-02
         0.24633E-02
         0.22359E-02
         0.16503E-02
         0.87597E-03
        -0.21374E-02
        -0.26932E-02
        -0.31291E-02
        -0.30382E-02
        -0.28748E-02
        -0.26434E-02
        -0.23715E-02
        -0.21467E-02
        -0.15101E-02
         0.93572E-03
         0.00000E+00
         0.18171E-02
         0.25928E-02
         0.32179E-02
         0.36559E-02
         0.38815E-02
         0.38815E-02
         0.36559E-02
         0.32179E-02
         0.25928E-02
         0.18171E-02
         0.93572E-03
        -0.47884E-18
        -0.93572E-03
        -0.18171E-02
        -0.25928E-02
        -0.32179E-02
        -0.36559E-02
        -0.38815E-02
        -0.38815E-02
        -0.36559E-02
        -0.32179E-02
        -0.25928E-02
        -0.18171E-02
        -0.93572E-03
         0.67570E-03
         0.12341E-02
         0.59412E-03
        -0.33398E-03
         0.15064E-03
        -0.67396E-03
         0.18421E-02
         0.14626E-02
         0.30507E-03
         0.11760E-02
         0.22754E-02
         0.28264E-02
         0.24245E-02
         0.21686E-02
         0.29353E-02
        -0.10040E-02
         0.83015E-04
        -0.69955E-03
        -0.71126E-03
         0.83367E-04
        -0.77780E-03
         0.42080E-04
        -0.15192E-02
        -0.13224E-02
         0.99526E-03
        -0.17323E-02
         0.20234E-02
         0.18609E-02
         0.17175E-02
         0.91060E-03
        -0.19801E-02
        -0.23490E-02
        -0.17074E-02
        -0.14906E-02
         0.76539E-03
         0.12498E-02
         0.18667E-02
         0.28984E-02
         0.27184E-02
         0.24631E-02
         0.22359E-02
         0.16503E-02
         0.87623E-03
        -0.21374E-02
        -0.26932E-02
        -0.31291E-02
        -0.30382E-02
        -0.28748E-02
        -0.26436E-02
        -0.23717E-02
        -0.21472E-02
        -0.15100E-02
         0.93572E-03
         0.00000E+00
         0.18171E-02
         0.25928E-02
         0.32179E-02
         0.36559E-02
         0.38815E-02
         0.38815E-02
         0.36559E-02
         0.32179E-02
         0.25928E-02
         0.18171E-02
         0.93572E-03
        -0.47884E-18
        -0.93572E-03
        -0.18171E-02
        -0.25928E-02
        -0.32179E-02
        -0.36559E-02
        -0.38815E-02
        -0.38815E-02
        -0.36559E-02
        -0.32179E-02
        -0.25928E-02
        -0.18171E-02
        -0.93572E-03
         0.67625E-03
         0.12348E-02
         0.59465E-03
        -0.33323E-03
         0.15100E-03
        -0.67347E-03
         0.18423E-02
         0.14636E-02
         0.30622E-03
         0.11777E-02
         0.22755E-02
         0.28260E-02
         0.24247E-02
         0.21687E-02
         0.29351E-02
        -0.10042E-02
         0.83825E-04
        -0.69882E-03
        -0.71112E-03
         0.83490E-04
        -0.77763E-03
         0.42353E-04
        -0.15192E-02
        -0.13223E-02
         0.99661E-03
        -0.17322E-02
         0.20237E-02
         0.18607E-02
         0.17175E-02
         0.91084E-03
        -0.19801E-02
        -0.23491E-02
        -0.17074E-02
        -0.14909E-02
         0.76640E-03
         0.12503E-02
         0.18667E-02
         0.28974E-02
         0.27179E-02
         0.24629E-02
         0.22359E-02
         0.16503E-02
         0.87650E-03
        -0.21374E-02
        -0.26933E-02
        -0.31291E-02
        -0.30382E-02
        -0.28749E-02
        -0.26439E-02
        -0.23719E-02
        -0.21478E-02
        -0.15099E-02
         0.93572E-03
         0.00000E+00
         0.18171E-02
         0.25928E-02
         0.32179E-02
         0.36559E-02
         0.38815E-02
         0.38815E-02
         0.36559E-02
         0.32179E-02
         0.25928E-02
         0.18171E-02
         0.93572E-03
        -0.47884E-18
        -0.93572E-03
        -0.18171E-02
        -0.25928E-02
        -0.32179E-02
        -0.36559E-02
        -0.38815E-02
        -0.38815E-02
        -0.36559E-02
        -0.32179E-02
        -0.25928E-02
        -0.18171E-02
        -0.93572E-03
         0.67680E-03
         0.12354E-02
         0.59517E-03
        -0.33247E-03
         0.15136E-03
        -0.67298E-03
         0.18425E-02
         0.14646E-02
         0.30737E-03
         0.11795E-02
         0.22757E-02
         0.28255E-02
         0.24248E-02
         0.21687E-02
         0.29348E-02
        -0.10043E-02
         0.84634E-04
        -0.69810E-03
        -0.71098E-03
         0.83614E-04
        -0.77746E-03
         0.42626E-04
        -0.15191E-02
        -0.13223E-02
         0.99797E-03
        -0.17322E-02
         0.20240E-02
         0.18606E-02
         0.17175E-02
         0.91108E-03
        -0.19802E-02
        -0.23491E-02
        -0.17074E-02
        -0.14911E-02
         0.76740E-03
         0.12507E-02
         0.18668E-02
         0.28963E-02
         0.27174E-02
         0.24627E-02
         0.22358E-02
         0.16503E-02
         0.87676E-03
        -0.21374E-02
        -0.26933E-02
        -0.31291E-02
        -0.30382E-02
        -0.28749E-02
        -0.26442E-02
        -0.23721E-02
        -0.21483E-02
        -0.15097E-02
         0.93572E-03
         0.00000E+00
         0.18171E-02
         0.25928E-02
         0.32179E-02
         0.36559E-02
         0.38815E-02
         0.38815E-02
         0.36559E-02
         0.32179E-02
         0.25928E-02
         0.18171E-02
         0.93572E-03
        -0.47884E-18
        -0.93572E-03
        -0.18171E-02
        -0.25928E-02
        -0.32179E-02
        -0.36559E-02
        -0.38815E-02
        -0.38815E-02
        -0.36559E-02
        -0.32179E-02
        -0.25928E-02
        -0.18171E-02
        -0.93572E-03
         0.67736E-03
         0.12361E-02
         0.59570E-03
        -0.33172E-03
         0.15173E-03
        -0.67248E-03
         0.18427E-02
         0.14656E-02
         0.30852E-03
         0.11812E-02
         0.22758E-02
         0.28251E-02
         0.24249E-02
         0.21688E-02
         0.29345E-02
        -0.10044E-02
         0.85443E-04
        -0.69737E-03
        -0.71084E-03
         0.83737E-04
        -0.77729E-03
         0.42899E-04
        -0.15191E-02
        -0.13222E-02
         0.99932E-03
        -0.17322E-02
         0.20243E-02
         0.18605E-02
         0.17175E-02
         0.91132E-03
        -0.19802E-02
        -0.23491E-02
        -0.17074E-02
        -0.14914E-02
         0.76841E-03
         0.12511E-02
         0.18668E-02
         0.28952E-02
         0.27170E-02
         0.24624E-02
         0.22358E-02
         0.16503E-02
         0.87702E-03
        -0.21374E-02
        -0.26933E-02
        -0.31291E-02
        -0.30382E-02
        -0.28749E-02
        -0.26444E-02
        -0.23723E-02
        -0.21489E-02
        -0.15096E-02
         0.93572E-03
         0.00000E+00
         0.18171E-02
         0.25928E-02
         0.32179E-02
         0.36559E-02
         0.38815E-02
         0.38815E-02
         0.36559E-02
         0.32179E-02
         0.25928E-02
         0.18171E-02
         0.93572E-03
        -0.47884E-18
        -0.93572E-03
        -0.18171E-02
        -0.25928E-02
        -0.32179E-02
        -0.36559E-02
        -0.38815E-02
        -0.38815E-02
        -0.36559E-02
        -0.32179E-02
        -0.25928E-02
        -0.18171E-02
        -0.93572E-03
         0.67791E-03
         0.12368E-02
         0.59622E-03
        -0.33096E-03
         0.15209E-03
        -0.67199E-03
         0.18429E-02
         0.14666E-02
         0.30967E-03
         0.11830E-02
         0.22759E-02
         0.28247E-02
         0.24251E-02
         0.21688E-02
         0.29343E-02
        -0.10046E-02
         0.86253E-04
        -0.69665E-03
        -0.71070E-03
         0.83861E-04
        -0.77712E-03
         0.43173E-04
        -0.15190E-02
        -0.13220E-02
         0.10007E-02
        -0.17321E-02
         0.20245E-02
         0.18603E-02
         0.17175E-02
         0.91156E-03
        -0.19802E-02
        -0.23491E-02
        -0.17074E-02
        -0.14916E-02
         0.76941E-03
         0.12515E-02
         0.18668E-02
         0.28942E-02
         0.27165E-02
         0.24622E-02
         0.22358E-02
         0.16503E-02
         0.87728E-03
        -0.21374E-02
        -0.26933E-02
        -0.31291E-02
        -0.30382E-02
        -0.28749E-02
        -0.26447E-02
        -0.23725E-02
        -0.21494E-02
        -0.15095E-02
         0.93572E-03
         0.00000E+00
         0.18171E-02
         0.25928E-02
         0.32179E-02
         0.36559E-02
         0.38815E-02
         0.38815E-02
         0.36559E-02
         0.32179E-02
         0.25928E-02
         0.18171E-02
         0.93572E-03
        -0.47884E-18
        -0.93572E-03
        -0.18171E-02
        -0.25928E-02
        -0.32179E-02
        -0.36559E-02
        -0.38815E-02
        -0.38815E-02
        -0.36559E-02
        -0.32179E-02
        -0.25928E-02
        -0.18171E-02
        -0.93572E-03
         0.67847E-03
         0.12374E-02
         0.59674E-03
        -0.33021E-03
         0.15245E-03
        -0.67150E-03
         0.18430E-02
         0.14676E-02
         0.31081E-03
         0.11847E-02
         0.22761E-02
         0.28242E-02
         0.24252E-02
         0.21688E-02
         0.29340E-02
        -0.10047E-02
         0.87062E-04
        -0.69592E-03
        -0.71056E-03
         0.83985E-04
        -0.77695E-03
         0.43446E-04
        -0.15190E-02
        -0.13219E-02
         0.10020E-02
        -0.17321E-02
         0.20248E-02
         0.18602E-02
         0.17175E-02
         0.91180E-03
        -0.19803E-02
        -0.23491E-02
        -0.17073E-02
        -0.14919E-02
         0.77042E-03
         0.12520E-02
         0.18669E-02
         0.28931E-02
         0.27160E-02
         0.24620E-02
         0.22358E-02
         0.16503E-02
         0.87754E-03
        -0.21374E-02
        -0.26933E-02
        -0.31291E-02
        -0.30382E-02
        -0.28749E-02
        -0.26450E-02
        -0.23727E-02
        -0.21500E-02
        -0.15094E-02
         0.93572E-03
         0.00000E+00
         0.18171E-02
         0.25928E-02
         0.32179E-02
         0.36559E-02
         0.38815E-02
         0.38815E-02
         0.36559E-02
         0.32179E-02
         0.25928E-02
         0.18171E-02
         0.93572E-03
         0.39516E-17
        -0.93572E-03
        -0.18171E-02
        -0.25928E-02
        -0.32179E-02
        -0.36559E-02
        -0.38815E-02
        -0.38815E-02
        -0.36559E-02
        -0.32179E-02
        -0.25928E-02
        -0.18171E-02
        -0.93572E-03
         0.67902E-03
         0.12381E-02
         0.59727E-03
        -0.32945E-03
         0.15282E-03
        -0.67100E-03
         0.18432E-02
         0.14686E-02
         0.31196E-03
         0.11865E-02
         0.22762E-02
         0.28238E-02
         0.24254E-02
         0.21688E-02
         0.29337E-02
        -0.10049E-02
         0.87871E-04
        -0.69519E-03
        -0.71042E-03
         0.84108E-04
        -0.77678E-03
         0.43720E-04
        -0.15189E-02
        -0.13219E-02
         0.10034E-02
        -0.17320E-02
         0.20251E-02
         0.18601E-02
         0.17175E-02
         0.91204E-03
        -0.19803E-02
        -0.23492E-02
        -0.17073E-02
        -0.14921E-02
         0.77142E-03
         0.12524E-02
         0.18669E-02
         0.28920E-02
         0.27155E-02
         0.24618E-02
         0.22358E-02
         0.16503E-02
         0.87781E-03
        -0.21374E-02
        -0.26934E-02
        -0.31291E-02
        -0.30382E-02
        -0.28749E-02
        -0.26452E-02
        -0.23729E-02
        -0.21505E-02
        -0.15093E-02
         0.93572E-03
         0.00000E+00
         0.18171E-02
         0.25928E-02
         0.32179E-02
         0.36559E-02
         0.38815E-02
         0.38815E-02
         0.36559E-02
         0.32179E-02
         0.25928E-02
         0.18171E-02
         0.93572E-03
        -0.47884E-18
        -0.93572E-03
        -0.18171E-02
        -0.25928E-02
        -0.32179E-02
        -0.36559E-02
        -0.38815E-02
        -0.38815E-02
        -0.36559E-02
        -0.32179E-02
        -0.25928E-02
        -0.18171E-02
        -0.93572E-03
         0.67958E-03
         0.12387E-02
         0.59779E-03
        -0.32870E-03
         0.15318E-03
        -0.67051E-03
         0.18434E-02
         0.14696E-02
         0.31311E-03
         0.11882E-02
         0.22763E-02
         0.28233E-02
         0.24255E-02
         0.21689E-02
         0.29335E-02
        -0.10050E-02
         0.88681E-04
        -0.69447E-03
        -0.71028E-03
         0.84232E-04
        -0.77661E-03
         0.43993E-04
        -0.15189E-02
        -0.13218E-02
         0.10048E-02
        -0.17320E-02
         0.20254E-02
         0.18599E-02
         0.17175E-02
         0.91228E-03
        -0.19803E-02
        -0.23492E-02
        -0.17073E-02
        -0.14923E-02
         0.77243E-03
         0.12528E-02
         0.18670E-02
         0.28910E-02
         0.27151E-02
         0.24615E-02
         0.22358E-02
         0.16503E-02
         0.87807E-03
        -0.21374E-02
        -0.26934E-02
        -0.31291E-02
        -0.30382E-02
        -0.28749E-02
        -0.26455E-02
        -0.23732E-02
        -0.21511E-02
        -0.15092E-02
         0.93572E-03
         0.00000E+00
         0.18171E-02
         0.25928E-02
         0.32179E-02
         0.36559E-02
         0.38815E-02
         0.38815E-02
         0.36559E-02
         0.32179E-02
         0.25928E-02
         0.18171E-02
         0.93572E-03
         0.22152E-17
        -0.93572E-03
        -0.18171E-02
        -0.25928E-02
        -0.32179E-02
        -0.36559E-02
        -0.38815E-02
        -0.38815E-02
        -0.36559E-02
        -0.32179E-02
        -0.25928E-02
        -0.18171E-02
        -0.93572E-03
         0.68013E-03
         0.12394E-02
         0.59831E-03
        -0.32794E-03
         0.15354E-03
        -0.67002E-03
         0.18436E-02
         0.14706E-02
         0.31426E-03
         0.11900E-02
         0.22765E-02
         0.28229E-02
         0.24257E-02
         0.21689E-02
         0.29332E-02
        -0.10051E-02
         0.89490E-04
        -0.69374E-03
        -0.71013E-03
         0.84355E-04
        -0.77644E-03
         0.44266E-04
        -0.15188E-02
        -0.13216E-02
         0.10061E-02
        -0.17320E-02
         0.20257E-02
         0.18598E-02
         0.17175E-02
         0.91252E-03
        -0.19803E-02
        -0.23492E-02
        -0.17073E-02
        -0.14926E-02
         0.77343E-03
         0.12533E-02
         0.18670E-02
         0.28899E-02
         0.27146E-02
         0.24613E-02
         0.22358E-02
         0.16503E-02
         0.87833E-03
        -0.21374E-02
        -0.26934E-02
        -0.31291E-02
        -0.30382E-02
        -0.28750E-02
        -0.26458E-02
        -0.23734E-02
        -0.21516E-02
        -0.15091E-02
         0.93572E-03
         0.00000E+00
         0.18171E-02
         0.25928E-02
         0.32179E-02
         0.36559E-02
         0.38815E-02
         0.38815E-02
         0.36559E-02
         0.32179E-02
         0.25928E-02
         0.18171E-02
         0.93572E-03
        -0.47884E-18
        -0.93572E-03
        -0.18171E-02
        -0.25928E-02
        -0.32179E-02
        -0.36559E-02
        -0.38815E-02
        -0.38815E-02
        -0.36559E-02
        -0.32179E-02
        -0.25928E-02
        -0.18171E-02
        -0.93572E-03
         0.68068E-03
         0.12401E-02
         0.59884E-03
        -0.32719E-03
         0.15391E-03
        -0.66953E-03
         0.18438E-02
         0.14716E-02
         0.31541E-03
         0.11917E-02
         0.22766E-02
         0.28225E-02
         0.24258E-02
         0.21690E-02
         0.29330E-02
        -0.10053E-02
         0.90299E-04
        -0.69302E-03
        -0.70999E-03
         0.84479E-04
        -0.77627E-03
         0.44540E-04
        -0.15188E-02
        -0.13215E-02
         0.10075E-02
        -0.17319E-02
         0.20260E-02
         0.18597E-02
         0.17175E-02
         0.91276E-03
        -0.19804E-02
        -0.23493E-02
        -0.17073E-02
        -0.14928E-02
         0.77444E-03
         0.12537E-02
         0.18670E-02
         0.28888E-02
         0.27141E-02
         0.24611E-02
         0.22358E-02
         0.16503E-02
         0.87859E-03
        -0.21374E-02
        -0.26934E-02
        -0.31291E-02
        -0.30382E-02
        -0.28750E-02
        -0.26460E-02
        -0.23736E-02
        -0.21521E-02
        -0.15090E-02
         0.93572E-03
         0.00000E+00
         0.18171E-02
         0.25928E-02
         0.32179E-02
         0.36559E-02
         0.38815E-02
         0.38815E-02
         0.36559E-02
         0.32179E-02
         0.25928E-02
         0.18171E-02
         0.93572E-03
         0.22152E-17
        -0.93572E-03
        -0.18171E-02
        -0.25928E-02
        -0.32179E-02
        -0.36559E-02
        -0.38815E-02
        -0.38815E-02
        -0.36559E-02
        -0.32179E-02
        -0.25928E-02
        -0.18171E-02
        -0.93572E-03
         0.68124E-03
         0.12407E-02
         0.59936E-03
        -0.32643E-03
         0.15427E-03
        -0.66903E-03
         0.18440E-02
         0.14727E-02
         0.31656E-03
         0.11935E-02
         0.22767E-02
         0.28220E-02
         0.24260E-02
         0.21690E-02
         0.29327E-02
        -0.10054E-02
         0.91108E-04
        -0.69229E-03
        -0.70985E-03
         0.84602E-04
        -0.77610E-03
         0.44813E-04
        -0.15187E-02
        -0.13215E-02
         0.10088E-02
        -0.17319E-02
         0.20262E-02
         0.18595E-02
         0.17175E-02
         0.91300E-03
        -0.19804E-02
        -0.23493E-02
        -0.17073E-02
        -0.14931E-02
         0.77544E-03
         0.12541E-02
         0.18671E-02
         0.28877E-02
         0.27137E-02
         0.24609E-02
         0.22358E-02
         0.16503E-02
         0.87885E-03
        -0.21374E-02
        -0.26934E-02
        -0.31291E-02
        -0.30382E-02
        -0.28750E-02
        -0.26463E-02
        -0.23738E-02
        -0.21527E-02
        -0.15088E-02
         0.93572E-03
         0.00000E+00
         0.18171E-02
         0.25928E-02
         0.32179E-02
         0.36559E-02
         0.38815E-02
         0.38815E-02
         0.36559E-02
         0.32179E-02
         0.25928E-02
         0.18171E-02
         0.93572E-03
        -0.47884E-18
        -0.93572E-03
        -0.18171E-02
        -0.25928E-02
        -0.32179E-02
        -0.36559E-02
        -0.38815E-02
        -0.38815E-02
        -0.36559E-02
        -0.32179E-02
        -0.25928E-02
        -0.18171E-02
        -0.93572E-03
         0.68179E-03
         0.12414E-02
         0.59988E-03
        -0.32568E-03
         0.15463E-03
        -0.66854E-03
         0.18442E-02
         0.14736E-02
         0.31770E-03
         0.11952E-02
         0.22768E-02
         0.28216E-02
         0.24261E-02
         0.21690E-02
         0.29324E-02
        -0.10056E-02
         0.91918E-04
        -0.69156E-03
        -0.70971E-03
         0.84726E-04
        -0.77593E-03
         0.45086E-04
        -0.15187E-02
        -0.13213E-02
         0.10102E-02
        -0.17318E-02
         0.20265E-02
         0.18594E-02
         0.17175E-02
         0.91324E-03
        -0.19804E-02
        -0.23493E-02
        -0.17073E-02
        -0.14933E-02
         0.77645E-03
         0.12545E-02
         0.18671E-02
         0.28867E-02
         0.27132E-02
         0.24606E-02
         0.22358E-02
         0.16503E-02
         0.87912E-03
        -0.21374E-02
        -0.26935E-02
        -0.31291E-02
        -0.30381E-02
        -0.28750E-02
        -0.26466E-02
        -0.23740E-02
        -0.21533E-02
        -0.15087E-02
         0.93572E-03
         0.00000E+00
         0.18171E-02
         0.25928E-02
         0.32179E-02
         0.36559E-02
         0.38815E-02
         0.38815E-02
         0.36559E-02
         0.32179E-02
         0.25928E-02
         0.18171E-02
         0.93572E-03
        -0.47884E-18
        -0.93572E-03
        -0.18171E-02
        -0.25928E-02
        -0.32179E-02
        -0.36559E-02
        -0.38815E-02
        -0.38815E-02
        -0.36559E-02
        -0.32179E-02
        -0.25928E-02
        -0.18171E-02
        -0.93572E-03
         0.68235E-03
         0.12421E-02
         0.60041E-03
        -0.32493E-03
         0.15500E-03
        -0.66805E-03
         0.18444E-02
         0.14747E-02
         0.31885E-03
         0.11970E-02
         0.22770E-02
         0.28211E-02
         0.24262E-02
         0.21691E-02
         0.29322E-02
        -0.10057E-02
         0.92727E-04
        -0.69084E-03
        -0.70957E-03
         0.84849E-04
        -0.77576E-03
         0.45359E-04
        -0.15186E-02
        -0.13212E-02
         0.10115E-02
        -0.17318E-02
         0.20268E-02
         0.18593E-02
         0.17175E-02
         0.91347E-03
        -0.19804E-02
        -0.23493E-02
        -0.17073E-02
        -0.14936E-02
         0.77745E-03
         0.12550E-02
         0.18671E-02
         0.28856E-02
         0.27127E-02
         0.24604E-02
         0.22358E-02
         0.16503E-02
         0.87938E-03
        -0.21374E-02
        -0.26935E-02
        -0.31291E-02
        -0.30381E-02
        -0.28750E-02
        -0.26468E-02
        -0.23742E-02
        -0.21538E-02
        -0.15086E-02
         0.93572E-03
         0.00000E+00
         0.18171E-02
         0.25928E-02
         0.32179E-02
         0.36559E-02
         0.38815E-02
         0.38815E-02
         0.36559E-02
         0.32179E-02
         0.25928E-02
         0.18171E-02
         0.93572E-03
        -0.47884E-18
        -0.93572E-03
        -0.18171E-02
        -0.25928E-02
        -0.32179E-02
        -0.36559E-02
        -0.38815E-02
        -0.38815E-02
        -0.36559E-02
        -0.32179E-02
        -0.25928E-02
        -0.18171E-02
        -0.93572E-03
         0.68290E-03
         0.12427E-02
         0.60093E-03
        -0.32417E-03
         0.15536E-03
        -0.66755E-03
         0.18445E-02
         0.14757E-02
         0.32000E-03
         0.11987E-02
         0.22771E-02
         0.28207E-02
         0.24264E-02
         0.21691E-02
         0.29319E-02
        -0.10058E-02
         0.93536E-04
        -0.69011E-03
        -0.70943E-03
         0.84973E-04
        -0.77559E-03
         0.45633E-04
        -0.15186E-02
        -0.13212E-02
         0.10129E-02
        -0.17318E-02
         0.20271E-02
         0.18592E-02
         0.17175E-02
         0.91371E-03
        -0.19805E-02
        -0.23493E-02
        -0.17073E-02
        -0.14938E-02
         0.77846E-03
         0.12554E-02
         0.18672E-02
         0.28845E-02
         0.27122E-02
         0.24602E-02
         0.22358E-02
         0.16502E-02
         0.87964E-03
        -0.21374E-02
        -0.26935E-02
        -0.31291E-02
        -0.30381E-02
        -0.28750E-02
        -0.26471E-02
        -0.23744E-02
        -0.21543E-02
        -0.15085E-02
         0.93572E-03
         0.00000E+00
         0.18171E-02
         0.25928E-02
         0.32179E-02
         0.36559E-02
         0.38815E-02
         0.38815E-02
         0.36559E-02
         0.32179E-02
         0.25928E-02
         0.18171E-02
         0.93572E-03
        -0.47884E-18
        -0.93572E-03
        -0.18171E-02
        -0.25928E-02
        -0.32179E-02
        -0.36559E-02
        -0.38815E-02
        -0.38815E-02
        -0.36559E-02
        -0.32179E-02
        -0.25928E-02
        -0.18171E-02
        -0.93572E-03
         0.68346E-03
         0.12434E-02
         0.60145E-03
        -0.32342E-03
         0.15572E-03
        -0.66706E-03
         0.18447E-02
         0.14767E-02
         0.32115E-03
         0.12005E-02
         0.22772E-02
         0.28203E-02
         0.24265E-02
         0.21691E-02
         0.29316E-02
        -0.10060E-02
         0.94345E-04
        -0.68939E-03
        -0.70929E-03
         0.85096E-04
        -0.77542E-03
         0.45906E-04
        -0.15185E-02
        -0.13211E-02
         0.10142E-02
        -0.17317E-02
         0.20274E-02
         0.18590E-02
         0.17175E-02
         0.91395E-03
        -0.19805E-02
        -0.23494E-02
        -0.17073E-02
        -0.14941E-02
         0.77946E-03
         0.12558E-02
         0.18672E-02
         0.28835E-02
         0.27118E-02
         0.24600E-02
         0.22358E-02
         0.16502E-02
         0.87990E-03
        -0.21374E-02
        -0.26935E-02
        -0.31291E-02
        -0.30381E-02
        -0.28750E-02
        -0.26474E-02
        -0.23746E-02
        -0.21549E-02
        -0.15084E-02
         0.93572E-03
         0.00000E+00
         0.18171E-02
         0.25928E-02
         0.32179E-02
         0.36559E-02
         0.38815E-02
         0.38815E-02
         0.36559E-02
         0.32179E-02
         0.25928E-02
         0.18171E-02
         0.93572E-03
         0.22152E-17
        -0.93572E-03
        -0.18171E-02
        -0.25928E-02
        -0.32179E-02
        -0.36559E-02
        -0.38815E-02
        -0.38815E-02
        -0.36559E-02
        -0.32179E-02
        -0.25928E-02
        -0.18171E-02
        -0.93572E-03
         0.68401E-03
         0.12440E-02
         0.60198E-03
        -0.32266E-03
         0.15609E-03
        -0.66657E-03
         0.18449E-02
         0.14777E-02
         0.32230E-03
         0.12022E-02
         0.22774E-02
         0.28198E-02
         0.24267E-02
         0.21692E-02
         0.29314E-02
        -0.10061E-02
         0.95155E-04
        -0.68866E-03
        -0.70915E-03
         0.85220E-04
        -0.77525E-03
         0.46180E-04
        -0.15185E-02
        -0.13210E-02
         0.10156E-02
        -0.17317E-02
         0.20277E-02
         0.18589E-02
         0.17175E-02
         0.91419E-03
        -0.19805E-02
        -0.23494E-02
        -0.17073E-02
        -0.14943E-02
         0.78047E-03
         0.12563E-02
         0.18672E-02
         0.28824E-02
         0.27113E-02
         0.24597E-02
         0.22358E-02
         0.16502E-02
         0.88016E-03
        -0.21374E-02
        -0.26935E-02
        -0.31291E-02
        -0.30381E-02
        -0.28751E-02
        -0.26476E-02
        -0.23748E-02
        -0.21554E-02
        -0.15083E-02
         0.93572E-03
         0.00000E+00
         0.18171E-02
         0.25928E-02
         0.32179E-02
         0.36559E-02
         0.38815E-02
         0.38815E-02
         0.36559E-02
         0.32179E-02
         0.25928E-02
         0.18171E-02
         0.93572E-03
        -0.47884E-18
        -0.93572E-03
        -0.18171E-02
        -0.25928E-02
        -0.32179E-02
        -0.36559E-02
        -0.38815E-02
        -0.38815E-02
        -0.36559E-02
        -0.32179E-02
        -0.25928E-02
        -0.18171E-02
        -0.93572E-03
         0.68457E-03
         0.12447E-02
         0.60250E-03
        -0.32191E-03
         0.15645E-03
        -0.66607E-03
         0.18451E-02
         0.14787E-02
         0.32345E-03
         0.12040E-02
         0.22775E-02
         0.28194E-02
         0.24268E-02
         0.21692E-02
         0.29311E-02
        -0.10062E-02
         0.95964E-04
        -0.68793E-03
        -0.70901E-03
         0.85343E-04
        -0.77507E-03
         0.46453E-04
        -0.15184E-02
        -0.13209E-02
         0.10169E-02
        -0.17316E-02
         0.20280E-02
         0.18588E-02
         0.17175E-02
         0.91443E-03
        -0.19806E-02
        -0.23494E-02
        -0.17073E-02
        -0.14945E-02
         0.78148E-03
         0.12567E-02
         0.18673E-02
         0.28813E-02
         0.27108E-02
         0.24595E-02
         0.22358E-02
         0.16502E-02
         0.88043E-03
        -0.21374E-02
        -0.26936E-02
        -0.31291E-02
        -0.30381E-02
        -0.28751E-02
        -0.26479E-02
        -0.23750E-02
        -0.21560E-02
        -0.15082E-02
         0.93572E-03
         0.00000E+00
         0.18171E-02
         0.25928E-02
         0.32179E-02
         0.36559E-02
         0.38815E-02
         0.38815E-02
         0.36559E-02
         0.32179E-02
         0.25928E-02
         0.18171E-02
         0.93572E-03
        -0.47884E-18
        -0.93572E-03
        -0.18171E-02
        -0.25928E-02
        -0.32179E-02
        -0.36559E-02
        -0.38815E-02
        -0.38815E-02
        -0.36559E-02
        -0.32179E-02
        -0.25928E-02
        -0.18171E-02
        -0.93572E-03
         0.68512E-03
         0.12454E-02
         0.60302E-03
        -0.32115E-03
         0.15681E-03
        -0.66558E-03
         0.18453E-02
         0.14797E-02
         0.32459E-03
         0.12058E-02
         0.22776E-02
         0.28189E-02
         0.24270E-02
         0.21693E-02
         0.29308E-02
        -0.10064E-02
         0.96773E-04
        -0.68721E-03
        -0.70887E-03
         0.85467E-04
        -0.77490E-03
         0.46726E-04
        -0.15184E-02
        -0.13208E-02
         0.10183E-02
        -0.17316E-02
         0.20283E-02
         0.18586E-02
         0.17175E-02
         0.91467E-03
        -0.19806E-02
        -0.23494E-02
        -0.17073E-02
        -0.14948E-02
         0.78248E-03
         0.12571E-02
         0.18673E-02
         0.28802E-02
         0.27103E-02
         0.24593E-02
         0.22358E-02
         0.16502E-02
         0.88069E-03
        -0.21374E-02
        -0.26936E-02
        -0.31291E-02
        -0.30381E-02
        -0.28751E-02
        -0.26482E-02
        -0.23752E-02
        -0.21565E-02
        -0.15081E-02
         0.93572E-03
         0.00000E+00
         0.18171E-02
         0.25928E-02
         0.32179E-02
         0.36559E-02
         0.38815E-02
         0.38815E-02
         0.36559E-02
         0.32179E-02
         0.25928E-02
         0.18171E-02
         0.93572E-03
        -0.47884E-18
        -0.93572E-03
        -0.18171E-02
        -0.25928E-02
        -0.32179E-02
        -0.36559E-02
        -0.38815E-02
        -0.38815E-02
        -0.36559E-02
        -0.32179E-02
        -0.25928E-02
        -0.18171E-02
        -0.93572E-03
         0.68567E-03
         0.12460E-02
         0.60355E-03
        -0.32040E-03
         0.15718E-03
        -0.66509E-03
         0.18455E-02
         0.14807E-02
         0.32574E-03
         0.12075E-02
         0.22777E-02
         0.28185E-02
         0.24271E-02
         0.21693E-02
         0.29306E-02
        -0.10065E-02
         0.97583E-04
        -0.68648E-03
        -0.70873E-03
         0.85591E-04
        -0.77474E-03
         0.47000E-04
        -0.15183E-02
        -0.13207E-02
         0.10197E-02
        -0.17316E-02
         0.20285E-02
         0.18585E-02
         0.17175E-02
         0.91491E-03
        -0.19806E-02
        -0.23495E-02
        -0.17073E-02
        -0.14950E-02
         0.78348E-03
         0.12576E-02
         0.18674E-02
         0.28792E-02
         0.27099E-02
         0.24591E-02
         0.22358E-02
         0.16502E-02
         0.88095E-03
        -0.21374E-02
        -0.26936E-02
        -0.31290E-02
        -0.30381E-02
        -0.28751E-02
        -0.26484E-02
        -0.23754E-02
        -0.21571E-02
        -0.15080E-02
         0.93572E-03
         0.00000E+00
         0.18171E-02
         0.25928E-02
         0.32179E-02
         0.36559E-02
         0.38815E-02
         0.38815E-02
         0.36559E-02
         0.32179E-02
         0.25928E-02
         0.18171E-02
         0.93572E-03
         0.47884E-18
        -0.93572E-03
        -0.18171E-02
        -0.25928E-02
        -0.32179E-02
        -0.36559E-02
        -0.38815E-02
        -0.38815E-02
        -0.36559E-02
        -0.32179E-02
        -0.25928E-02
        -0.18171E-02
        -0.93572E-03
  
SCALARS           initial_coordinate_z  double 1
LOOKUP_TABLE default
        -0.10771E-01
        -0.10771E-01
        -0.10771E-01
        -0.10771E-01
        -0.11750E-01
        -0.11750E-01
        -0.11750E-01
        -0.11750E-01
        -0.10771E-01
        -0.10771E-01
        -0.11750E-01
        -0.11750E-01
        -0.10771E-01
        -0.10771E-01
        -0.11750E-01
        -0.11750E-01
        -0.10771E-01
        -0.10771E-01
        -0.11750E-01
        -0.11750E-01
        -0.10771E-01
        -0.10771E-01
        -0.10771E-01
        -0.11750E-01
        -0.11750E-01
        -0.11750E-01
        -0.10771E-01
        -0.10771E-01
        -0.11750E-01
        -0.11750E-01
        -0.10771E-01
        -0.10771E-01
        -0.10771E-01
        -0.11750E-01
        -0.11750E-01
        -0.11750E-01
        -0.10771E-01
        -0.10771E-01
        -0.11750E-01
        -0.11750E-01
        -0.10771E-01
        -0.10771E-01
        -0.11750E-01
        -0.11750E-01
        -0.10771E-01
        -0.10771E-01
        -0.11750E-01
        -0.11750E-01
        -0.10771E-01
        -0.11750E-01
        -0.10771E-01
        -0.11750E-01
        -0.10771E-01
        -0.11750E-01
        -0.10771E-01
        -0.11750E-01
        -0.10771E-01
        -0.10771E-01
        -0.11750E-01
        -0.11750E-01
        -0.10771E-01
        -0.10771E-01
        -0.11750E-01
        -0.11750E-01
        -0.10771E-01
        -0.11750E-01
        -0.10771E-01
        -0.11750E-01
        -0.10771E-01
        -0.10771E-01
        -0.11750E-01
        -0.11750E-01
        -0.10771E-01
        -0.11750E-01
        -0.10771E-01
        -0.11750E-01
        -0.10771E-01
        -0.11750E-01
        -0.10771E-01
        -0.11750E-01
        -0.10771E-01
        -0.10771E-01
        -0.11750E-01
        -0.11750E-01
        -0.10771E-01
        -0.11750E-01
        -0.10771E-01
        -0.11750E-01
        -0.10771E-01
        -0.11750E-01
        -0.10771E-01
        -0.10771E-01
        -0.11750E-01
        -0.11750E-01
        -0.10771E-01
        -0.11750E-01
        -0.10771E-01
        -0.11750E-01
        -0.10771E-01
        -0.11750E-01
        -0.10771E-01
        -0.10771E-01
        -0.11750E-01
        -0.11750E-01
        -0.10771E-01
        -0.10771E-01
        -0.11750E-01
        -0.11750E-01
        -0.10771E-01
        -0.11750E-01
        -0.10771E-01
        -0.11750E-01
        -0.10771E-01
        -0.11750E-01
        -0.10771E-01
        -0.11750E-01
        -0.10771E-01
        -0.11750E-01
        -0.10771E-01
        -0.11750E-01
        -0.10771E-01
        -0.11750E-01
        -0.10771E-01
        -0.11750E-01
        -0.10771E-01
        -0.11750E-01
        -0.10771E-01
        -0.11750E-01
        -0.10771E-01
        -0.11750E-01
        -0.10771E-01
        -0.11750E-01
        -0.10771E-01
        -0.11750E-01
        -0.10771E-01
        -0.11750E-01
        -0.10771E-01
        -0.11750E-01
        -0.10771E-01
        -0.11750E-01
        -0.10771E-01
        -0.11750E-01
        -0.10771E-01
        -0.11750E-01
        -0.10771E-01
        -0.11750E-01
        -0.10771E-01
        -0.11750E-01
        -0.10771E-01
        -0.11750E-01
        -0.10771E-01
        -0.11750E-01
        -0.10771E-01
        -0.11750E-01
        -0.10771E-01
        -0.11750E-01
        -0.97917E-02
        -0.97917E-02
        -0.97917E-02
        -0.97917E-02
        -0.97917E-02
        -0.97917E-02
        -0.97917E-02
        -0.97917E-02
        -0.97917E-02
        -0.97917E-02
        -0.97917E-02
        -0.97917E-02
        -0.97917E-02
        -0.97917E-02
        -0.97917E-02
        -0.97917E-02
        -0.97917E-02
        -0.97917E-02
        -0.97917E-02
        -0.97917E-02
        -0.97917E-02
        -0.97917E-02
        -0.97917E-02
        -0.97917E-02
        -0.97917E-02
        -0.97917E-02
        -0.97917E-02
        -0.97917E-02
        -0.97917E-02
        -0.97917E-02
        -0.97917E-02
        -0.97917E-02
        -0.97917E-02
        -0.97917E-02
        -0.97917E-02
        -0.97917E-02
        -0.97917E-02
        -0.97917E-02
        -0.97917E-02
        -0.97917E-02
        -0.97917E-02
        -0.97917E-02
        -0.97917E-02
        -0.97917E-02
        -0.97917E-02
        -0.97917E-02
        -0.97917E-02
        -0.97917E-02
        -0.97917E-02
        -0.97917E-02
        -0.97917E-02
        -0.97917E-02
        -0.97917E-02
        -0.97917E-02
        -0.97917E-02
        -0.97917E-02
        -0.97917E-02
        -0.97917E-02
        -0.97917E-02
        -0.97917E-02
        -0.97917E-02
        -0.97917E-02
        -0.97917E-02
        -0.97917E-02
        -0.97917E-02
        -0.97917E-02
        -0.97917E-02
        -0.97917E-02
        -0.97917E-02
        -0.97917E-02
        -0.97917E-02
        -0.97917E-02
        -0.97917E-02
        -0.97917E-02
        -0.97917E-02
        -0.97917E-02
        -0.97917E-02
        -0.97917E-02
        -0.88125E-02
        -0.88125E-02
        -0.88125E-02
        -0.88125E-02
        -0.88125E-02
        -0.88125E-02
        -0.88125E-02
        -0.88125E-02
        -0.88125E-02
        -0.88125E-02
        -0.88125E-02
        -0.88125E-02
        -0.88125E-02
        -0.88125E-02
        -0.88125E-02
        -0.88125E-02
        -0.88125E-02
        -0.88125E-02
        -0.88125E-02
        -0.88125E-02
        -0.88125E-02
        -0.88125E-02
        -0.88125E-02
        -0.88125E-02
        -0.88125E-02
        -0.88125E-02
        -0.88125E-02
        -0.88125E-02
        -0.88125E-02
        -0.88125E-02
        -0.88125E-02
        -0.88125E-02
        -0.88125E-02
        -0.88125E-02
        -0.88125E-02
        -0.88125E-02
        -0.88125E-02
        -0.88125E-02
        -0.88125E-02
        -0.88125E-02
        -0.88125E-02
        -0.88125E-02
        -0.88125E-02
        -0.88125E-02
        -0.88125E-02
        -0.88125E-02
        -0.88125E-02
        -0.88125E-02
        -0.88125E-02
        -0.88125E-02
        -0.88125E-02
        -0.88125E-02
        -0.88125E-02
        -0.88125E-02
        -0.88125E-02
        -0.88125E-02
        -0.88125E-02
        -0.88125E-02
        -0.88125E-02
        -0.88125E-02
        -0.88125E-02
        -0.88125E-02
        -0.88125E-02
        -0.88125E-02
        -0.88125E-02
        -0.88125E-02
        -0.88125E-02
        -0.88125E-02
        -0.88125E-02
        -0.88125E-02
        -0.88125E-02
        -0.88125E-02
        -0.88125E-02
        -0.88125E-02
        -0.88125E-02
        -0.88125E-02
        -0.88125E-02
        -0.88125E-02
        -0.78333E-02
        -0.78333E-02
        -0.78333E-02
        -0.78333E-02
        -0.78333E-02
        -0.78333E-02
        -0.78333E-02
        -0.78333E-02
        -0.78333E-02
        -0.78333E-02
        -0.78333E-02
        -0.78333E-02
        -0.78333E-02
        -0.78333E-02
        -0.78333E-02
        -0.78333E-02
        -0.78333E-02
        -0.78333E-02
        -0.78333E-02
        -0.78333E-02
        -0.78333E-02
        -0.78333E-02
        -0.78333E-02
        -0.78333E-02
        -0.78333E-02
        -0.78333E-02
        -0.78333E-02
        -0.78333E-02
        -0.78333E-02
        -0.78333E-02
        -0.78333E-02
        -0.78333E-02
        -0.78333E-02
        -0.78333E-02
        -0.78333E-02
        -0.78333E-02
        -0.78333E-02
        -0.78333E-02
        -0.78333E-02
        -0.78333E-02
        -0.78333E-02
        -0.78333E-02
        -0.78333E-02
        -0.78333E-02
        -0.78333E-02
        -0.78333E-02
        -0.78333E-02
        -0.78333E-02
        -0.78333E-02
        -0.78333E-02
        -0.78333E-02
        -0.78333E-02
        -0.78333E-02
        -0.78333E-02
        -0.78333E-02
        -0.78333E-02
        -0.78333E-02
        -0.78333E-02
        -0.78333E-02
        -0.78333E-02
        -0.78333E-02
        -0.78333E-02
        -0.78333E-02
        -0.78333E-02
        -0.78333E-02
        -0.78333E-02
        -0.78333E-02
        -0.78333E-02
        -0.78333E-02
        -0.78333E-02
        -0.78333E-02
        -0.78333E-02
        -0.78333E-02
        -0.78333E-02
        -0.78333E-02
        -0.78333E-02
        -0.78333E-02
        -0.78333E-02
        -0.68542E-02
        -0.68542E-02
        -0.68542E-02
        -0.68542E-02
        -0.68542E-02
        -0.68542E-02
        -0.68542E-02
        -0.68542E-02
        -0.68542E-02
        -0.68542E-02
        -0.68542E-02
        -0.68542E-02
        -0.68542E-02
        -0.68542E-02
        -0.68542E-02
        -0.68542E-02
        -0.68542E-02
        -0.68542E-02
        -0.68542E-02
        -0.68542E-02
        -0.68542E-02
        -0.68542E-02
        -0.68542E-02
        -0.68542E-02
        -0.68542E-02
        -0.68542E-02
        -0.68542E-02
        -0.68542E-02
        -0.68542E-02
        -0.68542E-02
        -0.68542E-02
        -0.68542E-02
        -0.68542E-02
        -0.68542E-02
        -0.68542E-02
        -0.68542E-02
        -0.68542E-02
        -0.68542E-02
        -0.68542E-02
        -0.68542E-02
        -0.68542E-02
        -0.68542E-02
        -0.68542E-02
        -0.68542E-02
        -0.68542E-02
        -0.68542E-02
        -0.68542E-02
        -0.68542E-02
        -0.68542E-02
        -0.68542E-02
        -0.68542E-02
        -0.68542E-02
        -0.68542E-02
        -0.68542E-02
        -0.68542E-02
        -0.68542E-02
        -0.68542E-02
        -0.68542E-02
        -0.68542E-02
        -0.68542E-02
        -0.68542E-02
        -0.68542E-02
        -0.68542E-02
        -0.68542E-02
        -0.68542E-02
        -0.68542E-02
        -0.68542E-02
        -0.68542E-02
        -0.68542E-02
        -0.68542E-02
        -0.68542E-02
        -0.68542E-02
        -0.68542E-02
        -0.68542E-02
        -0.68542E-02
        -0.68542E-02
        -0.68542E-02
        -0.68542E-02
        -0.58750E-02
        -0.58750E-02
        -0.58750E-02
        -0.58750E-02
        -0.58750E-02
        -0.58750E-02
        -0.58750E-02
        -0.58750E-02
        -0.58750E-02
        -0.58750E-02
        -0.58750E-02
        -0.58750E-02
        -0.58750E-02
        -0.58750E-02
        -0.58750E-02
        -0.58750E-02
        -0.58750E-02
        -0.58750E-02
        -0.58750E-02
        -0.58750E-02
        -0.58750E-02
        -0.58750E-02
        -0.58750E-02
        -0.58750E-02
        -0.58750E-02
        -0.58750E-02
        -0.58750E-02
        -0.58750E-02
        -0.58750E-02
        -0.58750E-02
        -0.58750E-02
        -0.58750E-02
        -0.58750E-02
        -0.58750E-02
        -0.58750E-02
        -0.58750E-02
        -0.58750E-02
        -0.58750E-02
        -0.58750E-02
        -0.58750E-02
        -0.58750E-02
        -0.58750E-02
        -0.58750E-02
        -0.58750E-02
        -0.58750E-02
        -0.58750E-02
        -0.58750E-02
        -0.58750E-02
        -0.58750E-02
        -0.58750E-02
        -0.58750E-02
        -0.58750E-02
        -0.58750E-02
        -0.58750E-02
        -0.58750E-02
        -0.58750E-02
        -0.58750E-02
        -0.58750E-02
        -0.58750E-02
        -0.58750E-02
        -0.58750E-02
        -0.58750E-02
        -0.58750E-02
        -0.58750E-02
        -0.58750E-02
        -0.58750E-02
        -0.58750E-02
        -0.58750E-02
        -0.58750E-02
        -0.58750E-02
        -0.58750E-02
        -0.58750E-02
        -0.58750E-02
        -0.58750E-02
        -0.58750E-02
        -0.58750E-02
        -0.58750E-02
        -0.58750E-02
        -0.48958E-02
        -0.48958E-02
        -0.48958E-02
        -0.48958E-02
        -0.48958E-02
        -0.48958E-02
        -0.48958E-02
        -0.48958E-02
        -0.48958E-02
        -0.48958E-02
        -0.48958E-02
        -0.48958E-02
        -0.48958E-02
        -0.48958E-02
        -0.48958E-02
        -0.48958E-02
        -0.48958E-02
        -0.48958E-02
        -0.48958E-02
        -0.48958E-02
        -0.48958E-02
        -0.48958E-02
        -0.48958E-02
        -0.48958E-02
        -0.48958E-02
        -0.48958E-02
        -0.48958E-02
        -0.48958E-02
        -0.48958E-02
        -0.48958E-02
        -0.48958E-02
        -0.48958E-02
        -0.48958E-02
        -0.48958E-02
        -0.48958E-02
        -0.48958E-02
        -0.48958E-02
        -0.48958E-02
        -0.48958E-02
        -0.48958E-02
        -0.48958E-02
        -0.48958E-02
        -0.48958E-02
        -0.48958E-02
        -0.48958E-02
        -0.48958E-02
        -0.48958E-02
        -0.48958E-02
        -0.48958E-02
        -0.48958E-02
        -0.48958E-02
        -0.48958E-02
        -0.48958E-02
        -0.48958E-02
        -0.48958E-02
        -0.48958E-02
        -0.48958E-02
        -0.48958E-02
        -0.48958E-02
        -0.48958E-02
        -0.48958E-02
        -0.48958E-02
        -0.48958E-02
        -0.48958E-02
        -0.48958E-02
        -0.48958E-02
        -0.48958E-02
        -0.48958E-02
        -0.48958E-02
        -0.48958E-02
        -0.48958E-02
        -0.48958E-02
        -0.48958E-02
        -0.48958E-02
        -0.48958E-02
        -0.48958E-02
        -0.48958E-02
        -0.48958E-02
        -0.39167E-02
        -0.39167E-02
        -0.39167E-02
        -0.39167E-02
        -0.39167E-02
        -0.39167E-02
        -0.39167E-02
        -0.39167E-02
        -0.39167E-02
        -0.39167E-02
        -0.39167E-02
        -0.39167E-02
        -0.39167E-02
        -0.39167E-02
        -0.39167E-02
        -0.39167E-02
        -0.39167E-02
        -0.39167E-02
        -0.39167E-02
        -0.39167E-02
        -0.39167E-02
        -0.39167E-02
        -0.39167E-02
        -0.39167E-02
        -0.39167E-02
        -0.39167E-02
        -0.39167E-02
        -0.39167E-02
        -0.39167E-02
        -0.39167E-02
        -0.39167E-02
        -0.39167E-02
        -0.39167E-02
        -0.39167E-02
        -0.39167E-02
        -0.39167E-02
        -0.39167E-02
        -0.39167E-02
        -0.39167E-02
        -0.39167E-02
        -0.39167E-02
        -0.39167E-02
        -0.39167E-02
        -0.39167E-02
        -0.39167E-02
        -0.39167E-02
        -0.39167E-02
        -0.39167E-02
        -0.39167E-02
        -0.39167E-02
        -0.39167E-02
        -0.39167E-02
        -0.39167E-02
        -0.39167E-02
        -0.39167E-02
        -0.39167E-02
        -0.39167E-02
        -0.39167E-02
        -0.39167E-02
        -0.39167E-02
        -0.39167E-02
        -0.39167E-02
        -0.39167E-02
        -0.39167E-02
        -0.39167E-02
        -0.39167E-02
        -0.39167E-02
        -0.39167E-02
        -0.39167E-02
        -0.39167E-02
        -0.39167E-02
        -0.39167E-02
        -0.39167E-02
        -0.39167E-02
        -0.39167E-02
        -0.39167E-02
        -0.39167E-02
        -0.39167E-02
        -0.29375E-02
        -0.29375E-02
        -0.29375E-02
        -0.29375E-02
        -0.29375E-02
        -0.29375E-02
        -0.29375E-02
        -0.29375E-02
        -0.29375E-02
        -0.29375E-02
        -0.29375E-02
        -0.29375E-02
        -0.29375E-02
        -0.29375E-02
        -0.29375E-02
        -0.29375E-02
        -0.29375E-02
        -0.29375E-02
        -0.29375E-02
        -0.29375E-02
        -0.29375E-02
        -0.29375E-02
        -0.29375E-02
        -0.29375E-02
        -0.29375E-02
        -0.29375E-02
        -0.29375E-02
        -0.29375E-02
        -0.29375E-02
        -0.29375E-02
        -0.29375E-02
        -0.29375E-02
        -0.29375E-02
        -0.29375E-02
        -0.29375E-02
        -0.29375E-02
        -0.29375E-02
        -0.29375E-02
        -0.29375E-02
        -0.29375E-02
        -0.29375E-02
        -0.29375E-02
        -0.29375E-02
        -0.29375E-02
        -0.29375E-02
        -0.29375E-02
        -0.29375E-02
        -0.29375E-02
        -0.29375E-02
        -0.29375E-02
        -0.29375E-02
        -0.29375E-02
        -0.29375E-02
        -0.29375E-02
        -0.29375E-02
        -0.29375E-02
        -0.29375E-02
        -0.29375E-02
        -0.29375E-02
        -0.29375E-02
        -0.29375E-02
        -0.29375E-02
        -0.29375E-02
        -0.29375E-02
        -0.29375E-02
        -0.29375E-02
        -0.29375E-02
        -0.29375E-02
        -0.29375E-02
        -0.29375E-02
        -0.29375E-02
        -0.29375E-02
        -0.29375E-02
        -0.29375E-02
        -0.29375E-02
        -0.29375E-02
        -0.29375E-02
        -0.29375E-02
        -0.19583E-02
        -0.19583E-02
        -0.19583E-02
        -0.19583E-02
        -0.19583E-02
        -0.19583E-02
        -0.19583E-02
        -0.19583E-02
        -0.19583E-02
        -0.19583E-02
        -0.19583E-02
        -0.19583E-02
        -0.19583E-02
        -0.19583E-02
        -0.19583E-02
        -0.19583E-02
        -0.19583E-02
        -0.19583E-02
        -0.19583E-02
        -0.19583E-02
        -0.19583E-02
        -0.19583E-02
        -0.19583E-02
        -0.19583E-02
        -0.19583E-02
        -0.19583E-02
        -0.19583E-02
        -0.19583E-02
        -0.19583E-02
        -0.19583E-02
        -0.19583E-02
        -0.19583E-02
        -0.19583E-02
        -0.19583E-02
        -0.19583E-02
        -0.19583E-02
        -0.19583E-02
        -0.19583E-02
        -0.19583E-02
        -0.19583E-02
        -0.19583E-02
        -0.19583E-02
        -0.19583E-02
        -0.19583E-02
        -0.19583E-02
        -0.19583E-02
        -0.19583E-02
        -0.19583E-02
        -0.19583E-02
        -0.19583E-02
        -0.19583E-02
        -0.19583E-02
        -0.19583E-02
        -0.19583E-02
        -0.19583E-02
        -0.19583E-02
        -0.19583E-02
        -0.19583E-02
        -0.19583E-02
        -0.19583E-02
        -0.19583E-02
        -0.19583E-02
        -0.19583E-02
        -0.19583E-02
        -0.19583E-02
        -0.19583E-02
        -0.19583E-02
        -0.19583E-02
        -0.19583E-02
        -0.19583E-02
        -0.19583E-02
        -0.19583E-02
        -0.19583E-02
        -0.19583E-02
        -0.19583E-02
        -0.19583E-02
        -0.19583E-02
        -0.19583E-02
        -0.97917E-03
        -0.97917E-03
        -0.97917E-03
        -0.97917E-03
        -0.97917E-03
        -0.97917E-03
        -0.97917E-03
        -0.97917E-03
        -0.97917E-03
        -0.97917E-03
        -0.97917E-03
        -0.97917E-03
        -0.97917E-03
        -0.97917E-03
        -0.97917E-03
        -0.97917E-03
        -0.97917E-03
        -0.97917E-03
        -0.97917E-03
        -0.97917E-03
        -0.97917E-03
        -0.97917E-03
        -0.97917E-03
        -0.97917E-03
        -0.97917E-03
        -0.97917E-03
        -0.97917E-03
        -0.97917E-03
        -0.97917E-03
        -0.97917E-03
        -0.97917E-03
        -0.97917E-03
        -0.97917E-03
        -0.97917E-03
        -0.97917E-03
        -0.97917E-03
        -0.97917E-03
        -0.97917E-03
        -0.97917E-03
        -0.97917E-03
        -0.97917E-03
        -0.97917E-03
        -0.97917E-03
        -0.97917E-03
        -0.97917E-03
        -0.97917E-03
        -0.97917E-03
        -0.97917E-03
        -0.97917E-03
        -0.97917E-03
        -0.97917E-03
        -0.97917E-03
        -0.97917E-03
        -0.97917E-03
        -0.97917E-03
        -0.97917E-03
        -0.97917E-03
        -0.97917E-03
        -0.97917E-03
        -0.97917E-03
        -0.97917E-03
        -0.97917E-03
        -0.97917E-03
        -0.97917E-03
        -0.97917E-03
        -0.97917E-03
        -0.97917E-03
        -0.97917E-03
        -0.97917E-03
        -0.97917E-03
        -0.97917E-03
        -0.97917E-03
        -0.97917E-03
        -0.97917E-03
        -0.97917E-03
        -0.97917E-03
        -0.97917E-03
        -0.97917E-03
         0.38917E-18
         0.44621E-18
         0.34485E-18
         0.23671E-18
         0.26613E-18
         0.16162E-18
         0.53980E-18
         0.50579E-18
         0.36337E-18
         0.48798E-18
         0.60712E-18
         0.67611E-18
         0.60634E-18
         0.60658E-18
         0.70997E-18
         0.20892E-18
         0.35894E-18
         0.21887E-18
         0.27638E-18
         0.38382E-18
         0.29058E-18
         0.40326E-18
         0.18564E-18
         0.19650E-18
         0.48570E-18
         0.12837E-18
         0.60589E-18
         0.60416E-18
         0.60524E-18
         0.49621E-18
         0.61582E-19
         0.32255E-19
         0.73874E-19
         0.78478E-19
         0.34514E-18
         0.42054E-18
         0.51644E-18
         0.72521E-18
         0.72233E-18
         0.70722E-18
         0.69126E-18
         0.61573E-18
         0.51484E-18
         0.91170E-19
         0.30347E-20
        -0.66516E-19
        -0.69988E-19
        -0.68643E-19
        -0.59779E-19
        -0.43507E-19
        -0.29471E-19
         0.53205E-19
         0.86819E-18
         0.00000E+00
         0.86819E-18
         0.86819E-18
         0.00000E+00
         0.00000E+00
         0.00000E+00
         0.17364E-17
         0.17364E-17
         0.17364E-17
         0.43410E-18
         0.43410E-18
         0.43410E-18
         0.00000E+00
         0.00000E+00
         0.00000E+00
         0.00000E+00
         0.00000E+00
         0.21705E-18
        -0.21705E-18
         0.00000E+00
         0.00000E+00
         0.00000E+00
        -0.32557E-18
         0.54262E-19
        -0.40697E-18
         0.97917E-03
         0.97917E-03
         0.97917E-03
         0.97917E-03
         0.97917E-03
         0.97917E-03
         0.97917E-03
         0.97917E-03
         0.97917E-03
         0.97917E-03
         0.97917E-03
         0.97917E-03
         0.97917E-03
         0.97917E-03
         0.97917E-03
         0.97917E-03
         0.97917E-03
         0.97917E-03
         0.97917E-03
         0.97917E-03
         0.97917E-03
         0.97917E-03
         0.97917E-03
         0.97917E-03
         0.97917E-03
         0.97917E-03
         0.97917E-03
         0.97917E-03
         0.97917E-03
         0.97917E-03
         0.97917E-03
         0.97917E-03
         0.97917E-03
         0.97917E-03
         0.97917E-03
         0.97917E-03
         0.97917E-03
         0.97917E-03
         0.97917E-03
         0.97917E-03
         0.97917E-03
         0.97917E-03
         0.97917E-03
         0.97917E-03
         0.97917E-03
         0.97917E-03
         0.97917E-03
         0.97917E-03
         0.97917E-03
         0.97917E-03
         0.97917E-03
         0.97917E-03
         0.97917E-03
         0.97917E-03
         0.97917E-03
         0.97917E-03
         0.97917E-03
         0.97917E-03
         0.97917E-03
         0.97917E-03
         0.97917E-03
         0.97917E-03
         0.97917E-03
         0.97917E-03
         0.97917E-03
         0.97917E-03
         0.97917E-03
         0.97917E-03
         0.97917E-03
         0.97917E-03
         0.97917E-03
         0.97917E-03
         0.97917E-03
         0.97917E-03
         0.97917E-03
         0.97917E-03
         0.97917E-03
         0.97917E-03
         0.19583E-02
         0.19583E-02
         0.19583E-02
         0.19583E-02
         0.19583E-02
         0.19583E-02
         0.19583E-02
         0.19583E-02
         0.19583E-02
         0.19583E-02
         0.19583E-02
         0.19583E-02
         0.19583E-02
         0.19583E-02
         0.19583E-02
         0.19583E-02
         0.19583E-02
         0.19583E-02
         0.19583E-02
         0.19583E-02
         0.19583E-02
         0.19583E-02
         0.19583E-02
         0.19583E-02
         0.19583E-02
         0.19583E-02
         0.19583E-02
         0.19583E-02
         0.19583E-02
         0.19583E-02
         0.19583E-02
         0.19583E-02
         0.19583E-02
         0.19583E-02
         0.19583E-02
         0.19583E-02
         0.19583E-02
         0.19583E-02
         0.19583E-02
         0.19583E-02
         0.19583E-02
         0.19583E-02
         0.19583E-02
         0.19583E-02
         0.19583E-02
         0.19583E-02
         0.19583E-02
         0.19583E-02
         0.19583E-02
         0.19583E-02
         0.19583E-02
         0.19583E-02
         0.19583E-02
         0.19583E-02
         0.19583E-02
         0.19583E-02
         0.19583E-02
         0.19583E-02
         0.19583E-02
         0.19583E-02
         0.19583E-02
         0.19583E-02
         0.19583E-02
         0.19583E-02
         0.19583E-02
         0.19583E-02
         0.19583E-02
         0.19583E-02
         0.19583E-02
         0.19583E-02
         0.19583E-02
         0.19583E-02
         0.19583E-02
         0.19583E-02
         0.19583E-02
         0.19583E-02
         0.19583E-02
         0.19583E-02
         0.29375E-02
         0.29375E-02
         0.29375E-02
         0.29375E-02
         0.29375E-02
         0.29375E-02
         0.29375E-02
         0.29375E-02
         0.29375E-02
         0.29375E-02
         0.29375E-02
         0.29375E-02
         0.29375E-02
         0.29375E-02
         0.29375E-02
         0.29375E-02
         0.29375E-02
         0.29375E-02
         0.29375E-02
         0.29375E-02
         0.29375E-02
         0.29375E-02
         0.29375E-02
         0.29375E-02
         0.29375E-02
         0.29375E-02
         0.29375E-02
         0.29375E-02
         0.29375E-02
         0.29375E-02
         0.29375E-02
         0.29375E-02
         0.29375E-02
         0.29375E-02
         0.29375E-02
         0.29375E-02
         0.29375E-02
         0.29375E-02
         0.29375E-02
         0.29375E-02
         0.29375E-02
         0.29375E-02
         0.29375E-02
         0.29375E-02
         0.29375E-02
         0.29375E-02
         0.29375E-02
         0.29375E-02
         0.29375E-02
         0.29375E-02
         0.29375E-02
         0.29375E-02
         0.29375E-02
         0.29375E-02
         0.29375E-02
         0.29375E-02
         0.29375E-02
         0.29375E-02
         0.29375E-02
         0.29375E-02
         0.29375E-02
         0.29375E-02
         0.29375E-02
         0.29375E-02
         0.29375E-02
         0.29375E-02
         0.29375E-02
         0.29375E-02
         0.29375E-02
         0.29375E-02
         0.29375E-02
         0.29375E-02
         0.29375E-02
         0.29375E-02
         0.29375E-02
         0.29375E-02
         0.29375E-02
         0.29375E-02
         0.39167E-02
         0.39167E-02
         0.39167E-02
         0.39167E-02
         0.39167E-02
         0.39167E-02
         0.39167E-02
         0.39167E-02
         0.39167E-02
         0.39167E-02
         0.39167E-02
         0.39167E-02
         0.39167E-02
         0.39167E-02
         0.39167E-02
         0.39167E-02
         0.39167E-02
         0.39167E-02
         0.39167E-02
         0.39167E-02
         0.39167E-02
         0.39167E-02
         0.39167E-02
         0.39167E-02
         0.39167E-02
         0.39167E-02
         0.39167E-02
         0.39167E-02
         0.39167E-02
         0.39167E-02
         0.39167E-02
         0.39167E-02
         0.39167E-02
         0.39167E-02
         0.39167E-02
         0.39167E-02
         0.39167E-02
         0.39167E-02
         0.39167E-02
         0.39167E-02
         0.39167E-02
         0.39167E-02
         0.39167E-02
         0.39167E-02
         0.39167E-02
         0.39167E-02
         0.39167E-02
         0.39167E-02
         0.39167E-02
         0.39167E-02
         0.39167E-02
         0.39167E-02
         0.39167E-02
         0.39167E-02
         0.39167E-02
         0.39167E-02
         0.39167E-02
         0.39167E-02
         0.39167E-02
         0.39167E-02
         0.39167E-02
         0.39167E-02
         0.39167E-02
         0.39167E-02
         0.39167E-02
         0.39167E-02
         0.39167E-02
         0.39167E-02
         0.39167E-02
         0.39167E-02
         0.39167E-02
         0.39167E-02
         0.39167E-02
         0.39167E-02
         0.39167E-02
         0.39167E-02
         0.39167E-02
         0.39167E-02
         0.48958E-02
         0.48958E-02
         0.48958E-02
         0.48958E-02
         0.48958E-02
         0.48958E-02
         0.48958E-02
         0.48958E-02
         0.48958E-02
         0.48958E-02
         0.48958E-02
         0.48958E-02
         0.48958E-02
         0.48958E-02
         0.48958E-02
         0.48958E-02
         0.48958E-02
         0.48958E-02
         0.48958E-02
         0.48958E-02
         0.48958E-02
         0.48958E-02
         0.48958E-02
         0.48958E-02
         0.48958E-02
         0.48958E-02
         0.48958E-02
         0.48958E-02
         0.48958E-02
         0.48958E-02
         0.48958E-02
         0.48958E-02
         0.48958E-02
         0.48958E-02
         0.48958E-02
         0.48958E-02
         0.48958E-02
         0.48958E-02
         0.48958E-02
         0.48958E-02
         0.48958E-02
         0.48958E-02
         0.48958E-02
         0.48958E-02
         0.48958E-02
         0.48958E-02
         0.48958E-02
         0.48958E-02
         0.48958E-02
         0.48958E-02
         0.48958E-02
         0.48958E-02
         0.48958E-02
         0.48958E-02
         0.48958E-02
         0.48958E-02
         0.48958E-02
         0.48958E-02
         0.48958E-02
         0.48958E-02
         0.48958E-02
         0.48958E-02
         0.48958E-02
         0.48958E-02
         0.48958E-02
         0.48958E-02
         0.48958E-02
         0.48958E-02
         0.48958E-02
         0.48958E-02
         0.48958E-02
         0.48958E-02
         0.48958E-02
         0.48958E-02
         0.48958E-02
         0.48958E-02
         0.48958E-02
         0.48958E-02
         0.58750E-02
         0.58750E-02
         0.58750E-02
         0.58750E-02
         0.58750E-02
         0.58750E-02
         0.58750E-02
         0.58750E-02
         0.58750E-02
         0.58750E-02
         0.58750E-02
         0.58750E-02
         0.58750E-02
         0.58750E-02
         0.58750E-02
         0.58750E-02
         0.58750E-02
         0.58750E-02
         0.58750E-02
         0.58750E-02
         0.58750E-02
         0.58750E-02
         0.58750E-02
         0.58750E-02
         0.58750E-02
         0.58750E-02
         0.58750E-02
         0.58750E-02
         0.58750E-02
         0.58750E-02
         0.58750E-02
         0.58750E-02
         0.58750E-02
         0.58750E-02
         0.58750E-02
         0.58750E-02
         0.58750E-02
         0.58750E-02
         0.58750E-02
         0.58750E-02
         0.58750E-02
         0.58750E-02
         0.58750E-02
         0.58750E-02
         0.58750E-02
         0.58750E-02
         0.58750E-02
         0.58750E-02
         0.58750E-02
         0.58750E-02
         0.58750E-02
         0.58750E-02
         0.58750E-02
         0.58750E-02
         0.58750E-02
         0.58750E-02
         0.58750E-02
         0.58750E-02
         0.58750E-02
         0.58750E-02
         0.58750E-02
         0.58750E-02
         0.58750E-02
         0.58750E-02
         0.58750E-02
         0.58750E-02
         0.58750E-02
         0.58750E-02
         0.58750E-02
         0.58750E-02
         0.58750E-02
         0.58750E-02
         0.58750E-02
         0.58750E-02
         0.58750E-02
         0.58750E-02
         0.58750E-02
         0.58750E-02
         0.68542E-02
         0.68542E-02
         0.68542E-02
         0.68542E-02
         0.68542E-02
         0.68542E-02
         0.68542E-02
         0.68542E-02
         0.68542E-02
         0.68542E-02
         0.68542E-02
         0.68542E-02
         0.68542E-02
         0.68542E-02
         0.68542E-02
         0.68542E-02
         0.68542E-02
         0.68542E-02
         0.68542E-02
         0.68542E-02
         0.68542E-02
         0.68542E-02
         0.68542E-02
         0.68542E-02
         0.68542E-02
         0.68542E-02
         0.68542E-02
         0.68542E-02
         0.68542E-02
         0.68542E-02
         0.68542E-02
         0.68542E-02
         0.68542E-02
         0.68542E-02
         0.68542E-02
         0.68542E-02
         0.68542E-02
         0.68542E-02
         0.68542E-02
         0.68542E-02
         0.68542E-02
         0.68542E-02
         0.68542E-02
         0.68542E-02
         0.68542E-02
         0.68542E-02
         0.68542E-02
         0.68542E-02
         0.68542E-02
         0.68542E-02
         0.68542E-02
         0.68542E-02
         0.68542E-02
         0.68542E-02
         0.68542E-02
         0.68542E-02
         0.68542E-02
         0.68542E-02
         0.68542E-02
         0.68542E-02
         0.68542E-02
         0.68542E-02
         0.68542E-02
         0.68542E-02
         0.68542E-02
         0.68542E-02
         0.68542E-02
         0.68542E-02
         0.68542E-02
         0.68542E-02
         0.68542E-02
         0.68542E-02
         0.68542E-02
         0.68542E-02
         0.68542E-02
         0.68542E-02
         0.68542E-02
         0.68542E-02
         0.78333E-02
         0.78333E-02
         0.78333E-02
         0.78333E-02
         0.78333E-02
         0.78333E-02
         0.78333E-02
         0.78333E-02
         0.78333E-02
         0.78333E-02
         0.78333E-02
         0.78333E-02
         0.78333E-02
         0.78333E-02
         0.78333E-02
         0.78333E-02
         0.78333E-02
         0.78333E-02
         0.78333E-02
         0.78333E-02
         0.78333E-02
         0.78333E-02
         0.78333E-02
         0.78333E-02
         0.78333E-02
         0.78333E-02
         0.78333E-02
         0.78333E-02
         0.78333E-02
         0.78333E-02
         0.78333E-02
         0.78333E-02
         0.78333E-02
         0.78333E-02
         0.78333E-02
         0.78333E-02
         0.78333E-02
         0.78333E-02
         0.78333E-02
         0.78333E-02
         0.78333E-02
         0.78333E-02
         0.78333E-02
         0.78333E-02
         0.78333E-02
         0.78333E-02
         0.78333E-02
         0.78333E-02
         0.78333E-02
         0.78333E-02
         0.78333E-02
         0.78333E-02
         0.78333E-02
         0.78333E-02
         0.78333E-02
         0.78333E-02
         0.78333E-02
         0.78333E-02
         0.78333E-02
         0.78333E-02
         0.78333E-02
         0.78333E-02
         0.78333E-02
         0.78333E-02
         0.78333E-02
         0.78333E-02
         0.78333E-02
         0.78333E-02
         0.78333E-02
         0.78333E-02
         0.78333E-02
         0.78333E-02
         0.78333E-02
         0.78333E-02
         0.78333E-02
         0.78333E-02
         0.78333E-02
         0.78333E-02
         0.88125E-02
         0.88125E-02
         0.88125E-02
         0.88125E-02
         0.88125E-02
         0.88125E-02
         0.88125E-02
         0.88125E-02
         0.88125E-02
         0.88125E-02
         0.88125E-02
         0.88125E-02
         0.88125E-02
         0.88125E-02
         0.88125E-02
         0.88125E-02
         0.88125E-02
         0.88125E-02
         0.88125E-02
         0.88125E-02
         0.88125E-02
         0.88125E-02
         0.88125E-02
         0.88125E-02
         0.88125E-02
         0.88125E-02
         0.88125E-02
         0.88125E-02
         0.88125E-02
         0.88125E-02
         0.88125E-02
         0.88125E-02
         0.88125E-02
         0.88125E-02
         0.88125E-02
         0.88125E-02
         0.88125E-02
         0.88125E-02
         0.88125E-02
         0.88125E-02
         0.88125E-02
         0.88125E-02
         0.88125E-02
         0.88125E-02
         0.88125E-02
         0.88125E-02
         0.88125E-02
         0.88125E-02
         0.88125E-02
         0.88125E-02
         0.88125E-02
         0.88125E-02
         0.88125E-02
         0.88125E-02
         0.88125E-02
         0.88125E-02
         0.88125E-02
         0.88125E-02
         0.88125E-02
         0.88125E-02
         0.88125E-02
         0.88125E-02
         0.88125E-02
         0.88125E-02
         0.88125E-02
         0.88125E-02
         0.88125E-02
         0.88125E-02
         0.88125E-02
         0.88125E-02
         0.88125E-02
         0.88125E-02
         0.88125E-02
         0.88125E-02
         0.88125E-02
         0.88125E-02
         0.88125E-02
         0.88125E-02
         0.97917E-02
         0.97917E-02
         0.97917E-02
         0.97917E-02
         0.97917E-02
         0.97917E-02
         0.97917E-02
         0.97917E-02
         0.97917E-02
         0.97917E-02
         0.97917E-02
         0.97917E-02
         0.97917E-02
         0.97917E-02
         0.97917E-02
         0.97917E-02
         0.97917E-02
         0.97917E-02
         0.97917E-02
         0.97917E-02
         0.97917E-02
         0.97917E-02
         0.97917E-02
         0.97917E-02
         0.97917E-02
         0.97917E-02
         0.97917E-02
         0.97917E-02
         0.97917E-02
         0.97917E-02
         0.97917E-02
         0.97917E-02
         0.97917E-02
         0.97917E-02
         0.97917E-02
         0.97917E-02
         0.97917E-02
         0.97917E-02
         0.97917E-02
         0.97917E-02
         0.97917E-02
         0.97917E-02
         0.97917E-02
         0.97917E-02
         0.97917E-02
         0.97917E-02
         0.97917E-02
         0.97917E-02
         0.97917E-02
         0.97917E-02
         0.97917E-02
         0.97917E-02
         0.97917E-02
         0.97917E-02
         0.97917E-02
         0.97917E-02
         0.97917E-02
         0.97917E-02
         0.97917E-02
         0.97917E-02
         0.97917E-02
         0.97917E-02
         0.97917E-02
         0.97917E-02
         0.97917E-02
         0.97917E-02
         0.97917E-02
         0.97917E-02
         0.97917E-02
         0.97917E-02
         0.97917E-02
         0.97917E-02
         0.97917E-02
         0.97917E-02
         0.97917E-02
         0.97917E-02
         0.97917E-02
         0.97917E-02
         0.10771E-01
         0.10771E-01
         0.10771E-01
         0.10771E-01
         0.10771E-01
         0.10771E-01
         0.10771E-01
         0.10771E-01
         0.10771E-01
         0.10771E-01
         0.10771E-01
         0.10771E-01
         0.10771E-01
         0.10771E-01
         0.10771E-01
         0.10771E-01
         0.10771E-01
         0.10771E-01
         0.10771E-01
         0.10771E-01
         0.10771E-01
         0.10771E-01
         0.10771E-01
         0.10771E-01
         0.10771E-01
         0.10771E-01
         0.10771E-01
         0.10771E-01
         0.10771E-01
         0.10771E-01
         0.10771E-01
         0.10771E-01
         0.10771E-01
         0.10771E-01
         0.10771E-01
         0.10771E-01
         0.10771E-01
         0.10771E-01
         0.10771E-01
         0.10771E-01
         0.10771E-01
         0.10771E-01
         0.10771E-01
         0.10771E-01
         0.10771E-01
         0.10771E-01
         0.10771E-01
         0.10771E-01
         0.10771E-01
         0.10771E-01
         0.10771E-01
         0.10771E-01
         0.10771E-01
         0.10771E-01
         0.10771E-01
         0.10771E-01
         0.10771E-01
         0.10771E-01
         0.10771E-01
         0.10771E-01
         0.10771E-01
         0.10771E-01
         0.10771E-01
         0.10771E-01
         0.10771E-01
         0.10771E-01
         0.10771E-01
         0.10771E-01
         0.10771E-01
         0.10771E-01
         0.10771E-01
         0.10771E-01
         0.10771E-01
         0.10771E-01
         0.10771E-01
         0.10771E-01
         0.10771E-01
         0.10771E-01
         0.11750E-01
         0.11750E-01
         0.11750E-01
         0.11750E-01
         0.11750E-01
         0.11750E-01
         0.11750E-01
         0.11750E-01
         0.11750E-01
         0.11750E-01
         0.11750E-01
         0.11750E-01
         0.11750E-01
         0.11750E-01
         0.11750E-01
         0.11750E-01
         0.11750E-01
         0.11750E-01
         0.11750E-01
         0.11750E-01
         0.11750E-01
         0.11750E-01
         0.11750E-01
         0.11750E-01
         0.11750E-01
         0.11750E-01
         0.11750E-01
         0.11750E-01
         0.11750E-01
         0.11750E-01
         0.11750E-01
         0.11750E-01
         0.11750E-01
         0.11750E-01
         0.11750E-01
         0.11750E-01
         0.11750E-01
         0.11750E-01
         0.11750E-01
         0.11750E-01
         0.11750E-01
         0.11750E-01
         0.11750E-01
         0.11750E-01
         0.11750E-01
         0.11750E-01
         0.11750E-01
         0.11750E-01
         0.11750E-01
         0.11750E-01
         0.11750E-01
         0.11750E-01
         0.11750E-01
         0.11750E-01
         0.11750E-01
         0.11750E-01
         0.11750E-01
         0.11750E-01
         0.11750E-01
         0.11750E-01
         0.11750E-01
         0.11750E-01
         0.11750E-01
         0.11750E-01
         0.11750E-01
         0.11750E-01
         0.11750E-01
         0.11750E-01
         0.11750E-01
         0.11750E-01
         0.11750E-01
         0.11750E-01
         0.11750E-01
         0.11750E-01
         0.11750E-01
         0.11750E-01
         0.11750E-01
         0.11750E-01
  
SCALARS                init_velocity_x  double 1
LOOKUP_TABLE default
         0.00000E+00
         0.00000E+00
         0.00000E+00
         0.00000E+00
         0.00000E+00
         0.00000E+00
         0.00000E+00
         0.00000E+00
         0.00000E+00
         0.00000E+00
         0.00000E+00
         0.00000E+00
         0.00000E+00
         0.00000E+00
         0.00000E+00
         0.00000E+00
         0.00000E+00
         0.00000E+00
         0.00000E+00
         0.00000E+00
         0.00000E+00
         0.00000E+00
         0.00000E+00
         0.00000E+00
         0.00000E+00
         0.00000E+00
         0.00000E+00
         0.00000E+00
         0.00000E+00
         0.00000E+00
         0.00000E+00
         0.00000E+00
         0.00000E+00
         0.00000E+00
         0.00000E+00
         0.00000E+00
         0.00000E+00
         0.00000E+00
         0.00000E+00
         0.00000E+00
         0.00000E+00
         0.00000E+00
         0.00000E+00
         0.00000E+00
         0.00000E+00
         0.00000E+00
         0.00000E+00
         0.00000E+00
         0.00000E+00
         0.00000E+00
         0.00000E+00
         0.00000E+00
         0.00000E+00
         0.00000E+00
         0.00000E+00
         0.00000E+00
         0.00000E+00
         0.00000E+00
         0.00000E+00
         0.00000E+00
         0.00000E+00
         0.00000E+00
         0.00000E+00
         0.00000E+00
         0.00000E+00
         0.00000E+00
         0.00000E+00
         0.00000E+00
         0.00000E+00
         0.00000E+00
         0.00000E+00
         0.00000E+00
         0.00000E+00
         0.00000E+00
         0.00000E+00
         0.00000E+00
         0.00000E+00
         0.00000E+00
         0.00000E+00
         0.00000E+00
         0.00000E+00
         0.00000E+00
         0.00000E+00
         0.00000E+00
         0.00000E+00
         0.00000E+00
         0.00000E+00
         0.00000E+00
         0.00000E+00
         0.00000E+00
         0.00000E+00
         0.00000E+00
         0.00000E+00
         0.00000E+00
         0.00000E+00
         0.00000E+00
         0.00000E+00
         0.00000E+00
         0.00000E+00
         0.00000E+00
         0.00000E+00
         0.00000E+00
         0.00000E+00
         0.00000E+00
         0.00000E+00
         0.00000E+00
         0.00000E+00
         0.00000E+00
         0.00000E+00
         0.00000E+00
         0.00000E+00
         0.00000E+00
         0.00000E+00
         0.00000E+00
         0.00000E+00
         0.00000E+00
         0.00000E+00
         0.00000E+00
         0.00000E+00
         0.00000E+00
         0.00000E+00
         0.00000E+00
         0.00000E+00
         0.00000E+00
         0.00000E+00
         0.00000E+00
         0.00000E+00
         0.00000E+00
         0.00000E+00
         0.00000E+00
         0.00000E+00
         0.00000E+00
         0.00000E+00
         0.00000E+00
         0.00000E+00
         0.00000E+00
         0.00000E+00
         0.00000E+00
         0.00000E+00
         0.00000E+00
         0.00000E+00
         0.00000E+00
         0.00000E+00
         0.00000E+00
         0.00000E+00
         0.00000E+00
         0.00000E+00
         0.00000E+00
         0.00000E+00
         0.00000E+00
         0.00000E+00
         0.00000E+00
         0.00000E+00
         0.00000E+00
         0.00000E+00
         0.00000E+00
         0.00000E+00
         0.00000E+00
         0.00000E+00
         0.00000E+00
         0.00000E+00
         0.00000E+00
         0.00000E+00
         0.00000E+00
         0.00000E+00
         0.00000E+00
         0.00000E+00
         0.00000E+00
         0.00000E+00
         0.00000E+00
         0.00000E+00
         0.00000E+00
         0.00000E+00
         0.00000E+00
         0.00000E+00
         0.00000E+00
         0.00000E+00
         0.00000E+00
         0.00000E+00
         0.00000E+00
         0.00000E+00
         0.00000E+00
         0.00000E+00
         0.00000E+00
         0.00000E+00
         0.00000E+00
         0.00000E+00
         0.00000E+00
         0.00000E+00
         0.00000E+00
         0.00000E+00
         0.00000E+00
         0.00000E+00
         0.00000E+00
         0.00000E+00
         0.00000E+00
         0.00000E+00
         0.00000E+00
         0.00000E+00
         0.00000E+00
         0.00000E+00
         0.00000E+00
         0.00000E+00
         0.00000E+00
         0.00000E+00
         0.00000E+00
         0.00000E+00
         0.00000E+00
         0.00000E+00
         0.00000E+00
         0.00000E+00
         0.00000E+00
         0.00000E+00
         0.00000E+00
         0.00000E+00
         0.00000E+00
         0.00000E+00
         0.00000E+00
         0.00000E+00
         0.00000E+00
         0.00000E+00
         0.00000E+00
         0.00000E+00
         0.00000E+00
         0.00000E+00
         0.00000E+00
         0.00000E+00
         0.00000E+00
         0.00000E+00
         0.00000E+00
         0.00000E+00
         0.00000E+00
         0.00000E+00
         0.00000E+00
         0.00000E+00
         0.00000E+00
         0.00000E+00
         0.00000E+00
         0.00000E+00
         0.00000E+00
         0.00000E+00
         0.00000E+00
         0.00000E+00
         0.00000E+00
         0.00000E+00
         0.00000E+00
         0.00000E+00
         0.00000E+00
         0.00000E+00
         0.00000E+00
         0.00000E+00
         0.00000E+00
         0.00000E+00
         0.00000E+00
         0.00000E+00
         0.00000E+00
         0.00000E+00
         0.00000E+00
         0.00000E+00
         0.00000E+00
         0.00000E+00
         0.00000E+00
         0.00000E+00
         0.00000E+00
         0.00000E+00
         0.00000E+00
         0.00000E+00
         0.00000E+00
         0.00000E+00
         0.00000E+00
         0.00000E+00
         0.00000E+00
         0.00000E+00
         0.00000E+00
         0.00000E+00
         0.00000E+00
         0.00000E+00
         0.00000E+00
         0.00000E+00
         0.00000E+00
         0.00000E+00
         0.00000E+00
         0.00000E+00
         0.00000E+00
         0.00000E+00
         0.00000E+00
         0.00000E+00
         0.00000E+00
         0.00000E+00
         0.00000E+00
         0.00000E+00
         0.00000E+00
         0.00000E+00
         0.00000E+00
         0.00000E+00
         0.00000E+00
         0.00000E+00
         0.00000E+00
         0.00000E+00
         0.00000E+00
         0.00000E+00
         0.00000E+00
         0.00000E+00
         0.00000E+00
         0.00000E+00
         0.00000E+00
         0.00000E+00
         0.00000E+00
         0.00000E+00
         0.00000E+00
         0.00000E+00
         0.00000E+00
         0.00000E+00
         0.00000E+00
         0.00000E+00
         0.00000E+00
         0.00000E+00
         0.00000E+00
         0.00000E+00
         0.00000E+00
         0.00000E+00
         0.00000E+00
         0.00000E+00
         0.00000E+00
         0.00000E+00
         0.00000E+00
         0.00000E+00
         0.00000E+00
         0.00000E+00
         0.00000E+00
         0.00000E+00
         0.00000E+00
         0.00000E+00
         0.00000E+00
         0.00000E+00
         0.00000E+00
         0.00000E+00
         0.00000E+00
         0.00000E+00
         0.00000E+00
         0.00000E+00
         0.00000E+00
         0.00000E+00
         0.00000E+00
         0.00000E+00
         0.00000E+00
         0.00000E+00
         0.00000E+00
         0.00000E+00
         0.00000E+00
         0.00000E+00
         0.00000E+00
         0.00000E+00
         0.00000E+00
         0.00000E+00
         0.00000E+00
         0.00000E+00
         0.00000E+00
         0.00000E+00
         0.00000E+00
         0.00000E+00
         0.00000E+00
         0.00000E+00
         0.00000E+00
         0.00000E+00
         0.00000E+00
         0.00000E+00
         0.00000E+00
         0.00000E+00
         0.00000E+00
         0.00000E+00
         0.00000E+00
         0.00000E+00
         0.00000E+00
         0.00000E+00
         0.00000E+00
         0.00000E+00
         0.00000E+00
         0.00000E+00
         0.00000E+00
         0.00000E+00
         0.00000E+00
         0.00000E+00
         0.00000E+00
         0.00000E+00
         0.00000E+00
         0.00000E+00
         0.00000E+00
         0.00000E+00
         0.00000E+00
         0.00000E+00
         0.00000E+00
         0.00000E+00
         0.00000E+00
         0.00000E+00
         0.00000E+00
         0.00000E+00
         0.00000E+00
         0.00000E+00
         0.00000E+00
         0.00000E+00
         0.00000E+00
         0.00000E+00
         0.00000E+00
         0.00000E+00
         0.00000E+00
         0.00000E+00
         0.00000E+00
         0.00000E+00
         0.00000E+00
         0.00000E+00
         0.00000E+00
         0.00000E+00
         0.00000E+00
         0.00000E+00
         0.00000E+00
         0.00000E+00
         0.00000E+00
         0.00000E+00
         0.00000E+00
         0.00000E+00
         0.00000E+00
         0.00000E+00
         0.00000E+00
         0.00000E+00
         0.00000E+00
         0.00000E+00
         0.00000E+00
         0.00000E+00
         0.00000E+00
         0.00000E+00
         0.00000E+00
         0.00000E+00
         0.00000E+00
         0.00000E+00
         0.00000E+00
         0.00000E+00
         0.00000E+00
         0.00000E+00
         0.00000E+00
         0.00000E+00
         0.00000E+00
         0.00000E+00
         0.00000E+00
         0.00000E+00
         0.00000E+00
         0.00000E+00
         0.00000E+00
         0.00000E+00
         0.00000E+00
         0.00000E+00
         0.00000E+00
         0.00000E+00
         0.00000E+00
         0.00000E+00
         0.00000E+00
         0.00000E+00
         0.00000E+00
         0.00000E+00
         0.00000E+00
         0.00000E+00
         0.00000E+00
         0.00000E+00
         0.00000E+00
         0.00000E+00
         0.00000E+00
         0.00000E+00
         0.00000E+00
         0.00000E+00
         0.00000E+00
         0.00000E+00
         0.00000E+00
         0.00000E+00
         0.00000E+00
         0.00000E+00
         0.00000E+00
         0.00000E+00
         0.00000E+00
         0.00000E+00
         0.00000E+00
         0.00000E+00
         0.00000E+00
         0.00000E+00
         0.00000E+00
         0.00000E+00
         0.00000E+00
         0.00000E+00
         0.00000E+00
         0.00000E+00
         0.00000E+00
         0.00000E+00
         0.00000E+00
         0.00000E+00
         0.00000E+00
         0.00000E+00
         0.00000E+00
         0.00000E+00
         0.00000E+00
         0.00000E+00
         0.00000E+00
         0.00000E+00
         0.00000E+00
         0.00000E+00
         0.00000E+00
         0.00000E+00
         0.00000E+00
         0.00000E+00
         0.00000E+00
         0.00000E+00
         0.00000E+00
         0.00000E+00
         0.00000E+00
         0.00000E+00
         0.00000E+00
         0.00000E+00
         0.00000E+00
         0.00000E+00
         0.00000E+00
         0.00000E+00
         0.00000E+00
         0.00000E+00
         0.00000E+00
         0.00000E+00
         0.00000E+00
         0.00000E+00
         0.00000E+00
         0.00000E+00
         0.00000E+00
         0.00000E+00
         0.00000E+00
         0.00000E+00
         0.00000E+00
         0.00000E+00
         0.00000E+00
         0.00000E+00
         0.00000E+00
         0.00000E+00
         0.00000E+00
         0.00000E+00
         0.00000E+00
         0.00000E+00
         0.00000E+00
         0.00000E+00
         0.00000E+00
         0.00000E+00
         0.00000E+00
         0.00000E+00
         0.00000E+00
         0.00000E+00
         0.00000E+00
         0.00000E+00
         0.00000E+00
         0.00000E+00
         0.00000E+00
         0.00000E+00
         0.00000E+00
         0.00000E+00
         0.00000E+00
         0.00000E+00
         0.00000E+00
         0.00000E+00
         0.00000E+00
         0.00000E+00
         0.00000E+00
         0.00000E+00
         0.00000E+00
         0.00000E+00
         0.00000E+00
         0.00000E+00
         0.00000E+00
         0.00000E+00
         0.00000E+00
         0.00000E+00
         0.00000E+00
         0.00000E+00
         0.00000E+00
         0.00000E+00
         0.00000E+00
         0.00000E+00
         0.00000E+00
         0.00000E+00
         0.00000E+00
         0.00000E+00
         0.00000E+00
         0.00000E+00
         0.00000E+00
         0.00000E+00
         0.00000E+00
         0.00000E+00
         0.00000E+00
         0.00000E+00
         0.00000E+00
         0.00000E+00
         0.00000E+00
         0.00000E+00
         0.00000E+00
         0.00000E+00
         0.00000E+00
         0.00000E+00
         0.00000E+00
         0.00000E+00
         0.00000E+00
         0.00000E+00
         0.00000E+00
         0.00000E+00
         0.00000E+00
         0.00000E+00
         0.00000E+00
         0.00000E+00
         0.00000E+00
         0.00000E+00
         0.00000E+00
         0.00000E+00
         0.00000E+00
         0.00000E+00
         0.00000E+00
         0.00000E+00
         0.00000E+00
         0.00000E+00
         0.00000E+00
         0.00000E+00
         0.00000E+00
         0.00000E+00
         0.00000E+00
         0.00000E+00
         0.00000E+00
         0.00000E+00
         0.00000E+00
         0.00000E+00
         0.00000E+00
         0.00000E+00
         0.00000E+00
         0.00000E+00
         0.00000E+00
         0.00000E+00
         0.00000E+00
         0.00000E+00
         0.00000E+00
         0.00000E+00
         0.00000E+00
         0.00000E+00
         0.00000E+00
         0.00000E+00
         0.00000E+00
         0.00000E+00
         0.00000E+00
         0.00000E+00
         0.00000E+00
         0.00000E+00
         0.00000E+00
         0.00000E+00
         0.00000E+00
         0.00000E+00
         0.00000E+00
         0.00000E+00
         0.00000E+00
         0.00000E+00
         0.00000E+00
         0.00000E+00
         0.00000E+00
         0.00000E+00
         0.00000E+00
         0.00000E+00
         0.00000E+00
         0.00000E+00
         0.00000E+00
         0.00000E+00
         0.00000E+00
         0.00000E+00
         0.00000E+00
         0.00000E+00
         0.00000E+00
         0.00000E+00
         0.00000E+00
         0.00000E+00
         0.00000E+00
         0.00000E+00
         0.00000E+00
         0.00000E+00
         0.00000E+00
         0.00000E+00
         0.00000E+00
         0.00000E+00
         0.00000E+00
         0.00000E+00
         0.00000E+00
         0.00000E+00
         0.00000E+00
         0.00000E+00
         0.00000E+00
         0.00000E+00
         0.00000E+00
         0.00000E+00
         0.00000E+00
         0.00000E+00
         0.00000E+00
         0.00000E+00
         0.00000E+00
         0.00000E+00
         0.00000E+00
         0.00000E+00
         0.00000E+00
         0.00000E+00
         0.00000E+00
         0.00000E+00
         0.00000E+00
         0.00000E+00
         0.00000E+00
         0.00000E+00
         0.00000E+00
         0.00000E+00
         0.00000E+00
         0.00000E+00
         0.00000E+00
         0.00000E+00
         0.00000E+00
         0.00000E+00
         0.00000E+00
         0.00000E+00
         0.00000E+00
         0.00000E+00
         0.00000E+00
         0.00000E+00
         0.00000E+00
         0.00000E+00
         0.00000E+00
         0.00000E+00
         0.00000E+00
         0.00000E+00
         0.00000E+00
         0.00000E+00
         0.00000E+00
         0.00000E+00
         0.00000E+00
         0.00000E+00
         0.00000E+00
         0.00000E+00
         0.00000E+00
         0.00000E+00
         0.00000E+00
         0.00000E+00
         0.00000E+00
         0.00000E+00
         0.00000E+00
         0.00000E+00
         0.00000E+00
         0.00000E+00
         0.00000E+00
         0.00000E+00
         0.00000E+00
         0.00000E+00
         0.00000E+00
         0.00000E+00
         0.00000E+00
         0.00000E+00
         0.00000E+00
         0.00000E+00
         0.00000E+00
         0.00000E+00
         0.00000E+00
         0.00000E+00
         0.00000E+00
         0.00000E+00
         0.00000E+00
         0.00000E+00
         0.00000E+00
         0.00000E+00
         0.00000E+00
         0.00000E+00
         0.00000E+00
         0.00000E+00
         0.00000E+00
         0.00000E+00
         0.00000E+00
         0.00000E+00
         0.00000E+00
         0.00000E+00
         0.00000E+00
         0.00000E+00
         0.00000E+00
         0.00000E+00
         0.00000E+00
         0.00000E+00
         0.00000E+00
         0.00000E+00
         0.00000E+00
         0.00000E+00
         0.00000E+00
         0.00000E+00
         0.00000E+00
         0.00000E+00
         0.00000E+00
         0.00000E+00
         0.00000E+00
         0.00000E+00
         0.00000E+00
         0.00000E+00
         0.00000E+00
         0.00000E+00
         0.00000E+00
         0.00000E+00
         0.00000E+00
         0.00000E+00
         0.00000E+00
         0.00000E+00
         0.00000E+00
         0.00000E+00
         0.00000E+00
         0.00000E+00
         0.00000E+00
         0.00000E+00
         0.00000E+00
         0.00000E+00
         0.00000E+00
         0.00000E+00
         0.00000E+00
         0.00000E+00
         0.00000E+00
         0.00000E+00
         0.00000E+00
         0.00000E+00
         0.00000E+00
         0.00000E+00
         0.00000E+00
         0.00000E+00
         0.00000E+00
         0.00000E+00
         0.00000E+00
         0.00000E+00
         0.00000E+00
         0.00000E+00
         0.00000E+00
         0.00000E+00
         0.00000E+00
         0.00000E+00
         0.00000E+00
         0.00000E+00
         0.00000E+00
         0.00000E+00
         0.00000E+00
         0.00000E+00
         0.00000E+00
         0.00000E+00
         0.00000E+00
         0.00000E+00
         0.00000E+00
         0.00000E+00
         0.00000E+00
         0.00000E+00
         0.00000E+00
         0.00000E+00
         0.00000E+00
         0.00000E+00
         0.00000E+00
         0.00000E+00
         0.00000E+00
         0.00000E+00
         0.00000E+00
         0.00000E+00
         0.00000E+00
         0.00000E+00
         0.00000E+00
         0.00000E+00
         0.00000E+00
         0.00000E+00
         0.00000E+00
         0.00000E+00
         0.00000E+00
         0.00000E+00
         0.00000E+00
         0.00000E+00
         0.00000E+00
         0.00000E+00
         0.00000E+00
         0.00000E+00
         0.00000E+00
         0.00000E+00
         0.00000E+00
         0.00000E+00
         0.00000E+00
         0.00000E+00
         0.00000E+00
         0.00000E+00
         0.00000E+00
         0.00000E+00
         0.00000E+00
         0.00000E+00
         0.00000E+00
         0.00000E+00
         0.00000E+00
         0.00000E+00
         0.00000E+00
         0.00000E+00
         0.00000E+00
         0.00000E+00
         0.00000E+00
         0.00000E+00
         0.00000E+00
         0.00000E+00
         0.00000E+00
         0.00000E+00
         0.00000E+00
         0.00000E+00
         0.00000E+00
         0.00000E+00
         0.00000E+00
         0.00000E+00
         0.00000E+00
         0.00000E+00
         0.00000E+00
         0.00000E+00
         0.00000E+00
         0.00000E+00
         0.00000E+00
         0.00000E+00
         0.00000E+00
         0.00000E+00
         0.00000E+00
         0.00000E+00
         0.00000E+00
         0.00000E+00
         0.00000E+00
         0.00000E+00
         0.00000E+00
         0.00000E+00
         0.00000E+00
         0.00000E+00
         0.00000E+00
         0.00000E+00
         0.00000E+00
         0.00000E+00
         0.00000E+00
         0.00000E+00
         0.00000E+00
         0.00000E+00
         0.00000E+00
         0.00000E+00
         0.00000E+00
         0.00000E+00
         0.00000E+00
         0.00000E+00
         0.00000E+00
         0.00000E+00
         0.00000E+00
         0.00000E+00
         0.00000E+00
         0.00000E+00
         0.00000E+00
         0.00000E+00
         0.00000E+00
         0.00000E+00
         0.00000E+00
         0.00000E+00
         0.00000E+00
         0.00000E+00
         0.00000E+00
         0.00000E+00
         0.00000E+00
         0.00000E+00
         0.00000E+00
         0.00000E+00
         0.00000E+00
         0.00000E+00
         0.00000E+00
         0.00000E+00
         0.00000E+00
         0.00000E+00
         0.00000E+00
         0.00000E+00
         0.00000E+00
         0.00000E+00
         0.00000E+00
         0.00000E+00
         0.00000E+00
         0.00000E+00
         0.00000E+00
         0.00000E+00
         0.00000E+00
         0.00000E+00
         0.00000E+00
         0.00000E+00
         0.00000E+00
         0.00000E+00
         0.00000E+00
         0.00000E+00
         0.00000E+00
         0.00000E+00
         0.00000E+00
         0.00000E+00
         0.00000E+00
         0.00000E+00
         0.00000E+00
         0.00000E+00
         0.00000E+00
         0.00000E+00
         0.00000E+00
         0.00000E+00
         0.00000E+00
         0.00000E+00
         0.00000E+00
         0.00000E+00
         0.00000E+00
         0.00000E+00
         0.00000E+00
         0.00000E+00
         0.00000E+00
         0.00000E+00
         0.00000E+00
         0.00000E+00
         0.00000E+00
         0.00000E+00
         0.00000E+00
         0.00000E+00
         0.00000E+00
         0.00000E+00
         0.00000E+00
         0.00000E+00
         0.00000E+00
         0.00000E+00
         0.00000E+00
         0.00000E+00
         0.00000E+00
         0.00000E+00
         0.00000E+00
         0.00000E+00
         0.00000E+00
         0.00000E+00
         0.00000E+00
         0.00000E+00
         0.00000E+00
         0.00000E+00
         0.00000E+00
         0.00000E+00
         0.00000E+00
         0.00000E+00
         0.00000E+00
         0.00000E+00
         0.00000E+00
         0.00000E+00
         0.00000E+00
         0.00000E+00
         0.00000E+00
         0.00000E+00
         0.00000E+00
         0.00000E+00
         0.00000E+00
         0.00000E+00
         0.00000E+00
         0.00000E+00
         0.00000E+00
         0.00000E+00
         0.00000E+00
         0.00000E+00
         0.00000E+00
         0.00000E+00
         0.00000E+00
         0.00000E+00
         0.00000E+00
         0.00000E+00
         0.00000E+00
         0.00000E+00
         0.00000E+00
         0.00000E+00
         0.00000E+00
         0.00000E+00
         0.00000E+00
         0.00000E+00
         0.00000E+00
         0.00000E+00
         0.00000E+00
         0.00000E+00
         0.00000E+00
         0.00000E+00
         0.00000E+00
         0.00000E+00
         0.00000E+00
         0.00000E+00
         0.00000E+00
         0.00000E+00
         0.00000E+00
         0.00000E+00
         0.00000E+00
         0.00000E+00
         0.00000E+00
         0.00000E+00
         0.00000E+00
         0.00000E+00
         0.00000E+00
         0.00000E+00
         0.00000E+00
         0.00000E+00
         0.00000E+00
         0.00000E+00
         0.00000E+00
         0.00000E+00
         0.00000E+00
         0.00000E+00
         0.00000E+00
         0.00000E+00
         0.00000E+00
         0.00000E+00
         0.00000E+00
         0.00000E+00
         0.00000E+00
         0.00000E+00
         0.00000E+00
         0.00000E+00
         0.00000E+00
         0.00000E+00
         0.00000E+00
         0.00000E+00
         0.00000E+00
         0.00000E+00
         0.00000E+00
         0.00000E+00
         0.00000E+00
         0.00000E+00
         0.00000E+00
         0.00000E+00
         0.00000E+00
         0.00000E+00
         0.00000E+00
         0.00000E+00
         0.00000E+00
         0.00000E+00
         0.00000E+00
         0.00000E+00
         0.00000E+00
         0.00000E+00
         0.00000E+00
         0.00000E+00
         0.00000E+00
         0.00000E+00
         0.00000E+00
         0.00000E+00
         0.00000E+00
         0.00000E+00
         0.00000E+00
         0.00000E+00
         0.00000E+00
         0.00000E+00
         0.00000E+00
         0.00000E+00
         0.00000E+00
         0.00000E+00
         0.00000E+00
         0.00000E+00
         0.00000E+00
         0.00000E+00
         0.00000E+00
         0.00000E+00
         0.00000E+00
         0.00000E+00
         0.00000E+00
         0.00000E+00
         0.00000E+00
         0.00000E+00
         0.00000E+00
         0.00000E+00
         0.00000E+00
         0.00000E+00
         0.00000E+00
         0.00000E+00
         0.00000E+00
         0.00000E+00
         0.00000E+00
         0.00000E+00
         0.00000E+00
         0.00000E+00
         0.00000E+00
         0.00000E+00
         0.00000E+00
         0.00000E+00
         0.00000E+00
         0.00000E+00
         0.00000E+00
         0.00000E+00
         0.00000E+00
         0.00000E+00
         0.00000E+00
         0.00000E+00
         0.00000E+00
         0.00000E+00
         0.00000E+00
         0.00000E+00
         0.00000E+00
         0.00000E+00
         0.00000E+00
         0.00000E+00
         0.00000E+00
         0.00000E+00
         0.00000E+00
         0.00000E+00
         0.00000E+00
         0.00000E+00
         0.00000E+00
         0.00000E+00
         0.00000E+00
         0.00000E+00
         0.00000E+00
         0.00000E+00
         0.00000E+00
         0.00000E+00
         0.00000E+00
         0.00000E+00
         0.00000E+00
         0.00000E+00
         0.00000E+00
         0.00000E+00
         0.00000E+00
         0.00000E+00
         0.00000E+00
         0.00000E+00
         0.00000E+00
         0.00000E+00
         0.00000E+00
         0.00000E+00
         0.00000E+00
         0.00000E+00
         0.00000E+00
         0.00000E+00
         0.00000E+00
         0.00000E+00
         0.00000E+00
         0.00000E+00
         0.00000E+00
         0.00000E+00
         0.00000E+00
         0.00000E+00
         0.00000E+00
         0.00000E+00
         0.00000E+00
         0.00000E+00
         0.00000E+00
         0.00000E+00
         0.00000E+00
         0.00000E+00
         0.00000E+00
         0.00000E+00
         0.00000E+00
         0.00000E+00
         0.00000E+00
         0.00000E+00
         0.00000E+00
         0.00000E+00
         0.00000E+00
         0.00000E+00
         0.00000E+00
         0.00000E+00
         0.00000E+00
         0.00000E+00
         0.00000E+00
         0.00000E+00
         0.00000E+00
         0.00000E+00
         0.00000E+00
         0.00000E+00
         0.00000E+00
         0.00000E+00
         0.00000E+00
         0.00000E+00
         0.00000E+00
         0.00000E+00
         0.00000E+00
         0.00000E+00
         0.00000E+00
         0.00000E+00
         0.00000E+00
         0.00000E+00
         0.00000E+00
         0.00000E+00
         0.00000E+00
         0.00000E+00
         0.00000E+00
         0.00000E+00
         0.00000E+00
         0.00000E+00
         0.00000E+00
         0.00000E+00
         0.00000E+00
         0.00000E+00
         0.00000E+00
         0.00000E+00
         0.00000E+00
         0.00000E+00
         0.00000E+00
         0.00000E+00
         0.00000E+00
         0.00000E+00
         0.00000E+00
         0.00000E+00
         0.00000E+00
         0.00000E+00
         0.00000E+00
         0.00000E+00
         0.00000E+00
         0.00000E+00
         0.00000E+00
         0.00000E+00
         0.00000E+00
         0.00000E+00
         0.00000E+00
         0.00000E+00
         0.00000E+00
         0.00000E+00
         0.00000E+00
         0.00000E+00
         0.00000E+00
         0.00000E+00
         0.00000E+00
         0.00000E+00
         0.00000E+00
         0.00000E+00
         0.00000E+00
         0.00000E+00
         0.00000E+00
         0.00000E+00
         0.00000E+00
         0.00000E+00
         0.00000E+00
         0.00000E+00
         0.00000E+00
         0.00000E+00
         0.00000E+00
         0.00000E+00
         0.00000E+00
         0.00000E+00
         0.00000E+00
         0.00000E+00
         0.00000E+00
         0.00000E+00
         0.00000E+00
         0.00000E+00
         0.00000E+00
         0.00000E+00
         0.00000E+00
         0.00000E+00
         0.00000E+00
         0.00000E+00
         0.00000E+00
         0.00000E+00
         0.00000E+00
         0.00000E+00
         0.00000E+00
         0.00000E+00
         0.00000E+00
         0.00000E+00
         0.00000E+00
         0.00000E+00
         0.00000E+00
         0.00000E+00
         0.00000E+00
         0.00000E+00
         0.00000E+00
         0.00000E+00
         0.00000E+00
         0.00000E+00
         0.00000E+00
         0.00000E+00
         0.00000E+00
         0.00000E+00
         0.00000E+00
         0.00000E+00
         0.00000E+00
         0.00000E+00
         0.00000E+00
         0.00000E+00
         0.00000E+00
         0.00000E+00
         0.00000E+00
         0.00000E+00
         0.00000E+00
         0.00000E+00
         0.00000E+00
         0.00000E+00
         0.00000E+00
         0.00000E+00
         0.00000E+00
         0.00000E+00
         0.00000E+00
         0.00000E+00
         0.00000E+00
         0.00000E+00
         0.00000E+00
         0.00000E+00
         0.00000E+00
         0.00000E+00
         0.00000E+00
         0.00000E+00
         0.00000E+00
         0.00000E+00
         0.00000E+00
         0.00000E+00
         0.00000E+00
         0.00000E+00
         0.00000E+00
         0.00000E+00
         0.00000E+00
         0.00000E+00
         0.00000E+00
         0.00000E+00
         0.00000E+00
         0.00000E+00
         0.00000E+00
         0.00000E+00
         0.00000E+00
         0.00000E+00
         0.00000E+00
         0.00000E+00
         0.00000E+00
         0.00000E+00
         0.00000E+00
         0.00000E+00
         0.00000E+00
         0.00000E+00
         0.00000E+00
         0.00000E+00
         0.00000E+00
         0.00000E+00
         0.00000E+00
         0.00000E+00
         0.00000E+00
         0.00000E+00
         0.00000E+00
         0.00000E+00
         0.00000E+00
         0.00000E+00
         0.00000E+00
         0.00000E+00
         0.00000E+00
         0.00000E+00
         0.00000E+00
         0.00000E+00
         0.00000E+00
         0.00000E+00
         0.00000E+00
         0.00000E+00
         0.00000E+00
         0.00000E+00
         0.00000E+00
         0.00000E+00
         0.00000E+00
         0.00000E+00
         0.00000E+00
         0.00000E+00
         0.00000E+00
         0.00000E+00
         0.00000E+00
         0.00000E+00
         0.00000E+00
         0.00000E+00
         0.00000E+00
         0.00000E+00
         0.00000E+00
         0.00000E+00
         0.00000E+00
         0.00000E+00
         0.00000E+00
         0.00000E+00
         0.00000E+00
         0.00000E+00
         0.00000E+00
         0.00000E+00
         0.00000E+00
         0.00000E+00
         0.00000E+00
         0.00000E+00
         0.00000E+00
         0.00000E+00
         0.00000E+00
         0.00000E+00
         0.00000E+00
         0.00000E+00
         0.00000E+00
         0.00000E+00
         0.00000E+00
         0.00000E+00
         0.00000E+00
         0.00000E+00
         0.00000E+00
         0.00000E+00
         0.00000E+00
         0.00000E+00
         0.00000E+00
         0.00000E+00
         0.00000E+00
         0.00000E+00
         0.00000E+00
         0.00000E+00
         0.00000E+00
         0.00000E+00
         0.00000E+00
         0.00000E+00
         0.00000E+00
         0.00000E+00
         0.00000E+00
         0.00000E+00
         0.00000E+00
         0.00000E+00
         0.00000E+00
         0.00000E+00
         0.00000E+00
         0.00000E+00
         0.00000E+00
         0.00000E+00
         0.00000E+00
         0.00000E+00
         0.00000E+00
         0.00000E+00
         0.00000E+00
         0.00000E+00
         0.00000E+00
         0.00000E+00
         0.00000E+00
         0.00000E+00
         0.00000E+00
         0.00000E+00
         0.00000E+00
         0.00000E+00
         0.00000E+00
         0.00000E+00
         0.00000E+00
         0.00000E+00
         0.00000E+00
         0.00000E+00
         0.00000E+00
         0.00000E+00
         0.00000E+00
         0.00000E+00
         0.00000E+00
         0.00000E+00
         0.00000E+00
         0.00000E+00
         0.00000E+00
         0.00000E+00
         0.00000E+00
         0.00000E+00
         0.00000E+00
         0.00000E+00
         0.00000E+00
         0.00000E+00
         0.00000E+00
         0.00000E+00
         0.00000E+00
         0.00000E+00
         0.00000E+00
         0.00000E+00
         0.00000E+00
         0.00000E+00
         0.00000E+00
         0.00000E+00
         0.00000E+00
         0.00000E+00
         0.00000E+00
         0.00000E+00
         0.00000E+00
         0.00000E+00
         0.00000E+00
         0.00000E+00
         0.00000E+00
         0.00000E+00
         0.00000E+00
         0.00000E+00
         0.00000E+00
         0.00000E+00
         0.00000E+00
         0.00000E+00
         0.00000E+00
         0.00000E+00
         0.00000E+00
         0.00000E+00
         0.00000E+00
         0.00000E+00
         0.00000E+00
         0.00000E+00
         0.00000E+00
         0.00000E+00
         0.00000E+00
         0.00000E+00
         0.00000E+00
         0.00000E+00
         0.00000E+00
         0.00000E+00
         0.00000E+00
         0.00000E+00
         0.00000E+00
         0.00000E+00
         0.00000E+00
         0.00000E+00
         0.00000E+00
         0.00000E+00
         0.00000E+00
         0.00000E+00
         0.00000E+00
         0.00000E+00
         0.00000E+00
         0.00000E+00
         0.00000E+00
         0.00000E+00
         0.00000E+00
         0.00000E+00
         0.00000E+00
         0.00000E+00
         0.00000E+00
         0.00000E+00
         0.00000E+00
         0.00000E+00
         0.00000E+00
         0.00000E+00
         0.00000E+00
         0.00000E+00
         0.00000E+00
         0.00000E+00
         0.00000E+00
         0.00000E+00
         0.00000E+00
         0.00000E+00
         0.00000E+00
         0.00000E+00
         0.00000E+00
         0.00000E+00
         0.00000E+00
         0.00000E+00
         0.00000E+00
         0.00000E+00
         0.00000E+00
         0.00000E+00
         0.00000E+00
         0.00000E+00
         0.00000E+00
         0.00000E+00
         0.00000E+00
         0.00000E+00
         0.00000E+00
         0.00000E+00
         0.00000E+00
         0.00000E+00
         0.00000E+00
         0.00000E+00
         0.00000E+00
         0.00000E+00
         0.00000E+00
         0.00000E+00
         0.00000E+00
         0.00000E+00
         0.00000E+00
         0.00000E+00
         0.00000E+00
         0.00000E+00
         0.00000E+00
         0.00000E+00
         0.00000E+00
         0.00000E+00
         0.00000E+00
         0.00000E+00
         0.00000E+00
         0.00000E+00
         0.00000E+00
         0.00000E+00
         0.00000E+00
         0.00000E+00
         0.00000E+00
         0.00000E+00
         0.00000E+00
         0.00000E+00
         0.00000E+00
         0.00000E+00
         0.00000E+00
         0.00000E+00
         0.00000E+00
         0.00000E+00
         0.00000E+00
         0.00000E+00
         0.00000E+00
         0.00000E+00
         0.00000E+00
         0.00000E+00
         0.00000E+00
         0.00000E+00
         0.00000E+00
         0.00000E+00
         0.00000E+00
         0.00000E+00
         0.00000E+00
         0.00000E+00
         0.00000E+00
         0.00000E+00
         0.00000E+00
         0.00000E+00
         0.00000E+00
         0.00000E+00
         0.00000E+00
         0.00000E+00
         0.00000E+00
         0.00000E+00
         0.00000E+00
         0.00000E+00
         0.00000E+00
         0.00000E+00
         0.00000E+00
         0.00000E+00
         0.00000E+00
         0.00000E+00
         0.00000E+00
         0.00000E+00
         0.00000E+00
         0.00000E+00
         0.00000E+00
         0.00000E+00
         0.00000E+00
         0.00000E+00
         0.00000E+00
         0.00000E+00
         0.00000E+00
         0.00000E+00
         0.00000E+00
         0.00000E+00
         0.00000E+00
         0.00000E+00
         0.00000E+00
         0.00000E+00
         0.00000E+00
         0.00000E+00
         0.00000E+00
         0.00000E+00
         0.00000E+00
         0.00000E+00
         0.00000E+00
         0.00000E+00
         0.00000E+00
         0.00000E+00
         0.00000E+00
         0.00000E+00
         0.00000E+00
         0.00000E+00
         0.00000E+00
         0.00000E+00
         0.00000E+00
         0.00000E+00
         0.00000E+00
         0.00000E+00
         0.00000E+00
         0.00000E+00
         0.00000E+00
         0.00000E+00
         0.00000E+00
         0.00000E+00
         0.00000E+00
         0.00000E+00
         0.00000E+00
         0.00000E+00
         0.00000E+00
         0.00000E+00
         0.00000E+00
         0.00000E+00
         0.00000E+00
         0.00000E+00
         0.00000E+00
         0.00000E+00
         0.00000E+00
         0.00000E+00
         0.00000E+00
         0.00000E+00
         0.00000E+00
         0.00000E+00
         0.00000E+00
         0.00000E+00
         0.00000E+00
         0.00000E+00
         0.00000E+00
         0.00000E+00
         0.00000E+00
         0.00000E+00
         0.00000E+00
         0.00000E+00
         0.00000E+00
         0.00000E+00
         0.00000E+00
         0.00000E+00
         0.00000E+00
         0.00000E+00
         0.00000E+00
         0.00000E+00
         0.00000E+00
         0.00000E+00
         0.00000E+00
         0.00000E+00
         0.00000E+00
         0.00000E+00
         0.00000E+00
         0.00000E+00
         0.00000E+00
         0.00000E+00
         0.00000E+00
         0.00000E+00
         0.00000E+00
         0.00000E+00
         0.00000E+00
         0.00000E+00
         0.00000E+00
         0.00000E+00
         0.00000E+00
         0.00000E+00
         0.00000E+00
         0.00000E+00
         0.00000E+00
         0.00000E+00
         0.00000E+00
         0.00000E+00
         0.00000E+00
         0.00000E+00
         0.00000E+00
         0.00000E+00
         0.00000E+00
         0.00000E+00
         0.00000E+00
         0.00000E+00
         0.00000E+00
         0.00000E+00
         0.00000E+00
         0.00000E+00
         0.00000E+00
         0.00000E+00
         0.00000E+00
         0.00000E+00
         0.00000E+00
         0.00000E+00
         0.00000E+00
         0.00000E+00
         0.00000E+00
         0.00000E+00
         0.00000E+00
         0.00000E+00
         0.00000E+00
         0.00000E+00
         0.00000E+00
         0.00000E+00
         0.00000E+00
         0.00000E+00
         0.00000E+00
         0.00000E+00
         0.00000E+00
         0.00000E+00
         0.00000E+00
         0.00000E+00
         0.00000E+00
         0.00000E+00
         0.00000E+00
         0.00000E+00
         0.00000E+00
         0.00000E+00
         0.00000E+00
         0.00000E+00
         0.00000E+00
         0.00000E+00
         0.00000E+00
         0.00000E+00
         0.00000E+00
         0.00000E+00
         0.00000E+00
         0.00000E+00
         0.00000E+00
         0.00000E+00
         0.00000E+00
         0.00000E+00
         0.00000E+00
         0.00000E+00
         0.00000E+00
         0.00000E+00
         0.00000E+00
         0.00000E+00
         0.00000E+00
         0.00000E+00
         0.00000E+00
         0.00000E+00
         0.00000E+00
         0.00000E+00
         0.00000E+00
         0.00000E+00
         0.00000E+00
         0.00000E+00
         0.00000E+00
         0.00000E+00
         0.00000E+00
         0.00000E+00
         0.00000E+00
         0.00000E+00
         0.00000E+00
         0.00000E+00
         0.00000E+00
         0.00000E+00
         0.00000E+00
         0.00000E+00
         0.00000E+00
         0.00000E+00
         0.00000E+00
         0.00000E+00
         0.00000E+00
         0.00000E+00
         0.00000E+00
         0.00000E+00
         0.00000E+00
         0.00000E+00
         0.00000E+00
         0.00000E+00
         0.00000E+00
         0.00000E+00
         0.00000E+00
         0.00000E+00
         0.00000E+00
         0.00000E+00
         0.00000E+00
         0.00000E+00
         0.00000E+00
         0.00000E+00
         0.00000E+00
         0.00000E+00
         0.00000E+00
         0.00000E+00
         0.00000E+00
         0.00000E+00
         0.00000E+00
         0.00000E+00
         0.00000E+00
         0.00000E+00
         0.00000E+00
         0.00000E+00
         0.00000E+00
         0.00000E+00
         0.00000E+00
         0.00000E+00
         0.00000E+00
         0.00000E+00
         0.00000E+00
         0.00000E+00
         0.00000E+00
         0.00000E+00
         0.00000E+00
         0.00000E+00
         0.00000E+00
         0.00000E+00
         0.00000E+00
         0.00000E+00
         0.00000E+00
         0.00000E+00
         0.00000E+00
         0.00000E+00
         0.00000E+00
         0.00000E+00
         0.00000E+00
  
SCALARS                init_velocity_y  double 1
LOOKUP_TABLE default
         0.00000E+00
         0.00000E+00
         0.00000E+00
         0.00000E+00
         0.00000E+00
         0.00000E+00
         0.00000E+00
         0.00000E+00
         0.00000E+00
         0.00000E+00
         0.00000E+00
         0.00000E+00
         0.00000E+00
         0.00000E+00
         0.00000E+00
         0.00000E+00
         0.00000E+00
         0.00000E+00
         0.00000E+00
         0.00000E+00
         0.00000E+00
         0.00000E+00
         0.00000E+00
         0.00000E+00
         0.00000E+00
         0.00000E+00
         0.00000E+00
         0.00000E+00
         0.00000E+00
         0.00000E+00
         0.00000E+00
         0.00000E+00
         0.00000E+00
         0.00000E+00
         0.00000E+00
         0.00000E+00
         0.00000E+00
         0.00000E+00
         0.00000E+00
         0.00000E+00
         0.00000E+00
         0.00000E+00
         0.00000E+00
         0.00000E+00
         0.00000E+00
         0.00000E+00
         0.00000E+00
         0.00000E+00
         0.00000E+00
         0.00000E+00
         0.00000E+00
         0.00000E+00
         0.00000E+00
         0.00000E+00
         0.00000E+00
         0.00000E+00
         0.00000E+00
         0.00000E+00
         0.00000E+00
         0.00000E+00
         0.00000E+00
         0.00000E+00
         0.00000E+00
         0.00000E+00
         0.00000E+00
         0.00000E+00
         0.00000E+00
         0.00000E+00
         0.00000E+00
         0.00000E+00
         0.00000E+00
         0.00000E+00
         0.00000E+00
         0.00000E+00
         0.00000E+00
         0.00000E+00
         0.00000E+00
         0.00000E+00
         0.00000E+00
         0.00000E+00
         0.00000E+00
         0.00000E+00
         0.00000E+00
         0.00000E+00
         0.00000E+00
         0.00000E+00
         0.00000E+00
         0.00000E+00
         0.00000E+00
         0.00000E+00
         0.00000E+00
         0.00000E+00
         0.00000E+00
         0.00000E+00
         0.00000E+00
         0.00000E+00
         0.00000E+00
         0.00000E+00
         0.00000E+00
         0.00000E+00
         0.00000E+00
         0.00000E+00
         0.00000E+00
         0.00000E+00
         0.00000E+00
         0.00000E+00
         0.00000E+00
         0.00000E+00
         0.00000E+00
         0.00000E+00
         0.00000E+00
         0.00000E+00
         0.00000E+00
         0.00000E+00
         0.00000E+00
         0.00000E+00
         0.00000E+00
         0.00000E+00
         0.00000E+00
         0.00000E+00
         0.00000E+00
         0.00000E+00
         0.00000E+00
         0.00000E+00
         0.00000E+00
         0.00000E+00
         0.00000E+00
         0.00000E+00
         0.00000E+00
         0.00000E+00
         0.00000E+00
         0.00000E+00
         0.00000E+00
         0.00000E+00
         0.00000E+00
         0.00000E+00
         0.00000E+00
         0.00000E+00
         0.00000E+00
         0.00000E+00
         0.00000E+00
         0.00000E+00
         0.00000E+00
         0.00000E+00
         0.00000E+00
         0.00000E+00
         0.00000E+00
         0.00000E+00
         0.00000E+00
         0.00000E+00
         0.00000E+00
         0.00000E+00
         0.00000E+00
         0.00000E+00
         0.00000E+00
         0.00000E+00
         0.00000E+00
         0.00000E+00
         0.00000E+00
         0.00000E+00
         0.00000E+00
         0.00000E+00
         0.00000E+00
         0.00000E+00
         0.00000E+00
         0.00000E+00
         0.00000E+00
         0.00000E+00
         0.00000E+00
         0.00000E+00
         0.00000E+00
         0.00000E+00
         0.00000E+00
         0.00000E+00
         0.00000E+00
         0.00000E+00
         0.00000E+00
         0.00000E+00
         0.00000E+00
         0.00000E+00
         0.00000E+00
         0.00000E+00
         0.00000E+00
         0.00000E+00
         0.00000E+00
         0.00000E+00
         0.00000E+00
         0.00000E+00
         0.00000E+00
         0.00000E+00
         0.00000E+00
         0.00000E+00
         0.00000E+00
         0.00000E+00
         0.00000E+00
         0.00000E+00
         0.00000E+00
         0.00000E+00
         0.00000E+00
         0.00000E+00
         0.00000E+00
         0.00000E+00
         0.00000E+00
         0.00000E+00
         0.00000E+00
         0.00000E+00
         0.00000E+00
         0.00000E+00
         0.00000E+00
         0.00000E+00
         0.00000E+00
         0.00000E+00
         0.00000E+00
         0.00000E+00
         0.00000E+00
         0.00000E+00
         0.00000E+00
         0.00000E+00
         0.00000E+00
         0.00000E+00
         0.00000E+00
         0.00000E+00
         0.00000E+00
         0.00000E+00
         0.00000E+00
         0.00000E+00
         0.00000E+00
         0.00000E+00
         0.00000E+00
         0.00000E+00
         0.00000E+00
         0.00000E+00
         0.00000E+00
         0.00000E+00
         0.00000E+00
         0.00000E+00
         0.00000E+00
         0.00000E+00
         0.00000E+00
         0.00000E+00
         0.00000E+00
         0.00000E+00
         0.00000E+00
         0.00000E+00
         0.00000E+00
         0.00000E+00
         0.00000E+00
         0.00000E+00
         0.00000E+00
         0.00000E+00
         0.00000E+00
         0.00000E+00
         0.00000E+00
         0.00000E+00
         0.00000E+00
         0.00000E+00
         0.00000E+00
         0.00000E+00
         0.00000E+00
         0.00000E+00
         0.00000E+00
         0.00000E+00
         0.00000E+00
         0.00000E+00
         0.00000E+00
         0.00000E+00
         0.00000E+00
         0.00000E+00
         0.00000E+00
         0.00000E+00
         0.00000E+00
         0.00000E+00
         0.00000E+00
         0.00000E+00
         0.00000E+00
         0.00000E+00
         0.00000E+00
         0.00000E+00
         0.00000E+00
         0.00000E+00
         0.00000E+00
         0.00000E+00
         0.00000E+00
         0.00000E+00
         0.00000E+00
         0.00000E+00
         0.00000E+00
         0.00000E+00
         0.00000E+00
         0.00000E+00
         0.00000E+00
         0.00000E+00
         0.00000E+00
         0.00000E+00
         0.00000E+00
         0.00000E+00
         0.00000E+00
         0.00000E+00
         0.00000E+00
         0.00000E+00
         0.00000E+00
         0.00000E+00
         0.00000E+00
         0.00000E+00
         0.00000E+00
         0.00000E+00
         0.00000E+00
         0.00000E+00
         0.00000E+00
         0.00000E+00
         0.00000E+00
         0.00000E+00
         0.00000E+00
         0.00000E+00
         0.00000E+00
         0.00000E+00
         0.00000E+00
         0.00000E+00
         0.00000E+00
         0.00000E+00
         0.00000E+00
         0.00000E+00
         0.00000E+00
         0.00000E+00
         0.00000E+00
         0.00000E+00
         0.00000E+00
         0.00000E+00
         0.00000E+00
         0.00000E+00
         0.00000E+00
         0.00000E+00
         0.00000E+00
         0.00000E+00
         0.00000E+00
         0.00000E+00
         0.00000E+00
         0.00000E+00
         0.00000E+00
         0.00000E+00
         0.00000E+00
         0.00000E+00
         0.00000E+00
         0.00000E+00
         0.00000E+00
         0.00000E+00
         0.00000E+00
         0.00000E+00
         0.00000E+00
         0.00000E+00
         0.00000E+00
         0.00000E+00
         0.00000E+00
         0.00000E+00
         0.00000E+00
         0.00000E+00
         0.00000E+00
         0.00000E+00
         0.00000E+00
         0.00000E+00
         0.00000E+00
         0.00000E+00
         0.00000E+00
         0.00000E+00
         0.00000E+00
         0.00000E+00
         0.00000E+00
         0.00000E+00
         0.00000E+00
         0.00000E+00
         0.00000E+00
         0.00000E+00
         0.00000E+00
         0.00000E+00
         0.00000E+00
         0.00000E+00
         0.00000E+00
         0.00000E+00
         0.00000E+00
         0.00000E+00
         0.00000E+00
         0.00000E+00
         0.00000E+00
         0.00000E+00
         0.00000E+00
         0.00000E+00
         0.00000E+00
         0.00000E+00
         0.00000E+00
         0.00000E+00
         0.00000E+00
         0.00000E+00
         0.00000E+00
         0.00000E+00
         0.00000E+00
         0.00000E+00
         0.00000E+00
         0.00000E+00
         0.00000E+00
         0.00000E+00
         0.00000E+00
         0.00000E+00
         0.00000E+00
         0.00000E+00
         0.00000E+00
         0.00000E+00
         0.00000E+00
         0.00000E+00
         0.00000E+00
         0.00000E+00
         0.00000E+00
         0.00000E+00
         0.00000E+00
         0.00000E+00
         0.00000E+00
         0.00000E+00
         0.00000E+00
         0.00000E+00
         0.00000E+00
         0.00000E+00
         0.00000E+00
         0.00000E+00
         0.00000E+00
         0.00000E+00
         0.00000E+00
         0.00000E+00
         0.00000E+00
         0.00000E+00
         0.00000E+00
         0.00000E+00
         0.00000E+00
         0.00000E+00
         0.00000E+00
         0.00000E+00
         0.00000E+00
         0.00000E+00
         0.00000E+00
         0.00000E+00
         0.00000E+00
         0.00000E+00
         0.00000E+00
         0.00000E+00
         0.00000E+00
         0.00000E+00
         0.00000E+00
         0.00000E+00
         0.00000E+00
         0.00000E+00
         0.00000E+00
         0.00000E+00
         0.00000E+00
         0.00000E+00
         0.00000E+00
         0.00000E+00
         0.00000E+00
         0.00000E+00
         0.00000E+00
         0.00000E+00
         0.00000E+00
         0.00000E+00
         0.00000E+00
         0.00000E+00
         0.00000E+00
         0.00000E+00
         0.00000E+00
         0.00000E+00
         0.00000E+00
         0.00000E+00
         0.00000E+00
         0.00000E+00
         0.00000E+00
         0.00000E+00
         0.00000E+00
         0.00000E+00
         0.00000E+00
         0.00000E+00
         0.00000E+00
         0.00000E+00
         0.00000E+00
         0.00000E+00
         0.00000E+00
         0.00000E+00
         0.00000E+00
         0.00000E+00
         0.00000E+00
         0.00000E+00
         0.00000E+00
         0.00000E+00
         0.00000E+00
         0.00000E+00
         0.00000E+00
         0.00000E+00
         0.00000E+00
         0.00000E+00
         0.00000E+00
         0.00000E+00
         0.00000E+00
         0.00000E+00
         0.00000E+00
         0.00000E+00
         0.00000E+00
         0.00000E+00
         0.00000E+00
         0.00000E+00
         0.00000E+00
         0.00000E+00
         0.00000E+00
         0.00000E+00
         0.00000E+00
         0.00000E+00
         0.00000E+00
         0.00000E+00
         0.00000E+00
         0.00000E+00
         0.00000E+00
         0.00000E+00
         0.00000E+00
         0.00000E+00
         0.00000E+00
         0.00000E+00
         0.00000E+00
         0.00000E+00
         0.00000E+00
         0.00000E+00
         0.00000E+00
         0.00000E+00
         0.00000E+00
         0.00000E+00
         0.00000E+00
         0.00000E+00
         0.00000E+00
         0.00000E+00
         0.00000E+00
         0.00000E+00
         0.00000E+00
         0.00000E+00
         0.00000E+00
         0.00000E+00
         0.00000E+00
         0.00000E+00
         0.00000E+00
         0.00000E+00
         0.00000E+00
         0.00000E+00
         0.00000E+00
         0.00000E+00
         0.00000E+00
         0.00000E+00
         0.00000E+00
         0.00000E+00
         0.00000E+00
         0.00000E+00
         0.00000E+00
         0.00000E+00
         0.00000E+00
         0.00000E+00
         0.00000E+00
         0.00000E+00
         0.00000E+00
         0.00000E+00
         0.00000E+00
         0.00000E+00
         0.00000E+00
         0.00000E+00
         0.00000E+00
         0.00000E+00
         0.00000E+00
         0.00000E+00
         0.00000E+00
         0.00000E+00
         0.00000E+00
         0.00000E+00
         0.00000E+00
         0.00000E+00
         0.00000E+00
         0.00000E+00
         0.00000E+00
         0.00000E+00
         0.00000E+00
         0.00000E+00
         0.00000E+00
         0.00000E+00
         0.00000E+00
         0.00000E+00
         0.00000E+00
         0.00000E+00
         0.00000E+00
         0.00000E+00
         0.00000E+00
         0.00000E+00
         0.00000E+00
         0.00000E+00
         0.00000E+00
         0.00000E+00
         0.00000E+00
         0.00000E+00
         0.00000E+00
         0.00000E+00
         0.00000E+00
         0.00000E+00
         0.00000E+00
         0.00000E+00
         0.00000E+00
         0.00000E+00
         0.00000E+00
         0.00000E+00
         0.00000E+00
         0.00000E+00
         0.00000E+00
         0.00000E+00
         0.00000E+00
         0.00000E+00
         0.00000E+00
         0.00000E+00
         0.00000E+00
         0.00000E+00
         0.00000E+00
         0.00000E+00
         0.00000E+00
         0.00000E+00
         0.00000E+00
         0.00000E+00
         0.00000E+00
         0.00000E+00
         0.00000E+00
         0.00000E+00
         0.00000E+00
         0.00000E+00
         0.00000E+00
         0.00000E+00
         0.00000E+00
         0.00000E+00
         0.00000E+00
         0.00000E+00
         0.00000E+00
         0.00000E+00
         0.00000E+00
         0.00000E+00
         0.00000E+00
         0.00000E+00
         0.00000E+00
         0.00000E+00
         0.00000E+00
         0.00000E+00
         0.00000E+00
         0.00000E+00
         0.00000E+00
         0.00000E+00
         0.00000E+00
         0.00000E+00
         0.00000E+00
         0.00000E+00
         0.00000E+00
         0.00000E+00
         0.00000E+00
         0.00000E+00
         0.00000E+00
         0.00000E+00
         0.00000E+00
         0.00000E+00
         0.00000E+00
         0.00000E+00
         0.00000E+00
         0.00000E+00
         0.00000E+00
         0.00000E+00
         0.00000E+00
         0.00000E+00
         0.00000E+00
         0.00000E+00
         0.00000E+00
         0.00000E+00
         0.00000E+00
         0.00000E+00
         0.00000E+00
         0.00000E+00
         0.00000E+00
         0.00000E+00
         0.00000E+00
         0.00000E+00
         0.00000E+00
         0.00000E+00
         0.00000E+00
         0.00000E+00
         0.00000E+00
         0.00000E+00
         0.00000E+00
         0.00000E+00
         0.00000E+00
         0.00000E+00
         0.00000E+00
         0.00000E+00
         0.00000E+00
         0.00000E+00
         0.00000E+00
         0.00000E+00
         0.00000E+00
         0.00000E+00
         0.00000E+00
         0.00000E+00
         0.00000E+00
         0.00000E+00
         0.00000E+00
         0.00000E+00
         0.00000E+00
         0.00000E+00
         0.00000E+00
         0.00000E+00
         0.00000E+00
         0.00000E+00
         0.00000E+00
         0.00000E+00
         0.00000E+00
         0.00000E+00
         0.00000E+00
         0.00000E+00
         0.00000E+00
         0.00000E+00
         0.00000E+00
         0.00000E+00
         0.00000E+00
         0.00000E+00
         0.00000E+00
         0.00000E+00
         0.00000E+00
         0.00000E+00
         0.00000E+00
         0.00000E+00
         0.00000E+00
         0.00000E+00
         0.00000E+00
         0.00000E+00
         0.00000E+00
         0.00000E+00
         0.00000E+00
         0.00000E+00
         0.00000E+00
         0.00000E+00
         0.00000E+00
         0.00000E+00
         0.00000E+00
         0.00000E+00
         0.00000E+00
         0.00000E+00
         0.00000E+00
         0.00000E+00
         0.00000E+00
         0.00000E+00
         0.00000E+00
         0.00000E+00
         0.00000E+00
         0.00000E+00
         0.00000E+00
         0.00000E+00
         0.00000E+00
         0.00000E+00
         0.00000E+00
         0.00000E+00
         0.00000E+00
         0.00000E+00
         0.00000E+00
         0.00000E+00
         0.00000E+00
         0.00000E+00
         0.00000E+00
         0.00000E+00
         0.00000E+00
         0.00000E+00
         0.00000E+00
         0.00000E+00
         0.00000E+00
         0.00000E+00
         0.00000E+00
         0.00000E+00
         0.00000E+00
         0.00000E+00
         0.00000E+00
         0.00000E+00
         0.00000E+00
         0.00000E+00
         0.00000E+00
         0.00000E+00
         0.00000E+00
         0.00000E+00
         0.00000E+00
         0.00000E+00
         0.00000E+00
         0.00000E+00
         0.00000E+00
         0.00000E+00
         0.00000E+00
         0.00000E+00
         0.00000E+00
         0.00000E+00
         0.00000E+00
         0.00000E+00
         0.00000E+00
         0.00000E+00
         0.00000E+00
         0.00000E+00
         0.00000E+00
         0.00000E+00
         0.00000E+00
         0.00000E+00
         0.00000E+00
         0.00000E+00
         0.00000E+00
         0.00000E+00
         0.00000E+00
         0.00000E+00
         0.00000E+00
         0.00000E+00
         0.00000E+00
         0.00000E+00
         0.00000E+00
         0.00000E+00
         0.00000E+00
         0.00000E+00
         0.00000E+00
         0.00000E+00
         0.00000E+00
         0.00000E+00
         0.00000E+00
         0.00000E+00
         0.00000E+00
         0.00000E+00
         0.00000E+00
         0.00000E+00
         0.00000E+00
         0.00000E+00
         0.00000E+00
         0.00000E+00
         0.00000E+00
         0.00000E+00
         0.00000E+00
         0.00000E+00
         0.00000E+00
         0.00000E+00
         0.00000E+00
         0.00000E+00
         0.00000E+00
         0.00000E+00
         0.00000E+00
         0.00000E+00
         0.00000E+00
         0.00000E+00
         0.00000E+00
         0.00000E+00
         0.00000E+00
         0.00000E+00
         0.00000E+00
         0.00000E+00
         0.00000E+00
         0.00000E+00
         0.00000E+00
         0.00000E+00
         0.00000E+00
         0.00000E+00
         0.00000E+00
         0.00000E+00
         0.00000E+00
         0.00000E+00
         0.00000E+00
         0.00000E+00
         0.00000E+00
         0.00000E+00
         0.00000E+00
         0.00000E+00
         0.00000E+00
         0.00000E+00
         0.00000E+00
         0.00000E+00
         0.00000E+00
         0.00000E+00
         0.00000E+00
         0.00000E+00
         0.00000E+00
         0.00000E+00
         0.00000E+00
         0.00000E+00
         0.00000E+00
         0.00000E+00
         0.00000E+00
         0.00000E+00
         0.00000E+00
         0.00000E+00
         0.00000E+00
         0.00000E+00
         0.00000E+00
         0.00000E+00
         0.00000E+00
         0.00000E+00
         0.00000E+00
         0.00000E+00
         0.00000E+00
         0.00000E+00
         0.00000E+00
         0.00000E+00
         0.00000E+00
         0.00000E+00
         0.00000E+00
         0.00000E+00
         0.00000E+00
         0.00000E+00
         0.00000E+00
         0.00000E+00
         0.00000E+00
         0.00000E+00
         0.00000E+00
         0.00000E+00
         0.00000E+00
         0.00000E+00
         0.00000E+00
         0.00000E+00
         0.00000E+00
         0.00000E+00
         0.00000E+00
         0.00000E+00
         0.00000E+00
         0.00000E+00
         0.00000E+00
         0.00000E+00
         0.00000E+00
         0.00000E+00
         0.00000E+00
         0.00000E+00
         0.00000E+00
         0.00000E+00
         0.00000E+00
         0.00000E+00
         0.00000E+00
         0.00000E+00
         0.00000E+00
         0.00000E+00
         0.00000E+00
         0.00000E+00
         0.00000E+00
         0.00000E+00
         0.00000E+00
         0.00000E+00
         0.00000E+00
         0.00000E+00
         0.00000E+00
         0.00000E+00
         0.00000E+00
         0.00000E+00
         0.00000E+00
         0.00000E+00
         0.00000E+00
         0.00000E+00
         0.00000E+00
         0.00000E+00
         0.00000E+00
         0.00000E+00
         0.00000E+00
         0.00000E+00
         0.00000E+00
         0.00000E+00
         0.00000E+00
         0.00000E+00
         0.00000E+00
         0.00000E+00
         0.00000E+00
         0.00000E+00
         0.00000E+00
         0.00000E+00
         0.00000E+00
         0.00000E+00
         0.00000E+00
         0.00000E+00
         0.00000E+00
         0.00000E+00
         0.00000E+00
         0.00000E+00
         0.00000E+00
         0.00000E+00
         0.00000E+00
         0.00000E+00
         0.00000E+00
         0.00000E+00
         0.00000E+00
         0.00000E+00
         0.00000E+00
         0.00000E+00
         0.00000E+00
         0.00000E+00
         0.00000E+00
         0.00000E+00
         0.00000E+00
         0.00000E+00
         0.00000E+00
         0.00000E+00
         0.00000E+00
         0.00000E+00
         0.00000E+00
         0.00000E+00
         0.00000E+00
         0.00000E+00
         0.00000E+00
         0.00000E+00
         0.00000E+00
         0.00000E+00
         0.00000E+00
         0.00000E+00
         0.00000E+00
         0.00000E+00
         0.00000E+00
         0.00000E+00
         0.00000E+00
         0.00000E+00
         0.00000E+00
         0.00000E+00
         0.00000E+00
         0.00000E+00
         0.00000E+00
         0.00000E+00
         0.00000E+00
         0.00000E+00
         0.00000E+00
         0.00000E+00
         0.00000E+00
         0.00000E+00
         0.00000E+00
         0.00000E+00
         0.00000E+00
         0.00000E+00
         0.00000E+00
         0.00000E+00
         0.00000E+00
         0.00000E+00
         0.00000E+00
         0.00000E+00
         0.00000E+00
         0.00000E+00
         0.00000E+00
         0.00000E+00
         0.00000E+00
         0.00000E+00
         0.00000E+00
         0.00000E+00
         0.00000E+00
         0.00000E+00
         0.00000E+00
         0.00000E+00
         0.00000E+00
         0.00000E+00
         0.00000E+00
         0.00000E+00
         0.00000E+00
         0.00000E+00
         0.00000E+00
         0.00000E+00
         0.00000E+00
         0.00000E+00
         0.00000E+00
         0.00000E+00
         0.00000E+00
         0.00000E+00
         0.00000E+00
         0.00000E+00
         0.00000E+00
         0.00000E+00
         0.00000E+00
         0.00000E+00
         0.00000E+00
         0.00000E+00
         0.00000E+00
         0.00000E+00
         0.00000E+00
         0.00000E+00
         0.00000E+00
         0.00000E+00
         0.00000E+00
         0.00000E+00
         0.00000E+00
         0.00000E+00
         0.00000E+00
         0.00000E+00
         0.00000E+00
         0.00000E+00
         0.00000E+00
         0.00000E+00
         0.00000E+00
         0.00000E+00
         0.00000E+00
         0.00000E+00
         0.00000E+00
         0.00000E+00
         0.00000E+00
         0.00000E+00
         0.00000E+00
         0.00000E+00
         0.00000E+00
         0.00000E+00
         0.00000E+00
         0.00000E+00
         0.00000E+00
         0.00000E+00
         0.00000E+00
         0.00000E+00
         0.00000E+00
         0.00000E+00
         0.00000E+00
         0.00000E+00
         0.00000E+00
         0.00000E+00
         0.00000E+00
         0.00000E+00
         0.00000E+00
         0.00000E+00
         0.00000E+00
         0.00000E+00
         0.00000E+00
         0.00000E+00
         0.00000E+00
         0.00000E+00
         0.00000E+00
         0.00000E+00
         0.00000E+00
         0.00000E+00
         0.00000E+00
         0.00000E+00
         0.00000E+00
         0.00000E+00
         0.00000E+00
         0.00000E+00
         0.00000E+00
         0.00000E+00
         0.00000E+00
         0.00000E+00
         0.00000E+00
         0.00000E+00
         0.00000E+00
         0.00000E+00
         0.00000E+00
         0.00000E+00
         0.00000E+00
         0.00000E+00
         0.00000E+00
         0.00000E+00
         0.00000E+00
         0.00000E+00
         0.00000E+00
         0.00000E+00
         0.00000E+00
         0.00000E+00
         0.00000E+00
         0.00000E+00
         0.00000E+00
         0.00000E+00
         0.00000E+00
         0.00000E+00
         0.00000E+00
         0.00000E+00
         0.00000E+00
         0.00000E+00
         0.00000E+00
         0.00000E+00
         0.00000E+00
         0.00000E+00
         0.00000E+00
         0.00000E+00
         0.00000E+00
         0.00000E+00
         0.00000E+00
         0.00000E+00
         0.00000E+00
         0.00000E+00
         0.00000E+00
         0.00000E+00
         0.00000E+00
         0.00000E+00
         0.00000E+00
         0.00000E+00
         0.00000E+00
         0.00000E+00
         0.00000E+00
         0.00000E+00
         0.00000E+00
         0.00000E+00
         0.00000E+00
         0.00000E+00
         0.00000E+00
         0.00000E+00
         0.00000E+00
         0.00000E+00
         0.00000E+00
         0.00000E+00
         0.00000E+00
         0.00000E+00
         0.00000E+00
         0.00000E+00
         0.00000E+00
         0.00000E+00
         0.00000E+00
         0.00000E+00
         0.00000E+00
         0.00000E+00
         0.00000E+00
         0.00000E+00
         0.00000E+00
         0.00000E+00
         0.00000E+00
         0.00000E+00
         0.00000E+00
         0.00000E+00
         0.00000E+00
         0.00000E+00
         0.00000E+00
         0.00000E+00
         0.00000E+00
         0.00000E+00
         0.00000E+00
         0.00000E+00
         0.00000E+00
         0.00000E+00
         0.00000E+00
         0.00000E+00
         0.00000E+00
         0.00000E+00
         0.00000E+00
         0.00000E+00
         0.00000E+00
         0.00000E+00
         0.00000E+00
         0.00000E+00
         0.00000E+00
         0.00000E+00
         0.00000E+00
         0.00000E+00
         0.00000E+00
         0.00000E+00
         0.00000E+00
         0.00000E+00
         0.00000E+00
         0.00000E+00
         0.00000E+00
         0.00000E+00
         0.00000E+00
         0.00000E+00
         0.00000E+00
         0.00000E+00
         0.00000E+00
         0.00000E+00
         0.00000E+00
         0.00000E+00
         0.00000E+00
         0.00000E+00
         0.00000E+00
         0.00000E+00
         0.00000E+00
         0.00000E+00
         0.00000E+00
         0.00000E+00
         0.00000E+00
         0.00000E+00
         0.00000E+00
         0.00000E+00
         0.00000E+00
         0.00000E+00
         0.00000E+00
         0.00000E+00
         0.00000E+00
         0.00000E+00
         0.00000E+00
         0.00000E+00
         0.00000E+00
         0.00000E+00
         0.00000E+00
         0.00000E+00
         0.00000E+00
         0.00000E+00
         0.00000E+00
         0.00000E+00
         0.00000E+00
         0.00000E+00
         0.00000E+00
         0.00000E+00
         0.00000E+00
         0.00000E+00
         0.00000E+00
         0.00000E+00
         0.00000E+00
         0.00000E+00
         0.00000E+00
         0.00000E+00
         0.00000E+00
         0.00000E+00
         0.00000E+00
         0.00000E+00
         0.00000E+00
         0.00000E+00
         0.00000E+00
         0.00000E+00
         0.00000E+00
         0.00000E+00
         0.00000E+00
         0.00000E+00
         0.00000E+00
         0.00000E+00
         0.00000E+00
         0.00000E+00
         0.00000E+00
         0.00000E+00
         0.00000E+00
         0.00000E+00
         0.00000E+00
         0.00000E+00
         0.00000E+00
         0.00000E+00
         0.00000E+00
         0.00000E+00
         0.00000E+00
         0.00000E+00
         0.00000E+00
         0.00000E+00
         0.00000E+00
         0.00000E+00
         0.00000E+00
         0.00000E+00
         0.00000E+00
         0.00000E+00
         0.00000E+00
         0.00000E+00
         0.00000E+00
         0.00000E+00
         0.00000E+00
         0.00000E+00
         0.00000E+00
         0.00000E+00
         0.00000E+00
         0.00000E+00
         0.00000E+00
         0.00000E+00
         0.00000E+00
         0.00000E+00
         0.00000E+00
         0.00000E+00
         0.00000E+00
         0.00000E+00
         0.00000E+00
         0.00000E+00
         0.00000E+00
         0.00000E+00
         0.00000E+00
         0.00000E+00
         0.00000E+00
         0.00000E+00
         0.00000E+00
         0.00000E+00
         0.00000E+00
         0.00000E+00
         0.00000E+00
         0.00000E+00
         0.00000E+00
         0.00000E+00
         0.00000E+00
         0.00000E+00
         0.00000E+00
         0.00000E+00
         0.00000E+00
         0.00000E+00
         0.00000E+00
         0.00000E+00
         0.00000E+00
         0.00000E+00
         0.00000E+00
         0.00000E+00
         0.00000E+00
         0.00000E+00
         0.00000E+00
         0.00000E+00
         0.00000E+00
         0.00000E+00
         0.00000E+00
         0.00000E+00
         0.00000E+00
         0.00000E+00
         0.00000E+00
         0.00000E+00
         0.00000E+00
         0.00000E+00
         0.00000E+00
         0.00000E+00
         0.00000E+00
         0.00000E+00
         0.00000E+00
         0.00000E+00
         0.00000E+00
         0.00000E+00
         0.00000E+00
         0.00000E+00
         0.00000E+00
         0.00000E+00
         0.00000E+00
         0.00000E+00
         0.00000E+00
         0.00000E+00
         0.00000E+00
         0.00000E+00
         0.00000E+00
         0.00000E+00
         0.00000E+00
         0.00000E+00
         0.00000E+00
         0.00000E+00
         0.00000E+00
         0.00000E+00
         0.00000E+00
         0.00000E+00
         0.00000E+00
         0.00000E+00
         0.00000E+00
         0.00000E+00
         0.00000E+00
         0.00000E+00
         0.00000E+00
         0.00000E+00
         0.00000E+00
         0.00000E+00
         0.00000E+00
         0.00000E+00
         0.00000E+00
         0.00000E+00
         0.00000E+00
         0.00000E+00
         0.00000E+00
         0.00000E+00
         0.00000E+00
         0.00000E+00
         0.00000E+00
         0.00000E+00
         0.00000E+00
         0.00000E+00
         0.00000E+00
         0.00000E+00
         0.00000E+00
         0.00000E+00
         0.00000E+00
         0.00000E+00
         0.00000E+00
         0.00000E+00
         0.00000E+00
         0.00000E+00
         0.00000E+00
         0.00000E+00
         0.00000E+00
         0.00000E+00
         0.00000E+00
         0.00000E+00
         0.00000E+00
         0.00000E+00
         0.00000E+00
         0.00000E+00
         0.00000E+00
         0.00000E+00
         0.00000E+00
         0.00000E+00
         0.00000E+00
         0.00000E+00
         0.00000E+00
         0.00000E+00
         0.00000E+00
         0.00000E+00
         0.00000E+00
         0.00000E+00
         0.00000E+00
         0.00000E+00
         0.00000E+00
         0.00000E+00
         0.00000E+00
         0.00000E+00
         0.00000E+00
         0.00000E+00
         0.00000E+00
         0.00000E+00
         0.00000E+00
         0.00000E+00
         0.00000E+00
         0.00000E+00
         0.00000E+00
         0.00000E+00
         0.00000E+00
         0.00000E+00
         0.00000E+00
         0.00000E+00
         0.00000E+00
         0.00000E+00
         0.00000E+00
         0.00000E+00
         0.00000E+00
         0.00000E+00
         0.00000E+00
         0.00000E+00
         0.00000E+00
         0.00000E+00
         0.00000E+00
         0.00000E+00
         0.00000E+00
         0.00000E+00
         0.00000E+00
         0.00000E+00
         0.00000E+00
         0.00000E+00
         0.00000E+00
         0.00000E+00
         0.00000E+00
         0.00000E+00
         0.00000E+00
         0.00000E+00
         0.00000E+00
         0.00000E+00
         0.00000E+00
         0.00000E+00
         0.00000E+00
         0.00000E+00
         0.00000E+00
         0.00000E+00
         0.00000E+00
         0.00000E+00
         0.00000E+00
         0.00000E+00
         0.00000E+00
         0.00000E+00
         0.00000E+00
         0.00000E+00
         0.00000E+00
         0.00000E+00
         0.00000E+00
         0.00000E+00
         0.00000E+00
         0.00000E+00
         0.00000E+00
         0.00000E+00
         0.00000E+00
         0.00000E+00
         0.00000E+00
         0.00000E+00
         0.00000E+00
         0.00000E+00
         0.00000E+00
         0.00000E+00
         0.00000E+00
         0.00000E+00
         0.00000E+00
         0.00000E+00
         0.00000E+00
         0.00000E+00
         0.00000E+00
         0.00000E+00
         0.00000E+00
         0.00000E+00
         0.00000E+00
         0.00000E+00
         0.00000E+00
         0.00000E+00
         0.00000E+00
         0.00000E+00
         0.00000E+00
         0.00000E+00
         0.00000E+00
         0.00000E+00
         0.00000E+00
         0.00000E+00
         0.00000E+00
         0.00000E+00
         0.00000E+00
         0.00000E+00
         0.00000E+00
         0.00000E+00
         0.00000E+00
         0.00000E+00
         0.00000E+00
         0.00000E+00
         0.00000E+00
         0.00000E+00
         0.00000E+00
         0.00000E+00
         0.00000E+00
         0.00000E+00
         0.00000E+00
         0.00000E+00
         0.00000E+00
         0.00000E+00
         0.00000E+00
         0.00000E+00
         0.00000E+00
         0.00000E+00
         0.00000E+00
         0.00000E+00
         0.00000E+00
         0.00000E+00
         0.00000E+00
         0.00000E+00
         0.00000E+00
         0.00000E+00
         0.00000E+00
         0.00000E+00
         0.00000E+00
         0.00000E+00
         0.00000E+00
         0.00000E+00
         0.00000E+00
         0.00000E+00
         0.00000E+00
         0.00000E+00
         0.00000E+00
         0.00000E+00
         0.00000E+00
         0.00000E+00
         0.00000E+00
         0.00000E+00
         0.00000E+00
         0.00000E+00
         0.00000E+00
         0.00000E+00
         0.00000E+00
         0.00000E+00
         0.00000E+00
         0.00000E+00
         0.00000E+00
         0.00000E+00
         0.00000E+00
         0.00000E+00
         0.00000E+00
         0.00000E+00
         0.00000E+00
         0.00000E+00
         0.00000E+00
         0.00000E+00
         0.00000E+00
         0.00000E+00
         0.00000E+00
         0.00000E+00
         0.00000E+00
         0.00000E+00
         0.00000E+00
         0.00000E+00
         0.00000E+00
         0.00000E+00
         0.00000E+00
         0.00000E+00
         0.00000E+00
         0.00000E+00
         0.00000E+00
         0.00000E+00
         0.00000E+00
         0.00000E+00
         0.00000E+00
         0.00000E+00
         0.00000E+00
         0.00000E+00
         0.00000E+00
         0.00000E+00
         0.00000E+00
         0.00000E+00
         0.00000E+00
         0.00000E+00
         0.00000E+00
         0.00000E+00
         0.00000E+00
         0.00000E+00
         0.00000E+00
         0.00000E+00
         0.00000E+00
         0.00000E+00
         0.00000E+00
         0.00000E+00
         0.00000E+00
         0.00000E+00
         0.00000E+00
         0.00000E+00
         0.00000E+00
         0.00000E+00
         0.00000E+00
         0.00000E+00
         0.00000E+00
         0.00000E+00
         0.00000E+00
         0.00000E+00
         0.00000E+00
         0.00000E+00
         0.00000E+00
         0.00000E+00
         0.00000E+00
         0.00000E+00
         0.00000E+00
         0.00000E+00
         0.00000E+00
         0.00000E+00
         0.00000E+00
         0.00000E+00
         0.00000E+00
         0.00000E+00
         0.00000E+00
         0.00000E+00
         0.00000E+00
         0.00000E+00
         0.00000E+00
         0.00000E+00
         0.00000E+00
         0.00000E+00
         0.00000E+00
         0.00000E+00
         0.00000E+00
         0.00000E+00
         0.00000E+00
         0.00000E+00
         0.00000E+00
         0.00000E+00
         0.00000E+00
         0.00000E+00
         0.00000E+00
         0.00000E+00
         0.00000E+00
         0.00000E+00
         0.00000E+00
         0.00000E+00
         0.00000E+00
         0.00000E+00
         0.00000E+00
         0.00000E+00
         0.00000E+00
         0.00000E+00
         0.00000E+00
         0.00000E+00
         0.00000E+00
         0.00000E+00
         0.00000E+00
         0.00000E+00
         0.00000E+00
         0.00000E+00
         0.00000E+00
         0.00000E+00
         0.00000E+00
         0.00000E+00
         0.00000E+00
         0.00000E+00
         0.00000E+00
         0.00000E+00
         0.00000E+00
         0.00000E+00
         0.00000E+00
         0.00000E+00
         0.00000E+00
         0.00000E+00
         0.00000E+00
         0.00000E+00
         0.00000E+00
         0.00000E+00
         0.00000E+00
         0.00000E+00
         0.00000E+00
         0.00000E+00
         0.00000E+00
         0.00000E+00
         0.00000E+00
         0.00000E+00
         0.00000E+00
         0.00000E+00
         0.00000E+00
         0.00000E+00
         0.00000E+00
         0.00000E+00
         0.00000E+00
         0.00000E+00
         0.00000E+00
         0.00000E+00
         0.00000E+00
         0.00000E+00
         0.00000E+00
         0.00000E+00
         0.00000E+00
         0.00000E+00
         0.00000E+00
         0.00000E+00
         0.00000E+00
         0.00000E+00
         0.00000E+00
         0.00000E+00
         0.00000E+00
         0.00000E+00
         0.00000E+00
         0.00000E+00
         0.00000E+00
         0.00000E+00
         0.00000E+00
         0.00000E+00
         0.00000E+00
         0.00000E+00
         0.00000E+00
         0.00000E+00
         0.00000E+00
         0.00000E+00
         0.00000E+00
         0.00000E+00
         0.00000E+00
         0.00000E+00
         0.00000E+00
         0.00000E+00
         0.00000E+00
         0.00000E+00
         0.00000E+00
         0.00000E+00
         0.00000E+00
         0.00000E+00
         0.00000E+00
         0.00000E+00
         0.00000E+00
         0.00000E+00
         0.00000E+00
         0.00000E+00
         0.00000E+00
         0.00000E+00
         0.00000E+00
         0.00000E+00
         0.00000E+00
         0.00000E+00
         0.00000E+00
         0.00000E+00
         0.00000E+00
         0.00000E+00
         0.00000E+00
         0.00000E+00
         0.00000E+00
         0.00000E+00
         0.00000E+00
         0.00000E+00
         0.00000E+00
         0.00000E+00
         0.00000E+00
         0.00000E+00
         0.00000E+00
         0.00000E+00
         0.00000E+00
         0.00000E+00
         0.00000E+00
         0.00000E+00
         0.00000E+00
         0.00000E+00
         0.00000E+00
         0.00000E+00
         0.00000E+00
         0.00000E+00
         0.00000E+00
         0.00000E+00
         0.00000E+00
         0.00000E+00
         0.00000E+00
         0.00000E+00
         0.00000E+00
         0.00000E+00
         0.00000E+00
         0.00000E+00
         0.00000E+00
         0.00000E+00
         0.00000E+00
         0.00000E+00
         0.00000E+00
         0.00000E+00
         0.00000E+00
         0.00000E+00
         0.00000E+00
         0.00000E+00
         0.00000E+00
         0.00000E+00
         0.00000E+00
         0.00000E+00
         0.00000E+00
         0.00000E+00
         0.00000E+00
         0.00000E+00
         0.00000E+00
         0.00000E+00
         0.00000E+00
         0.00000E+00
         0.00000E+00
         0.00000E+00
         0.00000E+00
         0.00000E+00
         0.00000E+00
         0.00000E+00
         0.00000E+00
         0.00000E+00
         0.00000E+00
         0.00000E+00
         0.00000E+00
         0.00000E+00
         0.00000E+00
         0.00000E+00
         0.00000E+00
         0.00000E+00
         0.00000E+00
         0.00000E+00
         0.00000E+00
         0.00000E+00
         0.00000E+00
         0.00000E+00
         0.00000E+00
         0.00000E+00
         0.00000E+00
         0.00000E+00
         0.00000E+00
         0.00000E+00
         0.00000E+00
         0.00000E+00
         0.00000E+00
         0.00000E+00
         0.00000E+00
         0.00000E+00
         0.00000E+00
         0.00000E+00
         0.00000E+00
         0.00000E+00
         0.00000E+00
         0.00000E+00
         0.00000E+00
         0.00000E+00
         0.00000E+00
         0.00000E+00
         0.00000E+00
         0.00000E+00
         0.00000E+00
         0.00000E+00
         0.00000E+00
         0.00000E+00
         0.00000E+00
         0.00000E+00
         0.00000E+00
         0.00000E+00
         0.00000E+00
         0.00000E+00
         0.00000E+00
         0.00000E+00
         0.00000E+00
         0.00000E+00
         0.00000E+00
         0.00000E+00
         0.00000E+00
         0.00000E+00
         0.00000E+00
         0.00000E+00
         0.00000E+00
         0.00000E+00
         0.00000E+00
         0.00000E+00
         0.00000E+00
         0.00000E+00
         0.00000E+00
         0.00000E+00
  
SCALARS                init_velocity_z  double 1
LOOKUP_TABLE default
        -0.37300E+03
        -0.37300E+03
        -0.37300E+03
        -0.37300E+03
        -0.37300E+03
        -0.37300E+03
        -0.37300E+03
        -0.37300E+03
        -0.37300E+03
        -0.37300E+03
        -0.37300E+03
        -0.37300E+03
        -0.37300E+03
        -0.37300E+03
        -0.37300E+03
        -0.37300E+03
        -0.37300E+03
        -0.37300E+03
        -0.37300E+03
        -0.37300E+03
        -0.37300E+03
        -0.37300E+03
        -0.37300E+03
        -0.37300E+03
        -0.37300E+03
        -0.37300E+03
        -0.37300E+03
        -0.37300E+03
        -0.37300E+03
        -0.37300E+03
        -0.37300E+03
        -0.37300E+03
        -0.37300E+03
        -0.37300E+03
        -0.37300E+03
        -0.37300E+03
        -0.37300E+03
        -0.37300E+03
        -0.37300E+03
        -0.37300E+03
        -0.37300E+03
        -0.37300E+03
        -0.37300E+03
        -0.37300E+03
        -0.37300E+03
        -0.37300E+03
        -0.37300E+03
        -0.37300E+03
        -0.37300E+03
        -0.37300E+03
        -0.37300E+03
        -0.37300E+03
        -0.37300E+03
        -0.37300E+03
        -0.37300E+03
        -0.37300E+03
        -0.37300E+03
        -0.37300E+03
        -0.37300E+03
        -0.37300E+03
        -0.37300E+03
        -0.37300E+03
        -0.37300E+03
        -0.37300E+03
        -0.37300E+03
        -0.37300E+03
        -0.37300E+03
        -0.37300E+03
        -0.37300E+03
        -0.37300E+03
        -0.37300E+03
        -0.37300E+03
        -0.37300E+03
        -0.37300E+03
        -0.37300E+03
        -0.37300E+03
        -0.37300E+03
        -0.37300E+03
        -0.37300E+03
        -0.37300E+03
        -0.37300E+03
        -0.37300E+03
        -0.37300E+03
        -0.37300E+03
        -0.37300E+03
        -0.37300E+03
        -0.37300E+03
        -0.37300E+03
        -0.37300E+03
        -0.37300E+03
        -0.37300E+03
        -0.37300E+03
        -0.37300E+03
        -0.37300E+03
        -0.37300E+03
        -0.37300E+03
        -0.37300E+03
        -0.37300E+03
        -0.37300E+03
        -0.37300E+03
        -0.37300E+03
        -0.37300E+03
        -0.37300E+03
        -0.37300E+03
        -0.37300E+03
        -0.37300E+03
        -0.37300E+03
        -0.37300E+03
        -0.37300E+03
        -0.37300E+03
        -0.37300E+03
        -0.37300E+03
        -0.37300E+03
        -0.37300E+03
        -0.37300E+03
        -0.37300E+03
        -0.37300E+03
        -0.37300E+03
        -0.37300E+03
        -0.37300E+03
        -0.37300E+03
        -0.37300E+03
        -0.37300E+03
        -0.37300E+03
        -0.37300E+03
        -0.37300E+03
        -0.37300E+03
        -0.37300E+03
        -0.37300E+03
        -0.37300E+03
        -0.37300E+03
        -0.37300E+03
        -0.37300E+03
        -0.37300E+03
        -0.37300E+03
        -0.37300E+03
        -0.37300E+03
        -0.37300E+03
        -0.37300E+03
        -0.37300E+03
        -0.37300E+03
        -0.37300E+03
        -0.37300E+03
        -0.37300E+03
        -0.37300E+03
        -0.37300E+03
        -0.37300E+03
        -0.37300E+03
        -0.37300E+03
        -0.37300E+03
        -0.37300E+03
        -0.37300E+03
        -0.37300E+03
        -0.37300E+03
        -0.37300E+03
        -0.37300E+03
        -0.37300E+03
        -0.37300E+03
        -0.37300E+03
        -0.37300E+03
        -0.37300E+03
        -0.37300E+03
        -0.37300E+03
        -0.37300E+03
        -0.37300E+03
        -0.37300E+03
        -0.37300E+03
        -0.37300E+03
        -0.37300E+03
        -0.37300E+03
        -0.37300E+03
        -0.37300E+03
        -0.37300E+03
        -0.37300E+03
        -0.37300E+03
        -0.37300E+03
        -0.37300E+03
        -0.37300E+03
        -0.37300E+03
        -0.37300E+03
        -0.37300E+03
        -0.37300E+03
        -0.37300E+03
        -0.37300E+03
        -0.37300E+03
        -0.37300E+03
        -0.37300E+03
        -0.37300E+03
        -0.37300E+03
        -0.37300E+03
        -0.37300E+03
        -0.37300E+03
        -0.37300E+03
        -0.37300E+03
        -0.37300E+03
        -0.37300E+03
        -0.37300E+03
        -0.37300E+03
        -0.37300E+03
        -0.37300E+03
        -0.37300E+03
        -0.37300E+03
        -0.37300E+03
        -0.37300E+03
        -0.37300E+03
        -0.37300E+03
        -0.37300E+03
        -0.37300E+03
        -0.37300E+03
        -0.37300E+03
        -0.37300E+03
        -0.37300E+03
        -0.37300E+03
        -0.37300E+03
        -0.37300E+03
        -0.37300E+03
        -0.37300E+03
        -0.37300E+03
        -0.37300E+03
        -0.37300E+03
        -0.37300E+03
        -0.37300E+03
        -0.37300E+03
        -0.37300E+03
        -0.37300E+03
        -0.37300E+03
        -0.37300E+03
        -0.37300E+03
        -0.37300E+03
        -0.37300E+03
        -0.37300E+03
        -0.37300E+03
        -0.37300E+03
        -0.37300E+03
        -0.37300E+03
        -0.37300E+03
        -0.37300E+03
        -0.37300E+03
        -0.37300E+03
        -0.37300E+03
        -0.37300E+03
        -0.37300E+03
        -0.37300E+03
        -0.37300E+03
        -0.37300E+03
        -0.37300E+03
        -0.37300E+03
        -0.37300E+03
        -0.37300E+03
        -0.37300E+03
        -0.37300E+03
        -0.37300E+03
        -0.37300E+03
        -0.37300E+03
        -0.37300E+03
        -0.37300E+03
        -0.37300E+03
        -0.37300E+03
        -0.37300E+03
        -0.37300E+03
        -0.37300E+03
        -0.37300E+03
        -0.37300E+03
        -0.37300E+03
        -0.37300E+03
        -0.37300E+03
        -0.37300E+03
        -0.37300E+03
        -0.37300E+03
        -0.37300E+03
        -0.37300E+03
        -0.37300E+03
        -0.37300E+03
        -0.37300E+03
        -0.37300E+03
        -0.37300E+03
        -0.37300E+03
        -0.37300E+03
        -0.37300E+03
        -0.37300E+03
        -0.37300E+03
        -0.37300E+03
        -0.37300E+03
        -0.37300E+03
        -0.37300E+03
        -0.37300E+03
        -0.37300E+03
        -0.37300E+03
        -0.37300E+03
        -0.37300E+03
        -0.37300E+03
        -0.37300E+03
        -0.37300E+03
        -0.37300E+03
        -0.37300E+03
        -0.37300E+03
        -0.37300E+03
        -0.37300E+03
        -0.37300E+03
        -0.37300E+03
        -0.37300E+03
        -0.37300E+03
        -0.37300E+03
        -0.37300E+03
        -0.37300E+03
        -0.37300E+03
        -0.37300E+03
        -0.37300E+03
        -0.37300E+03
        -0.37300E+03
        -0.37300E+03
        -0.37300E+03
        -0.37300E+03
        -0.37300E+03
        -0.37300E+03
        -0.37300E+03
        -0.37300E+03
        -0.37300E+03
        -0.37300E+03
        -0.37300E+03
        -0.37300E+03
        -0.37300E+03
        -0.37300E+03
        -0.37300E+03
        -0.37300E+03
        -0.37300E+03
        -0.37300E+03
        -0.37300E+03
        -0.37300E+03
        -0.37300E+03
        -0.37300E+03
        -0.37300E+03
        -0.37300E+03
        -0.37300E+03
        -0.37300E+03
        -0.37300E+03
        -0.37300E+03
        -0.37300E+03
        -0.37300E+03
        -0.37300E+03
        -0.37300E+03
        -0.37300E+03
        -0.37300E+03
        -0.37300E+03
        -0.37300E+03
        -0.37300E+03
        -0.37300E+03
        -0.37300E+03
        -0.37300E+03
        -0.37300E+03
        -0.37300E+03
        -0.37300E+03
        -0.37300E+03
        -0.37300E+03
        -0.37300E+03
        -0.37300E+03
        -0.37300E+03
        -0.37300E+03
        -0.37300E+03
        -0.37300E+03
        -0.37300E+03
        -0.37300E+03
        -0.37300E+03
        -0.37300E+03
        -0.37300E+03
        -0.37300E+03
        -0.37300E+03
        -0.37300E+03
        -0.37300E+03
        -0.37300E+03
        -0.37300E+03
        -0.37300E+03
        -0.37300E+03
        -0.37300E+03
        -0.37300E+03
        -0.37300E+03
        -0.37300E+03
        -0.37300E+03
        -0.37300E+03
        -0.37300E+03
        -0.37300E+03
        -0.37300E+03
        -0.37300E+03
        -0.37300E+03
        -0.37300E+03
        -0.37300E+03
        -0.37300E+03
        -0.37300E+03
        -0.37300E+03
        -0.37300E+03
        -0.37300E+03
        -0.37300E+03
        -0.37300E+03
        -0.37300E+03
        -0.37300E+03
        -0.37300E+03
        -0.37300E+03
        -0.37300E+03
        -0.37300E+03
        -0.37300E+03
        -0.37300E+03
        -0.37300E+03
        -0.37300E+03
        -0.37300E+03
        -0.37300E+03
        -0.37300E+03
        -0.37300E+03
        -0.37300E+03
        -0.37300E+03
        -0.37300E+03
        -0.37300E+03
        -0.37300E+03
        -0.37300E+03
        -0.37300E+03
        -0.37300E+03
        -0.37300E+03
        -0.37300E+03
        -0.37300E+03
        -0.37300E+03
        -0.37300E+03
        -0.37300E+03
        -0.37300E+03
        -0.37300E+03
        -0.37300E+03
        -0.37300E+03
        -0.37300E+03
        -0.37300E+03
        -0.37300E+03
        -0.37300E+03
        -0.37300E+03
        -0.37300E+03
        -0.37300E+03
        -0.37300E+03
        -0.37300E+03
        -0.37300E+03
        -0.37300E+03
        -0.37300E+03
        -0.37300E+03
        -0.37300E+03
        -0.37300E+03
        -0.37300E+03
        -0.37300E+03
        -0.37300E+03
        -0.37300E+03
        -0.37300E+03
        -0.37300E+03
        -0.37300E+03
        -0.37300E+03
        -0.37300E+03
        -0.37300E+03
        -0.37300E+03
        -0.37300E+03
        -0.37300E+03
        -0.37300E+03
        -0.37300E+03
        -0.37300E+03
        -0.37300E+03
        -0.37300E+03
        -0.37300E+03
        -0.37300E+03
        -0.37300E+03
        -0.37300E+03
        -0.37300E+03
        -0.37300E+03
        -0.37300E+03
        -0.37300E+03
        -0.37300E+03
        -0.37300E+03
        -0.37300E+03
        -0.37300E+03
        -0.37300E+03
        -0.37300E+03
        -0.37300E+03
        -0.37300E+03
        -0.37300E+03
        -0.37300E+03
        -0.37300E+03
        -0.37300E+03
        -0.37300E+03
        -0.37300E+03
        -0.37300E+03
        -0.37300E+03
        -0.37300E+03
        -0.37300E+03
        -0.37300E+03
        -0.37300E+03
        -0.37300E+03
        -0.37300E+03
        -0.37300E+03
        -0.37300E+03
        -0.37300E+03
        -0.37300E+03
        -0.37300E+03
        -0.37300E+03
        -0.37300E+03
        -0.37300E+03
        -0.37300E+03
        -0.37300E+03
        -0.37300E+03
        -0.37300E+03
        -0.37300E+03
        -0.37300E+03
        -0.37300E+03
        -0.37300E+03
        -0.37300E+03
        -0.37300E+03
        -0.37300E+03
        -0.37300E+03
        -0.37300E+03
        -0.37300E+03
        -0.37300E+03
        -0.37300E+03
        -0.37300E+03
        -0.37300E+03
        -0.37300E+03
        -0.37300E+03
        -0.37300E+03
        -0.37300E+03
        -0.37300E+03
        -0.37300E+03
        -0.37300E+03
        -0.37300E+03
        -0.37300E+03
        -0.37300E+03
        -0.37300E+03
        -0.37300E+03
        -0.37300E+03
        -0.37300E+03
        -0.37300E+03
        -0.37300E+03
        -0.37300E+03
        -0.37300E+03
        -0.37300E+03
        -0.37300E+03
        -0.37300E+03
        -0.37300E+03
        -0.37300E+03
        -0.37300E+03
        -0.37300E+03
        -0.37300E+03
        -0.37300E+03
        -0.37300E+03
        -0.37300E+03
        -0.37300E+03
        -0.37300E+03
        -0.37300E+03
        -0.37300E+03
        -0.37300E+03
        -0.37300E+03
        -0.37300E+03
        -0.37300E+03
        -0.37300E+03
        -0.37300E+03
        -0.37300E+03
        -0.37300E+03
        -0.37300E+03
        -0.37300E+03
        -0.37300E+03
        -0.37300E+03
        -0.37300E+03
        -0.37300E+03
        -0.37300E+03
        -0.37300E+03
        -0.37300E+03
        -0.37300E+03
        -0.37300E+03
        -0.37300E+03
        -0.37300E+03
        -0.37300E+03
        -0.37300E+03
        -0.37300E+03
        -0.37300E+03
        -0.37300E+03
        -0.37300E+03
        -0.37300E+03
        -0.37300E+03
        -0.37300E+03
        -0.37300E+03
        -0.37300E+03
        -0.37300E+03
        -0.37300E+03
        -0.37300E+03
        -0.37300E+03
        -0.37300E+03
        -0.37300E+03
        -0.37300E+03
        -0.37300E+03
        -0.37300E+03
        -0.37300E+03
        -0.37300E+03
        -0.37300E+03
        -0.37300E+03
        -0.37300E+03
        -0.37300E+03
        -0.37300E+03
        -0.37300E+03
        -0.37300E+03
        -0.37300E+03
        -0.37300E+03
        -0.37300E+03
        -0.37300E+03
        -0.37300E+03
        -0.37300E+03
        -0.37300E+03
        -0.37300E+03
        -0.37300E+03
        -0.37300E+03
        -0.37300E+03
        -0.37300E+03
        -0.37300E+03
        -0.37300E+03
        -0.37300E+03
        -0.37300E+03
        -0.37300E+03
        -0.37300E+03
        -0.37300E+03
        -0.37300E+03
        -0.37300E+03
        -0.37300E+03
        -0.37300E+03
        -0.37300E+03
        -0.37300E+03
        -0.37300E+03
        -0.37300E+03
        -0.37300E+03
        -0.37300E+03
        -0.37300E+03
        -0.37300E+03
        -0.37300E+03
        -0.37300E+03
        -0.37300E+03
        -0.37300E+03
        -0.37300E+03
        -0.37300E+03
        -0.37300E+03
        -0.37300E+03
        -0.37300E+03
        -0.37300E+03
        -0.37300E+03
        -0.37300E+03
        -0.37300E+03
        -0.37300E+03
        -0.37300E+03
        -0.37300E+03
        -0.37300E+03
        -0.37300E+03
        -0.37300E+03
        -0.37300E+03
        -0.37300E+03
        -0.37300E+03
        -0.37300E+03
        -0.37300E+03
        -0.37300E+03
        -0.37300E+03
        -0.37300E+03
        -0.37300E+03
        -0.37300E+03
        -0.37300E+03
        -0.37300E+03
        -0.37300E+03
        -0.37300E+03
        -0.37300E+03
        -0.37300E+03
        -0.37300E+03
        -0.37300E+03
        -0.37300E+03
        -0.37300E+03
        -0.37300E+03
        -0.37300E+03
        -0.37300E+03
        -0.37300E+03
        -0.37300E+03
        -0.37300E+03
        -0.37300E+03
        -0.37300E+03
        -0.37300E+03
        -0.37300E+03
        -0.37300E+03
        -0.37300E+03
        -0.37300E+03
        -0.37300E+03
        -0.37300E+03
        -0.37300E+03
        -0.37300E+03
        -0.37300E+03
        -0.37300E+03
        -0.37300E+03
        -0.37300E+03
        -0.37300E+03
        -0.37300E+03
        -0.37300E+03
        -0.37300E+03
        -0.37300E+03
        -0.37300E+03
        -0.37300E+03
        -0.37300E+03
        -0.37300E+03
        -0.37300E+03
        -0.37300E+03
        -0.37300E+03
        -0.37300E+03
        -0.37300E+03
        -0.37300E+03
        -0.37300E+03
        -0.37300E+03
        -0.37300E+03
        -0.37300E+03
        -0.37300E+03
        -0.37300E+03
        -0.37300E+03
        -0.37300E+03
        -0.37300E+03
        -0.37300E+03
        -0.37300E+03
        -0.37300E+03
        -0.37300E+03
        -0.37300E+03
        -0.37300E+03
        -0.37300E+03
        -0.37300E+03
        -0.37300E+03
        -0.37300E+03
        -0.37300E+03
        -0.37300E+03
        -0.37300E+03
        -0.37300E+03
        -0.37300E+03
        -0.37300E+03
        -0.37300E+03
        -0.37300E+03
        -0.37300E+03
        -0.37300E+03
        -0.37300E+03
        -0.37300E+03
        -0.37300E+03
        -0.37300E+03
        -0.37300E+03
        -0.37300E+03
        -0.37300E+03
        -0.37300E+03
        -0.37300E+03
        -0.37300E+03
        -0.37300E+03
        -0.37300E+03
        -0.37300E+03
        -0.37300E+03
        -0.37300E+03
        -0.37300E+03
        -0.37300E+03
        -0.37300E+03
        -0.37300E+03
        -0.37300E+03
        -0.37300E+03
        -0.37300E+03
        -0.37300E+03
        -0.37300E+03
        -0.37300E+03
        -0.37300E+03
        -0.37300E+03
        -0.37300E+03
        -0.37300E+03
        -0.37300E+03
        -0.37300E+03
        -0.37300E+03
        -0.37300E+03
        -0.37300E+03
        -0.37300E+03
        -0.37300E+03
        -0.37300E+03
        -0.37300E+03
        -0.37300E+03
        -0.37300E+03
        -0.37300E+03
        -0.37300E+03
        -0.37300E+03
        -0.37300E+03
        -0.37300E+03
        -0.37300E+03
        -0.37300E+03
        -0.37300E+03
        -0.37300E+03
        -0.37300E+03
        -0.37300E+03
        -0.37300E+03
        -0.37300E+03
        -0.37300E+03
        -0.37300E+03
        -0.37300E+03
        -0.37300E+03
        -0.37300E+03
        -0.37300E+03
        -0.37300E+03
        -0.37300E+03
        -0.37300E+03
        -0.37300E+03
        -0.37300E+03
        -0.37300E+03
        -0.37300E+03
        -0.37300E+03
        -0.37300E+03
        -0.37300E+03
        -0.37300E+03
        -0.37300E+03
        -0.37300E+03
        -0.37300E+03
        -0.37300E+03
        -0.37300E+03
        -0.37300E+03
        -0.37300E+03
        -0.37300E+03
        -0.37300E+03
        -0.37300E+03
        -0.37300E+03
        -0.37300E+03
        -0.37300E+03
        -0.37300E+03
        -0.37300E+03
        -0.37300E+03
        -0.37300E+03
        -0.37300E+03
        -0.37300E+03
        -0.37300E+03
        -0.37300E+03
        -0.37300E+03
        -0.37300E+03
        -0.37300E+03
        -0.37300E+03
        -0.37300E+03
        -0.37300E+03
        -0.37300E+03
        -0.37300E+03
        -0.37300E+03
        -0.37300E+03
        -0.37300E+03
        -0.37300E+03
        -0.37300E+03
        -0.37300E+03
        -0.37300E+03
        -0.37300E+03
        -0.37300E+03
        -0.37300E+03
        -0.37300E+03
        -0.37300E+03
        -0.37300E+03
        -0.37300E+03
        -0.37300E+03
        -0.37300E+03
        -0.37300E+03
        -0.37300E+03
        -0.37300E+03
        -0.37300E+03
        -0.37300E+03
        -0.37300E+03
        -0.37300E+03
        -0.37300E+03
        -0.37300E+03
        -0.37300E+03
        -0.37300E+03
        -0.37300E+03
        -0.37300E+03
        -0.37300E+03
        -0.37300E+03
        -0.37300E+03
        -0.37300E+03
        -0.37300E+03
        -0.37300E+03
        -0.37300E+03
        -0.37300E+03
        -0.37300E+03
        -0.37300E+03
        -0.37300E+03
        -0.37300E+03
        -0.37300E+03
        -0.37300E+03
        -0.37300E+03
        -0.37300E+03
        -0.37300E+03
        -0.37300E+03
        -0.37300E+03
        -0.37300E+03
        -0.37300E+03
        -0.37300E+03
        -0.37300E+03
        -0.37300E+03
        -0.37300E+03
        -0.37300E+03
        -0.37300E+03
        -0.37300E+03
        -0.37300E+03
        -0.37300E+03
        -0.37300E+03
        -0.37300E+03
        -0.37300E+03
        -0.37300E+03
        -0.37300E+03
        -0.37300E+03
        -0.37300E+03
        -0.37300E+03
        -0.37300E+03
        -0.37300E+03
        -0.37300E+03
        -0.37300E+03
        -0.37300E+03
        -0.37300E+03
        -0.37300E+03
        -0.37300E+03
        -0.37300E+03
        -0.37300E+03
        -0.37300E+03
        -0.37300E+03
        -0.37300E+03
        -0.37300E+03
        -0.37300E+03
        -0.37300E+03
        -0.37300E+03
        -0.37300E+03
        -0.37300E+03
        -0.37300E+03
        -0.37300E+03
        -0.37300E+03
        -0.37300E+03
        -0.37300E+03
        -0.37300E+03
        -0.37300E+03
        -0.37300E+03
        -0.37300E+03
        -0.37300E+03
        -0.37300E+03
        -0.37300E+03
        -0.37300E+03
        -0.37300E+03
        -0.37300E+03
        -0.37300E+03
        -0.37300E+03
        -0.37300E+03
        -0.37300E+03
        -0.37300E+03
        -0.37300E+03
        -0.37300E+03
        -0.37300E+03
        -0.37300E+03
        -0.37300E+03
        -0.37300E+03
        -0.37300E+03
        -0.37300E+03
        -0.37300E+03
        -0.37300E+03
        -0.37300E+03
        -0.37300E+03
        -0.37300E+03
        -0.37300E+03
        -0.37300E+03
        -0.37300E+03
        -0.37300E+03
        -0.37300E+03
        -0.37300E+03
        -0.37300E+03
        -0.37300E+03
        -0.37300E+03
        -0.37300E+03
        -0.37300E+03
        -0.37300E+03
        -0.37300E+03
        -0.37300E+03
        -0.37300E+03
        -0.37300E+03
        -0.37300E+03
        -0.37300E+03
        -0.37300E+03
        -0.37300E+03
        -0.37300E+03
        -0.37300E+03
        -0.37300E+03
        -0.37300E+03
        -0.37300E+03
        -0.37300E+03
        -0.37300E+03
        -0.37300E+03
        -0.37300E+03
        -0.37300E+03
        -0.37300E+03
        -0.37300E+03
        -0.37300E+03
        -0.37300E+03
        -0.37300E+03
        -0.37300E+03
        -0.37300E+03
        -0.37300E+03
        -0.37300E+03
        -0.37300E+03
        -0.37300E+03
        -0.37300E+03
        -0.37300E+03
        -0.37300E+03
        -0.37300E+03
        -0.37300E+03
        -0.37300E+03
        -0.37300E+03
        -0.37300E+03
        -0.37300E+03
        -0.37300E+03
        -0.37300E+03
        -0.37300E+03
        -0.37300E+03
        -0.37300E+03
        -0.37300E+03
        -0.37300E+03
        -0.37300E+03
        -0.37300E+03
        -0.37300E+03
        -0.37300E+03
        -0.37300E+03
        -0.37300E+03
        -0.37300E+03
        -0.37300E+03
        -0.37300E+03
        -0.37300E+03
        -0.37300E+03
        -0.37300E+03
        -0.37300E+03
        -0.37300E+03
        -0.37300E+03
        -0.37300E+03
        -0.37300E+03
        -0.37300E+03
        -0.37300E+03
        -0.37300E+03
        -0.37300E+03
        -0.37300E+03
        -0.37300E+03
        -0.37300E+03
        -0.37300E+03
        -0.37300E+03
        -0.37300E+03
        -0.37300E+03
        -0.37300E+03
        -0.37300E+03
        -0.37300E+03
        -0.37300E+03
        -0.37300E+03
        -0.37300E+03
        -0.37300E+03
        -0.37300E+03
        -0.37300E+03
        -0.37300E+03
        -0.37300E+03
        -0.37300E+03
        -0.37300E+03
        -0.37300E+03
        -0.37300E+03
        -0.37300E+03
        -0.37300E+03
        -0.37300E+03
        -0.37300E+03
        -0.37300E+03
        -0.37300E+03
        -0.37300E+03
        -0.37300E+03
        -0.37300E+03
        -0.37300E+03
        -0.37300E+03
        -0.37300E+03
        -0.37300E+03
        -0.37300E+03
        -0.37300E+03
        -0.37300E+03
        -0.37300E+03
        -0.37300E+03
        -0.37300E+03
        -0.37300E+03
        -0.37300E+03
        -0.37300E+03
        -0.37300E+03
        -0.37300E+03
        -0.37300E+03
        -0.37300E+03
        -0.37300E+03
        -0.37300E+03
        -0.37300E+03
        -0.37300E+03
        -0.37300E+03
        -0.37300E+03
        -0.37300E+03
        -0.37300E+03
        -0.37300E+03
        -0.37300E+03
        -0.37300E+03
        -0.37300E+03
        -0.37300E+03
        -0.37300E+03
        -0.37300E+03
        -0.37300E+03
        -0.37300E+03
        -0.37300E+03
        -0.37300E+03
        -0.37300E+03
        -0.37300E+03
        -0.37300E+03
        -0.37300E+03
        -0.37300E+03
        -0.37300E+03
        -0.37300E+03
        -0.37300E+03
        -0.37300E+03
        -0.37300E+03
        -0.37300E+03
        -0.37300E+03
        -0.37300E+03
        -0.37300E+03
        -0.37300E+03
        -0.37300E+03
        -0.37300E+03
        -0.37300E+03
        -0.37300E+03
        -0.37300E+03
        -0.37300E+03
        -0.37300E+03
        -0.37300E+03
        -0.37300E+03
        -0.37300E+03
        -0.37300E+03
        -0.37300E+03
        -0.37300E+03
        -0.37300E+03
        -0.37300E+03
        -0.37300E+03
        -0.37300E+03
        -0.37300E+03
        -0.37300E+03
        -0.37300E+03
        -0.37300E+03
        -0.37300E+03
        -0.37300E+03
        -0.37300E+03
        -0.37300E+03
        -0.37300E+03
        -0.37300E+03
        -0.37300E+03
        -0.37300E+03
        -0.37300E+03
        -0.37300E+03
        -0.37300E+03
        -0.37300E+03
        -0.37300E+03
        -0.37300E+03
        -0.37300E+03
        -0.37300E+03
        -0.37300E+03
        -0.37300E+03
        -0.37300E+03
        -0.37300E+03
        -0.37300E+03
        -0.37300E+03
        -0.37300E+03
        -0.37300E+03
        -0.37300E+03
        -0.37300E+03
        -0.37300E+03
        -0.37300E+03
        -0.37300E+03
        -0.37300E+03
        -0.37300E+03
        -0.37300E+03
        -0.37300E+03
        -0.37300E+03
        -0.37300E+03
        -0.37300E+03
        -0.37300E+03
        -0.37300E+03
        -0.37300E+03
        -0.37300E+03
        -0.37300E+03
        -0.37300E+03
        -0.37300E+03
        -0.37300E+03
        -0.37300E+03
        -0.37300E+03
        -0.37300E+03
        -0.37300E+03
        -0.37300E+03
        -0.37300E+03
        -0.37300E+03
        -0.37300E+03
        -0.37300E+03
        -0.37300E+03
        -0.37300E+03
        -0.37300E+03
        -0.37300E+03
        -0.37300E+03
        -0.37300E+03
        -0.37300E+03
        -0.37300E+03
        -0.37300E+03
        -0.37300E+03
        -0.37300E+03
        -0.37300E+03
        -0.37300E+03
        -0.37300E+03
        -0.37300E+03
        -0.37300E+03
        -0.37300E+03
        -0.37300E+03
        -0.37300E+03
        -0.37300E+03
        -0.37300E+03
        -0.37300E+03
        -0.37300E+03
        -0.37300E+03
        -0.37300E+03
        -0.37300E+03
        -0.37300E+03
        -0.37300E+03
        -0.37300E+03
        -0.37300E+03
        -0.37300E+03
        -0.37300E+03
        -0.37300E+03
        -0.37300E+03
        -0.37300E+03
        -0.37300E+03
        -0.37300E+03
        -0.37300E+03
        -0.37300E+03
        -0.37300E+03
        -0.37300E+03
        -0.37300E+03
        -0.37300E+03
        -0.37300E+03
        -0.37300E+03
        -0.37300E+03
        -0.37300E+03
        -0.37300E+03
        -0.37300E+03
        -0.37300E+03
        -0.37300E+03
        -0.37300E+03
        -0.37300E+03
        -0.37300E+03
        -0.37300E+03
        -0.37300E+03
        -0.37300E+03
        -0.37300E+03
        -0.37300E+03
        -0.37300E+03
        -0.37300E+03
        -0.37300E+03
        -0.37300E+03
        -0.37300E+03
        -0.37300E+03
        -0.37300E+03
        -0.37300E+03
        -0.37300E+03
        -0.37300E+03
        -0.37300E+03
        -0.37300E+03
        -0.37300E+03
        -0.37300E+03
        -0.37300E+03
        -0.37300E+03
        -0.37300E+03
        -0.37300E+03
        -0.37300E+03
        -0.37300E+03
        -0.37300E+03
        -0.37300E+03
        -0.37300E+03
        -0.37300E+03
        -0.37300E+03
        -0.37300E+03
        -0.37300E+03
        -0.37300E+03
        -0.37300E+03
        -0.37300E+03
        -0.37300E+03
        -0.37300E+03
        -0.37300E+03
        -0.37300E+03
        -0.37300E+03
        -0.37300E+03
        -0.37300E+03
        -0.37300E+03
        -0.37300E+03
        -0.37300E+03
        -0.37300E+03
        -0.37300E+03
        -0.37300E+03
        -0.37300E+03
        -0.37300E+03
        -0.37300E+03
        -0.37300E+03
        -0.37300E+03
        -0.37300E+03
        -0.37300E+03
        -0.37300E+03
        -0.37300E+03
        -0.37300E+03
        -0.37300E+03
        -0.37300E+03
        -0.37300E+03
        -0.37300E+03
        -0.37300E+03
        -0.37300E+03
        -0.37300E+03
        -0.37300E+03
        -0.37300E+03
        -0.37300E+03
        -0.37300E+03
        -0.37300E+03
        -0.37300E+03
        -0.37300E+03
        -0.37300E+03
        -0.37300E+03
        -0.37300E+03
        -0.37300E+03
        -0.37300E+03
        -0.37300E+03
        -0.37300E+03
        -0.37300E+03
        -0.37300E+03
        -0.37300E+03
        -0.37300E+03
        -0.37300E+03
        -0.37300E+03
        -0.37300E+03
        -0.37300E+03
        -0.37300E+03
        -0.37300E+03
        -0.37300E+03
        -0.37300E+03
        -0.37300E+03
        -0.37300E+03
        -0.37300E+03
        -0.37300E+03
        -0.37300E+03
        -0.37300E+03
        -0.37300E+03
        -0.37300E+03
        -0.37300E+03
        -0.37300E+03
        -0.37300E+03
        -0.37300E+03
        -0.37300E+03
        -0.37300E+03
        -0.37300E+03
        -0.37300E+03
        -0.37300E+03
        -0.37300E+03
        -0.37300E+03
        -0.37300E+03
        -0.37300E+03
        -0.37300E+03
        -0.37300E+03
        -0.37300E+03
        -0.37300E+03
        -0.37300E+03
        -0.37300E+03
        -0.37300E+03
        -0.37300E+03
        -0.37300E+03
        -0.37300E+03
        -0.37300E+03
        -0.37300E+03
        -0.37300E+03
        -0.37300E+03
        -0.37300E+03
        -0.37300E+03
        -0.37300E+03
        -0.37300E+03
        -0.37300E+03
        -0.37300E+03
        -0.37300E+03
        -0.37300E+03
        -0.37300E+03
        -0.37300E+03
        -0.37300E+03
        -0.37300E+03
        -0.37300E+03
        -0.37300E+03
        -0.37300E+03
        -0.37300E+03
        -0.37300E+03
        -0.37300E+03
        -0.37300E+03
        -0.37300E+03
        -0.37300E+03
        -0.37300E+03
        -0.37300E+03
        -0.37300E+03
        -0.37300E+03
        -0.37300E+03
        -0.37300E+03
        -0.37300E+03
        -0.37300E+03
        -0.37300E+03
        -0.37300E+03
        -0.37300E+03
        -0.37300E+03
        -0.37300E+03
        -0.37300E+03
        -0.37300E+03
        -0.37300E+03
        -0.37300E+03
        -0.37300E+03
        -0.37300E+03
        -0.37300E+03
        -0.37300E+03
        -0.37300E+03
        -0.37300E+03
        -0.37300E+03
        -0.37300E+03
        -0.37300E+03
        -0.37300E+03
        -0.37300E+03
        -0.37300E+03
        -0.37300E+03
        -0.37300E+03
        -0.37300E+03
        -0.37300E+03
        -0.37300E+03
        -0.37300E+03
        -0.37300E+03
        -0.37300E+03
        -0.37300E+03
        -0.37300E+03
        -0.37300E+03
        -0.37300E+03
        -0.37300E+03
        -0.37300E+03
        -0.37300E+03
        -0.37300E+03
        -0.37300E+03
        -0.37300E+03
        -0.37300E+03
        -0.37300E+03
        -0.37300E+03
        -0.37300E+03
        -0.37300E+03
        -0.37300E+03
        -0.37300E+03
        -0.37300E+03
        -0.37300E+03
        -0.37300E+03
        -0.37300E+03
        -0.37300E+03
        -0.37300E+03
        -0.37300E+03
        -0.37300E+03
        -0.37300E+03
        -0.37300E+03
        -0.37300E+03
        -0.37300E+03
        -0.37300E+03
        -0.37300E+03
        -0.37300E+03
        -0.37300E+03
        -0.37300E+03
        -0.37300E+03
        -0.37300E+03
        -0.37300E+03
        -0.37300E+03
        -0.37300E+03
        -0.37300E+03
        -0.37300E+03
        -0.37300E+03
        -0.37300E+03
        -0.37300E+03
        -0.37300E+03
        -0.37300E+03
        -0.37300E+03
        -0.37300E+03
        -0.37300E+03
        -0.37300E+03
        -0.37300E+03
        -0.37300E+03
        -0.37300E+03
        -0.37300E+03
        -0.37300E+03
        -0.37300E+03
        -0.37300E+03
        -0.37300E+03
        -0.37300E+03
        -0.37300E+03
        -0.37300E+03
        -0.37300E+03
        -0.37300E+03
        -0.37300E+03
        -0.37300E+03
        -0.37300E+03
        -0.37300E+03
        -0.37300E+03
        -0.37300E+03
        -0.37300E+03
        -0.37300E+03
        -0.37300E+03
        -0.37300E+03
        -0.37300E+03
        -0.37300E+03
        -0.37300E+03
        -0.37300E+03
        -0.37300E+03
        -0.37300E+03
        -0.37300E+03
        -0.37300E+03
        -0.37300E+03
        -0.37300E+03
        -0.37300E+03
        -0.37300E+03
        -0.37300E+03
        -0.37300E+03
        -0.37300E+03
        -0.37300E+03
        -0.37300E+03
        -0.37300E+03
        -0.37300E+03
        -0.37300E+03
        -0.37300E+03
        -0.37300E+03
        -0.37300E+03
        -0.37300E+03
        -0.37300E+03
        -0.37300E+03
        -0.37300E+03
        -0.37300E+03
        -0.37300E+03
        -0.37300E+03
        -0.37300E+03
        -0.37300E+03
        -0.37300E+03
        -0.37300E+03
        -0.37300E+03
        -0.37300E+03
        -0.37300E+03
        -0.37300E+03
        -0.37300E+03
        -0.37300E+03
        -0.37300E+03
        -0.37300E+03
        -0.37300E+03
        -0.37300E+03
        -0.37300E+03
        -0.37300E+03
        -0.37300E+03
        -0.37300E+03
        -0.37300E+03
        -0.37300E+03
        -0.37300E+03
        -0.37300E+03
        -0.37300E+03
        -0.37300E+03
        -0.37300E+03
        -0.37300E+03
        -0.37300E+03
        -0.37300E+03
        -0.37300E+03
        -0.37300E+03
        -0.37300E+03
        -0.37300E+03
        -0.37300E+03
        -0.37300E+03
        -0.37300E+03
        -0.37300E+03
        -0.37300E+03
        -0.37300E+03
        -0.37300E+03
        -0.37300E+03
        -0.37300E+03
        -0.37300E+03
        -0.37300E+03
        -0.37300E+03
        -0.37300E+03
        -0.37300E+03
        -0.37300E+03
        -0.37300E+03
        -0.37300E+03
        -0.37300E+03
        -0.37300E+03
        -0.37300E+03
        -0.37300E+03
        -0.37300E+03
        -0.37300E+03
        -0.37300E+03
        -0.37300E+03
        -0.37300E+03
        -0.37300E+03
        -0.37300E+03
        -0.37300E+03
        -0.37300E+03
        -0.37300E+03
        -0.37300E+03
        -0.37300E+03
        -0.37300E+03
        -0.37300E+03
        -0.37300E+03
        -0.37300E+03
        -0.37300E+03
        -0.37300E+03
        -0.37300E+03
        -0.37300E+03
        -0.37300E+03
        -0.37300E+03
        -0.37300E+03
        -0.37300E+03
        -0.37300E+03
        -0.37300E+03
        -0.37300E+03
        -0.37300E+03
        -0.37300E+03
        -0.37300E+03
        -0.37300E+03
        -0.37300E+03
        -0.37300E+03
        -0.37300E+03
        -0.37300E+03
        -0.37300E+03
        -0.37300E+03
        -0.37300E+03
        -0.37300E+03
        -0.37300E+03
        -0.37300E+03
        -0.37300E+03
        -0.37300E+03
        -0.37300E+03
        -0.37300E+03
        -0.37300E+03
        -0.37300E+03
        -0.37300E+03
        -0.37300E+03
        -0.37300E+03
        -0.37300E+03
        -0.37300E+03
        -0.37300E+03
        -0.37300E+03
        -0.37300E+03
        -0.37300E+03
        -0.37300E+03
        -0.37300E+03
        -0.37300E+03
        -0.37300E+03
        -0.37300E+03
        -0.37300E+03
        -0.37300E+03
        -0.37300E+03
        -0.37300E+03
        -0.37300E+03
        -0.37300E+03
        -0.37300E+03
        -0.37300E+03
        -0.37300E+03
        -0.37300E+03
        -0.37300E+03
        -0.37300E+03
        -0.37300E+03
        -0.37300E+03
        -0.37300E+03
        -0.37300E+03
        -0.37300E+03
        -0.37300E+03
        -0.37300E+03
        -0.37300E+03
        -0.37300E+03
        -0.37300E+03
        -0.37300E+03
        -0.37300E+03
        -0.37300E+03
        -0.37300E+03
        -0.37300E+03
        -0.37300E+03
        -0.37300E+03
        -0.37300E+03
        -0.37300E+03
        -0.37300E+03
        -0.37300E+03
        -0.37300E+03
        -0.37300E+03
        -0.37300E+03
        -0.37300E+03
        -0.37300E+03
        -0.37300E+03
        -0.37300E+03
        -0.37300E+03
        -0.37300E+03
        -0.37300E+03
        -0.37300E+03
        -0.37300E+03
        -0.37300E+03
        -0.37300E+03
        -0.37300E+03
        -0.37300E+03
        -0.37300E+03
        -0.37300E+03
        -0.37300E+03
        -0.37300E+03
        -0.37300E+03
        -0.37300E+03
        -0.37300E+03
        -0.37300E+03
        -0.37300E+03
        -0.37300E+03
        -0.37300E+03
        -0.37300E+03
        -0.37300E+03
        -0.37300E+03
        -0.37300E+03
        -0.37300E+03
        -0.37300E+03
        -0.37300E+03
        -0.37300E+03
        -0.37300E+03
        -0.37300E+03
        -0.37300E+03
        -0.37300E+03
        -0.37300E+03
        -0.37300E+03
        -0.37300E+03
        -0.37300E+03
        -0.37300E+03
        -0.37300E+03
        -0.37300E+03
        -0.37300E+03
        -0.37300E+03
        -0.37300E+03
        -0.37300E+03
        -0.37300E+03
        -0.37300E+03
        -0.37300E+03
        -0.37300E+03
        -0.37300E+03
        -0.37300E+03
        -0.37300E+03
        -0.37300E+03
        -0.37300E+03
        -0.37300E+03
        -0.37300E+03
        -0.37300E+03
        -0.37300E+03
        -0.37300E+03
        -0.37300E+03
        -0.37300E+03
        -0.37300E+03
        -0.37300E+03
        -0.37300E+03
        -0.37300E+03
        -0.37300E+03
        -0.37300E+03
        -0.37300E+03
        -0.37300E+03
        -0.37300E+03
        -0.37300E+03
        -0.37300E+03
        -0.37300E+03
        -0.37300E+03
        -0.37300E+03
        -0.37300E+03
        -0.37300E+03
        -0.37300E+03
        -0.37300E+03
        -0.37300E+03
        -0.37300E+03
        -0.37300E+03
        -0.37300E+03
        -0.37300E+03
        -0.37300E+03
        -0.37300E+03
        -0.37300E+03
        -0.37300E+03
        -0.37300E+03
        -0.37300E+03
        -0.37300E+03
        -0.37300E+03
        -0.37300E+03
        -0.37300E+03
        -0.37300E+03
        -0.37300E+03
        -0.37300E+03
        -0.37300E+03
        -0.37300E+03
        -0.37300E+03
        -0.37300E+03
        -0.37300E+03
        -0.37300E+03
        -0.37300E+03
        -0.37300E+03
        -0.37300E+03
        -0.37300E+03
        -0.37300E+03
        -0.37300E+03
        -0.37300E+03
        -0.37300E+03
        -0.37300E+03
        -0.37300E+03
        -0.37300E+03
        -0.37300E+03
        -0.37300E+03
        -0.37300E+03
        -0.37300E+03
        -0.37300E+03
        -0.37300E+03
        -0.37300E+03
        -0.37300E+03
        -0.37300E+03
        -0.37300E+03
        -0.37300E+03
        -0.37300E+03
        -0.37300E+03
        -0.37300E+03
        -0.37300E+03
        -0.37300E+03
        -0.37300E+03
        -0.37300E+03
        -0.37300E+03
        -0.37300E+03
        -0.37300E+03
        -0.37300E+03
        -0.37300E+03
        -0.37300E+03
        -0.37300E+03
        -0.37300E+03
        -0.37300E+03
        -0.37300E+03
        -0.37300E+03
        -0.37300E+03
        -0.37300E+03
        -0.37300E+03
        -0.37300E+03
        -0.37300E+03
        -0.37300E+03
        -0.37300E+03
        -0.37300E+03
        -0.37300E+03
        -0.37300E+03
        -0.37300E+03
        -0.37300E+03
        -0.37300E+03
        -0.37300E+03
        -0.37300E+03
        -0.37300E+03
        -0.37300E+03
        -0.37300E+03
        -0.37300E+03
        -0.37300E+03
        -0.37300E+03
        -0.37300E+03
        -0.37300E+03
        -0.37300E+03
        -0.37300E+03
        -0.37300E+03
        -0.37300E+03
        -0.37300E+03
        -0.37300E+03
        -0.37300E+03
        -0.37300E+03
        -0.37300E+03
        -0.37300E+03
        -0.37300E+03
        -0.37300E+03
        -0.37300E+03
        -0.37300E+03
        -0.37300E+03
        -0.37300E+03
        -0.37300E+03
        -0.37300E+03
        -0.37300E+03
        -0.37300E+03
        -0.37300E+03
        -0.37300E+03
        -0.37300E+03
        -0.37300E+03
        -0.37300E+03
        -0.37300E+03
        -0.37300E+03
        -0.37300E+03
        -0.37300E+03
        -0.37300E+03
        -0.37300E+03
        -0.37300E+03
        -0.37300E+03
        -0.37300E+03
        -0.37300E+03
        -0.37300E+03
        -0.37300E+03
        -0.37300E+03
        -0.37300E+03
        -0.37300E+03
        -0.37300E+03
        -0.37300E+03
        -0.37300E+03
        -0.37300E+03
        -0.37300E+03
        -0.37300E+03
        -0.37300E+03
        -0.37300E+03
        -0.37300E+03
        -0.37300E+03
        -0.37300E+03
        -0.37300E+03
        -0.37300E+03
        -0.37300E+03
        -0.37300E+03
        -0.37300E+03
        -0.37300E+03
        -0.37300E+03
        -0.37300E+03
        -0.37300E+03
        -0.37300E+03
        -0.37300E+03
        -0.37300E+03
        -0.37300E+03
        -0.37300E+03
        -0.37300E+03
        -0.37300E+03
        -0.37300E+03
        -0.37300E+03
        -0.37300E+03
        -0.37300E+03
        -0.37300E+03
        -0.37300E+03
        -0.37300E+03
        -0.37300E+03
        -0.37300E+03
        -0.37300E+03
        -0.37300E+03
        -0.37300E+03
        -0.37300E+03
        -0.37300E+03
        -0.37300E+03
        -0.37300E+03
        -0.37300E+03
        -0.37300E+03
        -0.37300E+03
        -0.37300E+03
        -0.37300E+03
        -0.37300E+03
        -0.37300E+03
        -0.37300E+03
        -0.37300E+03
        -0.37300E+03
        -0.37300E+03
        -0.37300E+03
        -0.37300E+03
        -0.37300E+03
        -0.37300E+03
        -0.37300E+03
        -0.37300E+03
        -0.37300E+03
        -0.37300E+03
        -0.37300E+03
        -0.37300E+03
        -0.37300E+03
        -0.37300E+03
        -0.37300E+03
  
SCALARS              normalized_window  double 1
LOOKUP_TABLE default
         0.27500E+01
         0.27500E+01
         0.27500E+01
         0.27500E+01
         0.27500E+01
         0.27500E+01
         0.27500E+01
         0.27500E+01
         0.27500E+01
         0.27500E+01
         0.27500E+01
         0.27500E+01
         0.27500E+01
         0.27500E+01
         0.27500E+01
         0.27500E+01
         0.27500E+01
         0.27500E+01
         0.27500E+01
         0.27500E+01
         0.27500E+01
         0.27500E+01
         0.27500E+01
         0.27500E+01
         0.27500E+01
         0.27500E+01
         0.27500E+01
         0.27500E+01
         0.27500E+01
         0.27500E+01
         0.27500E+01
         0.27500E+01
         0.27500E+01
         0.27500E+01
         0.27500E+01
         0.27500E+01
         0.27500E+01
         0.27500E+01
         0.27500E+01
         0.27500E+01
         0.27500E+01
         0.27500E+01
         0.27500E+01
         0.27500E+01
         0.27500E+01
         0.27500E+01
         0.27500E+01
         0.27500E+01
         0.27500E+01
         0.27500E+01
         0.27500E+01
         0.27500E+01
         0.27500E+01
         0.27500E+01
         0.27500E+01
         0.27500E+01
         0.27500E+01
         0.27500E+01
         0.27500E+01
         0.27500E+01
         0.27500E+01
         0.27500E+01
         0.27500E+01
         0.27500E+01
         0.27500E+01
         0.27500E+01
         0.27500E+01
         0.27500E+01
         0.27500E+01
         0.27500E+01
         0.27500E+01
         0.27500E+01
         0.27500E+01
         0.27500E+01
         0.27500E+01
         0.27500E+01
         0.27500E+01
         0.27500E+01
         0.27500E+01
         0.27500E+01
         0.27500E+01
         0.27500E+01
         0.27500E+01
         0.27500E+01
         0.27500E+01
         0.27500E+01
         0.27500E+01
         0.27500E+01
         0.27500E+01
         0.27500E+01
         0.27500E+01
         0.27500E+01
         0.27500E+01
         0.27500E+01
         0.27500E+01
         0.27500E+01
         0.27500E+01
         0.27500E+01
         0.27500E+01
         0.27500E+01
         0.27500E+01
         0.27500E+01
         0.27500E+01
         0.27500E+01
         0.27500E+01
         0.27500E+01
         0.27500E+01
         0.27500E+01
         0.27500E+01
         0.27500E+01
         0.27500E+01
         0.27500E+01
         0.27500E+01
         0.27500E+01
         0.27500E+01
         0.27500E+01
         0.27500E+01
         0.27500E+01
         0.27500E+01
         0.27500E+01
         0.27500E+01
         0.27500E+01
         0.27500E+01
         0.27500E+01
         0.27500E+01
         0.27500E+01
         0.27500E+01
         0.27500E+01
         0.27500E+01
         0.27500E+01
         0.27500E+01
         0.27500E+01
         0.27500E+01
         0.27500E+01
         0.27500E+01
         0.27500E+01
         0.27500E+01
         0.27500E+01
         0.27500E+01
         0.27500E+01
         0.27500E+01
         0.27500E+01
         0.27500E+01
         0.27500E+01
         0.27500E+01
         0.27500E+01
         0.27500E+01
         0.27500E+01
         0.27500E+01
         0.27500E+01
         0.27500E+01
         0.27500E+01
         0.27500E+01
         0.27500E+01
         0.27500E+01
         0.27500E+01
         0.27500E+01
         0.27500E+01
         0.27500E+01
         0.27500E+01
         0.27500E+01
         0.27500E+01
         0.27500E+01
         0.27500E+01
         0.27500E+01
         0.27500E+01
         0.27500E+01
         0.27500E+01
         0.27500E+01
         0.27500E+01
         0.27500E+01
         0.27500E+01
         0.27500E+01
         0.27500E+01
         0.27500E+01
         0.27500E+01
         0.27500E+01
         0.27500E+01
         0.27500E+01
         0.27500E+01
         0.27500E+01
         0.27500E+01
         0.27500E+01
         0.27500E+01
         0.27500E+01
         0.27500E+01
         0.27500E+01
         0.27500E+01
         0.27500E+01
         0.27500E+01
         0.27500E+01
         0.27500E+01
         0.27500E+01
         0.27500E+01
         0.27500E+01
         0.27500E+01
         0.27500E+01
         0.27500E+01
         0.27500E+01
         0.27500E+01
         0.27500E+01
         0.27500E+01
         0.27500E+01
         0.27500E+01
         0.27500E+01
         0.27500E+01
         0.27500E+01
         0.27500E+01
         0.27500E+01
         0.27500E+01
         0.27500E+01
         0.27500E+01
         0.27500E+01
         0.27500E+01
         0.27500E+01
         0.27500E+01
         0.27500E+01
         0.27500E+01
         0.27500E+01
         0.27500E+01
         0.27500E+01
         0.27500E+01
         0.27500E+01
         0.27500E+01
         0.27500E+01
         0.27500E+01
         0.27500E+01
         0.27500E+01
         0.27500E+01
         0.27500E+01
         0.27500E+01
         0.27500E+01
         0.27500E+01
         0.27500E+01
         0.27500E+01
         0.27500E+01
         0.27500E+01
         0.27500E+01
         0.27500E+01
         0.27500E+01
         0.27500E+01
         0.27500E+01
         0.27500E+01
         0.27500E+01
         0.27500E+01
         0.27500E+01
         0.27500E+01
         0.27500E+01
         0.27500E+01
         0.27500E+01
         0.27500E+01
         0.27500E+01
         0.27500E+01
         0.27500E+01
         0.27500E+01
         0.27500E+01
         0.27500E+01
         0.27500E+01
         0.27500E+01
         0.27500E+01
         0.27500E+01
         0.27500E+01
         0.27500E+01
         0.27500E+01
         0.27500E+01
         0.27500E+01
         0.27500E+01
         0.27500E+01
         0.27500E+01
         0.27500E+01
         0.27500E+01
         0.27500E+01
         0.27500E+01
         0.27500E+01
         0.27500E+01
         0.27500E+01
         0.27500E+01
         0.27500E+01
         0.27500E+01
         0.27500E+01
         0.27500E+01
         0.27500E+01
         0.27500E+01
         0.27500E+01
         0.27500E+01
         0.27500E+01
         0.27500E+01
         0.27500E+01
         0.27500E+01
         0.27500E+01
         0.27500E+01
         0.27500E+01
         0.27500E+01
         0.27500E+01
         0.27500E+01
         0.27500E+01
         0.27500E+01
         0.27500E+01
         0.27500E+01
         0.27500E+01
         0.27500E+01
         0.27500E+01
         0.27500E+01
         0.27500E+01
         0.27500E+01
         0.27500E+01
         0.27500E+01
         0.27500E+01
         0.27500E+01
         0.27500E+01
         0.27500E+01
         0.27500E+01
         0.27500E+01
         0.27500E+01
         0.27500E+01
         0.27500E+01
         0.27500E+01
         0.27500E+01
         0.27500E+01
         0.27500E+01
         0.27500E+01
         0.27500E+01
         0.27500E+01
         0.27500E+01
         0.27500E+01
         0.27500E+01
         0.27500E+01
         0.27500E+01
         0.27500E+01
         0.27500E+01
         0.27500E+01
         0.27500E+01
         0.27500E+01
         0.27500E+01
         0.27500E+01
         0.27500E+01
         0.27500E+01
         0.27500E+01
         0.27500E+01
         0.27500E+01
         0.27500E+01
         0.27500E+01
         0.27500E+01
         0.27500E+01
         0.27500E+01
         0.27500E+01
         0.27500E+01
         0.27500E+01
         0.27500E+01
         0.27500E+01
         0.27500E+01
         0.27500E+01
         0.27500E+01
         0.27500E+01
         0.27500E+01
         0.27500E+01
         0.27500E+01
         0.27500E+01
         0.27500E+01
         0.27500E+01
         0.27500E+01
         0.27500E+01
         0.27500E+01
         0.27500E+01
         0.27500E+01
         0.27500E+01
         0.27500E+01
         0.27500E+01
         0.27500E+01
         0.27500E+01
         0.27500E+01
         0.27500E+01
         0.27500E+01
         0.27500E+01
         0.27500E+01
         0.27500E+01
         0.27500E+01
         0.27500E+01
         0.27500E+01
         0.27500E+01
         0.27500E+01
         0.27500E+01
         0.27500E+01
         0.27500E+01
         0.27500E+01
         0.27500E+01
         0.27500E+01
         0.27500E+01
         0.27500E+01
         0.27500E+01
         0.27500E+01
         0.27500E+01
         0.27500E+01
         0.27500E+01
         0.27500E+01
         0.27500E+01
         0.27500E+01
         0.27500E+01
         0.27500E+01
         0.27500E+01
         0.27500E+01
         0.27500E+01
         0.27500E+01
         0.27500E+01
         0.27500E+01
         0.27500E+01
         0.27500E+01
         0.27500E+01
         0.27500E+01
         0.27500E+01
         0.27500E+01
         0.27500E+01
         0.27500E+01
         0.27500E+01
         0.27500E+01
         0.27500E+01
         0.27500E+01
         0.27500E+01
         0.27500E+01
         0.27500E+01
         0.27500E+01
         0.27500E+01
         0.27500E+01
         0.27500E+01
         0.27500E+01
         0.27500E+01
         0.27500E+01
         0.27500E+01
         0.27500E+01
         0.27500E+01
         0.27500E+01
         0.27500E+01
         0.27500E+01
         0.27500E+01
         0.27500E+01
         0.27500E+01
         0.27500E+01
         0.27500E+01
         0.27500E+01
         0.27500E+01
         0.27500E+01
         0.27500E+01
         0.27500E+01
         0.27500E+01
         0.27500E+01
         0.27500E+01
         0.27500E+01
         0.27500E+01
         0.27500E+01
         0.27500E+01
         0.27500E+01
         0.27500E+01
         0.27500E+01
         0.27500E+01
         0.27500E+01
         0.27500E+01
         0.27500E+01
         0.27500E+01
         0.27500E+01
         0.27500E+01
         0.27500E+01
         0.27500E+01
         0.27500E+01
         0.27500E+01
         0.27500E+01
         0.27500E+01
         0.27500E+01
         0.27500E+01
         0.27500E+01
         0.27500E+01
         0.27500E+01
         0.27500E+01
         0.27500E+01
         0.27500E+01
         0.27500E+01
         0.27500E+01
         0.27500E+01
         0.27500E+01
         0.27500E+01
         0.27500E+01
         0.27500E+01
         0.27500E+01
         0.27500E+01
         0.27500E+01
         0.27500E+01
         0.27500E+01
         0.27500E+01
         0.27500E+01
         0.27500E+01
         0.27500E+01
         0.27500E+01
         0.27500E+01
         0.27500E+01
         0.27500E+01
         0.27500E+01
         0.27500E+01
         0.27500E+01
         0.27500E+01
         0.27500E+01
         0.27500E+01
         0.27500E+01
         0.27500E+01
         0.27500E+01
         0.27500E+01
         0.27500E+01
         0.27500E+01
         0.27500E+01
         0.27500E+01
         0.27500E+01
         0.27500E+01
         0.27500E+01
         0.27500E+01
         0.27500E+01
         0.27500E+01
         0.27500E+01
         0.27500E+01
         0.27500E+01
         0.27500E+01
         0.27500E+01
         0.27500E+01
         0.27500E+01
         0.27500E+01
         0.27500E+01
         0.27500E+01
         0.27500E+01
         0.27500E+01
         0.27500E+01
         0.27500E+01
         0.27500E+01
         0.27500E+01
         0.27500E+01
         0.27500E+01
         0.27500E+01
         0.27500E+01
         0.27500E+01
         0.27500E+01
         0.27500E+01
         0.27500E+01
         0.27500E+01
         0.27500E+01
         0.27500E+01
         0.27500E+01
         0.27500E+01
         0.27500E+01
         0.27500E+01
         0.27500E+01
         0.27500E+01
         0.27500E+01
         0.27500E+01
         0.27500E+01
         0.27500E+01
         0.27500E+01
         0.27500E+01
         0.27500E+01
         0.27500E+01
         0.27500E+01
         0.27500E+01
         0.27500E+01
         0.27500E+01
         0.27500E+01
         0.27500E+01
         0.27500E+01
         0.27500E+01
         0.27500E+01
         0.27500E+01
         0.27500E+01
         0.27500E+01
         0.27500E+01
         0.27500E+01
         0.27500E+01
         0.27500E+01
         0.27500E+01
         0.27500E+01
         0.27500E+01
         0.27500E+01
         0.27500E+01
         0.27500E+01
         0.27500E+01
         0.27500E+01
         0.27500E+01
         0.27500E+01
         0.27500E+01
         0.27500E+01
         0.27500E+01
         0.27500E+01
         0.27500E+01
         0.27500E+01
         0.27500E+01
         0.27500E+01
         0.27500E+01
         0.27500E+01
         0.27500E+01
         0.27500E+01
         0.27500E+01
         0.27500E+01
         0.27500E+01
         0.27500E+01
         0.27500E+01
         0.27500E+01
         0.27500E+01
         0.27500E+01
         0.27500E+01
         0.27500E+01
         0.27500E+01
         0.27500E+01
         0.27500E+01
         0.27500E+01
         0.27500E+01
         0.27500E+01
         0.27500E+01
         0.27500E+01
         0.27500E+01
         0.27500E+01
         0.27500E+01
         0.27500E+01
         0.27500E+01
         0.27500E+01
         0.27500E+01
         0.27500E+01
         0.27500E+01
         0.27500E+01
         0.27500E+01
         0.27500E+01
         0.27500E+01
         0.27500E+01
         0.27500E+01
         0.27500E+01
         0.27500E+01
         0.27500E+01
         0.27500E+01
         0.27500E+01
         0.27500E+01
         0.27500E+01
         0.27500E+01
         0.27500E+01
         0.27500E+01
         0.27500E+01
         0.27500E+01
         0.27500E+01
         0.27500E+01
         0.27500E+01
         0.27500E+01
         0.27500E+01
         0.27500E+01
         0.27500E+01
         0.27500E+01
         0.27500E+01
         0.27500E+01
         0.27500E+01
         0.27500E+01
         0.27500E+01
         0.27500E+01
         0.27500E+01
         0.27500E+01
         0.27500E+01
         0.27500E+01
         0.27500E+01
         0.27500E+01
         0.27500E+01
         0.27500E+01
         0.27500E+01
         0.27500E+01
         0.27500E+01
         0.27500E+01
         0.27500E+01
         0.27500E+01
         0.27500E+01
         0.27500E+01
         0.27500E+01
         0.27500E+01
         0.27500E+01
         0.27500E+01
         0.27500E+01
         0.27500E+01
         0.27500E+01
         0.27500E+01
         0.27500E+01
         0.27500E+01
         0.27500E+01
         0.27500E+01
         0.27500E+01
         0.27500E+01
         0.27500E+01
         0.27500E+01
         0.27500E+01
         0.27500E+01
         0.27500E+01
         0.27500E+01
         0.27500E+01
         0.27500E+01
         0.27500E+01
         0.27500E+01
         0.27500E+01
         0.27500E+01
         0.27500E+01
         0.27500E+01
         0.27500E+01
         0.27500E+01
         0.27500E+01
         0.27500E+01
         0.27500E+01
         0.27500E+01
         0.27500E+01
         0.27500E+01
         0.27500E+01
         0.27500E+01
         0.27500E+01
         0.27500E+01
         0.27500E+01
         0.27500E+01
         0.27500E+01
         0.27500E+01
         0.27500E+01
         0.27500E+01
         0.27500E+01
         0.27500E+01
         0.27500E+01
         0.27500E+01
         0.27500E+01
         0.27500E+01
         0.27500E+01
         0.27500E+01
         0.27500E+01
         0.27500E+01
         0.27500E+01
         0.27500E+01
         0.27500E+01
         0.27500E+01
         0.27500E+01
         0.27500E+01
         0.27500E+01
         0.27500E+01
         0.27500E+01
         0.27500E+01
         0.27500E+01
         0.27500E+01
         0.27500E+01
         0.27500E+01
         0.27500E+01
         0.27500E+01
         0.27500E+01
         0.27500E+01
         0.27500E+01
         0.27500E+01
         0.27500E+01
         0.27500E+01
         0.27500E+01
         0.27500E+01
         0.27500E+01
         0.27500E+01
         0.27500E+01
         0.27500E+01
         0.27500E+01
         0.27500E+01
         0.27500E+01
         0.27500E+01
         0.27500E+01
         0.27500E+01
         0.27500E+01
         0.27500E+01
         0.27500E+01
         0.27500E+01
         0.27500E+01
         0.27500E+01
         0.27500E+01
         0.27500E+01
         0.27500E+01
         0.27500E+01
         0.27500E+01
         0.27500E+01
         0.27500E+01
         0.27500E+01
         0.27500E+01
         0.27500E+01
         0.27500E+01
         0.27500E+01
         0.27500E+01
         0.27500E+01
         0.27500E+01
         0.27500E+01
         0.27500E+01
         0.27500E+01
         0.27500E+01
         0.27500E+01
         0.27500E+01
         0.27500E+01
         0.27500E+01
         0.27500E+01
         0.27500E+01
         0.27500E+01
         0.27500E+01
         0.27500E+01
         0.27500E+01
         0.27500E+01
         0.27500E+01
         0.27500E+01
         0.27500E+01
         0.27500E+01
         0.27500E+01
         0.27500E+01
         0.27500E+01
         0.27500E+01
         0.27500E+01
         0.27500E+01
         0.27500E+01
         0.27500E+01
         0.27500E+01
         0.27500E+01
         0.27500E+01
         0.27500E+01
         0.27500E+01
         0.27500E+01
         0.27500E+01
         0.27500E+01
         0.27500E+01
         0.27500E+01
         0.27500E+01
         0.27500E+01
         0.27500E+01
         0.27500E+01
         0.27500E+01
         0.27500E+01
         0.27500E+01
         0.27500E+01
         0.27500E+01
         0.27500E+01
         0.27500E+01
         0.27500E+01
         0.27500E+01
         0.27500E+01
         0.27500E+01
         0.27500E+01
         0.27500E+01
         0.27500E+01
         0.27500E+01
         0.27500E+01
         0.27500E+01
         0.27500E+01
         0.27500E+01
         0.27500E+01
         0.27500E+01
         0.27500E+01
         0.27500E+01
         0.27500E+01
         0.27500E+01
         0.27500E+01
         0.27500E+01
         0.27500E+01
         0.27500E+01
         0.27500E+01
         0.27500E+01
         0.27500E+01
         0.27500E+01
         0.27500E+01
         0.27500E+01
         0.27500E+01
         0.27500E+01
         0.27500E+01
         0.27500E+01
         0.27500E+01
         0.27500E+01
         0.27500E+01
         0.27500E+01
         0.27500E+01
         0.27500E+01
         0.27500E+01
         0.27500E+01
         0.27500E+01
         0.27500E+01
         0.27500E+01
         0.27500E+01
         0.27500E+01
         0.27500E+01
         0.27500E+01
         0.27500E+01
         0.27500E+01
         0.27500E+01
         0.27500E+01
         0.27500E+01
         0.27500E+01
         0.27500E+01
         0.27500E+01
         0.27500E+01
         0.27500E+01
         0.27500E+01
         0.27500E+01
         0.27500E+01
         0.27500E+01
         0.27500E+01
         0.27500E+01
         0.27500E+01
         0.27500E+01
         0.27500E+01
         0.27500E+01
         0.27500E+01
         0.27500E+01
         0.27500E+01
         0.27500E+01
         0.27500E+01
         0.27500E+01
         0.27500E+01
         0.27500E+01
         0.27500E+01
         0.27500E+01
         0.27500E+01
         0.27500E+01
         0.27500E+01
         0.27500E+01
         0.27500E+01
         0.27500E+01
         0.27500E+01
         0.27500E+01
         0.27500E+01
         0.27500E+01
         0.27500E+01
         0.27500E+01
         0.27500E+01
         0.27500E+01
         0.27500E+01
         0.27500E+01
         0.27500E+01
         0.27500E+01
         0.27500E+01
         0.27500E+01
         0.27500E+01
         0.27500E+01
         0.27500E+01
         0.27500E+01
         0.27500E+01
         0.27500E+01
         0.27500E+01
         0.27500E+01
         0.27500E+01
         0.27500E+01
         0.27500E+01
         0.27500E+01
         0.27500E+01
         0.27500E+01
         0.27500E+01
         0.27500E+01
         0.27500E+01
         0.27500E+01
         0.27500E+01
         0.27500E+01
         0.27500E+01
         0.27500E+01
         0.27500E+01
         0.27500E+01
         0.27500E+01
         0.27500E+01
         0.27500E+01
         0.27500E+01
         0.27500E+01
         0.27500E+01
         0.27500E+01
         0.27500E+01
         0.27500E+01
         0.27500E+01
         0.27500E+01
         0.27500E+01
         0.27500E+01
         0.27500E+01
         0.27500E+01
         0.27500E+01
         0.27500E+01
         0.27500E+01
         0.27500E+01
         0.27500E+01
         0.27500E+01
         0.27500E+01
         0.27500E+01
         0.27500E+01
         0.27500E+01
         0.27500E+01
         0.27500E+01
         0.27500E+01
         0.27500E+01
         0.27500E+01
         0.27500E+01
         0.27500E+01
         0.27500E+01
         0.27500E+01
         0.27500E+01
         0.27500E+01
         0.27500E+01
         0.27500E+01
         0.27500E+01
         0.27500E+01
         0.27500E+01
         0.27500E+01
         0.27500E+01
         0.27500E+01
         0.27500E+01
         0.27500E+01
         0.27500E+01
         0.27500E+01
         0.27500E+01
         0.27500E+01
         0.27500E+01
         0.27500E+01
         0.27500E+01
         0.27500E+01
         0.27500E+01
         0.27500E+01
         0.27500E+01
         0.27500E+01
         0.27500E+01
         0.27500E+01
         0.27500E+01
         0.27500E+01
         0.27500E+01
         0.27500E+01
         0.27500E+01
         0.27500E+01
         0.27500E+01
         0.27500E+01
         0.27500E+01
         0.27500E+01
         0.27500E+01
         0.27500E+01
         0.27500E+01
         0.27500E+01
         0.27500E+01
         0.27500E+01
         0.27500E+01
         0.27500E+01
         0.27500E+01
         0.27500E+01
         0.27500E+01
         0.27500E+01
         0.27500E+01
         0.27500E+01
         0.27500E+01
         0.27500E+01
         0.27500E+01
         0.27500E+01
         0.27500E+01
         0.27500E+01
         0.27500E+01
         0.27500E+01
         0.27500E+01
         0.27500E+01
         0.27500E+01
         0.27500E+01
         0.27500E+01
         0.27500E+01
         0.27500E+01
         0.27500E+01
         0.27500E+01
         0.27500E+01
         0.27500E+01
         0.27500E+01
         0.27500E+01
         0.27500E+01
         0.27500E+01
         0.27500E+01
         0.27500E+01
         0.27500E+01
         0.27500E+01
         0.27500E+01
         0.27500E+01
         0.27500E+01
         0.27500E+01
         0.27500E+01
         0.27500E+01
         0.27500E+01
         0.27500E+01
         0.27500E+01
         0.27500E+01
         0.27500E+01
         0.27500E+01
         0.27500E+01
         0.27500E+01
         0.27500E+01
         0.27500E+01
         0.27500E+01
         0.27500E+01
         0.27500E+01
         0.27500E+01
         0.27500E+01
         0.27500E+01
         0.27500E+01
         0.27500E+01
         0.27500E+01
         0.27500E+01
         0.27500E+01
         0.27500E+01
         0.27500E+01
         0.27500E+01
         0.27500E+01
         0.27500E+01
         0.27500E+01
         0.27500E+01
         0.27500E+01
         0.27500E+01
         0.27500E+01
         0.27500E+01
         0.27500E+01
         0.27500E+01
         0.27500E+01
         0.27500E+01
         0.27500E+01
         0.27500E+01
         0.27500E+01
         0.27500E+01
         0.27500E+01
         0.27500E+01
         0.27500E+01
         0.27500E+01
         0.27500E+01
         0.27500E+01
         0.27500E+01
         0.27500E+01
         0.27500E+01
         0.27500E+01
         0.27500E+01
         0.27500E+01
         0.27500E+01
         0.27500E+01
         0.27500E+01
         0.27500E+01
         0.27500E+01
         0.27500E+01
         0.27500E+01
         0.27500E+01
         0.27500E+01
         0.27500E+01
         0.27500E+01
         0.27500E+01
         0.27500E+01
         0.27500E+01
         0.27500E+01
         0.27500E+01
         0.27500E+01
         0.27500E+01
         0.27500E+01
         0.27500E+01
         0.27500E+01
         0.27500E+01
         0.27500E+01
         0.27500E+01
         0.27500E+01
         0.27500E+01
         0.27500E+01
         0.27500E+01
         0.27500E+01
         0.27500E+01
         0.27500E+01
         0.27500E+01
         0.27500E+01
         0.27500E+01
         0.27500E+01
         0.27500E+01
         0.27500E+01
         0.27500E+01
         0.27500E+01
         0.27500E+01
         0.27500E+01
         0.27500E+01
         0.27500E+01
         0.27500E+01
         0.27500E+01
         0.27500E+01
         0.27500E+01
         0.27500E+01
         0.27500E+01
         0.27500E+01
         0.27500E+01
         0.27500E+01
         0.27500E+01
         0.27500E+01
         0.27500E+01
         0.27500E+01
         0.27500E+01
         0.27500E+01
         0.27500E+01
         0.27500E+01
         0.27500E+01
         0.27500E+01
         0.27500E+01
         0.27500E+01
         0.27500E+01
         0.27500E+01
         0.27500E+01
         0.27500E+01
         0.27500E+01
         0.27500E+01
         0.27500E+01
         0.27500E+01
         0.27500E+01
         0.27500E+01
         0.27500E+01
         0.27500E+01
         0.27500E+01
         0.27500E+01
         0.27500E+01
         0.27500E+01
         0.27500E+01
         0.27500E+01
         0.27500E+01
         0.27500E+01
         0.27500E+01
         0.27500E+01
         0.27500E+01
         0.27500E+01
         0.27500E+01
         0.27500E+01
         0.27500E+01
         0.27500E+01
         0.27500E+01
         0.27500E+01
         0.27500E+01
         0.27500E+01
         0.27500E+01
         0.27500E+01
         0.27500E+01
         0.27500E+01
         0.27500E+01
         0.27500E+01
         0.27500E+01
         0.27500E+01
         0.27500E+01
         0.27500E+01
         0.27500E+01
         0.27500E+01
         0.27500E+01
         0.27500E+01
         0.27500E+01
         0.27500E+01
         0.27500E+01
         0.27500E+01
         0.27500E+01
         0.27500E+01
         0.27500E+01
         0.27500E+01
         0.27500E+01
         0.27500E+01
         0.27500E+01
         0.27500E+01
         0.27500E+01
         0.27500E+01
         0.27500E+01
         0.27500E+01
         0.27500E+01
         0.27500E+01
         0.27500E+01
         0.27500E+01
         0.27500E+01
         0.27500E+01
         0.27500E+01
         0.27500E+01
         0.27500E+01
         0.27500E+01
         0.27500E+01
         0.27500E+01
         0.27500E+01
         0.27500E+01
         0.27500E+01
         0.27500E+01
         0.27500E+01
         0.27500E+01
         0.27500E+01
         0.27500E+01
         0.27500E+01
         0.27500E+01
         0.27500E+01
         0.27500E+01
         0.27500E+01
         0.27500E+01
         0.27500E+01
         0.27500E+01
         0.27500E+01
         0.27500E+01
         0.27500E+01
         0.27500E+01
         0.27500E+01
         0.27500E+01
         0.27500E+01
         0.27500E+01
         0.27500E+01
         0.27500E+01
         0.27500E+01
         0.27500E+01
         0.27500E+01
         0.27500E+01
         0.27500E+01
         0.27500E+01
         0.27500E+01
         0.27500E+01
         0.27500E+01
         0.27500E+01
         0.27500E+01
         0.27500E+01
         0.27500E+01
         0.27500E+01
         0.27500E+01
         0.27500E+01
         0.27500E+01
         0.27500E+01
         0.27500E+01
         0.27500E+01
         0.27500E+01
         0.27500E+01
         0.27500E+01
         0.27500E+01
         0.27500E+01
         0.27500E+01
         0.27500E+01
         0.27500E+01
         0.27500E+01
         0.27500E+01
         0.27500E+01
         0.27500E+01
         0.27500E+01
         0.27500E+01
         0.27500E+01
         0.27500E+01
         0.27500E+01
         0.27500E+01
         0.27500E+01
         0.27500E+01
         0.27500E+01
         0.27500E+01
         0.27500E+01
         0.27500E+01
         0.27500E+01
         0.27500E+01
         0.27500E+01
         0.27500E+01
         0.27500E+01
         0.27500E+01
         0.27500E+01
         0.27500E+01
         0.27500E+01
         0.27500E+01
         0.27500E+01
         0.27500E+01
         0.27500E+01
         0.27500E+01
         0.27500E+01
         0.27500E+01
         0.27500E+01
         0.27500E+01
         0.27500E+01
         0.27500E+01
         0.27500E+01
         0.27500E+01
         0.27500E+01
         0.27500E+01
         0.27500E+01
         0.27500E+01
         0.27500E+01
         0.27500E+01
         0.27500E+01
         0.27500E+01
         0.27500E+01
         0.27500E+01
         0.27500E+01
         0.27500E+01
         0.27500E+01
         0.27500E+01
         0.27500E+01
         0.27500E+01
         0.27500E+01
         0.27500E+01
         0.27500E+01
         0.27500E+01
         0.27500E+01
         0.27500E+01
         0.27500E+01
         0.27500E+01
         0.27500E+01
         0.27500E+01
         0.27500E+01
         0.27500E+01
         0.27500E+01
         0.27500E+01
         0.27500E+01
         0.27500E+01
         0.27500E+01
         0.27500E+01
         0.27500E+01
         0.27500E+01
         0.27500E+01
         0.27500E+01
         0.27500E+01
         0.27500E+01
         0.27500E+01
         0.27500E+01
         0.27500E+01
         0.27500E+01
         0.27500E+01
         0.27500E+01
         0.27500E+01
         0.27500E+01
         0.27500E+01
         0.27500E+01
         0.27500E+01
         0.27500E+01
         0.27500E+01
         0.27500E+01
         0.27500E+01
         0.27500E+01
         0.27500E+01
         0.27500E+01
         0.27500E+01
         0.27500E+01
         0.27500E+01
         0.27500E+01
         0.27500E+01
         0.27500E+01
         0.27500E+01
         0.27500E+01
         0.27500E+01
         0.27500E+01
         0.27500E+01
         0.27500E+01
         0.27500E+01
         0.27500E+01
         0.27500E+01
         0.27500E+01
         0.27500E+01
         0.27500E+01
         0.27500E+01
         0.27500E+01
         0.27500E+01
         0.27500E+01
         0.27500E+01
         0.27500E+01
         0.27500E+01
         0.27500E+01
         0.27500E+01
         0.27500E+01
         0.27500E+01
         0.27500E+01
         0.27500E+01
         0.27500E+01
         0.27500E+01
         0.27500E+01
         0.27500E+01
         0.27500E+01
         0.27500E+01
         0.27500E+01
         0.27500E+01
         0.27500E+01
         0.27500E+01
         0.27500E+01
         0.27500E+01
         0.27500E+01
         0.27500E+01
         0.27500E+01
         0.27500E+01
         0.27500E+01
         0.27500E+01
         0.27500E+01
         0.27500E+01
         0.27500E+01
         0.27500E+01
         0.27500E+01
         0.27500E+01
         0.27500E+01
         0.27500E+01
         0.27500E+01
         0.27500E+01
         0.27500E+01
         0.27500E+01
         0.27500E+01
         0.27500E+01
         0.27500E+01
         0.27500E+01
         0.27500E+01
         0.27500E+01
         0.27500E+01
         0.27500E+01
         0.27500E+01
         0.27500E+01
         0.27500E+01
         0.27500E+01
         0.27500E+01
         0.27500E+01
         0.27500E+01
         0.27500E+01
         0.27500E+01
         0.27500E+01
         0.27500E+01
         0.27500E+01
         0.27500E+01
         0.27500E+01
         0.27500E+01
         0.27500E+01
         0.27500E+01
         0.27500E+01
         0.27500E+01
         0.27500E+01
         0.27500E+01
         0.27500E+01
         0.27500E+01
         0.27500E+01
         0.27500E+01
         0.27500E+01
         0.27500E+01
         0.27500E+01
         0.27500E+01
         0.27500E+01
         0.27500E+01
         0.27500E+01
         0.27500E+01
         0.27500E+01
         0.27500E+01
         0.27500E+01
         0.27500E+01
         0.27500E+01
         0.27500E+01
         0.27500E+01
         0.27500E+01
         0.27500E+01
         0.27500E+01
         0.27500E+01
         0.27500E+01
         0.27500E+01
         0.27500E+01
         0.27500E+01
         0.27500E+01
         0.27500E+01
         0.27500E+01
         0.27500E+01
         0.27500E+01
         0.27500E+01
         0.27500E+01
         0.27500E+01
         0.27500E+01
         0.27500E+01
         0.27500E+01
         0.27500E+01
         0.27500E+01
         0.27500E+01
         0.27500E+01
         0.27500E+01
         0.27500E+01
         0.27500E+01
         0.27500E+01
         0.27500E+01
         0.27500E+01
         0.27500E+01
         0.27500E+01
         0.27500E+01
         0.27500E+01
         0.27500E+01
         0.27500E+01
         0.27500E+01
         0.27500E+01
         0.27500E+01
         0.27500E+01
         0.27500E+01
         0.27500E+01
         0.27500E+01
         0.27500E+01
         0.27500E+01
         0.27500E+01
         0.27500E+01
         0.27500E+01
         0.27500E+01
         0.27500E+01
         0.27500E+01
         0.27500E+01
         0.27500E+01
         0.27500E+01
         0.27500E+01
         0.27500E+01
         0.27500E+01
         0.27500E+01
         0.27500E+01
         0.27500E+01
         0.27500E+01
         0.27500E+01
         0.27500E+01
         0.27500E+01
         0.27500E+01
         0.27500E+01
         0.27500E+01
         0.27500E+01
         0.27500E+01
         0.27500E+01
         0.27500E+01
         0.27500E+01
         0.27500E+01
         0.27500E+01
         0.27500E+01
         0.27500E+01
         0.27500E+01
         0.27500E+01
         0.27500E+01
         0.27500E+01
         0.27500E+01
         0.27500E+01
         0.27500E+01
         0.27500E+01
         0.27500E+01
         0.27500E+01
         0.27500E+01
         0.27500E+01
         0.27500E+01
         0.27500E+01
         0.27500E+01
         0.27500E+01
         0.27500E+01
         0.27500E+01
         0.27500E+01
         0.27500E+01
         0.27500E+01
         0.27500E+01
         0.27500E+01
         0.27500E+01
         0.27500E+01
         0.27500E+01
         0.27500E+01
         0.27500E+01
         0.27500E+01
         0.27500E+01
         0.27500E+01
         0.27500E+01
         0.27500E+01
         0.27500E+01
         0.27500E+01
         0.27500E+01
         0.27500E+01
         0.27500E+01
         0.27500E+01
         0.27500E+01
         0.27500E+01
         0.27500E+01
         0.27500E+01
         0.27500E+01
         0.27500E+01
         0.27500E+01
         0.27500E+01
         0.27500E+01
         0.27500E+01
         0.27500E+01
         0.27500E+01
         0.27500E+01
         0.27500E+01
         0.27500E+01
         0.27500E+01
         0.27500E+01
         0.27500E+01
         0.27500E+01
         0.27500E+01
         0.27500E+01
         0.27500E+01
         0.27500E+01
         0.27500E+01
         0.27500E+01
         0.27500E+01
         0.27500E+01
         0.27500E+01
         0.27500E+01
         0.27500E+01
         0.27500E+01
         0.27500E+01
         0.27500E+01
         0.27500E+01
         0.27500E+01
         0.27500E+01
         0.27500E+01
         0.27500E+01
         0.27500E+01
         0.27500E+01
         0.27500E+01
         0.27500E+01
         0.27500E+01
         0.27500E+01
         0.27500E+01
         0.27500E+01
         0.27500E+01
         0.27500E+01
         0.27500E+01
         0.27500E+01
         0.27500E+01
         0.27500E+01
         0.27500E+01
         0.27500E+01
         0.27500E+01
         0.27500E+01
         0.27500E+01
         0.27500E+01
         0.27500E+01
         0.27500E+01
         0.27500E+01
         0.27500E+01
         0.27500E+01
         0.27500E+01
         0.27500E+01
         0.27500E+01
         0.27500E+01
         0.27500E+01
         0.27500E+01
         0.27500E+01
         0.27500E+01
         0.27500E+01
         0.27500E+01
         0.27500E+01
         0.27500E+01
         0.27500E+01
         0.27500E+01
         0.27500E+01
         0.27500E+01
         0.27500E+01
         0.27500E+01
         0.27500E+01
         0.27500E+01
         0.27500E+01
         0.27500E+01
         0.27500E+01
         0.27500E+01
         0.27500E+01
         0.27500E+01
         0.27500E+01
         0.27500E+01
         0.27500E+01
         0.27500E+01
         0.27500E+01
         0.27500E+01
         0.27500E+01
         0.27500E+01
         0.27500E+01
         0.27500E+01
         0.27500E+01
         0.27500E+01
         0.27500E+01
         0.27500E+01
         0.27500E+01
         0.27500E+01
         0.27500E+01
         0.27500E+01
         0.27500E+01
         0.27500E+01
         0.27500E+01
         0.27500E+01
         0.27500E+01
         0.27500E+01
         0.27500E+01
         0.27500E+01
         0.27500E+01
         0.27500E+01
         0.27500E+01
         0.27500E+01
         0.27500E+01
         0.27500E+01
         0.27500E+01
         0.27500E+01
         0.27500E+01
         0.27500E+01
         0.27500E+01
         0.27500E+01
         0.27500E+01
         0.27500E+01
         0.27500E+01
         0.27500E+01
         0.27500E+01
         0.27500E+01
         0.27500E+01
         0.27500E+01
         0.27500E+01
         0.27500E+01
         0.27500E+01
         0.27500E+01
         0.27500E+01
         0.27500E+01
         0.27500E+01
         0.27500E+01
         0.27500E+01
         0.27500E+01
         0.27500E+01
         0.27500E+01
         0.27500E+01
         0.27500E+01
         0.27500E+01
         0.27500E+01
         0.27500E+01
         0.27500E+01
         0.27500E+01
         0.27500E+01
         0.27500E+01
         0.27500E+01
         0.27500E+01
         0.27500E+01
         0.27500E+01
         0.27500E+01
         0.27500E+01
         0.27500E+01
         0.27500E+01
         0.27500E+01
         0.27500E+01
         0.27500E+01
         0.27500E+01
         0.27500E+01
         0.27500E+01
         0.27500E+01
         0.27500E+01
         0.27500E+01
         0.27500E+01
         0.27500E+01
         0.27500E+01
         0.27500E+01
         0.27500E+01
         0.27500E+01
         0.27500E+01
         0.27500E+01
         0.27500E+01
         0.27500E+01
         0.27500E+01
         0.27500E+01
         0.27500E+01
         0.27500E+01
         0.27500E+01
         0.27500E+01
         0.27500E+01
         0.27500E+01
         0.27500E+01
         0.27500E+01
         0.27500E+01
         0.27500E+01
         0.27500E+01
         0.27500E+01
         0.27500E+01
         0.27500E+01
         0.27500E+01
         0.27500E+01
         0.27500E+01
         0.27500E+01
         0.27500E+01
         0.27500E+01
         0.27500E+01
         0.27500E+01
         0.27500E+01
         0.27500E+01
         0.27500E+01
         0.27500E+01
         0.27500E+01
         0.27500E+01
         0.27500E+01
         0.27500E+01
         0.27500E+01
         0.27500E+01
         0.27500E+01
         0.27500E+01
         0.27500E+01
         0.27500E+01
         0.27500E+01
         0.27500E+01
         0.27500E+01
         0.27500E+01
         0.27500E+01
         0.27500E+01
         0.27500E+01
         0.27500E+01
         0.27500E+01
         0.27500E+01
         0.27500E+01
         0.27500E+01
         0.27500E+01
         0.27500E+01
         0.27500E+01
         0.27500E+01
         0.27500E+01
         0.27500E+01
         0.27500E+01
         0.27500E+01
         0.27500E+01
         0.27500E+01
         0.27500E+01
         0.27500E+01
         0.27500E+01
         0.27500E+01
         0.27500E+01
         0.27500E+01
         0.27500E+01
         0.27500E+01
         0.27500E+01
         0.27500E+01
         0.27500E+01
         0.27500E+01
         0.27500E+01
         0.27500E+01
         0.27500E+01
         0.27500E+01
         0.27500E+01
         0.27500E+01
         0.27500E+01
         0.27500E+01
         0.27500E+01
         0.27500E+01
         0.27500E+01
         0.27500E+01
         0.27500E+01
         0.27500E+01
         0.27500E+01
         0.27500E+01
         0.27500E+01
         0.27500E+01
         0.27500E+01
         0.27500E+01
         0.27500E+01
         0.27500E+01
         0.27500E+01
         0.27500E+01
         0.27500E+01
         0.27500E+01
         0.27500E+01
         0.27500E+01
         0.27500E+01
         0.27500E+01
         0.27500E+01
         0.27500E+01
         0.27500E+01
         0.27500E+01
         0.27500E+01
         0.27500E+01
         0.27500E+01
         0.27500E+01
         0.27500E+01
         0.27500E+01
         0.27500E+01
         0.27500E+01
         0.27500E+01
         0.27500E+01
         0.27500E+01
         0.27500E+01
         0.27500E+01
         0.27500E+01
         0.27500E+01
         0.27500E+01
         0.27500E+01
         0.27500E+01
         0.27500E+01
         0.27500E+01
         0.27500E+01
         0.27500E+01
         0.27500E+01
         0.27500E+01
         0.27500E+01
         0.27500E+01
         0.27500E+01
         0.27500E+01
         0.27500E+01
         0.27500E+01
         0.27500E+01
         0.27500E+01
         0.27500E+01
  
SCALARS              physical_window_x  double 1
LOOKUP_TABLE default
         0.42419E-02
         0.35201E-02
         0.37624E-02
         0.42419E-02
         0.42417E-02
         0.35201E-02
         0.37618E-02
         0.42417E-02
         0.37624E-02
         0.37624E-02
         0.37618E-02
         0.37618E-02
         0.30086E-02
         0.32069E-02
         0.30084E-02
         0.32067E-02
         0.42419E-02
         0.32069E-02
         0.42417E-02
         0.32067E-02
         0.24180E-02
         0.29942E-02
         0.32396E-02
         0.24180E-02
         0.29933E-02
         0.32385E-02
         0.26608E-02
         0.27190E-02
         0.26608E-02
         0.27190E-02
         0.42687E-02
         0.36511E-02
         0.42687E-02
         0.42687E-02
         0.36511E-02
         0.42687E-02
         0.32069E-02
         0.29739E-02
         0.32066E-02
         0.29739E-02
         0.34652E-02
         0.32621E-02
         0.34652E-02
         0.32621E-02
         0.37123E-02
         0.32069E-02
         0.37123E-02
         0.32066E-02
         0.30844E-02
         0.30844E-02
         0.35191E-02
         0.35189E-02
         0.26925E-02
         0.26925E-02
         0.26925E-02
         0.26925E-02
         0.24643E-02
         0.27651E-02
         0.24643E-02
         0.27651E-02
         0.42687E-02
         0.35191E-02
         0.42687E-02
         0.35189E-02
         0.42687E-02
         0.42687E-02
         0.34658E-02
         0.34648E-02
         0.27274E-02
         0.31799E-02
         0.27273E-02
         0.31796E-02
         0.32396E-02
         0.32385E-02
         0.26964E-02
         0.26960E-02
         0.27828E-02
         0.27828E-02
         0.27828E-02
         0.27828E-02
         0.27004E-02
         0.31883E-02
         0.27003E-02
         0.31880E-02
         0.31883E-02
         0.31880E-02
         0.37123E-02
         0.37123E-02
         0.36245E-02
         0.36245E-02
         0.28253E-02
         0.31642E-02
         0.28253E-02
         0.31636E-02
         0.33485E-02
         0.33485E-02
         0.33485E-02
         0.33485E-02
         0.31978E-02
         0.31969E-02
         0.29849E-02
         0.32843E-02
         0.29849E-02
         0.32843E-02
         0.27274E-02
         0.31109E-02
         0.27273E-02
         0.31109E-02
         0.31799E-02
         0.31796E-02
         0.32396E-02
         0.32385E-02
         0.32396E-02
         0.32385E-02
         0.29942E-02
         0.29933E-02
         0.27190E-02
         0.27190E-02
         0.26964E-02
         0.26960E-02
         0.27828E-02
         0.27828E-02
         0.27828E-02
         0.27828E-02
         0.27004E-02
         0.27003E-02
         0.31883E-02
         0.31880E-02
         0.31883E-02
         0.31880E-02
         0.32621E-02
         0.32621E-02
         0.34652E-02
         0.34652E-02
         0.37123E-02
         0.37123E-02
         0.37123E-02
         0.37123E-02
         0.36245E-02
         0.36245E-02
         0.28253E-02
         0.28253E-02
         0.29097E-02
         0.29087E-02
         0.32389E-02
         0.32378E-02
         0.32389E-02
         0.32378E-02
         0.31978E-02
         0.31969E-02
         0.29849E-02
         0.29849E-02
         0.32843E-02
         0.32843E-02
         0.32843E-02
         0.32843E-02
         0.42420E-02
         0.35201E-02
         0.37629E-02
         0.42420E-02
         0.37629E-02
         0.37629E-02
         0.30087E-02
         0.32071E-02
         0.42420E-02
         0.32071E-02
         0.24178E-02
         0.29952E-02
         0.32407E-02
         0.26596E-02
         0.27191E-02
         0.42679E-02
         0.36502E-02
         0.42679E-02
         0.32071E-02
         0.29727E-02
         0.34648E-02
         0.32622E-02
         0.37119E-02
         0.32071E-02
         0.30833E-02
         0.35193E-02
         0.26910E-02
         0.26910E-02
         0.24638E-02
         0.27644E-02
         0.42679E-02
         0.35193E-02
         0.42679E-02
         0.34670E-02
         0.27274E-02
         0.31802E-02
         0.32407E-02
         0.26968E-02
         0.27828E-02
         0.27828E-02
         0.27005E-02
         0.31885E-02
         0.31885E-02
         0.37119E-02
         0.36244E-02
         0.28250E-02
         0.31647E-02
         0.33484E-02
         0.33484E-02
         0.31986E-02
         0.29848E-02
         0.32841E-02
         0.27274E-02
         0.31099E-02
         0.31802E-02
         0.32407E-02
         0.32407E-02
         0.29952E-02
         0.27191E-02
         0.26968E-02
         0.27828E-02
         0.27828E-02
         0.27005E-02
         0.31885E-02
         0.31885E-02
         0.32622E-02
         0.34648E-02
         0.37119E-02
         0.37119E-02
         0.36244E-02
         0.28250E-02
         0.29106E-02
         0.32401E-02
         0.32401E-02
         0.31986E-02
         0.29848E-02
         0.32841E-02
         0.32841E-02
         0.42421E-02
         0.35201E-02
         0.37634E-02
         0.42421E-02
         0.37634E-02
         0.37634E-02
         0.30089E-02
         0.32073E-02
         0.42421E-02
         0.32073E-02
         0.24177E-02
         0.29961E-02
         0.32418E-02
         0.26584E-02
         0.27191E-02
         0.42670E-02
         0.36493E-02
         0.42670E-02
         0.32073E-02
         0.29714E-02
         0.34644E-02
         0.32623E-02
         0.37115E-02
         0.32073E-02
         0.30822E-02
         0.35195E-02
         0.26896E-02
         0.26896E-02
         0.24633E-02
         0.27638E-02
         0.42670E-02
         0.35195E-02
         0.42670E-02
         0.34681E-02
         0.27275E-02
         0.31805E-02
         0.32418E-02
         0.26972E-02
         0.27828E-02
         0.27828E-02
         0.27006E-02
         0.31888E-02
         0.31888E-02
         0.37115E-02
         0.36243E-02
         0.28247E-02
         0.31652E-02
         0.33483E-02
         0.33483E-02
         0.31995E-02
         0.29847E-02
         0.32839E-02
         0.27275E-02
         0.31090E-02
         0.31805E-02
         0.32418E-02
         0.32418E-02
         0.29961E-02
         0.27191E-02
         0.26972E-02
         0.27828E-02
         0.27828E-02
         0.27006E-02
         0.31888E-02
         0.31888E-02
         0.32623E-02
         0.34644E-02
         0.37115E-02
         0.37115E-02
         0.36243E-02
         0.28247E-02
         0.29116E-02
         0.32412E-02
         0.32412E-02
         0.31995E-02
         0.29847E-02
         0.32839E-02
         0.32839E-02
         0.42423E-02
         0.35200E-02
         0.37639E-02
         0.42423E-02
         0.37639E-02
         0.37639E-02
         0.30091E-02
         0.32075E-02
         0.42423E-02
         0.32075E-02
         0.24176E-02
         0.29970E-02
         0.32428E-02
         0.26572E-02
         0.27192E-02
         0.42662E-02
         0.36483E-02
         0.42662E-02
         0.32075E-02
         0.29702E-02
         0.34639E-02
         0.32624E-02
         0.37111E-02
         0.32075E-02
         0.30811E-02
         0.35197E-02
         0.26881E-02
         0.26881E-02
         0.24628E-02
         0.27631E-02
         0.42662E-02
         0.35197E-02
         0.42662E-02
         0.34692E-02
         0.27276E-02
         0.31808E-02
         0.32428E-02
         0.26975E-02
         0.27828E-02
         0.27828E-02
         0.27007E-02
         0.31890E-02
         0.31890E-02
         0.37111E-02
         0.36242E-02
         0.28243E-02
         0.31658E-02
         0.33482E-02
         0.33482E-02
         0.32003E-02
         0.29846E-02
         0.32837E-02
         0.27276E-02
         0.31081E-02
         0.31808E-02
         0.32428E-02
         0.32428E-02
         0.29970E-02
         0.27192E-02
         0.26975E-02
         0.27828E-02
         0.27828E-02
         0.27007E-02
         0.31890E-02
         0.31890E-02
         0.32624E-02
         0.34639E-02
         0.37111E-02
         0.37111E-02
         0.36242E-02
         0.28243E-02
         0.29125E-02
         0.32423E-02
         0.32423E-02
         0.32003E-02
         0.29846E-02
         0.32837E-02
         0.32837E-02
         0.42424E-02
         0.35200E-02
         0.37644E-02
         0.42424E-02
         0.37644E-02
         0.37644E-02
         0.30093E-02
         0.32077E-02
         0.42424E-02
         0.32077E-02
         0.24174E-02
         0.29979E-02
         0.32439E-02
         0.26559E-02
         0.27192E-02
         0.42653E-02
         0.36474E-02
         0.42653E-02
         0.32077E-02
         0.29690E-02
         0.34635E-02
         0.32624E-02
         0.37108E-02
         0.32077E-02
         0.30799E-02
         0.35199E-02
         0.26867E-02
         0.26867E-02
         0.24623E-02
         0.27625E-02
         0.42653E-02
         0.35199E-02
         0.42653E-02
         0.34703E-02
         0.27276E-02
         0.31812E-02
         0.32439E-02
         0.26979E-02
         0.27828E-02
         0.27828E-02
         0.27008E-02
         0.31893E-02
         0.31893E-02
         0.37108E-02
         0.36241E-02
         0.28240E-02
         0.31663E-02
         0.33481E-02
         0.33481E-02
         0.32012E-02
         0.29844E-02
         0.32835E-02
         0.27276E-02
         0.31071E-02
         0.31812E-02
         0.32439E-02
         0.32439E-02
         0.29979E-02
         0.27192E-02
         0.26979E-02
         0.27828E-02
         0.27828E-02
         0.27008E-02
         0.31893E-02
         0.31893E-02
         0.32624E-02
         0.34635E-02
         0.37108E-02
         0.37108E-02
         0.36241E-02
         0.28240E-02
         0.29135E-02
         0.32434E-02
         0.32434E-02
         0.32012E-02
         0.29844E-02
         0.32835E-02
         0.32835E-02
         0.42425E-02
         0.35200E-02
         0.37649E-02
         0.42425E-02
         0.37649E-02
         0.37649E-02
         0.30095E-02
         0.32079E-02
         0.42425E-02
         0.32079E-02
         0.24173E-02
         0.29989E-02
         0.32450E-02
         0.26547E-02
         0.27193E-02
         0.42645E-02
         0.36465E-02
         0.42645E-02
         0.32079E-02
         0.29677E-02
         0.34631E-02
         0.32625E-02
         0.37104E-02
         0.32079E-02
         0.30788E-02
         0.35201E-02
         0.26852E-02
         0.26852E-02
         0.24618E-02
         0.27618E-02
         0.42645E-02
         0.35201E-02
         0.42645E-02
         0.34715E-02
         0.27277E-02
         0.31815E-02
         0.32450E-02
         0.26983E-02
         0.27828E-02
         0.27828E-02
         0.27009E-02
         0.31895E-02
         0.31895E-02
         0.37104E-02
         0.36239E-02
         0.28237E-02
         0.31668E-02
         0.33480E-02
         0.33480E-02
         0.32020E-02
         0.29843E-02
         0.32833E-02
         0.27277E-02
         0.31062E-02
         0.31815E-02
         0.32450E-02
         0.32450E-02
         0.29989E-02
         0.27193E-02
         0.26983E-02
         0.27828E-02
         0.27828E-02
         0.27009E-02
         0.31895E-02
         0.31895E-02
         0.32625E-02
         0.34631E-02
         0.37104E-02
         0.37104E-02
         0.36239E-02
         0.28237E-02
         0.29145E-02
         0.32445E-02
         0.32445E-02
         0.32020E-02
         0.29843E-02
         0.32833E-02
         0.32833E-02
         0.42427E-02
         0.35200E-02
         0.37654E-02
         0.42427E-02
         0.37654E-02
         0.37654E-02
         0.30097E-02
         0.32081E-02
         0.42427E-02
         0.32081E-02
         0.24171E-02
         0.29998E-02
         0.32461E-02
         0.26535E-02
         0.27193E-02
         0.42636E-02
         0.36455E-02
         0.42636E-02
         0.32081E-02
         0.29665E-02
         0.34626E-02
         0.32626E-02
         0.37100E-02
         0.32081E-02
         0.30777E-02
         0.35203E-02
         0.26838E-02
         0.26838E-02
         0.24613E-02
         0.27611E-02
         0.42636E-02
         0.35203E-02
         0.42636E-02
         0.34726E-02
         0.27278E-02
         0.31818E-02
         0.32461E-02
         0.26987E-02
         0.27827E-02
         0.27827E-02
         0.27010E-02
         0.31898E-02
         0.31898E-02
         0.37100E-02
         0.36238E-02
         0.28234E-02
         0.31673E-02
         0.33479E-02
         0.33479E-02
         0.32029E-02
         0.29842E-02
         0.32831E-02
         0.27278E-02
         0.31052E-02
         0.31818E-02
         0.32461E-02
         0.32461E-02
         0.29998E-02
         0.27193E-02
         0.26987E-02
         0.27827E-02
         0.27827E-02
         0.27010E-02
         0.31898E-02
         0.31898E-02
         0.32626E-02
         0.34626E-02
         0.37100E-02
         0.37100E-02
         0.36238E-02
         0.28234E-02
         0.29154E-02
         0.32457E-02
         0.32457E-02
         0.32029E-02
         0.29842E-02
         0.32831E-02
         0.32831E-02
         0.42428E-02
         0.35199E-02
         0.37660E-02
         0.42428E-02
         0.37660E-02
         0.37660E-02
         0.30099E-02
         0.32083E-02
         0.42428E-02
         0.32083E-02
         0.24170E-02
         0.30007E-02
         0.32471E-02
         0.26523E-02
         0.27194E-02
         0.42628E-02
         0.36446E-02
         0.42628E-02
         0.32083E-02
         0.29652E-02
         0.34622E-02
         0.32627E-02
         0.37096E-02
         0.32083E-02
         0.30766E-02
         0.35205E-02
         0.26823E-02
         0.26823E-02
         0.24608E-02
         0.27605E-02
         0.42628E-02
         0.35205E-02
         0.42628E-02
         0.34737E-02
         0.27279E-02
         0.31821E-02
         0.32471E-02
         0.26991E-02
         0.27827E-02
         0.27827E-02
         0.27011E-02
         0.31900E-02
         0.31900E-02
         0.37096E-02
         0.36237E-02
         0.28231E-02
         0.31679E-02
         0.33478E-02
         0.33478E-02
         0.32038E-02
         0.29841E-02
         0.32829E-02
         0.27279E-02
         0.31043E-02
         0.31821E-02
         0.32471E-02
         0.32471E-02
         0.30007E-02
         0.27194E-02
         0.26991E-02
         0.27827E-02
         0.27827E-02
         0.27011E-02
         0.31900E-02
         0.31900E-02
         0.32627E-02
         0.34622E-02
         0.37096E-02
         0.37096E-02
         0.36237E-02
         0.28231E-02
         0.29164E-02
         0.32468E-02
         0.32468E-02
         0.32038E-02
         0.29841E-02
         0.32829E-02
         0.32829E-02
         0.42429E-02
         0.35199E-02
         0.37665E-02
         0.42429E-02
         0.37665E-02
         0.37665E-02
         0.30101E-02
         0.32085E-02
         0.42429E-02
         0.32085E-02
         0.24168E-02
         0.30017E-02
         0.32482E-02
         0.26510E-02
         0.27194E-02
         0.42619E-02
         0.36437E-02
         0.42619E-02
         0.32085E-02
         0.29640E-02
         0.34618E-02
         0.32627E-02
         0.37092E-02
         0.32085E-02
         0.30755E-02
         0.35207E-02
         0.26808E-02
         0.26808E-02
         0.24603E-02
         0.27599E-02
         0.42619E-02
         0.35207E-02
         0.42619E-02
         0.34748E-02
         0.27279E-02
         0.31824E-02
         0.32482E-02
         0.26994E-02
         0.27827E-02
         0.27827E-02
         0.27012E-02
         0.31902E-02
         0.31902E-02
         0.37092E-02
         0.36236E-02
         0.28227E-02
         0.31684E-02
         0.33477E-02
         0.33477E-02
         0.32046E-02
         0.29840E-02
         0.32827E-02
         0.27279E-02
         0.31034E-02
         0.31824E-02
         0.32482E-02
         0.32482E-02
         0.30017E-02
         0.27194E-02
         0.26994E-02
         0.27827E-02
         0.27827E-02
         0.27012E-02
         0.31902E-02
         0.31902E-02
         0.32627E-02
         0.34618E-02
         0.37092E-02
         0.37092E-02
         0.36236E-02
         0.28227E-02
         0.29173E-02
         0.32479E-02
         0.32479E-02
         0.32046E-02
         0.29840E-02
         0.32827E-02
         0.32827E-02
         0.42431E-02
         0.35199E-02
         0.37670E-02
         0.42431E-02
         0.37670E-02
         0.37670E-02
         0.30102E-02
         0.32087E-02
         0.42431E-02
         0.32087E-02
         0.24167E-02
         0.30026E-02
         0.32493E-02
         0.26498E-02
         0.27194E-02
         0.42611E-02
         0.36427E-02
         0.42611E-02
         0.32087E-02
         0.29628E-02
         0.34613E-02
         0.32628E-02
         0.37089E-02
         0.32087E-02
         0.30744E-02
         0.35209E-02
         0.26794E-02
         0.26794E-02
         0.24598E-02
         0.27592E-02
         0.42611E-02
         0.35209E-02
         0.42611E-02
         0.34759E-02
         0.27280E-02
         0.31827E-02
         0.32493E-02
         0.26998E-02
         0.27827E-02
         0.27827E-02
         0.27013E-02
         0.31905E-02
         0.31905E-02
         0.37089E-02
         0.36235E-02
         0.28224E-02
         0.31689E-02
         0.33476E-02
         0.33476E-02
         0.32055E-02
         0.29839E-02
         0.32825E-02
         0.27280E-02
         0.31024E-02
         0.31827E-02
         0.32493E-02
         0.32493E-02
         0.30026E-02
         0.27194E-02
         0.26998E-02
         0.27827E-02
         0.27827E-02
         0.27013E-02
         0.31905E-02
         0.31905E-02
         0.32628E-02
         0.34613E-02
         0.37089E-02
         0.37089E-02
         0.36235E-02
         0.28224E-02
         0.29183E-02
         0.32490E-02
         0.32490E-02
         0.32055E-02
         0.29839E-02
         0.32825E-02
         0.32825E-02
         0.42432E-02
         0.35199E-02
         0.37675E-02
         0.42432E-02
         0.37675E-02
         0.37675E-02
         0.30104E-02
         0.32089E-02
         0.42432E-02
         0.32089E-02
         0.24166E-02
         0.30035E-02
         0.32504E-02
         0.26486E-02
         0.27195E-02
         0.42603E-02
         0.36418E-02
         0.42603E-02
         0.32089E-02
         0.29615E-02
         0.34609E-02
         0.32629E-02
         0.37085E-02
         0.32089E-02
         0.30732E-02
         0.35211E-02
         0.26779E-02
         0.26779E-02
         0.24593E-02
         0.27585E-02
         0.42603E-02
         0.35211E-02
         0.42603E-02
         0.34771E-02
         0.27281E-02
         0.31830E-02
         0.32504E-02
         0.27002E-02
         0.27827E-02
         0.27827E-02
         0.27014E-02
         0.31907E-02
         0.31907E-02
         0.37085E-02
         0.36233E-02
         0.28221E-02
         0.31694E-02
         0.33475E-02
         0.33475E-02
         0.32063E-02
         0.29838E-02
         0.32823E-02
         0.27281E-02
         0.31015E-02
         0.31830E-02
         0.32504E-02
         0.32504E-02
         0.30035E-02
         0.27195E-02
         0.27002E-02
         0.27827E-02
         0.27827E-02
         0.27014E-02
         0.31907E-02
         0.31907E-02
         0.32629E-02
         0.34609E-02
         0.37085E-02
         0.37085E-02
         0.36233E-02
         0.28221E-02
         0.29193E-02
         0.32501E-02
         0.32501E-02
         0.32063E-02
         0.29838E-02
         0.32823E-02
         0.32823E-02
         0.42433E-02
         0.35199E-02
         0.37680E-02
         0.42433E-02
         0.37680E-02
         0.37680E-02
         0.30106E-02
         0.32091E-02
         0.42433E-02
         0.32091E-02
         0.24164E-02
         0.30045E-02
         0.32514E-02
         0.26474E-02
         0.27195E-02
         0.42594E-02
         0.36409E-02
         0.42594E-02
         0.32091E-02
         0.29603E-02
         0.34605E-02
         0.32630E-02
         0.37081E-02
         0.32091E-02
         0.30721E-02
         0.35213E-02
         0.26765E-02
         0.26765E-02
         0.24588E-02
         0.27579E-02
         0.42594E-02
         0.35213E-02
         0.42594E-02
         0.34782E-02
         0.27281E-02
         0.31833E-02
         0.32514E-02
         0.27006E-02
         0.27826E-02
         0.27826E-02
         0.27015E-02
         0.31910E-02
         0.31910E-02
         0.37081E-02
         0.36232E-02
         0.28218E-02
         0.31700E-02
         0.33474E-02
         0.33474E-02
         0.32072E-02
         0.29836E-02
         0.32821E-02
         0.27281E-02
         0.31005E-02
         0.31833E-02
         0.32514E-02
         0.32514E-02
         0.30045E-02
         0.27195E-02
         0.27006E-02
         0.27826E-02
         0.27826E-02
         0.27015E-02
         0.31910E-02
         0.31910E-02
         0.32630E-02
         0.34605E-02
         0.37081E-02
         0.37081E-02
         0.36232E-02
         0.28218E-02
         0.29202E-02
         0.32512E-02
         0.32512E-02
         0.32072E-02
         0.29836E-02
         0.32821E-02
         0.32821E-02
         0.42435E-02
         0.35199E-02
         0.37685E-02
         0.42435E-02
         0.37685E-02
         0.37685E-02
         0.30108E-02
         0.32093E-02
         0.42435E-02
         0.32093E-02
         0.24163E-02
         0.30054E-02
         0.32525E-02
         0.26461E-02
         0.27196E-02
         0.42586E-02
         0.36399E-02
         0.42586E-02
         0.32093E-02
         0.29591E-02
         0.34601E-02
         0.32630E-02
         0.37077E-02
         0.32093E-02
         0.30710E-02
         0.35215E-02
         0.26750E-02
         0.26750E-02
         0.24583E-02
         0.27572E-02
         0.42586E-02
         0.35215E-02
         0.42586E-02
         0.34793E-02
         0.27282E-02
         0.31836E-02
         0.32525E-02
         0.27010E-02
         0.27826E-02
         0.27826E-02
         0.27016E-02
         0.31912E-02
         0.31912E-02
         0.37077E-02
         0.36231E-02
         0.28215E-02
         0.31705E-02
         0.33473E-02
         0.33473E-02
         0.32080E-02
         0.29835E-02
         0.32819E-02
         0.27282E-02
         0.30996E-02
         0.31836E-02
         0.32525E-02
         0.32525E-02
         0.30054E-02
         0.27196E-02
         0.27010E-02
         0.27826E-02
         0.27826E-02
         0.27016E-02
         0.31912E-02
         0.31912E-02
         0.32630E-02
         0.34601E-02
         0.37077E-02
         0.37077E-02
         0.36231E-02
         0.28215E-02
         0.29212E-02
         0.32524E-02
         0.32524E-02
         0.32080E-02
         0.29835E-02
         0.32819E-02
         0.32819E-02
         0.42436E-02
         0.35198E-02
         0.37690E-02
         0.42436E-02
         0.37690E-02
         0.37690E-02
         0.30110E-02
         0.32095E-02
         0.42436E-02
         0.32095E-02
         0.24162E-02
         0.30064E-02
         0.32536E-02
         0.26449E-02
         0.27196E-02
         0.42577E-02
         0.36390E-02
         0.42577E-02
         0.32096E-02
         0.29578E-02
         0.34596E-02
         0.32631E-02
         0.37074E-02
         0.32096E-02
         0.30699E-02
         0.35217E-02
         0.26735E-02
         0.26735E-02
         0.24578E-02
         0.27566E-02
         0.42577E-02
         0.35217E-02
         0.42577E-02
         0.34804E-02
         0.27283E-02
         0.31839E-02
         0.32536E-02
         0.27013E-02
         0.27826E-02
         0.27826E-02
         0.27017E-02
         0.31915E-02
         0.31915E-02
         0.37074E-02
         0.36230E-02
         0.28211E-02
         0.31710E-02
         0.33472E-02
         0.33472E-02
         0.32089E-02
         0.29834E-02
         0.32817E-02
         0.27283E-02
         0.30986E-02
         0.31839E-02
         0.32536E-02
         0.32536E-02
         0.30064E-02
         0.27196E-02
         0.27013E-02
         0.27826E-02
         0.27826E-02
         0.27017E-02
         0.31915E-02
         0.31915E-02
         0.32631E-02
         0.34596E-02
         0.37074E-02
         0.37074E-02
         0.36230E-02
         0.28211E-02
         0.29221E-02
         0.32535E-02
         0.32535E-02
         0.32089E-02
         0.29834E-02
         0.32817E-02
         0.32817E-02
         0.42437E-02
         0.35198E-02
         0.37695E-02
         0.42437E-02
         0.37695E-02
         0.37695E-02
         0.30112E-02
         0.32097E-02
         0.42437E-02
         0.32097E-02
         0.24160E-02
         0.30073E-02
         0.32547E-02
         0.26437E-02
         0.27197E-02
         0.42569E-02
         0.36381E-02
         0.42569E-02
         0.32098E-02
         0.29566E-02
         0.34592E-02
         0.32632E-02
         0.37070E-02
         0.32098E-02
         0.30688E-02
         0.35219E-02
         0.26721E-02
         0.26721E-02
         0.24573E-02
         0.27560E-02
         0.42569E-02
         0.35219E-02
         0.42569E-02
         0.34815E-02
         0.27284E-02
         0.31843E-02
         0.32547E-02
         0.27017E-02
         0.27826E-02
         0.27826E-02
         0.27018E-02
         0.31917E-02
         0.31917E-02
         0.37070E-02
         0.36229E-02
         0.28208E-02
         0.31716E-02
         0.33471E-02
         0.33471E-02
         0.32097E-02
         0.29833E-02
         0.32815E-02
         0.27284E-02
         0.30977E-02
         0.31843E-02
         0.32547E-02
         0.32547E-02
         0.30073E-02
         0.27197E-02
         0.27017E-02
         0.27826E-02
         0.27826E-02
         0.27018E-02
         0.31917E-02
         0.31917E-02
         0.32632E-02
         0.34592E-02
         0.37070E-02
         0.37070E-02
         0.36229E-02
         0.28208E-02
         0.29231E-02
         0.32546E-02
         0.32546E-02
         0.32097E-02
         0.29833E-02
         0.32815E-02
         0.32815E-02
         0.42439E-02
         0.35198E-02
         0.37701E-02
         0.42439E-02
         0.37701E-02
         0.37701E-02
         0.30113E-02
         0.32099E-02
         0.42439E-02
         0.32099E-02
         0.24159E-02
         0.30082E-02
         0.32558E-02
         0.26425E-02
         0.27197E-02
         0.42560E-02
         0.36371E-02
         0.42560E-02
         0.32100E-02
         0.29554E-02
         0.34588E-02
         0.32633E-02
         0.37066E-02
         0.32100E-02
         0.30677E-02
         0.35221E-02
         0.26706E-02
         0.26706E-02
         0.24568E-02
         0.27553E-02
         0.42560E-02
         0.35221E-02
         0.42560E-02
         0.34827E-02
         0.27284E-02
         0.31846E-02
         0.32558E-02
         0.27021E-02
         0.27826E-02
         0.27826E-02
         0.27019E-02
         0.31920E-02
         0.31920E-02
         0.37066E-02
         0.36227E-02
         0.28205E-02
         0.31721E-02
         0.33470E-02
         0.33470E-02
         0.32106E-02
         0.29831E-02
         0.32813E-02
         0.27284E-02
         0.30968E-02
         0.31846E-02
         0.32558E-02
         0.32558E-02
         0.30082E-02
         0.27197E-02
         0.27021E-02
         0.27826E-02
         0.27826E-02
         0.27019E-02
         0.31920E-02
         0.31920E-02
         0.32633E-02
         0.34588E-02
         0.37066E-02
         0.37066E-02
         0.36227E-02
         0.28205E-02
         0.29241E-02
         0.32557E-02
         0.32557E-02
         0.32106E-02
         0.29831E-02
         0.32813E-02
         0.32813E-02
         0.42440E-02
         0.35198E-02
         0.37706E-02
         0.42440E-02
         0.37706E-02
         0.37706E-02
         0.30115E-02
         0.32101E-02
         0.42440E-02
         0.32101E-02
         0.24158E-02
         0.30091E-02
         0.32568E-02
         0.26412E-02
         0.27198E-02
         0.42552E-02
         0.36362E-02
         0.42552E-02
         0.32102E-02
         0.29541E-02
         0.34583E-02
         0.32633E-02
         0.37062E-02
         0.32102E-02
         0.30665E-02
         0.35223E-02
         0.26692E-02
         0.26692E-02
         0.24563E-02
         0.27546E-02
         0.42552E-02
         0.35223E-02
         0.42552E-02
         0.34838E-02
         0.27285E-02
         0.31849E-02
         0.32568E-02
         0.27025E-02
         0.27826E-02
         0.27826E-02
         0.27020E-02
         0.31922E-02
         0.31922E-02
         0.37062E-02
         0.36226E-02
         0.28202E-02
         0.31726E-02
         0.33469E-02
         0.33469E-02
         0.32114E-02
         0.29830E-02
         0.32811E-02
         0.27285E-02
         0.30958E-02
         0.31849E-02
         0.32568E-02
         0.32568E-02
         0.30091E-02
         0.27198E-02
         0.27025E-02
         0.27826E-02
         0.27826E-02
         0.27020E-02
         0.31922E-02
         0.31922E-02
         0.32633E-02
         0.34583E-02
         0.37062E-02
         0.37062E-02
         0.36226E-02
         0.28202E-02
         0.29250E-02
         0.32568E-02
         0.32568E-02
         0.32114E-02
         0.29830E-02
         0.32811E-02
         0.32811E-02
         0.42441E-02
         0.35198E-02
         0.37711E-02
         0.42441E-02
         0.37711E-02
         0.37711E-02
         0.30117E-02
         0.32103E-02
         0.42441E-02
         0.32103E-02
         0.24156E-02
         0.30101E-02
         0.32579E-02
         0.26400E-02
         0.27198E-02
         0.42543E-02
         0.36353E-02
         0.42543E-02
         0.32104E-02
         0.29529E-02
         0.34579E-02
         0.32634E-02
         0.37058E-02
         0.32104E-02
         0.30654E-02
         0.35225E-02
         0.26677E-02
         0.26677E-02
         0.24558E-02
         0.27540E-02
         0.42543E-02
         0.35225E-02
         0.42543E-02
         0.34849E-02
         0.27286E-02
         0.31852E-02
         0.32579E-02
         0.27029E-02
         0.27826E-02
         0.27826E-02
         0.27021E-02
         0.31924E-02
         0.31924E-02
         0.37058E-02
         0.36225E-02
         0.28198E-02
         0.31731E-02
         0.33468E-02
         0.33468E-02
         0.32123E-02
         0.29829E-02
         0.32809E-02
         0.27286E-02
         0.30949E-02
         0.31852E-02
         0.32579E-02
         0.32579E-02
         0.30101E-02
         0.27198E-02
         0.27029E-02
         0.27826E-02
         0.27826E-02
         0.27021E-02
         0.31924E-02
         0.31924E-02
         0.32634E-02
         0.34579E-02
         0.37058E-02
         0.37058E-02
         0.36225E-02
         0.28198E-02
         0.29260E-02
         0.32579E-02
         0.32579E-02
         0.32123E-02
         0.29829E-02
         0.32809E-02
         0.32809E-02
         0.42443E-02
         0.35197E-02
         0.37716E-02
         0.42443E-02
         0.37716E-02
         0.37716E-02
         0.30119E-02
         0.32105E-02
         0.42443E-02
         0.32105E-02
         0.24155E-02
         0.30110E-02
         0.32590E-02
         0.26388E-02
         0.27199E-02
         0.42535E-02
         0.36343E-02
         0.42535E-02
         0.32106E-02
         0.29517E-02
         0.34575E-02
         0.32635E-02
         0.37055E-02
         0.32106E-02
         0.30643E-02
         0.35227E-02
         0.26663E-02
         0.26663E-02
         0.24553E-02
         0.27533E-02
         0.42535E-02
         0.35227E-02
         0.42535E-02
         0.34860E-02
         0.27286E-02
         0.31855E-02
         0.32590E-02
         0.27032E-02
         0.27826E-02
         0.27826E-02
         0.27022E-02
         0.31927E-02
         0.31927E-02
         0.37055E-02
         0.36224E-02
         0.28195E-02
         0.31737E-02
         0.33467E-02
         0.33467E-02
         0.32132E-02
         0.29828E-02
         0.32807E-02
         0.27286E-02
         0.30939E-02
         0.31855E-02
         0.32590E-02
         0.32590E-02
         0.30110E-02
         0.27199E-02
         0.27032E-02
         0.27826E-02
         0.27826E-02
         0.27022E-02
         0.31927E-02
         0.31927E-02
         0.32635E-02
         0.34575E-02
         0.37055E-02
         0.37055E-02
         0.36224E-02
         0.28195E-02
         0.29269E-02
         0.32591E-02
         0.32591E-02
         0.32132E-02
         0.29828E-02
         0.32807E-02
         0.32807E-02
         0.42444E-02
         0.35197E-02
         0.37721E-02
         0.42444E-02
         0.37721E-02
         0.37721E-02
         0.30121E-02
         0.32107E-02
         0.42444E-02
         0.32107E-02
         0.24154E-02
         0.30119E-02
         0.32601E-02
         0.26376E-02
         0.27199E-02
         0.42527E-02
         0.36334E-02
         0.42527E-02
         0.32108E-02
         0.29504E-02
         0.34571E-02
         0.32636E-02
         0.37051E-02
         0.32108E-02
         0.30632E-02
         0.35229E-02
         0.26648E-02
         0.26648E-02
         0.24552E-02
         0.27527E-02
         0.42527E-02
         0.35229E-02
         0.42527E-02
         0.34871E-02
         0.27287E-02
         0.31858E-02
         0.32601E-02
         0.27036E-02
         0.27825E-02
         0.27825E-02
         0.27023E-02
         0.31929E-02
         0.31929E-02
         0.37051E-02
         0.36223E-02
         0.28192E-02
         0.31742E-02
         0.33466E-02
         0.33466E-02
         0.32140E-02
         0.29827E-02
         0.32805E-02
         0.27287E-02
         0.30930E-02
         0.31858E-02
         0.32601E-02
         0.32601E-02
         0.30119E-02
         0.27199E-02
         0.27036E-02
         0.27825E-02
         0.27825E-02
         0.27023E-02
         0.31929E-02
         0.31929E-02
         0.32636E-02
         0.34571E-02
         0.37051E-02
         0.37051E-02
         0.36223E-02
         0.28192E-02
         0.29279E-02
         0.32602E-02
         0.32602E-02
         0.32140E-02
         0.29827E-02
         0.32805E-02
         0.32805E-02
         0.42445E-02
         0.35197E-02
         0.37726E-02
         0.42445E-02
         0.37726E-02
         0.37726E-02
         0.30123E-02
         0.32108E-02
         0.42445E-02
         0.32108E-02
         0.24152E-02
         0.30129E-02
         0.32611E-02
         0.26363E-02
         0.27200E-02
         0.42518E-02
         0.36325E-02
         0.42518E-02
         0.32110E-02
         0.29492E-02
         0.34566E-02
         0.32636E-02
         0.37047E-02
         0.32110E-02
         0.30621E-02
         0.35231E-02
         0.26633E-02
         0.26633E-02
         0.24554E-02
         0.27520E-02
         0.42518E-02
         0.35231E-02
         0.42518E-02
         0.34882E-02
         0.27288E-02
         0.31861E-02
         0.32611E-02
         0.27040E-02
         0.27825E-02
         0.27825E-02
         0.27024E-02
         0.31932E-02
         0.31932E-02
         0.37047E-02
         0.36222E-02
         0.28189E-02
         0.31747E-02
         0.33465E-02
         0.33465E-02
         0.32149E-02
         0.29826E-02
         0.32803E-02
         0.27288E-02
         0.30921E-02
         0.31861E-02
         0.32611E-02
         0.32611E-02
         0.30129E-02
         0.27200E-02
         0.27040E-02
         0.27825E-02
         0.27825E-02
         0.27024E-02
         0.31932E-02
         0.31932E-02
         0.32636E-02
         0.34566E-02
         0.37047E-02
         0.37047E-02
         0.36222E-02
         0.28189E-02
         0.29289E-02
         0.32613E-02
         0.32613E-02
         0.32149E-02
         0.29826E-02
         0.32803E-02
         0.32803E-02
         0.42447E-02
         0.35196E-02
         0.37732E-02
         0.42447E-02
         0.37732E-02
         0.37732E-02
         0.30125E-02
         0.32111E-02
         0.42447E-02
         0.32111E-02
         0.24151E-02
         0.30138E-02
         0.32622E-02
         0.26351E-02
         0.27200E-02
         0.42510E-02
         0.36315E-02
         0.42510E-02
         0.32112E-02
         0.29480E-02
         0.34562E-02
         0.32637E-02
         0.37043E-02
         0.32112E-02
         0.30610E-02
         0.35233E-02
         0.26619E-02
         0.26619E-02
         0.24557E-02
         0.27514E-02
         0.42510E-02
         0.35233E-02
         0.42510E-02
         0.34894E-02
         0.27289E-02
         0.31864E-02
         0.32622E-02
         0.27044E-02
         0.27825E-02
         0.27825E-02
         0.27025E-02
         0.31934E-02
         0.31934E-02
         0.37043E-02
         0.36220E-02
         0.28186E-02
         0.31753E-02
         0.33464E-02
         0.33464E-02
         0.32157E-02
         0.29824E-02
         0.32801E-02
         0.27289E-02
         0.30911E-02
         0.31864E-02
         0.32622E-02
         0.32622E-02
         0.30138E-02
         0.27200E-02
         0.27044E-02
         0.27825E-02
         0.27825E-02
         0.27025E-02
         0.31934E-02
         0.31934E-02
         0.32637E-02
         0.34562E-02
         0.37043E-02
         0.37043E-02
         0.36220E-02
         0.28186E-02
         0.29298E-02
         0.32624E-02
         0.32624E-02
         0.32157E-02
         0.29824E-02
         0.32801E-02
         0.32801E-02
         0.42448E-02
         0.35196E-02
         0.37737E-02
         0.42448E-02
         0.37737E-02
         0.37737E-02
         0.30126E-02
         0.32112E-02
         0.42448E-02
         0.32112E-02
         0.24150E-02
         0.30147E-02
         0.32633E-02
         0.26339E-02
         0.27200E-02
         0.42501E-02
         0.36306E-02
         0.42501E-02
         0.32114E-02
         0.29467E-02
         0.34558E-02
         0.32638E-02
         0.37039E-02
         0.32114E-02
         0.30598E-02
         0.35235E-02
         0.26604E-02
         0.26604E-02
         0.24559E-02
         0.27507E-02
         0.42501E-02
         0.35235E-02
         0.42501E-02
         0.34905E-02
         0.27289E-02
         0.31867E-02
         0.32633E-02
         0.27048E-02
         0.27825E-02
         0.27825E-02
         0.27026E-02
         0.31937E-02
         0.31937E-02
         0.37039E-02
         0.36219E-02
         0.28183E-02
         0.31758E-02
         0.33463E-02
         0.33463E-02
         0.32166E-02
         0.29823E-02
         0.32799E-02
         0.27289E-02
         0.30902E-02
         0.31867E-02
         0.32633E-02
         0.32633E-02
         0.30147E-02
         0.27200E-02
         0.27048E-02
         0.27825E-02
         0.27825E-02
         0.27026E-02
         0.31937E-02
         0.31937E-02
         0.32638E-02
         0.34558E-02
         0.37039E-02
         0.37039E-02
         0.36219E-02
         0.28183E-02
         0.29308E-02
         0.32635E-02
         0.32635E-02
         0.32166E-02
         0.29823E-02
         0.32799E-02
         0.32799E-02
         0.42448E-02
         0.35196E-02
         0.37737E-02
         0.42448E-02
         0.37737E-02
         0.37737E-02
         0.30126E-02
         0.32112E-02
         0.42448E-02
         0.32112E-02
         0.24148E-02
         0.30147E-02
         0.32633E-02
         0.26327E-02
         0.27200E-02
         0.42493E-02
         0.36297E-02
         0.42493E-02
         0.32114E-02
         0.29455E-02
         0.34553E-02
         0.32638E-02
         0.37036E-02
         0.32114E-02
         0.30587E-02
         0.35235E-02
         0.26590E-02
         0.26590E-02
         0.24559E-02
         0.27501E-02
         0.42493E-02
         0.35235E-02
         0.42493E-02
         0.34905E-02
         0.27289E-02
         0.31867E-02
         0.32633E-02
         0.27048E-02
         0.27825E-02
         0.27825E-02
         0.27026E-02
         0.31937E-02
         0.31937E-02
         0.37036E-02
         0.36218E-02
         0.28180E-02
         0.31758E-02
         0.33462E-02
         0.33462E-02
         0.32166E-02
         0.29822E-02
         0.32797E-02
         0.27289E-02
         0.30892E-02
         0.31867E-02
         0.32633E-02
         0.32633E-02
         0.30147E-02
         0.27200E-02
         0.27048E-02
         0.27825E-02
         0.27825E-02
         0.27026E-02
         0.31937E-02
         0.31937E-02
         0.32638E-02
         0.34553E-02
         0.37036E-02
         0.37036E-02
         0.36218E-02
         0.28180E-02
         0.29308E-02
         0.32635E-02
         0.32635E-02
         0.32166E-02
         0.29822E-02
         0.32797E-02
         0.32797E-02
  
SCALARS              physical_window_y  double 1
LOOKUP_TABLE default
         0.43155E-02
         0.43155E-02
         0.43155E-02
         0.43155E-02
         0.43155E-02
         0.43155E-02
         0.43155E-02
         0.43155E-02
         0.34883E-02
         0.34883E-02
         0.34882E-02
         0.34882E-02
         0.32826E-02
         0.32142E-02
         0.32826E-02
         0.32142E-02
         0.37863E-02
         0.31884E-02
         0.37863E-02
         0.31884E-02
         0.27172E-02
         0.33887E-02
         0.37164E-02
         0.27172E-02
         0.33887E-02
         0.37164E-02
         0.27582E-02
         0.28966E-02
         0.27582E-02
         0.28954E-02
         0.37007E-02
         0.35859E-02
         0.37863E-02
         0.37007E-02
         0.35824E-02
         0.37863E-02
         0.29875E-02
         0.29875E-02
         0.29867E-02
         0.29867E-02
         0.28561E-02
         0.26860E-02
         0.28556E-02
         0.26852E-02
         0.29518E-02
         0.28068E-02
         0.29517E-02
         0.28066E-02
         0.29975E-02
         0.29949E-02
         0.37007E-02
         0.37007E-02
         0.28693E-02
         0.28693E-02
         0.28693E-02
         0.28693E-02
         0.27602E-02
         0.26193E-02
         0.27602E-02
         0.26193E-02
         0.37007E-02
         0.37007E-02
         0.37007E-02
         0.37007E-02
         0.37685E-02
         0.37665E-02
         0.37685E-02
         0.37665E-02
         0.30230E-02
         0.37003E-02
         0.30229E-02
         0.37003E-02
         0.37164E-02
         0.37164E-02
         0.31934E-02
         0.31921E-02
         0.32777E-02
         0.32771E-02
         0.32777E-02
         0.32771E-02
         0.27006E-02
         0.25920E-02
         0.27006E-02
         0.25920E-02
         0.25916E-02
         0.25916E-02
         0.29715E-02
         0.29715E-02
         0.29715E-02
         0.29715E-02
         0.26477E-02
         0.29102E-02
         0.26477E-02
         0.29102E-02
         0.34085E-02
         0.34085E-02
         0.35350E-02
         0.35350E-02
         0.35350E-02
         0.35350E-02
         0.29766E-02
         0.32272E-02
         0.29763E-02
         0.32254E-02
         0.29087E-02
         0.29835E-02
         0.29087E-02
         0.29825E-02
         0.37003E-02
         0.37003E-02
         0.37164E-02
         0.37164E-02
         0.37164E-02
         0.37164E-02
         0.33887E-02
         0.33887E-02
         0.28966E-02
         0.28954E-02
         0.31934E-02
         0.31921E-02
         0.32777E-02
         0.32771E-02
         0.32777E-02
         0.32771E-02
         0.27006E-02
         0.27006E-02
         0.25920E-02
         0.25920E-02
         0.25916E-02
         0.25916E-02
         0.26860E-02
         0.26852E-02
         0.28561E-02
         0.28556E-02
         0.29518E-02
         0.29517E-02
         0.29715E-02
         0.29715E-02
         0.29715E-02
         0.29715E-02
         0.26477E-02
         0.26477E-02
         0.27685E-02
         0.27685E-02
         0.34085E-02
         0.34085E-02
         0.35350E-02
         0.35350E-02
         0.35350E-02
         0.35350E-02
         0.29766E-02
         0.29763E-02
         0.31381E-02
         0.31368E-02
         0.31381E-02
         0.31368E-02
         0.43153E-02
         0.43153E-02
         0.43153E-02
         0.43153E-02
         0.34883E-02
         0.34883E-02
         0.32812E-02
         0.32132E-02
         0.37858E-02
         0.31880E-02
         0.27155E-02
         0.33883E-02
         0.37163E-02
         0.27535E-02
         0.28978E-02
         0.37004E-02
         0.35894E-02
         0.37858E-02
         0.29882E-02
         0.29882E-02
         0.28566E-02
         0.26867E-02
         0.29519E-02
         0.28071E-02
         0.30001E-02
         0.37004E-02
         0.28667E-02
         0.28667E-02
         0.27589E-02
         0.26183E-02
         0.37004E-02
         0.37004E-02
         0.37706E-02
         0.37706E-02
         0.30232E-02
         0.36991E-02
         0.37163E-02
         0.31947E-02
         0.32784E-02
         0.32784E-02
         0.27006E-02
         0.25920E-02
         0.25909E-02
         0.29715E-02
         0.29715E-02
         0.26476E-02
         0.29101E-02
         0.34078E-02
         0.35344E-02
         0.35344E-02
         0.29769E-02
         0.32290E-02
         0.29059E-02
         0.29845E-02
         0.36991E-02
         0.37163E-02
         0.37163E-02
         0.33883E-02
         0.28978E-02
         0.31947E-02
         0.32784E-02
         0.32784E-02
         0.27006E-02
         0.25920E-02
         0.25909E-02
         0.26867E-02
         0.28566E-02
         0.29519E-02
         0.29715E-02
         0.29715E-02
         0.26476E-02
         0.27685E-02
         0.34078E-02
         0.35344E-02
         0.35344E-02
         0.29769E-02
         0.31395E-02
         0.31395E-02
         0.43150E-02
         0.43150E-02
         0.43150E-02
         0.43150E-02
         0.34884E-02
         0.34884E-02
         0.32798E-02
         0.32122E-02
         0.37853E-02
         0.31876E-02
         0.27137E-02
         0.33879E-02
         0.37162E-02
         0.27488E-02
         0.28990E-02
         0.37001E-02
         0.35930E-02
         0.37853E-02
         0.29889E-02
         0.29889E-02
         0.28571E-02
         0.26875E-02
         0.29521E-02
         0.28074E-02
         0.30027E-02
         0.37001E-02
         0.28641E-02
         0.28641E-02
         0.27576E-02
         0.26173E-02
         0.37001E-02
         0.37001E-02
         0.37727E-02
         0.37727E-02
         0.30234E-02
         0.36979E-02
         0.37162E-02
         0.31960E-02
         0.32790E-02
         0.32790E-02
         0.27006E-02
         0.25920E-02
         0.25902E-02
         0.29715E-02
         0.29715E-02
         0.26476E-02
         0.29100E-02
         0.34071E-02
         0.35339E-02
         0.35339E-02
         0.29772E-02
         0.32307E-02
         0.29032E-02
         0.29855E-02
         0.36979E-02
         0.37162E-02
         0.37162E-02
         0.33879E-02
         0.28990E-02
         0.31960E-02
         0.32790E-02
         0.32790E-02
         0.27006E-02
         0.25920E-02
         0.25902E-02
         0.26875E-02
         0.28571E-02
         0.29521E-02
         0.29715E-02
         0.29715E-02
         0.26476E-02
         0.27684E-02
         0.34071E-02
         0.35339E-02
         0.35339E-02
         0.29772E-02
         0.31408E-02
         0.31408E-02
         0.43148E-02
         0.43148E-02
         0.43148E-02
         0.43148E-02
         0.34885E-02
         0.34885E-02
         0.32783E-02
         0.32112E-02
         0.37849E-02
         0.31872E-02
         0.27120E-02
         0.33875E-02
         0.37161E-02
         0.27441E-02
         0.29003E-02
         0.36998E-02
         0.35965E-02
         0.37849E-02
         0.29896E-02
         0.29896E-02
         0.28575E-02
         0.26882E-02
         0.29522E-02
         0.28077E-02
         0.30053E-02
         0.36998E-02
         0.28615E-02
         0.28615E-02
         0.27563E-02
         0.26163E-02
         0.36998E-02
         0.36998E-02
         0.37747E-02
         0.37747E-02
         0.30236E-02
         0.36967E-02
         0.37161E-02
         0.31973E-02
         0.32796E-02
         0.32796E-02
         0.27006E-02
         0.25920E-02
         0.25895E-02
         0.29714E-02
         0.29714E-02
         0.26475E-02
         0.29099E-02
         0.34063E-02
         0.35333E-02
         0.35333E-02
         0.29775E-02
         0.32325E-02
         0.29004E-02
         0.29865E-02
         0.36967E-02
         0.37161E-02
         0.37161E-02
         0.33875E-02
         0.29003E-02
         0.31973E-02
         0.32796E-02
         0.32796E-02
         0.27006E-02
         0.25920E-02
         0.25895E-02
         0.26882E-02
         0.28575E-02
         0.29522E-02
         0.29714E-02
         0.29714E-02
         0.26475E-02
         0.27684E-02
         0.34063E-02
         0.35333E-02
         0.35333E-02
         0.29775E-02
         0.31422E-02
         0.31422E-02
         0.43145E-02
         0.43145E-02
         0.43145E-02
         0.43145E-02
         0.34886E-02
         0.34886E-02
         0.32769E-02
         0.32102E-02
         0.37844E-02
         0.31868E-02
         0.27103E-02
         0.33871E-02
         0.37160E-02
         0.27394E-02
         0.29015E-02
         0.36995E-02
         0.36000E-02
         0.37844E-02
         0.29903E-02
         0.29903E-02
         0.28580E-02
         0.26890E-02
         0.29523E-02
         0.28079E-02
         0.30079E-02
         0.36995E-02
         0.28589E-02
         0.28589E-02
         0.27550E-02
         0.26152E-02
         0.36995E-02
         0.36995E-02
         0.37768E-02
         0.37768E-02
         0.30238E-02
         0.36956E-02
         0.37160E-02
         0.31986E-02
         0.32802E-02
         0.32802E-02
         0.27006E-02
         0.25920E-02
         0.25887E-02
         0.29714E-02
         0.29714E-02
         0.26475E-02
         0.29098E-02
         0.34056E-02
         0.35327E-02
         0.35327E-02
         0.29778E-02
         0.32342E-02
         0.28977E-02
         0.29875E-02
         0.36956E-02
         0.37160E-02
         0.37160E-02
         0.33871E-02
         0.29015E-02
         0.31986E-02
         0.32802E-02
         0.32802E-02
         0.27006E-02
         0.25920E-02
         0.25887E-02
         0.26890E-02
         0.28580E-02
         0.29523E-02
         0.29714E-02
         0.29714E-02
         0.26475E-02
         0.27683E-02
         0.34056E-02
         0.35327E-02
         0.35327E-02
         0.29778E-02
         0.31435E-02
         0.31435E-02
         0.43143E-02
         0.43143E-02
         0.43143E-02
         0.43143E-02
         0.34887E-02
         0.34887E-02
         0.32755E-02
         0.32091E-02
         0.37839E-02
         0.31864E-02
         0.27086E-02
         0.33867E-02
         0.37159E-02
         0.27347E-02
         0.29027E-02
         0.36991E-02
         0.36036E-02
         0.37839E-02
         0.29920E-02
         0.29920E-02
         0.28585E-02
         0.26897E-02
         0.29525E-02
         0.28082E-02
         0.30105E-02
         0.36991E-02
         0.28563E-02
         0.28563E-02
         0.27537E-02
         0.26142E-02
         0.36991E-02
         0.36991E-02
         0.37789E-02
         0.37789E-02
         0.30240E-02
         0.36944E-02
         0.37159E-02
         0.31999E-02
         0.32808E-02
         0.32808E-02
         0.27006E-02
         0.25920E-02
         0.25880E-02
         0.29714E-02
         0.29714E-02
         0.26474E-02
         0.29097E-02
         0.34049E-02
         0.35322E-02
         0.35322E-02
         0.29781E-02
         0.32360E-02
         0.28949E-02
         0.29885E-02
         0.36944E-02
         0.37159E-02
         0.37159E-02
         0.33867E-02
         0.29027E-02
         0.31999E-02
         0.32808E-02
         0.32808E-02
         0.27006E-02
         0.25920E-02
         0.25880E-02
         0.26897E-02
         0.28585E-02
         0.29525E-02
         0.29714E-02
         0.29714E-02
         0.26474E-02
         0.27683E-02
         0.34049E-02
         0.35322E-02
         0.35322E-02
         0.29781E-02
         0.31449E-02
         0.31449E-02
         0.43140E-02
         0.43140E-02
         0.43140E-02
         0.43140E-02
         0.34888E-02
         0.34888E-02
         0.32740E-02
         0.32081E-02
         0.37834E-02
         0.31860E-02
         0.27069E-02
         0.33863E-02
         0.37158E-02
         0.27299E-02
         0.29039E-02
         0.36988E-02
         0.36071E-02
         0.37834E-02
         0.29946E-02
         0.29946E-02
         0.28589E-02
         0.26905E-02
         0.29526E-02
         0.28085E-02
         0.30131E-02
         0.36988E-02
         0.28538E-02
         0.28538E-02
         0.27524E-02
         0.26132E-02
         0.36988E-02
         0.36988E-02
         0.37809E-02
         0.37809E-02
         0.30241E-02
         0.36932E-02
         0.37158E-02
         0.32012E-02
         0.32814E-02
         0.32814E-02
         0.27006E-02
         0.25920E-02
         0.25873E-02
         0.29714E-02
         0.29714E-02
         0.26473E-02
         0.29097E-02
         0.34041E-02
         0.35316E-02
         0.35316E-02
         0.29784E-02
         0.32378E-02
         0.28921E-02
         0.29895E-02
         0.36932E-02
         0.37158E-02
         0.37158E-02
         0.33863E-02
         0.29039E-02
         0.32012E-02
         0.32814E-02
         0.32814E-02
         0.27006E-02
         0.25920E-02
         0.25873E-02
         0.26905E-02
         0.28589E-02
         0.29526E-02
         0.29714E-02
         0.29714E-02
         0.26473E-02
         0.27683E-02
         0.34041E-02
         0.35316E-02
         0.35316E-02
         0.29784E-02
         0.31463E-02
         0.31463E-02
         0.43138E-02
         0.43138E-02
         0.43138E-02
         0.43138E-02
         0.34888E-02
         0.34888E-02
         0.32726E-02
         0.32071E-02
         0.37830E-02
         0.31856E-02
         0.27051E-02
         0.33859E-02
         0.37157E-02
         0.27252E-02
         0.29051E-02
         0.36985E-02
         0.36106E-02
         0.37830E-02
         0.29972E-02
         0.29972E-02
         0.28594E-02
         0.26912E-02
         0.29528E-02
         0.28087E-02
         0.30156E-02
         0.36985E-02
         0.28512E-02
         0.28512E-02
         0.27512E-02
         0.26122E-02
         0.36985E-02
         0.36985E-02
         0.37830E-02
         0.37830E-02
         0.30243E-02
         0.36920E-02
         0.37157E-02
         0.32025E-02
         0.32821E-02
         0.32821E-02
         0.27006E-02
         0.25920E-02
         0.25866E-02
         0.29714E-02
         0.29714E-02
         0.26473E-02
         0.29096E-02
         0.34034E-02
         0.35310E-02
         0.35310E-02
         0.29787E-02
         0.32396E-02
         0.28894E-02
         0.29905E-02
         0.36920E-02
         0.37157E-02
         0.37157E-02
         0.33859E-02
         0.29051E-02
         0.32025E-02
         0.32821E-02
         0.32821E-02
         0.27006E-02
         0.25920E-02
         0.25866E-02
         0.26912E-02
         0.28594E-02
         0.29528E-02
         0.29714E-02
         0.29714E-02
         0.26473E-02
         0.27682E-02
         0.34034E-02
         0.35310E-02
         0.35310E-02
         0.29787E-02
         0.31476E-02
         0.31476E-02
         0.43135E-02
         0.43135E-02
         0.43135E-02
         0.43135E-02
         0.34889E-02
         0.34889E-02
         0.32712E-02
         0.32061E-02
         0.37825E-02
         0.31852E-02
         0.27034E-02
         0.33856E-02
         0.37156E-02
         0.27205E-02
         0.29063E-02
         0.36982E-02
         0.36142E-02
         0.37851E-02
         0.29998E-02
         0.29998E-02
         0.28599E-02
         0.26920E-02
         0.29529E-02
         0.28090E-02
         0.30182E-02
         0.36982E-02
         0.28486E-02
         0.28486E-02
         0.27499E-02
         0.26112E-02
         0.36982E-02
         0.36982E-02
         0.37851E-02
         0.37851E-02
         0.30245E-02
         0.36908E-02
         0.37156E-02
         0.32038E-02
         0.32827E-02
         0.32827E-02
         0.27006E-02
         0.25920E-02
         0.25859E-02
         0.29714E-02
         0.29714E-02
         0.26472E-02
         0.29095E-02
         0.34027E-02
         0.35304E-02
         0.35304E-02
         0.29790E-02
         0.32413E-02
         0.28866E-02
         0.29915E-02
         0.36908E-02
         0.37156E-02
         0.37156E-02
         0.33856E-02
         0.29063E-02
         0.32038E-02
         0.32827E-02
         0.32827E-02
         0.27006E-02
         0.25920E-02
         0.25859E-02
         0.26920E-02
         0.28599E-02
         0.29529E-02
         0.29714E-02
         0.29714E-02
         0.26472E-02
         0.27682E-02
         0.34027E-02
         0.35304E-02
         0.35304E-02
         0.29790E-02
         0.31490E-02
         0.31490E-02
         0.43133E-02
         0.43133E-02
         0.43133E-02
         0.43133E-02
         0.34890E-02
         0.34890E-02
         0.32698E-02
         0.32051E-02
         0.37820E-02
         0.31848E-02
         0.27017E-02
         0.33851E-02
         0.37155E-02
         0.27158E-02
         0.29075E-02
         0.36979E-02
         0.36177E-02
         0.37871E-02
         0.30024E-02
         0.30024E-02
         0.28603E-02
         0.26927E-02
         0.29530E-02
         0.28093E-02
         0.30208E-02
         0.36979E-02
         0.28460E-02
         0.28460E-02
         0.27486E-02
         0.26101E-02
         0.36979E-02
         0.36979E-02
         0.37871E-02
         0.37871E-02
         0.30247E-02
         0.36896E-02
         0.37155E-02
         0.32051E-02
         0.32833E-02
         0.32833E-02
         0.27006E-02
         0.25920E-02
         0.25851E-02
         0.29714E-02
         0.29714E-02
         0.26472E-02
         0.29094E-02
         0.34019E-02
         0.35299E-02
         0.35299E-02
         0.29793E-02
         0.32431E-02
         0.28838E-02
         0.29925E-02
         0.36896E-02
         0.37155E-02
         0.37155E-02
         0.33851E-02
         0.29075E-02
         0.32051E-02
         0.32833E-02
         0.32833E-02
         0.27006E-02
         0.25920E-02
         0.25851E-02
         0.26927E-02
         0.28603E-02
         0.29530E-02
         0.29714E-02
         0.29714E-02
         0.26472E-02
         0.27681E-02
         0.34019E-02
         0.35299E-02
         0.35299E-02
         0.29793E-02
         0.31503E-02
         0.31503E-02
         0.43130E-02
         0.43130E-02
         0.43130E-02
         0.43130E-02
         0.34891E-02
         0.34891E-02
         0.32683E-02
         0.32041E-02
         0.37816E-02
         0.31844E-02
         0.27000E-02
         0.33848E-02
         0.37154E-02
         0.27111E-02
         0.29087E-02
         0.36976E-02
         0.36213E-02
         0.37892E-02
         0.30050E-02
         0.30050E-02
         0.28608E-02
         0.26935E-02
         0.29532E-02
         0.28096E-02
         0.30234E-02
         0.36976E-02
         0.28434E-02
         0.28434E-02
         0.27472E-02
         0.26091E-02
         0.36976E-02
         0.36976E-02
         0.37892E-02
         0.37892E-02
         0.30249E-02
         0.36885E-02
         0.37154E-02
         0.32064E-02
         0.32839E-02
         0.32839E-02
         0.27006E-02
         0.25920E-02
         0.25844E-02
         0.29714E-02
         0.29714E-02
         0.26471E-02
         0.29094E-02
         0.34012E-02
         0.35293E-02
         0.35293E-02
         0.29797E-02
         0.32449E-02
         0.28811E-02
         0.29935E-02
         0.36885E-02
         0.37154E-02
         0.37154E-02
         0.33848E-02
         0.29087E-02
         0.32064E-02
         0.32839E-02
         0.32839E-02
         0.27006E-02
         0.25920E-02
         0.25844E-02
         0.26935E-02
         0.28608E-02
         0.29532E-02
         0.29714E-02
         0.29714E-02
         0.26471E-02
         0.27681E-02
         0.34012E-02
         0.35293E-02
         0.35293E-02
         0.29797E-02
         0.31517E-02
         0.31517E-02
         0.43128E-02
         0.43128E-02
         0.43128E-02
         0.43128E-02
         0.34892E-02
         0.34892E-02
         0.32669E-02
         0.32031E-02
         0.37811E-02
         0.31840E-02
         0.26982E-02
         0.33844E-02
         0.37152E-02
         0.27063E-02
         0.29099E-02
         0.36973E-02
         0.36248E-02
         0.37913E-02
         0.30076E-02
         0.30076E-02
         0.28613E-02
         0.26942E-02
         0.29533E-02
         0.28099E-02
         0.30260E-02
         0.36973E-02
         0.28408E-02
         0.28408E-02
         0.27460E-02
         0.26081E-02
         0.36973E-02
         0.36973E-02
         0.37913E-02
         0.37913E-02
         0.30250E-02
         0.36873E-02
         0.37152E-02
         0.32077E-02
         0.32845E-02
         0.32845E-02
         0.27006E-02
         0.25920E-02
         0.25837E-02
         0.29714E-02
         0.29714E-02
         0.26471E-02
         0.29093E-02
         0.34005E-02
         0.35287E-02
         0.35287E-02
         0.29800E-02
         0.32467E-02
         0.28783E-02
         0.29945E-02
         0.36873E-02
         0.37152E-02
         0.37152E-02
         0.33844E-02
         0.29099E-02
         0.32077E-02
         0.32845E-02
         0.32845E-02
         0.27006E-02
         0.25920E-02
         0.25837E-02
         0.26942E-02
         0.28613E-02
         0.29533E-02
         0.29714E-02
         0.29714E-02
         0.26471E-02
         0.27681E-02
         0.34005E-02
         0.35287E-02
         0.35287E-02
         0.29800E-02
         0.31530E-02
         0.31530E-02
         0.43125E-02
         0.43125E-02
         0.43125E-02
         0.43125E-02
         0.34893E-02
         0.34893E-02
         0.32655E-02
         0.32021E-02
         0.37806E-02
         0.31836E-02
         0.26965E-02
         0.33840E-02
         0.37151E-02
         0.27016E-02
         0.29111E-02
         0.36969E-02
         0.36283E-02
         0.37933E-02
         0.30102E-02
         0.30102E-02
         0.28617E-02
         0.26950E-02
         0.29535E-02
         0.28101E-02
         0.30286E-02
         0.36969E-02
         0.28382E-02
         0.28382E-02
         0.27447E-02
         0.26071E-02
         0.36969E-02
         0.36969E-02
         0.37933E-02
         0.37933E-02
         0.30252E-02
         0.36861E-02
         0.37151E-02
         0.32090E-02
         0.32852E-02
         0.32852E-02
         0.27006E-02
         0.25920E-02
         0.25830E-02
         0.29714E-02
         0.29714E-02
         0.26470E-02
         0.29092E-02
         0.33997E-02
         0.35282E-02
         0.35282E-02
         0.29803E-02
         0.32484E-02
         0.28755E-02
         0.29955E-02
         0.36861E-02
         0.37151E-02
         0.37151E-02
         0.33840E-02
         0.29111E-02
         0.32090E-02
         0.32852E-02
         0.32852E-02
         0.27006E-02
         0.25920E-02
         0.25830E-02
         0.26950E-02
         0.28617E-02
         0.29535E-02
         0.29714E-02
         0.29714E-02
         0.26470E-02
         0.27680E-02
         0.33997E-02
         0.35282E-02
         0.35282E-02
         0.29803E-02
         0.31544E-02
         0.31544E-02
         0.43123E-02
         0.43123E-02
         0.43123E-02
         0.43123E-02
         0.34893E-02
         0.34893E-02
         0.32640E-02
         0.32011E-02
         0.37801E-02
         0.31832E-02
         0.26948E-02
         0.33836E-02
         0.37150E-02
         0.26969E-02
         0.29123E-02
         0.36966E-02
         0.36319E-02
         0.37954E-02
         0.30128E-02
         0.30128E-02
         0.28622E-02
         0.26957E-02
         0.29536E-02
         0.28104E-02
         0.30312E-02
         0.36966E-02
         0.28357E-02
         0.28357E-02
         0.27434E-02
         0.26061E-02
         0.36966E-02
         0.36966E-02
         0.37954E-02
         0.37954E-02
         0.30254E-02
         0.36849E-02
         0.37150E-02
         0.32103E-02
         0.32858E-02
         0.32858E-02
         0.27006E-02
         0.25920E-02
         0.25823E-02
         0.29714E-02
         0.29714E-02
         0.26470E-02
         0.29091E-02
         0.33990E-02
         0.35276E-02
         0.35276E-02
         0.29806E-02
         0.32502E-02
         0.28728E-02
         0.29965E-02
         0.36849E-02
         0.37150E-02
         0.37150E-02
         0.33836E-02
         0.29123E-02
         0.32103E-02
         0.32858E-02
         0.32858E-02
         0.27006E-02
         0.25920E-02
         0.25823E-02
         0.26957E-02
         0.28622E-02
         0.29536E-02
         0.29714E-02
         0.29714E-02
         0.26470E-02
         0.27680E-02
         0.33990E-02
         0.35276E-02
         0.35276E-02
         0.29806E-02
         0.31557E-02
         0.31557E-02
         0.43120E-02
         0.43120E-02
         0.43120E-02
         0.43120E-02
         0.34894E-02
         0.34894E-02
         0.32626E-02
         0.32001E-02
         0.37797E-02
         0.31828E-02
         0.26931E-02
         0.33832E-02
         0.37149E-02
         0.26922E-02
         0.29135E-02
         0.36963E-02
         0.36354E-02
         0.37975E-02
         0.30154E-02
         0.30154E-02
         0.28627E-02
         0.26965E-02
         0.29537E-02
         0.28107E-02
         0.30338E-02
         0.36963E-02
         0.28331E-02
         0.28331E-02
         0.27421E-02
         0.26051E-02
         0.36963E-02
         0.36963E-02
         0.37975E-02
         0.37975E-02
         0.30256E-02
         0.36838E-02
         0.37149E-02
         0.32116E-02
         0.32864E-02
         0.32864E-02
         0.27006E-02
         0.25920E-02
         0.25815E-02
         0.29714E-02
         0.29714E-02
         0.26469E-02
         0.29090E-02
         0.33983E-02
         0.35270E-02
         0.35270E-02
         0.29809E-02
         0.32519E-02
         0.28700E-02
         0.29975E-02
         0.36838E-02
         0.37149E-02
         0.37149E-02
         0.33832E-02
         0.29135E-02
         0.32116E-02
         0.32864E-02
         0.32864E-02
         0.27006E-02
         0.25920E-02
         0.25815E-02
         0.26965E-02
         0.28627E-02
         0.29537E-02
         0.29714E-02
         0.29714E-02
         0.26469E-02
         0.27680E-02
         0.33983E-02
         0.35270E-02
         0.35270E-02
         0.29809E-02
         0.31571E-02
         0.31571E-02
         0.43118E-02
         0.43118E-02
         0.43118E-02
         0.43118E-02
         0.34895E-02
         0.34895E-02
         0.32612E-02
         0.31990E-02
         0.37792E-02
         0.31824E-02
         0.26913E-02
         0.33828E-02
         0.37148E-02
         0.26875E-02
         0.29148E-02
         0.36960E-02
         0.36390E-02
         0.37995E-02
         0.30180E-02
         0.30180E-02
         0.28631E-02
         0.26972E-02
         0.29539E-02
         0.28110E-02
         0.30364E-02
         0.36960E-02
         0.28305E-02
         0.28305E-02
         0.27408E-02
         0.26040E-02
         0.36960E-02
         0.36960E-02
         0.37995E-02
         0.37995E-02
         0.30258E-02
         0.36826E-02
         0.37148E-02
         0.32129E-02
         0.32870E-02
         0.32870E-02
         0.27006E-02
         0.25920E-02
         0.25808E-02
         0.29713E-02
         0.29713E-02
         0.26468E-02
         0.29089E-02
         0.33975E-02
         0.35264E-02
         0.35264E-02
         0.29812E-02
         0.32537E-02
         0.28672E-02
         0.29985E-02
         0.36826E-02
         0.37148E-02
         0.37148E-02
         0.33828E-02
         0.29148E-02
         0.32129E-02
         0.32870E-02
         0.32870E-02
         0.27006E-02
         0.25920E-02
         0.25808E-02
         0.26972E-02
         0.28631E-02
         0.29539E-02
         0.29713E-02
         0.29713E-02
         0.26468E-02
         0.27679E-02
         0.33975E-02
         0.35264E-02
         0.35264E-02
         0.29812E-02
         0.31585E-02
         0.31585E-02
         0.43115E-02
         0.43115E-02
         0.43115E-02
         0.43115E-02
         0.34896E-02
         0.34896E-02
         0.32597E-02
         0.31980E-02
         0.37787E-02
         0.31820E-02
         0.26896E-02
         0.33824E-02
         0.37147E-02
         0.26827E-02
         0.29160E-02
         0.36957E-02
         0.36425E-02
         0.38016E-02
         0.30206E-02
         0.30206E-02
         0.28636E-02
         0.26980E-02
         0.29540E-02
         0.28112E-02
         0.30390E-02
         0.36957E-02
         0.28279E-02
         0.28279E-02
         0.27395E-02
         0.26030E-02
         0.36957E-02
         0.36957E-02
         0.38016E-02
         0.38016E-02
         0.30260E-02
         0.36814E-02
         0.37147E-02
         0.32141E-02
         0.32876E-02
         0.32876E-02
         0.27006E-02
         0.25920E-02
         0.25801E-02
         0.29713E-02
         0.29713E-02
         0.26468E-02
         0.29089E-02
         0.33968E-02
         0.35259E-02
         0.35259E-02
         0.29815E-02
         0.32555E-02
         0.28645E-02
         0.29995E-02
         0.36814E-02
         0.37147E-02
         0.37147E-02
         0.33824E-02
         0.29160E-02
         0.32141E-02
         0.32876E-02
         0.32876E-02
         0.27006E-02
         0.25920E-02
         0.25801E-02
         0.26980E-02
         0.28636E-02
         0.29540E-02
         0.29713E-02
         0.29713E-02
         0.26468E-02
         0.27679E-02
         0.33968E-02
         0.35259E-02
         0.35259E-02
         0.29815E-02
         0.31598E-02
         0.31598E-02
         0.43113E-02
         0.43113E-02
         0.43113E-02
         0.43113E-02
         0.34897E-02
         0.34897E-02
         0.32583E-02
         0.31970E-02
         0.37783E-02
         0.31816E-02
         0.26879E-02
         0.33820E-02
         0.37146E-02
         0.26780E-02
         0.29172E-02
         0.36954E-02
         0.36460E-02
         0.38037E-02
         0.30232E-02
         0.30232E-02
         0.28641E-02
         0.26987E-02
         0.29542E-02
         0.28115E-02
         0.30416E-02
         0.36954E-02
         0.28253E-02
         0.28253E-02
         0.27382E-02
         0.26020E-02
         0.36954E-02
         0.36954E-02
         0.38037E-02
         0.38037E-02
         0.30261E-02
         0.36802E-02
         0.37146E-02
         0.32154E-02
         0.32882E-02
         0.32882E-02
         0.27006E-02
         0.25921E-02
         0.25794E-02
         0.29713E-02
         0.29713E-02
         0.26467E-02
         0.29088E-02
         0.33961E-02
         0.35253E-02
         0.35253E-02
         0.29818E-02
         0.32573E-02
         0.28617E-02
         0.30005E-02
         0.36802E-02
         0.37146E-02
         0.37146E-02
         0.33820E-02
         0.29172E-02
         0.32154E-02
         0.32882E-02
         0.32882E-02
         0.27006E-02
         0.25921E-02
         0.25794E-02
         0.26987E-02
         0.28641E-02
         0.29542E-02
         0.29713E-02
         0.29713E-02
         0.26467E-02
         0.27678E-02
         0.33961E-02
         0.35253E-02
         0.35253E-02
         0.29818E-02
         0.31612E-02
         0.31612E-02
         0.43110E-02
         0.43110E-02
         0.43110E-02
         0.43110E-02
         0.34898E-02
         0.34898E-02
         0.32569E-02
         0.31960E-02
         0.37778E-02
         0.31812E-02
         0.26862E-02
         0.33816E-02
         0.37145E-02
         0.26733E-02
         0.29184E-02
         0.36950E-02
         0.36495E-02
         0.38057E-02
         0.30258E-02
         0.30258E-02
         0.28645E-02
         0.26995E-02
         0.29543E-02
         0.28118E-02
         0.30442E-02
         0.36950E-02
         0.28227E-02
         0.28227E-02
         0.27369E-02
         0.26010E-02
         0.36950E-02
         0.36950E-02
         0.38057E-02
         0.38057E-02
         0.30263E-02
         0.36790E-02
         0.37145E-02
         0.32167E-02
         0.32889E-02
         0.32889E-02
         0.27006E-02
         0.25921E-02
         0.25787E-02
         0.29713E-02
         0.29713E-02
         0.26467E-02
         0.29087E-02
         0.33953E-02
         0.35247E-02
         0.35247E-02
         0.29821E-02
         0.32590E-02
         0.28589E-02
         0.30015E-02
         0.36790E-02
         0.37145E-02
         0.37145E-02
         0.33816E-02
         0.29184E-02
         0.32167E-02
         0.32889E-02
         0.32889E-02
         0.27006E-02
         0.25921E-02
         0.25787E-02
         0.26995E-02
         0.28645E-02
         0.29543E-02
         0.29713E-02
         0.29713E-02
         0.26467E-02
         0.27678E-02
         0.33953E-02
         0.35247E-02
         0.35247E-02
         0.29821E-02
         0.31625E-02
         0.31625E-02
         0.43108E-02
         0.43108E-02
         0.43108E-02
         0.43108E-02
         0.34898E-02
         0.34898E-02
         0.32555E-02
         0.31950E-02
         0.37773E-02
         0.31808E-02
         0.26845E-02
         0.33812E-02
         0.37144E-02
         0.26686E-02
         0.29196E-02
         0.36948E-02
         0.36531E-02
         0.38078E-02
         0.30285E-02
         0.30285E-02
         0.28650E-02
         0.27002E-02
         0.29544E-02
         0.28120E-02
         0.30467E-02
         0.36948E-02
         0.28201E-02
         0.28201E-02
         0.27356E-02
         0.26000E-02
         0.36948E-02
         0.36948E-02
         0.38078E-02
         0.38078E-02
         0.30265E-02
         0.36779E-02
         0.37144E-02
         0.32181E-02
         0.32895E-02
         0.32895E-02
         0.27006E-02
         0.25921E-02
         0.25779E-02
         0.29713E-02
         0.29713E-02
         0.26466E-02
         0.29086E-02
         0.33946E-02
         0.35242E-02
         0.35242E-02
         0.29824E-02
         0.32608E-02
         0.28562E-02
         0.30025E-02
         0.36779E-02
         0.37144E-02
         0.37144E-02
         0.33812E-02
         0.29196E-02
         0.32181E-02
         0.32895E-02
         0.32895E-02
         0.27006E-02
         0.25921E-02
         0.25779E-02
         0.27002E-02
         0.28650E-02
         0.29544E-02
         0.29713E-02
         0.29713E-02
         0.26466E-02
         0.27678E-02
         0.33946E-02
         0.35242E-02
         0.35242E-02
         0.29824E-02
         0.31639E-02
         0.31639E-02
         0.43105E-02
         0.43105E-02
         0.43105E-02
         0.43105E-02
         0.34899E-02
         0.34899E-02
         0.32540E-02
         0.31940E-02
         0.37768E-02
         0.31804E-02
         0.26827E-02
         0.33808E-02
         0.37143E-02
         0.26639E-02
         0.29208E-02
         0.36944E-02
         0.36566E-02
         0.38099E-02
         0.30311E-02
         0.30311E-02
         0.28655E-02
         0.27010E-02
         0.29546E-02
         0.28123E-02
         0.30493E-02
         0.36944E-02
         0.28175E-02
         0.28175E-02
         0.27343E-02
         0.25990E-02
         0.36944E-02
         0.36944E-02
         0.38099E-02
         0.38099E-02
         0.30267E-02
         0.36767E-02
         0.37143E-02
         0.32193E-02
         0.32901E-02
         0.32901E-02
         0.27006E-02
         0.25921E-02
         0.25772E-02
         0.29713E-02
         0.29713E-02
         0.26466E-02
         0.29085E-02
         0.33939E-02
         0.35236E-02
         0.35236E-02
         0.29827E-02
         0.32626E-02
         0.28534E-02
         0.30035E-02
         0.36767E-02
         0.37143E-02
         0.37143E-02
         0.33808E-02
         0.29208E-02
         0.32193E-02
         0.32901E-02
         0.32901E-02
         0.27006E-02
         0.25921E-02
         0.25772E-02
         0.27010E-02
         0.28655E-02
         0.29546E-02
         0.29713E-02
         0.29713E-02
         0.26466E-02
         0.27677E-02
         0.33939E-02
         0.35236E-02
         0.35236E-02
         0.29827E-02
         0.31652E-02
         0.31652E-02
         0.43103E-02
         0.43103E-02
         0.43103E-02
         0.43103E-02
         0.34900E-02
         0.34900E-02
         0.32526E-02
         0.31930E-02
         0.37764E-02
         0.31800E-02
         0.26810E-02
         0.33804E-02
         0.37142E-02
         0.26591E-02
         0.29220E-02
         0.36941E-02
         0.36602E-02
         0.38119E-02
         0.30337E-02
         0.30337E-02
         0.28660E-02
         0.27017E-02
         0.29547E-02
         0.28126E-02
         0.30519E-02
         0.36941E-02
         0.28150E-02
         0.28150E-02
         0.27330E-02
         0.25979E-02
         0.36941E-02
         0.36941E-02
         0.38119E-02
         0.38119E-02
         0.30269E-02
         0.36755E-02
         0.37142E-02
         0.32206E-02
         0.32907E-02
         0.32907E-02
         0.27006E-02
         0.25921E-02
         0.25765E-02
         0.29713E-02
         0.29713E-02
         0.26465E-02
         0.29085E-02
         0.33931E-02
         0.35230E-02
         0.35230E-02
         0.29830E-02
         0.32643E-02
         0.28507E-02
         0.30045E-02
         0.36755E-02
         0.37142E-02
         0.37142E-02
         0.33804E-02
         0.29220E-02
         0.32206E-02
         0.32907E-02
         0.32907E-02
         0.27006E-02
         0.25921E-02
         0.25765E-02
         0.27017E-02
         0.28660E-02
         0.29547E-02
         0.29713E-02
         0.29713E-02
         0.26465E-02
         0.27677E-02
         0.33931E-02
         0.35230E-02
         0.35230E-02
         0.29830E-02
         0.31666E-02
         0.31666E-02
         0.43100E-02
         0.43100E-02
         0.43100E-02
         0.43100E-02
         0.34901E-02
         0.34901E-02
         0.32512E-02
         0.31920E-02
         0.37759E-02
         0.31796E-02
         0.26793E-02
         0.33800E-02
         0.37141E-02
         0.26544E-02
         0.29232E-02
         0.36938E-02
         0.36637E-02
         0.38140E-02
         0.30363E-02
         0.30363E-02
         0.28664E-02
         0.27025E-02
         0.29548E-02
         0.28129E-02
         0.30545E-02
         0.36938E-02
         0.28124E-02
         0.28124E-02
         0.27317E-02
         0.25969E-02
         0.36938E-02
         0.36938E-02
         0.38140E-02
         0.38140E-02
         0.30271E-02
         0.36743E-02
         0.37141E-02
         0.32219E-02
         0.32913E-02
         0.32913E-02
         0.27006E-02
         0.25921E-02
         0.25758E-02
         0.29713E-02
         0.29713E-02
         0.26465E-02
         0.29084E-02
         0.33924E-02
         0.35224E-02
         0.35224E-02
         0.29833E-02
         0.32661E-02
         0.28479E-02
         0.30055E-02
         0.36743E-02
         0.37141E-02
         0.37141E-02
         0.33800E-02
         0.29232E-02
         0.32219E-02
         0.32913E-02
         0.32913E-02
         0.27006E-02
         0.25921E-02
         0.25758E-02
         0.27025E-02
         0.28664E-02
         0.29548E-02
         0.29713E-02
         0.29713E-02
         0.26465E-02
         0.27677E-02
         0.33924E-02
         0.35224E-02
         0.35224E-02
         0.29833E-02
         0.31680E-02
         0.31680E-02
         0.43098E-02
         0.43098E-02
         0.43098E-02
         0.43098E-02
         0.34901E-02
         0.34901E-02
         0.32498E-02
         0.31910E-02
         0.37754E-02
         0.31792E-02
         0.26776E-02
         0.33796E-02
         0.37140E-02
         0.26497E-02
         0.29232E-02
         0.36935E-02
         0.36637E-02
         0.38140E-02
         0.30363E-02
         0.30363E-02
         0.28664E-02
         0.27025E-02
         0.29548E-02
         0.28129E-02
         0.30545E-02
         0.36935E-02
         0.28098E-02
         0.28098E-02
         0.27304E-02
         0.25959E-02
         0.36935E-02
         0.36935E-02
         0.38140E-02
         0.38140E-02
         0.30271E-02
         0.36731E-02
         0.37140E-02
         0.32219E-02
         0.32913E-02
         0.32913E-02
         0.27006E-02
         0.25921E-02
         0.25751E-02
         0.29713E-02
         0.29713E-02
         0.26464E-02
         0.29083E-02
         0.33916E-02
         0.35219E-02
         0.35219E-02
         0.29833E-02
         0.32661E-02
         0.28451E-02
         0.30055E-02
         0.36731E-02
         0.37140E-02
         0.37140E-02
         0.33796E-02
         0.29232E-02
         0.32219E-02
         0.32913E-02
         0.32913E-02
         0.27006E-02
         0.25921E-02
         0.25751E-02
         0.27025E-02
         0.28664E-02
         0.29548E-02
         0.29713E-02
         0.29713E-02
         0.26464E-02
         0.27676E-02
         0.33916E-02
         0.35219E-02
         0.35219E-02
         0.29833E-02
         0.31680E-02
         0.31680E-02
  
SCALARS              physical_window_z  double 1
LOOKUP_TABLE default
         0.26928E-02
         0.26928E-02
         0.26928E-02
         0.26928E-02
         0.26928E-02
         0.26928E-02
         0.26928E-02
         0.26928E-02
         0.26928E-02
         0.26928E-02
         0.26928E-02
         0.26928E-02
         0.26928E-02
         0.26928E-02
         0.26928E-02
         0.26928E-02
         0.26928E-02
         0.26928E-02
         0.26928E-02
         0.26928E-02
         0.26928E-02
         0.26928E-02
         0.26928E-02
         0.26928E-02
         0.26928E-02
         0.26928E-02
         0.26928E-02
         0.26928E-02
         0.26928E-02
         0.26928E-02
         0.26928E-02
         0.26928E-02
         0.26928E-02
         0.26928E-02
         0.26928E-02
         0.26928E-02
         0.26928E-02
         0.26928E-02
         0.26928E-02
         0.26928E-02
         0.26928E-02
         0.26928E-02
         0.26928E-02
         0.26928E-02
         0.26928E-02
         0.26928E-02
         0.26928E-02
         0.26928E-02
         0.26928E-02
         0.26928E-02
         0.26928E-02
         0.26928E-02
         0.26928E-02
         0.26928E-02
         0.26928E-02
         0.26928E-02
         0.26928E-02
         0.26928E-02
         0.26928E-02
         0.26928E-02
         0.26928E-02
         0.26928E-02
         0.26928E-02
         0.26928E-02
         0.26928E-02
         0.26928E-02
         0.26928E-02
         0.26928E-02
         0.26928E-02
         0.26928E-02
         0.26928E-02
         0.26928E-02
         0.26928E-02
         0.26928E-02
         0.26928E-02
         0.26928E-02
         0.26928E-02
         0.26928E-02
         0.26928E-02
         0.26928E-02
         0.26928E-02
         0.26928E-02
         0.26928E-02
         0.26928E-02
         0.26928E-02
         0.26928E-02
         0.26928E-02
         0.26928E-02
         0.26928E-02
         0.26928E-02
         0.26928E-02
         0.26928E-02
         0.26928E-02
         0.26928E-02
         0.26928E-02
         0.26928E-02
         0.26928E-02
         0.26928E-02
         0.26928E-02
         0.26928E-02
         0.26928E-02
         0.26928E-02
         0.26928E-02
         0.26928E-02
         0.26928E-02
         0.26928E-02
         0.26928E-02
         0.26928E-02
         0.26928E-02
         0.26928E-02
         0.26928E-02
         0.26928E-02
         0.26928E-02
         0.26928E-02
         0.26928E-02
         0.26928E-02
         0.26928E-02
         0.26928E-02
         0.26928E-02
         0.26928E-02
         0.26928E-02
         0.26928E-02
         0.26928E-02
         0.26928E-02
         0.26928E-02
         0.26928E-02
         0.26928E-02
         0.26928E-02
         0.26928E-02
         0.26928E-02
         0.26928E-02
         0.26928E-02
         0.26928E-02
         0.26928E-02
         0.26928E-02
         0.26928E-02
         0.26928E-02
         0.26928E-02
         0.26928E-02
         0.26928E-02
         0.26928E-02
         0.26928E-02
         0.26928E-02
         0.26928E-02
         0.26928E-02
         0.26928E-02
         0.26928E-02
         0.26928E-02
         0.26928E-02
         0.26928E-02
         0.26928E-02
         0.26928E-02
         0.26928E-02
         0.26928E-02
         0.26928E-02
         0.26928E-02
         0.26927E-02
         0.26927E-02
         0.26927E-02
         0.26927E-02
         0.26927E-02
         0.26927E-02
         0.26927E-02
         0.26927E-02
         0.26927E-02
         0.26927E-02
         0.26927E-02
         0.26927E-02
         0.26927E-02
         0.26927E-02
         0.26927E-02
         0.26927E-02
         0.26927E-02
         0.26927E-02
         0.26927E-02
         0.26927E-02
         0.26927E-02
         0.26927E-02
         0.26927E-02
         0.26927E-02
         0.26927E-02
         0.26927E-02
         0.26927E-02
         0.26927E-02
         0.26927E-02
         0.26927E-02
         0.26927E-02
         0.26927E-02
         0.26927E-02
         0.26927E-02
         0.26927E-02
         0.26927E-02
         0.26927E-02
         0.26927E-02
         0.26927E-02
         0.26927E-02
         0.26927E-02
         0.26927E-02
         0.26927E-02
         0.26927E-02
         0.26927E-02
         0.26927E-02
         0.26927E-02
         0.26927E-02
         0.26927E-02
         0.26927E-02
         0.26927E-02
         0.26927E-02
         0.26927E-02
         0.26927E-02
         0.26927E-02
         0.26927E-02
         0.26927E-02
         0.26927E-02
         0.26927E-02
         0.26927E-02
         0.26927E-02
         0.26927E-02
         0.26927E-02
         0.26927E-02
         0.26927E-02
         0.26927E-02
         0.26927E-02
         0.26927E-02
         0.26927E-02
         0.26927E-02
         0.26927E-02
         0.26927E-02
         0.26927E-02
         0.26927E-02
         0.26927E-02
         0.26927E-02
         0.26927E-02
         0.26927E-02
         0.26927E-02
         0.26927E-02
         0.26927E-02
         0.26927E-02
         0.26927E-02
         0.26927E-02
         0.26927E-02
         0.26927E-02
         0.26927E-02
         0.26927E-02
         0.26927E-02
         0.26927E-02
         0.26927E-02
         0.26927E-02
         0.26927E-02
         0.26927E-02
         0.26927E-02
         0.26927E-02
         0.26927E-02
         0.26927E-02
         0.26927E-02
         0.26927E-02
         0.26927E-02
         0.26927E-02
         0.26927E-02
         0.26927E-02
         0.26927E-02
         0.26927E-02
         0.26927E-02
         0.26927E-02
         0.26927E-02
         0.26927E-02
         0.26927E-02
         0.26927E-02
         0.26927E-02
         0.26927E-02
         0.26927E-02
         0.26927E-02
         0.26927E-02
         0.26927E-02
         0.26927E-02
         0.26927E-02
         0.26927E-02
         0.26927E-02
         0.26927E-02
         0.26927E-02
         0.26927E-02
         0.26927E-02
         0.26927E-02
         0.26927E-02
         0.26927E-02
         0.26927E-02
         0.26927E-02
         0.26927E-02
         0.26927E-02
         0.26927E-02
         0.26927E-02
         0.26927E-02
         0.26927E-02
         0.26927E-02
         0.26927E-02
         0.26927E-02
         0.26927E-02
         0.26927E-02
         0.26927E-02
         0.26927E-02
         0.26927E-02
         0.26927E-02
         0.26927E-02
         0.26927E-02
         0.26927E-02
         0.26927E-02
         0.26927E-02
         0.26927E-02
         0.26927E-02
         0.26927E-02
         0.26927E-02
         0.26927E-02
         0.26927E-02
         0.26927E-02
         0.26927E-02
         0.26927E-02
         0.26927E-02
         0.26927E-02
         0.26927E-02
         0.26927E-02
         0.26927E-02
         0.26927E-02
         0.26927E-02
         0.26927E-02
         0.26927E-02
         0.26927E-02
         0.26927E-02
         0.26927E-02
         0.26927E-02
         0.26927E-02
         0.26927E-02
         0.26927E-02
         0.26927E-02
         0.26927E-02
         0.26927E-02
         0.26927E-02
         0.26927E-02
         0.26927E-02
         0.26927E-02
         0.26927E-02
         0.26927E-02
         0.26927E-02
         0.26927E-02
         0.26927E-02
         0.26927E-02
         0.26927E-02
         0.26927E-02
         0.26927E-02
         0.26927E-02
         0.26927E-02
         0.26927E-02
         0.26927E-02
         0.26927E-02
         0.26927E-02
         0.26927E-02
         0.26927E-02
         0.26927E-02
         0.26927E-02
         0.26927E-02
         0.26927E-02
         0.26927E-02
         0.26927E-02
         0.26927E-02
         0.26927E-02
         0.26927E-02
         0.26927E-02
         0.26927E-02
         0.26927E-02
         0.26927E-02
         0.26927E-02
         0.26927E-02
         0.26927E-02
         0.26927E-02
         0.26927E-02
         0.26927E-02
         0.26927E-02
         0.26927E-02
         0.26927E-02
         0.26927E-02
         0.26927E-02
         0.26927E-02
         0.26927E-02
         0.26927E-02
         0.26927E-02
         0.26927E-02
         0.26927E-02
         0.26927E-02
         0.26927E-02
         0.26927E-02
         0.26927E-02
         0.26927E-02
         0.26927E-02
         0.26927E-02
         0.26927E-02
         0.26927E-02
         0.26927E-02
         0.26927E-02
         0.26927E-02
         0.26927E-02
         0.26927E-02
         0.26927E-02
         0.26927E-02
         0.26927E-02
         0.26927E-02
         0.26927E-02
         0.26927E-02
         0.26927E-02
         0.26927E-02
         0.26927E-02
         0.26927E-02
         0.26927E-02
         0.26927E-02
         0.26927E-02
         0.26927E-02
         0.26927E-02
         0.26927E-02
         0.26927E-02
         0.26927E-02
         0.26927E-02
         0.26927E-02
         0.26927E-02
         0.26927E-02
         0.26927E-02
         0.26927E-02
         0.26927E-02
         0.26927E-02
         0.26927E-02
         0.26927E-02
         0.26927E-02
         0.26927E-02
         0.26927E-02
         0.26927E-02
         0.26927E-02
         0.26927E-02
         0.26927E-02
         0.26927E-02
         0.26927E-02
         0.26927E-02
         0.26927E-02
         0.26927E-02
         0.26927E-02
         0.26927E-02
         0.26927E-02
         0.26927E-02
         0.26927E-02
         0.26927E-02
         0.26927E-02
         0.26927E-02
         0.26927E-02
         0.26927E-02
         0.26927E-02
         0.26927E-02
         0.26927E-02
         0.26927E-02
         0.26927E-02
         0.26927E-02
         0.26927E-02
         0.26927E-02
         0.26927E-02
         0.26927E-02
         0.26927E-02
         0.26927E-02
         0.26927E-02
         0.26927E-02
         0.26927E-02
         0.26927E-02
         0.26927E-02
         0.26927E-02
         0.26927E-02
         0.26927E-02
         0.26927E-02
         0.26927E-02
         0.26927E-02
         0.26927E-02
         0.26927E-02
         0.26927E-02
         0.26927E-02
         0.26927E-02
         0.26927E-02
         0.26927E-02
         0.26927E-02
         0.26927E-02
         0.26927E-02
         0.26927E-02
         0.26927E-02
         0.26927E-02
         0.26927E-02
         0.26927E-02
         0.26927E-02
         0.26927E-02
         0.26927E-02
         0.26927E-02
         0.26927E-02
         0.26927E-02
         0.26927E-02
         0.26927E-02
         0.26927E-02
         0.26927E-02
         0.26927E-02
         0.26927E-02
         0.26927E-02
         0.26927E-02
         0.26927E-02
         0.26927E-02
         0.26927E-02
         0.26927E-02
         0.26927E-02
         0.26927E-02
         0.26927E-02
         0.26927E-02
         0.26927E-02
         0.26927E-02
         0.26927E-02
         0.26927E-02
         0.26927E-02
         0.26927E-02
         0.26927E-02
         0.26927E-02
         0.26927E-02
         0.26927E-02
         0.26927E-02
         0.26927E-02
         0.26927E-02
         0.26927E-02
         0.26927E-02
         0.26927E-02
         0.26927E-02
         0.26927E-02
         0.26927E-02
         0.26927E-02
         0.26927E-02
         0.26927E-02
         0.26927E-02
         0.26927E-02
         0.26927E-02
         0.26927E-02
         0.26927E-02
         0.26927E-02
         0.26927E-02
         0.26927E-02
         0.26927E-02
         0.26927E-02
         0.26927E-02
         0.26927E-02
         0.26927E-02
         0.26927E-02
         0.26927E-02
         0.26927E-02
         0.26927E-02
         0.26927E-02
         0.26927E-02
         0.26927E-02
         0.26927E-02
         0.26927E-02
         0.26927E-02
         0.26927E-02
         0.26927E-02
         0.26927E-02
         0.26927E-02
         0.26927E-02
         0.26927E-02
         0.26927E-02
         0.26927E-02
         0.26927E-02
         0.26927E-02
         0.26927E-02
         0.26927E-02
         0.26927E-02
         0.26927E-02
         0.26927E-02
         0.26927E-02
         0.26927E-02
         0.26927E-02
         0.26927E-02
         0.26927E-02
         0.26927E-02
         0.26927E-02
         0.26927E-02
         0.26927E-02
         0.26927E-02
         0.26927E-02
         0.26927E-02
         0.26927E-02
         0.26927E-02
         0.26927E-02
         0.26927E-02
         0.26927E-02
         0.26927E-02
         0.26927E-02
         0.26927E-02
         0.26927E-02
         0.26927E-02
         0.26927E-02
         0.26927E-02
         0.26927E-02
         0.26927E-02
         0.26927E-02
         0.26927E-02
         0.26927E-02
         0.26927E-02
         0.26927E-02
         0.26927E-02
         0.26927E-02
         0.26927E-02
         0.26927E-02
         0.26927E-02
         0.26927E-02
         0.26927E-02
         0.26927E-02
         0.26927E-02
         0.26927E-02
         0.26927E-02
         0.26927E-02
         0.26927E-02
         0.26927E-02
         0.26927E-02
         0.26927E-02
         0.26927E-02
         0.26927E-02
         0.26927E-02
         0.26927E-02
         0.26927E-02
         0.26927E-02
         0.26927E-02
         0.26927E-02
         0.26927E-02
         0.26927E-02
         0.26927E-02
         0.26927E-02
         0.26927E-02
         0.26927E-02
         0.26927E-02
         0.26927E-02
         0.26927E-02
         0.26927E-02
         0.26927E-02
         0.26927E-02
         0.26927E-02
         0.26927E-02
         0.26927E-02
         0.26927E-02
         0.26927E-02
         0.26927E-02
         0.26927E-02
         0.26927E-02
         0.26927E-02
         0.26927E-02
         0.26927E-02
         0.26927E-02
         0.26927E-02
         0.26927E-02
         0.26927E-02
         0.26927E-02
         0.26927E-02
         0.26927E-02
         0.26927E-02
         0.26927E-02
         0.26927E-02
         0.26927E-02
         0.26927E-02
         0.26927E-02
         0.26927E-02
         0.26927E-02
         0.26927E-02
         0.26927E-02
         0.26927E-02
         0.26927E-02
         0.26927E-02
         0.26927E-02
         0.26927E-02
         0.26927E-02
         0.26927E-02
         0.26927E-02
         0.26927E-02
         0.26927E-02
         0.26927E-02
         0.26927E-02
         0.26927E-02
         0.26927E-02
         0.26927E-02
         0.26927E-02
         0.26927E-02
         0.26927E-02
         0.26927E-02
         0.26927E-02
         0.26927E-02
         0.26927E-02
         0.26927E-02
         0.26927E-02
         0.26927E-02
         0.26927E-02
         0.26927E-02
         0.26927E-02
         0.26927E-02
         0.26927E-02
         0.26927E-02
         0.26927E-02
         0.26927E-02
         0.26927E-02
         0.26927E-02
         0.26927E-02
         0.26927E-02
         0.26927E-02
         0.26927E-02
         0.26927E-02
         0.26927E-02
         0.26927E-02
         0.26927E-02
         0.26927E-02
         0.26927E-02
         0.26927E-02
         0.26927E-02
         0.26927E-02
         0.26927E-02
         0.26927E-02
         0.26927E-02
         0.26927E-02
         0.26927E-02
         0.26927E-02
         0.26927E-02
         0.26927E-02
         0.26927E-02
         0.26927E-02
         0.26927E-02
         0.26927E-02
         0.26927E-02
         0.26927E-02
         0.26927E-02
         0.26927E-02
         0.26927E-02
         0.26927E-02
         0.26927E-02
         0.26927E-02
         0.26927E-02
         0.26927E-02
         0.26927E-02
         0.26927E-02
         0.26927E-02
         0.26927E-02
         0.26927E-02
         0.26927E-02
         0.26927E-02
         0.26927E-02
         0.26927E-02
         0.26927E-02
         0.26927E-02
         0.26927E-02
         0.26927E-02
         0.26927E-02
         0.26927E-02
         0.26927E-02
         0.26927E-02
         0.26927E-02
         0.26927E-02
         0.26927E-02
         0.26927E-02
         0.26927E-02
         0.26927E-02
         0.26927E-02
         0.26927E-02
         0.26927E-02
         0.26927E-02
         0.26927E-02
         0.26927E-02
         0.26927E-02
         0.26927E-02
         0.26927E-02
         0.26927E-02
         0.26927E-02
         0.26927E-02
         0.26927E-02
         0.26927E-02
         0.26927E-02
         0.26927E-02
         0.26927E-02
         0.26927E-02
         0.26927E-02
         0.26927E-02
         0.26927E-02
         0.26927E-02
         0.26927E-02
         0.26927E-02
         0.26927E-02
         0.26927E-02
         0.26927E-02
         0.26927E-02
         0.26927E-02
         0.26927E-02
         0.26927E-02
         0.26927E-02
         0.26927E-02
         0.26927E-02
         0.26927E-02
         0.26927E-02
         0.26927E-02
         0.26927E-02
         0.26927E-02
         0.26927E-02
         0.26927E-02
         0.26927E-02
         0.26927E-02
         0.26927E-02
         0.26927E-02
         0.26927E-02
         0.26927E-02
         0.26927E-02
         0.26927E-02
         0.26927E-02
         0.26927E-02
         0.26927E-02
         0.26927E-02
         0.26927E-02
         0.26927E-02
         0.26927E-02
         0.26927E-02
         0.26927E-02
         0.26927E-02
         0.26927E-02
         0.26927E-02
         0.26927E-02
         0.26927E-02
         0.26927E-02
         0.26927E-02
         0.26927E-02
         0.26927E-02
         0.26927E-02
         0.26927E-02
         0.26927E-02
         0.26927E-02
         0.26927E-02
         0.26927E-02
         0.26927E-02
         0.26927E-02
         0.26927E-02
         0.26927E-02
         0.26927E-02
         0.26927E-02
         0.26927E-02
         0.26927E-02
         0.26927E-02
         0.26927E-02
         0.26927E-02
         0.26927E-02
         0.26927E-02
         0.26927E-02
         0.26927E-02
         0.26927E-02
         0.26927E-02
         0.26927E-02
         0.26927E-02
         0.26927E-02
         0.26927E-02
         0.26927E-02
         0.26927E-02
         0.26927E-02
         0.26927E-02
         0.26927E-02
         0.26927E-02
         0.26927E-02
         0.26927E-02
         0.26927E-02
         0.26927E-02
         0.26927E-02
         0.26927E-02
         0.26927E-02
         0.26927E-02
         0.26927E-02
         0.26927E-02
         0.26927E-02
         0.26927E-02
         0.26927E-02
         0.26927E-02
         0.26927E-02
         0.26927E-02
         0.26927E-02
         0.26927E-02
         0.26927E-02
         0.26927E-02
         0.26927E-02
         0.26927E-02
         0.26927E-02
         0.26927E-02
         0.26927E-02
         0.26927E-02
         0.26927E-02
         0.26927E-02
         0.26927E-02
         0.26927E-02
         0.26927E-02
         0.26927E-02
         0.26927E-02
         0.26927E-02
         0.26927E-02
         0.26927E-02
         0.26927E-02
         0.26927E-02
         0.26927E-02
         0.26927E-02
         0.26927E-02
         0.26927E-02
         0.26927E-02
         0.26927E-02
         0.26927E-02
         0.26927E-02
         0.26927E-02
         0.26927E-02
         0.26927E-02
         0.26927E-02
         0.26927E-02
         0.26927E-02
         0.26927E-02
         0.26927E-02
         0.26927E-02
         0.26927E-02
         0.26927E-02
         0.26927E-02
         0.26927E-02
         0.26927E-02
         0.26927E-02
         0.26927E-02
         0.26927E-02
         0.26927E-02
         0.26927E-02
         0.26927E-02
         0.26927E-02
         0.26927E-02
         0.26927E-02
         0.26927E-02
         0.26927E-02
         0.26927E-02
         0.26927E-02
         0.26927E-02
         0.26927E-02
         0.26927E-02
         0.26927E-02
         0.26927E-02
         0.26927E-02
         0.26927E-02
         0.26927E-02
         0.26927E-02
         0.26927E-02
         0.26927E-02
         0.26927E-02
         0.26927E-02
         0.26927E-02
         0.26927E-02
         0.26927E-02
         0.26927E-02
         0.26927E-02
         0.26927E-02
         0.26927E-02
         0.26927E-02
         0.26927E-02
         0.26927E-02
         0.26927E-02
         0.26927E-02
         0.26927E-02
         0.26927E-02
         0.26927E-02
         0.26927E-02
         0.26927E-02
         0.26927E-02
         0.26927E-02
         0.26927E-02
         0.26927E-02
         0.26927E-02
         0.26927E-02
         0.26927E-02
         0.26927E-02
         0.26927E-02
         0.26927E-02
         0.26927E-02
         0.26927E-02
         0.26927E-02
         0.26927E-02
         0.26927E-02
         0.26927E-02
         0.26927E-02
         0.26927E-02
         0.26927E-02
         0.26927E-02
         0.26927E-02
         0.26927E-02
         0.26927E-02
         0.26927E-02
         0.26927E-02
         0.26927E-02
         0.26927E-02
         0.26927E-02
         0.26927E-02
         0.26927E-02
         0.26927E-02
         0.26927E-02
         0.26927E-02
         0.26927E-02
         0.26927E-02
         0.26927E-02
         0.26927E-02
         0.26927E-02
         0.26927E-02
         0.26927E-02
         0.26927E-02
         0.26927E-02
         0.26927E-02
         0.26927E-02
         0.26927E-02
         0.26927E-02
         0.26927E-02
         0.26927E-02
         0.26927E-02
         0.26927E-02
         0.26927E-02
         0.26927E-02
         0.26927E-02
         0.26927E-02
         0.26927E-02
         0.26927E-02
         0.26927E-02
         0.26927E-02
         0.26927E-02
         0.26927E-02
         0.26927E-02
         0.26927E-02
         0.26927E-02
         0.26927E-02
         0.26927E-02
         0.26927E-02
         0.26927E-02
         0.26927E-02
         0.26927E-02
         0.26927E-02
         0.26927E-02
         0.26927E-02
         0.26927E-02
         0.26927E-02
         0.26927E-02
         0.26927E-02
         0.26927E-02
         0.26927E-02
         0.26927E-02
         0.26927E-02
         0.26927E-02
         0.26927E-02
         0.26927E-02
         0.26927E-02
         0.26927E-02
         0.26927E-02
         0.26927E-02
         0.26927E-02
         0.26927E-02
         0.26927E-02
         0.26927E-02
         0.26927E-02
         0.26927E-02
         0.26927E-02
         0.26927E-02
         0.26927E-02
         0.26927E-02
         0.26927E-02
         0.26927E-02
         0.26927E-02
         0.26927E-02
         0.26927E-02
         0.26927E-02
         0.26927E-02
         0.26927E-02
         0.26927E-02
         0.26927E-02
         0.26927E-02
         0.26927E-02
         0.26927E-02
         0.26927E-02
         0.26927E-02
         0.26927E-02
         0.26927E-02
         0.26927E-02
         0.26927E-02
         0.26927E-02
         0.26927E-02
         0.26927E-02
         0.26927E-02
         0.26927E-02
         0.26927E-02
         0.26927E-02
         0.26927E-02
         0.26927E-02
         0.26927E-02
         0.26927E-02
         0.26927E-02
         0.26927E-02
         0.26927E-02
         0.26927E-02
         0.26927E-02
         0.26927E-02
         0.26927E-02
         0.26927E-02
         0.26927E-02
         0.26927E-02
         0.26927E-02
         0.26927E-02
         0.26927E-02
         0.26927E-02
         0.26927E-02
         0.26927E-02
         0.26927E-02
         0.26927E-02
         0.26927E-02
         0.26927E-02
         0.26927E-02
         0.26927E-02
         0.26927E-02
         0.26927E-02
         0.26927E-02
         0.26927E-02
         0.26927E-02
         0.26927E-02
         0.26927E-02
         0.26927E-02
         0.26927E-02
         0.26927E-02
         0.26927E-02
         0.26927E-02
         0.26927E-02
         0.26927E-02
         0.26927E-02
         0.26927E-02
         0.26927E-02
         0.26927E-02
         0.26927E-02
         0.26927E-02
         0.26927E-02
         0.26927E-02
         0.26927E-02
         0.26927E-02
         0.26927E-02
         0.26927E-02
         0.26927E-02
         0.26927E-02
         0.26927E-02
         0.26927E-02
         0.26927E-02
         0.26927E-02
         0.26927E-02
         0.26927E-02
         0.26927E-02
         0.26927E-02
         0.26927E-02
         0.26927E-02
         0.26927E-02
         0.26927E-02
         0.26927E-02
         0.26927E-02
         0.26927E-02
         0.26927E-02
         0.26927E-02
         0.26927E-02
         0.26927E-02
         0.26927E-02
         0.26927E-02
         0.26927E-02
         0.26927E-02
         0.26927E-02
         0.26927E-02
         0.26927E-02
         0.26927E-02
         0.26927E-02
         0.26927E-02
         0.26927E-02
         0.26927E-02
         0.26927E-02
         0.26927E-02
         0.26927E-02
         0.26927E-02
         0.26927E-02
         0.26927E-02
         0.26927E-02
         0.26927E-02
         0.26927E-02
         0.26927E-02
         0.26927E-02
         0.26927E-02
         0.26927E-02
         0.26927E-02
         0.26927E-02
         0.26927E-02
         0.26927E-02
         0.26927E-02
         0.26927E-02
         0.26927E-02
         0.26927E-02
         0.26927E-02
         0.26927E-02
         0.26927E-02
         0.26927E-02
         0.26927E-02
         0.26927E-02
         0.26927E-02
         0.26927E-02
         0.26927E-02
         0.26927E-02
         0.26927E-02
         0.26927E-02
         0.26927E-02
         0.26927E-02
         0.26927E-02
         0.26927E-02
         0.26927E-02
         0.26927E-02
         0.26927E-02
         0.26927E-02
         0.26927E-02
         0.26927E-02
         0.26927E-02
         0.26927E-02
         0.26927E-02
         0.26927E-02
         0.26927E-02
         0.26927E-02
         0.26927E-02
         0.26927E-02
         0.26927E-02
         0.26927E-02
         0.26927E-02
         0.26927E-02
         0.26927E-02
         0.26927E-02
         0.26927E-02
         0.26927E-02
         0.26927E-02
         0.26927E-02
         0.26927E-02
         0.26927E-02
         0.26927E-02
         0.26927E-02
         0.26927E-02
         0.26927E-02
         0.26927E-02
         0.26927E-02
         0.26927E-02
         0.26927E-02
         0.26927E-02
         0.26927E-02
         0.26927E-02
         0.26927E-02
         0.26927E-02
         0.26927E-02
         0.26927E-02
         0.26927E-02
         0.26927E-02
         0.26927E-02
         0.26927E-02
         0.26927E-02
         0.26927E-02
         0.26927E-02
         0.26927E-02
         0.26927E-02
         0.26927E-02
         0.26927E-02
         0.26927E-02
         0.26927E-02
         0.26927E-02
         0.26927E-02
         0.26927E-02
         0.26927E-02
         0.26927E-02
         0.26927E-02
         0.26927E-02
         0.26927E-02
         0.26927E-02
         0.26927E-02
         0.26927E-02
         0.26927E-02
         0.26927E-02
         0.26927E-02
         0.26927E-02
         0.26927E-02
         0.26927E-02
         0.26927E-02
         0.26927E-02
         0.26927E-02
         0.26927E-02
         0.26927E-02
         0.26927E-02
         0.26927E-02
         0.26927E-02
         0.26927E-02
         0.26927E-02
         0.26927E-02
         0.26927E-02
         0.26927E-02
         0.26927E-02
         0.26927E-02
         0.26927E-02
         0.26927E-02
         0.26927E-02
         0.26927E-02
         0.26927E-02
         0.26927E-02
         0.26927E-02
         0.26927E-02
         0.26927E-02
         0.26927E-02
         0.26927E-02
         0.26927E-02
         0.26927E-02
         0.26927E-02
         0.26927E-02
         0.26927E-02
         0.26927E-02
         0.26927E-02
         0.26927E-02
         0.26927E-02
         0.26927E-02
         0.26927E-02
         0.26927E-02
         0.26927E-02
         0.26927E-02
         0.26927E-02
         0.26927E-02
         0.26927E-02
         0.26927E-02
         0.26927E-02
         0.26927E-02
         0.26927E-02
         0.26927E-02
         0.26927E-02
         0.26927E-02
         0.26927E-02
         0.26927E-02
         0.26927E-02
         0.26927E-02
         0.26927E-02
         0.26927E-02
         0.26927E-02
         0.26927E-02
         0.26927E-02
         0.26927E-02
         0.26927E-02
         0.26927E-02
         0.26927E-02
         0.26927E-02
         0.26927E-02
         0.26927E-02
         0.26927E-02
         0.26927E-02
         0.26927E-02
         0.26927E-02
         0.26927E-02
         0.26927E-02
         0.26927E-02
         0.26927E-02
         0.26927E-02
         0.26927E-02
         0.26927E-02
         0.26927E-02
         0.26927E-02
         0.26927E-02
         0.26927E-02
         0.26927E-02
         0.26927E-02
         0.26927E-02
         0.26927E-02
         0.26927E-02
         0.26927E-02
         0.26927E-02
         0.26927E-02
         0.26927E-02
         0.26927E-02
         0.26927E-02
         0.26927E-02
         0.26927E-02
         0.26927E-02
         0.26927E-02
         0.26927E-02
         0.26927E-02
         0.26927E-02
         0.26927E-02
         0.26927E-02
         0.26927E-02
         0.26927E-02
         0.26927E-02
         0.26927E-02
         0.26927E-02
         0.26927E-02
         0.26927E-02
         0.26927E-02
         0.26927E-02
         0.26927E-02
         0.26927E-02
         0.26927E-02
         0.26927E-02
         0.26927E-02
         0.26927E-02
         0.26927E-02
         0.26927E-02
         0.26927E-02
         0.26927E-02
         0.26927E-02
         0.26927E-02
         0.26927E-02
         0.26927E-02
         0.26927E-02
         0.26927E-02
         0.26927E-02
         0.26927E-02
         0.26927E-02
         0.26927E-02
         0.26927E-02
         0.26927E-02
         0.26927E-02
         0.26927E-02
         0.26927E-02
         0.26927E-02
         0.26927E-02
         0.26927E-02
         0.26927E-02
         0.26927E-02
         0.26927E-02
         0.26927E-02
         0.26927E-02
         0.26927E-02
         0.26927E-02
         0.26927E-02
         0.26927E-02
         0.26927E-02
         0.26927E-02
         0.26927E-02
         0.26927E-02
         0.26927E-02
         0.26927E-02
         0.26927E-02
         0.26927E-02
         0.26927E-02
         0.26927E-02
         0.26927E-02
         0.26927E-02
         0.26927E-02
         0.26927E-02
         0.26927E-02
         0.26927E-02
         0.26927E-02
         0.26927E-02
         0.26927E-02
         0.26927E-02
         0.26927E-02
         0.26927E-02
         0.26927E-02
         0.26927E-02
         0.26927E-02
         0.26927E-02
         0.26927E-02
         0.26927E-02
         0.26927E-02
         0.26927E-02
         0.26927E-02
         0.26927E-02
         0.26927E-02
         0.26927E-02
         0.26927E-02
         0.26927E-02
         0.26927E-02
         0.26927E-02
         0.26927E-02
         0.26927E-02
         0.26927E-02
         0.26927E-02
         0.26927E-02
         0.26927E-02
         0.26927E-02
         0.26927E-02
         0.26927E-02
         0.26927E-02
         0.26927E-02
         0.26927E-02
         0.26927E-02
         0.26927E-02
         0.26927E-02
         0.26927E-02
         0.26927E-02
         0.26927E-02
         0.26927E-02
         0.26927E-02
         0.26927E-02
         0.26927E-02
         0.26927E-02
         0.26927E-02
         0.26927E-02
         0.26927E-02
         0.26927E-02
         0.26927E-02
         0.26927E-02
         0.26927E-02
         0.26927E-02
         0.26927E-02
         0.26927E-02
         0.26927E-02
         0.26927E-02
         0.26927E-02
         0.26927E-02
         0.26927E-02
         0.26927E-02
         0.26927E-02
         0.26927E-02
         0.26927E-02
         0.26927E-02
         0.26927E-02
         0.26927E-02
         0.26927E-02
         0.26927E-02
         0.26927E-02
         0.26927E-02
         0.26927E-02
         0.26927E-02
         0.26927E-02
         0.26927E-02
         0.26927E-02
         0.26927E-02
         0.26927E-02
         0.26927E-02
         0.26927E-02
         0.26927E-02
         0.26927E-02
         0.26927E-02
         0.26927E-02
         0.26927E-02
         0.26927E-02
         0.26927E-02
         0.26927E-02
         0.26927E-02
         0.26927E-02
         0.26927E-02
         0.26927E-02
         0.26927E-02
         0.26927E-02
         0.26927E-02
         0.26927E-02
         0.26927E-02
         0.26927E-02
         0.26927E-02
         0.26927E-02
         0.26927E-02
         0.26927E-02
         0.26927E-02
         0.26927E-02
         0.26927E-02
         0.26927E-02
         0.26927E-02
         0.26927E-02
         0.26927E-02
         0.26927E-02
         0.26927E-02
         0.26927E-02
         0.26927E-02
         0.26927E-02
         0.26927E-02
         0.26927E-02
         0.26927E-02
         0.26927E-02
         0.26927E-02
         0.26927E-02
         0.26927E-02
         0.26927E-02
         0.26927E-02
         0.26927E-02
         0.26927E-02
         0.26927E-02
         0.26927E-02
         0.26927E-02
         0.26927E-02
         0.26927E-02
         0.26927E-02
         0.26927E-02
         0.26927E-02
         0.26927E-02
         0.26927E-02
         0.26927E-02
         0.26927E-02
         0.26927E-02
         0.26927E-02
         0.26927E-02
         0.26927E-02
         0.26927E-02
         0.26927E-02
         0.26927E-02
         0.26927E-02
         0.26927E-02
         0.26927E-02
         0.26927E-02
         0.26927E-02
         0.26927E-02
         0.26927E-02
         0.26927E-02
         0.26927E-02
         0.26927E-02
         0.26927E-02
         0.26927E-02
         0.26927E-02
         0.26927E-02
         0.26927E-02
         0.26927E-02
         0.26927E-02
         0.26927E-02
         0.26927E-02
         0.26927E-02
         0.26927E-02
         0.26927E-02
         0.26927E-02
         0.26927E-02
         0.26927E-02
         0.26927E-02
         0.26927E-02
         0.26927E-02
         0.26927E-02
         0.26927E-02
         0.26927E-02
         0.26927E-02
         0.26927E-02
         0.26927E-02
         0.26927E-02
         0.26927E-02
         0.26927E-02
         0.26927E-02
         0.26927E-02
         0.26927E-02
         0.26927E-02
         0.26927E-02
         0.26927E-02
         0.26927E-02
         0.26927E-02
         0.26927E-02
         0.26927E-02
         0.26927E-02
         0.26927E-02
         0.26927E-02
         0.26927E-02
         0.26927E-02
         0.26927E-02
         0.26927E-02
         0.26927E-02
         0.26927E-02
         0.26927E-02
         0.26927E-02
         0.26927E-02
         0.26927E-02
         0.26927E-02
         0.26927E-02
         0.26927E-02
         0.26927E-02
         0.26927E-02
         0.26927E-02
         0.26927E-02
         0.26927E-02
         0.26927E-02
         0.26927E-02
         0.26927E-02
         0.26927E-02
         0.26927E-02
         0.26927E-02
         0.26927E-02
         0.26927E-02
         0.26927E-02
         0.26927E-02
         0.26927E-02
         0.26927E-02
         0.26927E-02
         0.26927E-02
         0.26927E-02
         0.26927E-02
         0.26927E-02
         0.26927E-02
         0.26927E-02
         0.26927E-02
         0.26927E-02
         0.26927E-02
         0.26927E-02
         0.26927E-02
         0.26927E-02
         0.26927E-02
         0.26927E-02
         0.26927E-02
         0.26927E-02
         0.26927E-02
         0.26927E-02
         0.26927E-02
         0.26927E-02
         0.26927E-02
         0.26927E-02
         0.26927E-02
         0.26927E-02
         0.26927E-02
         0.26927E-02
         0.26927E-02
         0.26927E-02
         0.26927E-02
         0.26927E-02
         0.26927E-02
         0.26927E-02
         0.26927E-02
         0.26927E-02
         0.26927E-02
         0.26927E-02
         0.26927E-02
         0.26927E-02
         0.26927E-02
         0.26927E-02
         0.26927E-02
         0.26927E-02
         0.26927E-02
         0.26927E-02
         0.26927E-02
         0.26927E-02
         0.26927E-02
         0.26927E-02
         0.26927E-02
         0.26927E-02
         0.26927E-02
         0.26927E-02
         0.26927E-02
         0.26927E-02
         0.26927E-02
         0.26927E-02
         0.26927E-02
         0.26927E-02
         0.26927E-02
         0.26927E-02
         0.26927E-02
         0.26927E-02
         0.26927E-02
         0.26927E-02
         0.26927E-02
         0.26927E-02
         0.26927E-02
         0.26927E-02
         0.26927E-02
         0.26927E-02
         0.26927E-02
         0.26927E-02
         0.26927E-02
         0.26927E-02
         0.26927E-02
         0.26927E-02
         0.26927E-02
         0.26927E-02
         0.26927E-02
         0.26927E-02
         0.26927E-02
         0.26927E-02
         0.26927E-02
         0.26927E-02
         0.26927E-02
         0.26927E-02
         0.26927E-02
         0.26927E-02
         0.26927E-02
         0.26927E-02
         0.26927E-02
         0.26927E-02
         0.26927E-02
         0.26927E-02
         0.26927E-02
         0.26927E-02
         0.26927E-02
         0.26927E-02
         0.26927E-02
         0.26927E-02
         0.26927E-02
         0.26927E-02
         0.26927E-02
         0.26927E-02
         0.26927E-02
         0.26927E-02
         0.26927E-02
         0.26927E-02
         0.26927E-02
         0.26927E-02
         0.26927E-02
         0.26927E-02
         0.26927E-02
         0.26927E-02
         0.26927E-02
         0.26927E-02
         0.26927E-02
         0.26927E-02
         0.26927E-02
         0.26927E-02
         0.26927E-02
         0.26927E-02
         0.26927E-02
         0.26927E-02
         0.26927E-02
         0.26927E-02
         0.26927E-02
         0.26927E-02
         0.26927E-02
         0.26928E-02
         0.26928E-02
         0.26928E-02
         0.26928E-02
         0.26928E-02
         0.26928E-02
         0.26928E-02
         0.26928E-02
         0.26928E-02
         0.26928E-02
         0.26928E-02
         0.26928E-02
         0.26928E-02
         0.26928E-02
         0.26928E-02
         0.26928E-02
         0.26928E-02
         0.26928E-02
         0.26928E-02
         0.26928E-02
         0.26928E-02
         0.26928E-02
         0.26928E-02
         0.26928E-02
         0.26928E-02
         0.26928E-02
         0.26928E-02
         0.26928E-02
         0.26928E-02
         0.26928E-02
         0.26928E-02
         0.26928E-02
         0.26928E-02
         0.26928E-02
         0.26928E-02
         0.26928E-02
         0.26928E-02
         0.26928E-02
         0.26928E-02
         0.26928E-02
         0.26928E-02
         0.26928E-02
         0.26928E-02
         0.26928E-02
         0.26928E-02
         0.26928E-02
         0.26928E-02
         0.26928E-02
         0.26928E-02
         0.26928E-02
         0.26928E-02
         0.26928E-02
         0.26928E-02
         0.26928E-02
         0.26928E-02
         0.26928E-02
         0.26928E-02
         0.26928E-02
         0.26928E-02
         0.26928E-02
         0.26928E-02
         0.26928E-02
         0.26928E-02
         0.26928E-02
         0.26928E-02
         0.26928E-02
         0.26928E-02
         0.26928E-02
         0.26928E-02
         0.26928E-02
         0.26928E-02
         0.26928E-02
         0.26928E-02
         0.26928E-02
         0.26928E-02
         0.26928E-02
         0.26928E-02
         0.26928E-02
         0.26928E-02
         0.26928E-02
         0.26928E-02
         0.26928E-02
         0.26928E-02
         0.26928E-02
         0.26928E-02
         0.26928E-02
         0.26928E-02
         0.26928E-02
         0.26928E-02
         0.26928E-02
         0.26928E-02
         0.26928E-02
         0.26928E-02
         0.26928E-02
         0.26928E-02
         0.26928E-02
         0.26928E-02
         0.26928E-02
         0.26928E-02
         0.26928E-02
         0.26928E-02
         0.26928E-02
         0.26928E-02
         0.26928E-02
         0.26928E-02
         0.26928E-02
         0.26928E-02
         0.26928E-02
         0.26928E-02
         0.26928E-02
         0.26928E-02
         0.26928E-02
         0.26928E-02
         0.26928E-02
         0.26928E-02
         0.26928E-02
         0.26928E-02
         0.26928E-02
         0.26928E-02
         0.26928E-02
         0.26928E-02
         0.26928E-02
         0.26928E-02
         0.26928E-02
         0.26928E-02
         0.26928E-02
         0.26928E-02
         0.26928E-02
         0.26928E-02
         0.26928E-02
         0.26928E-02
         0.26928E-02
         0.26928E-02
         0.26928E-02
         0.26928E-02
         0.26928E-02
         0.26928E-02
         0.26928E-02
         0.26928E-02
         0.26928E-02
         0.26928E-02
         0.26928E-02
         0.26928E-02
         0.26928E-02
         0.26928E-02
         0.26928E-02
         0.26928E-02
         0.26928E-02
         0.26928E-02
         0.26928E-02
         0.26928E-02
         0.26928E-02
         0.26928E-02
         0.26928E-02
         0.26928E-02
         0.26928E-02
  
SCALARS                   nodal_volume  double 1
LOOKUP_TABLE default
         0.91140E-09
         0.72412E-09
         0.77574E-09
         0.13316E-08
         0.45570E-09
         0.36211E-09
         0.38787E-09
         0.66566E-09
         0.71537E-09
         0.91211E-09
         0.35767E-09
         0.45600E-09
         0.51195E-09
         0.61532E-09
         0.25605E-09
         0.30776E-09
         0.10101E-08
         0.74536E-09
         0.50500E-09
         0.37281E-09
         0.30273E-09
         0.57012E-09
         0.62699E-09
         0.15144E-09
         0.28509E-09
         0.31352E-09
         0.51329E-09
         0.64933E-09
         0.25683E-09
         0.32471E-09
         0.12026E-08
         0.93909E-09
         0.11935E-08
         0.60122E-09
         0.46945E-09
         0.59663E-09
         0.70296E-09
         0.80270E-09
         0.35149E-09
         0.40134E-09
         0.75859E-09
         0.84013E-09
         0.37932E-09
         0.42007E-09
         0.64542E-09
         0.40086E-09
         0.32274E-09
         0.20045E-09
         0.76288E-09
         0.38153E-09
         0.63346E-09
         0.31675E-09
         0.66583E-09
         0.33318E-09
         0.68008E-09
         0.34022E-09
         0.58930E-09
         0.71738E-09
         0.29472E-09
         0.35874E-09
         0.90938E-09
         0.64302E-09
         0.45469E-09
         0.32154E-09
         0.10152E-08
         0.50747E-09
         0.88120E-09
         0.44042E-09
         0.40077E-09
         0.61872E-09
         0.20039E-09
         0.30940E-09
         0.70206E-09
         0.35106E-09
         0.74172E-09
         0.37089E-09
         0.71539E-09
         0.35770E-09
         0.56226E-09
         0.28113E-09
         0.35349E-09
         0.58452E-09
         0.17675E-09
         0.29229E-09
         0.77354E-09
         0.38679E-09
         0.62469E-09
         0.31238E-09
         0.54957E-09
         0.27483E-09
         0.36009E-09
         0.61365E-09
         0.18007E-09
         0.30685E-09
         0.83268E-09
         0.41635E-09
         0.87287E-09
         0.43642E-09
         0.70438E-09
         0.35217E-09
         0.43365E-09
         0.74413E-09
         0.21683E-09
         0.37198E-09
         0.27660E-09
         0.35144E-09
         0.13833E-09
         0.17573E-09
         0.32921E-09
         0.16465E-09
         0.38764E-09
         0.19382E-09
         0.37797E-09
         0.18897E-09
         0.36707E-09
         0.18352E-09
         0.39112E-09
         0.19552E-09
         0.41268E-09
         0.20627E-09
         0.38876E-09
         0.19433E-09
         0.30402E-09
         0.15200E-09
         0.24796E-09
         0.12398E-09
         0.31999E-09
         0.16000E-09
         0.42608E-09
         0.21303E-09
         0.46805E-09
         0.23401E-09
         0.44933E-09
         0.22466E-09
         0.40550E-09
         0.20276E-09
         0.36826E-09
         0.18414E-09
         0.29911E-09
         0.14956E-09
         0.25178E-09
         0.12591E-09
         0.32888E-09
         0.16445E-09
         0.43529E-09
         0.21765E-09
         0.44963E-09
         0.22482E-09
         0.36384E-09
         0.18194E-09
         0.29543E-09
         0.14774E-09
         0.36126E-09
         0.18063E-09
         0.42771E-09
         0.21386E-09
         0.91143E-09
         0.72396E-09
         0.77579E-09
         0.13322E-08
         0.71547E-09
         0.91237E-09
         0.51167E-09
         0.61494E-09
         0.10105E-08
         0.74486E-09
         0.30244E-09
         0.57001E-09
         0.62694E-09
         0.51257E-09
         0.64918E-09
         0.12029E-08
         0.93950E-09
         0.11941E-08
         0.70298E-09
         0.80279E-09
         0.75855E-09
         0.84015E-09
         0.64535E-09
         0.40081E-09
         0.76254E-09
         0.63339E-09
         0.66483E-09
         0.67941E-09
         0.58904E-09
         0.71721E-09
         0.90946E-09
         0.64293E-09
         0.10157E-08
         0.88199E-09
         0.40076E-09
         0.61859E-09
         0.70195E-09
         0.74166E-09
         0.71543E-09
         0.56228E-09
         0.35349E-09
         0.58443E-09
         0.77349E-09
         0.62459E-09
         0.54943E-09
         0.35999E-09
         0.61359E-09
         0.83268E-09
         0.87299E-09
         0.70451E-09
         0.43366E-09
         0.74449E-09
         0.27651E-09
         0.35143E-09
         0.32904E-09
         0.38765E-09
         0.37805E-09
         0.36714E-09
         0.39129E-09
         0.41297E-09
         0.38899E-09
         0.30408E-09
         0.24798E-09
         0.31999E-09
         0.42613E-09
         0.46815E-09
         0.44938E-09
         0.40548E-09
         0.36823E-09
         0.29908E-09
         0.25174E-09
         0.32885E-09
         0.43527E-09
         0.44962E-09
         0.36376E-09
         0.29536E-09
         0.36130E-09
         0.42769E-09
         0.91151E-09
         0.72383E-09
         0.77587E-09
         0.13329E-08
         0.71560E-09
         0.91267E-09
         0.51142E-09
         0.61459E-09
         0.10109E-08
         0.74439E-09
         0.30216E-09
         0.56992E-09
         0.62691E-09
         0.51187E-09
         0.64906E-09
         0.12033E-08
         0.93995E-09
         0.11947E-08
         0.70302E-09
         0.80291E-09
         0.75853E-09
         0.84020E-09
         0.64530E-09
         0.40078E-09
         0.76223E-09
         0.63335E-09
         0.66385E-09
         0.67875E-09
         0.58880E-09
         0.71706E-09
         0.90957E-09
         0.64286E-09
         0.10162E-08
         0.88281E-09
         0.40076E-09
         0.61849E-09
         0.70188E-09
         0.74162E-09
         0.71550E-09
         0.56232E-09
         0.35350E-09
         0.58436E-09
         0.77347E-09
         0.62452E-09
         0.54931E-09
         0.35990E-09
         0.61355E-09
         0.83270E-09
         0.87315E-09
         0.70467E-09
         0.43368E-09
         0.74487E-09
         0.27643E-09
         0.35143E-09
         0.32889E-09
         0.38767E-09
         0.37814E-09
         0.36723E-09
         0.39147E-09
         0.41328E-09
         0.38923E-09
         0.30416E-09
         0.24800E-09
         0.32001E-09
         0.42620E-09
         0.46826E-09
         0.44944E-09
         0.40548E-09
         0.36821E-09
         0.29906E-09
         0.25171E-09
         0.32883E-09
         0.43527E-09
         0.44963E-09
         0.36369E-09
         0.29530E-09
         0.36135E-09
         0.42769E-09
         0.91156E-09
         0.72368E-09
         0.77594E-09
         0.13335E-08
         0.71571E-09
         0.91295E-09
         0.51115E-09
         0.61422E-09
         0.10112E-08
         0.74389E-09
         0.30187E-09
         0.56982E-09
         0.62686E-09
         0.51116E-09
         0.64892E-09
         0.12036E-08
         0.94038E-09
         0.11953E-08
         0.70304E-09
         0.80300E-09
         0.75850E-09
         0.84023E-09
         0.64523E-09
         0.40073E-09
         0.76190E-09
         0.63330E-09
         0.66285E-09
         0.67809E-09
         0.58855E-09
         0.71689E-09
         0.90966E-09
         0.64278E-09
         0.10168E-08
         0.88361E-09
         0.40076E-09
         0.61837E-09
         0.70178E-09
         0.74156E-09
         0.71554E-09
         0.56234E-09
         0.35350E-09
         0.58428E-09
         0.77343E-09
         0.62442E-09
         0.54918E-09
         0.35981E-09
         0.61349E-09
         0.83271E-09
         0.87328E-09
         0.70481E-09
         0.43369E-09
         0.74524E-09
         0.27634E-09
         0.35142E-09
         0.32873E-09
         0.38768E-09
         0.37823E-09
         0.36731E-09
         0.39163E-09
         0.41358E-09
         0.38945E-09
         0.30422E-09
         0.24802E-09
         0.32001E-09
         0.42625E-09
         0.46837E-09
         0.44949E-09
         0.40546E-09
         0.36819E-09
         0.29904E-09
         0.25167E-09
         0.32881E-09
         0.43526E-09
         0.44963E-09
         0.36362E-09
         0.29523E-09
         0.36139E-09
         0.42768E-09
         0.91161E-09
         0.72353E-09
         0.77600E-09
         0.13341E-08
         0.71583E-09
         0.91323E-09
         0.51088E-09
         0.61386E-09
         0.10116E-08
         0.74341E-09
         0.30158E-09
         0.56972E-09
         0.62682E-09
         0.51045E-09
         0.64879E-09
         0.12040E-08
         0.94081E-09
         0.11959E-08
         0.70307E-09
         0.80310E-09
         0.75847E-09
         0.84027E-09
         0.64517E-09
         0.40069E-09
         0.76158E-09
         0.63325E-09
         0.66186E-09
         0.67742E-09
         0.58831E-09
         0.71673E-09
         0.90975E-09
         0.64270E-09
         0.10173E-08
         0.88441E-09
         0.40075E-09
         0.61825E-09
         0.70169E-09
         0.74151E-09
         0.71559E-09
         0.56237E-09
         0.35350E-09
         0.58420E-09
         0.77339E-09
         0.62433E-09
         0.54905E-09
         0.35972E-09
         0.61344E-09
         0.83272E-09
         0.87341E-09
         0.70496E-09
         0.43370E-09
         0.74562E-09
         0.27626E-09
         0.35142E-09
         0.32857E-09
         0.38770E-09
         0.37832E-09
         0.36739E-09
         0.39181E-09
         0.41387E-09
         0.38968E-09
         0.30429E-09
         0.24804E-09
         0.32002E-09
         0.42631E-09
         0.46847E-09
         0.44954E-09
         0.40545E-09
         0.36816E-09
         0.29901E-09
         0.25163E-09
         0.32878E-09
         0.43525E-09
         0.44963E-09
         0.36354E-09
         0.29517E-09
         0.36144E-09
         0.42766E-09
         0.91167E-09
         0.72338E-09
         0.77607E-09
         0.13348E-08
         0.71594E-09
         0.91351E-09
         0.51062E-09
         0.61349E-09
         0.10119E-08
         0.74292E-09
         0.30129E-09
         0.56962E-09
         0.62678E-09
         0.50974E-09
         0.64865E-09
         0.12044E-08
         0.94125E-09
         0.11965E-08
         0.70310E-09
         0.80321E-09
         0.75844E-09
         0.84031E-09
         0.64511E-09
         0.40065E-09
         0.76125E-09
         0.63320E-09
         0.66087E-09
         0.67676E-09
         0.58806E-09
         0.71657E-09
         0.90984E-09
         0.64263E-09
         0.10179E-08
         0.88522E-09
         0.40075E-09
         0.61813E-09
         0.70160E-09
         0.74146E-09
         0.71564E-09
         0.56240E-09
         0.35350E-09
         0.58412E-09
         0.77336E-09
         0.62425E-09
         0.54892E-09
         0.35963E-09
         0.61339E-09
         0.83274E-09
         0.87355E-09
         0.70511E-09
         0.43371E-09
         0.74599E-09
         0.27618E-09
         0.35141E-09
         0.32841E-09
         0.38771E-09
         0.37841E-09
         0.36747E-09
         0.39198E-09
         0.41417E-09
         0.38992E-09
         0.30436E-09
         0.24806E-09
         0.32003E-09
         0.42637E-09
         0.46858E-09
         0.44960E-09
         0.40544E-09
         0.36814E-09
         0.29899E-09
         0.25159E-09
         0.32876E-09
         0.43525E-09
         0.44963E-09
         0.36347E-09
         0.29511E-09
         0.36148E-09
         0.42766E-09
         0.91171E-09
         0.72323E-09
         0.77613E-09
         0.13354E-08
         0.71606E-09
         0.91379E-09
         0.51035E-09
         0.61313E-09
         0.10123E-08
         0.74243E-09
         0.30101E-09
         0.56952E-09
         0.62674E-09
         0.50903E-09
         0.64851E-09
         0.12047E-08
         0.94167E-09
         0.11971E-08
         0.70312E-09
         0.80331E-09
         0.75840E-09
         0.84034E-09
         0.64504E-09
         0.40061E-09
         0.76092E-09
         0.63314E-09
         0.65988E-09
         0.67609E-09
         0.58781E-09
         0.71641E-09
         0.90993E-09
         0.64255E-09
         0.10184E-08
         0.88601E-09
         0.40075E-09
         0.61801E-09
         0.70151E-09
         0.74140E-09
         0.71569E-09
         0.56243E-09
         0.35350E-09
         0.58404E-09
         0.77332E-09
         0.62416E-09
         0.54879E-09
         0.35953E-09
         0.61334E-09
         0.83274E-09
         0.87368E-09
         0.70525E-09
         0.43372E-09
         0.74636E-09
         0.27609E-09
         0.35141E-09
         0.32825E-09
         0.38772E-09
         0.37849E-09
         0.36754E-09
         0.39215E-09
         0.41447E-09
         0.39014E-09
         0.30443E-09
         0.24808E-09
         0.32004E-09
         0.42642E-09
         0.46868E-09
         0.44965E-09
         0.40543E-09
         0.36812E-09
         0.29897E-09
         0.25155E-09
         0.32874E-09
         0.43524E-09
         0.44963E-09
         0.36340E-09
         0.29504E-09
         0.36153E-09
         0.42764E-09
         0.91176E-09
         0.72308E-09
         0.77620E-09
         0.13360E-08
         0.71617E-09
         0.91407E-09
         0.51008E-09
         0.61276E-09
         0.10126E-08
         0.74195E-09
         0.30072E-09
         0.56942E-09
         0.62670E-09
         0.50832E-09
         0.64838E-09
         0.12051E-08
         0.94210E-09
         0.11977E-08
         0.70314E-09
         0.80341E-09
         0.75837E-09
         0.84038E-09
         0.64498E-09
         0.40056E-09
         0.76060E-09
         0.63309E-09
         0.65888E-09
         0.67542E-09
         0.58756E-09
         0.71624E-09
         0.91002E-09
         0.64247E-09
         0.10189E-08
         0.88682E-09
         0.40074E-09
         0.61790E-09
         0.70142E-09
         0.74135E-09
         0.71574E-09
         0.56245E-09
         0.35351E-09
         0.58396E-09
         0.77328E-09
         0.62407E-09
         0.54866E-09
         0.35944E-09
         0.61329E-09
         0.83275E-09
         0.87382E-09
         0.70539E-09
         0.43373E-09
         0.74673E-09
         0.27601E-09
         0.35140E-09
         0.32809E-09
         0.38774E-09
         0.37858E-09
         0.36762E-09
         0.39232E-09
         0.41477E-09
         0.39037E-09
         0.30450E-09
         0.24810E-09
         0.32005E-09
         0.42648E-09
         0.46879E-09
         0.44970E-09
         0.40541E-09
         0.36809E-09
         0.29894E-09
         0.25151E-09
         0.32871E-09
         0.43523E-09
         0.44963E-09
         0.36333E-09
         0.29497E-09
         0.36157E-09
         0.42763E-09
         0.91182E-09
         0.72293E-09
         0.77627E-09
         0.13367E-08
         0.71629E-09
         0.91436E-09
         0.50982E-09
         0.61240E-09
         0.10130E-08
         0.74146E-09
         0.30043E-09
         0.56932E-09
         0.62666E-09
         0.50762E-09
         0.64825E-09
         0.12054E-08
         0.94253E-09
         0.11983E-08
         0.70317E-09
         0.80351E-09
         0.75834E-09
         0.84041E-09
         0.64491E-09
         0.40053E-09
         0.76028E-09
         0.63304E-09
         0.65790E-09
         0.67476E-09
         0.58731E-09
         0.71609E-09
         0.91012E-09
         0.64239E-09
         0.10195E-08
         0.88762E-09
         0.40074E-09
         0.61778E-09
         0.70133E-09
         0.74130E-09
         0.71579E-09
         0.56249E-09
         0.35351E-09
         0.58388E-09
         0.77324E-09
         0.62398E-09
         0.54853E-09
         0.35935E-09
         0.61324E-09
         0.83277E-09
         0.87396E-09
         0.70554E-09
         0.43375E-09
         0.74711E-09
         0.27592E-09
         0.35140E-09
         0.32793E-09
         0.38775E-09
         0.37867E-09
         0.36770E-09
         0.39249E-09
         0.41507E-09
         0.39061E-09
         0.30457E-09
         0.24812E-09
         0.32006E-09
         0.42654E-09
         0.46890E-09
         0.44975E-09
         0.40540E-09
         0.36807E-09
         0.29892E-09
         0.25148E-09
         0.32869E-09
         0.43522E-09
         0.44963E-09
         0.36325E-09
         0.29491E-09
         0.36162E-09
         0.42762E-09
         0.91187E-09
         0.72278E-09
         0.77633E-09
         0.13373E-08
         0.71640E-09
         0.91463E-09
         0.50955E-09
         0.61204E-09
         0.10134E-08
         0.74098E-09
         0.30015E-09
         0.56922E-09
         0.62662E-09
         0.50691E-09
         0.64811E-09
         0.12058E-08
         0.94296E-09
         0.11989E-08
         0.70320E-09
         0.80361E-09
         0.75831E-09
         0.84045E-09
         0.64485E-09
         0.40048E-09
         0.75995E-09
         0.63298E-09
         0.65690E-09
         0.67409E-09
         0.58706E-09
         0.71592E-09
         0.91020E-09
         0.64231E-09
         0.10200E-08
         0.88843E-09
         0.40074E-09
         0.61766E-09
         0.70124E-09
         0.74124E-09
         0.71584E-09
         0.56251E-09
         0.35351E-09
         0.58380E-09
         0.77320E-09
         0.62389E-09
         0.54840E-09
         0.35926E-09
         0.61318E-09
         0.83277E-09
         0.87409E-09
         0.70568E-09
         0.43376E-09
         0.74748E-09
         0.27584E-09
         0.35139E-09
         0.32777E-09
         0.38777E-09
         0.37876E-09
         0.36778E-09
         0.39266E-09
         0.41536E-09
         0.39084E-09
         0.30464E-09
         0.24814E-09
         0.32006E-09
         0.42659E-09
         0.46900E-09
         0.44980E-09
         0.40539E-09
         0.36805E-09
         0.29890E-09
         0.25144E-09
         0.32867E-09
         0.43521E-09
         0.44963E-09
         0.36318E-09
         0.29485E-09
         0.36166E-09
         0.42761E-09
         0.91192E-09
         0.72263E-09
         0.77640E-09
         0.13380E-08
         0.71652E-09
         0.91491E-09
         0.50928E-09
         0.61167E-09
         0.10137E-08
         0.74049E-09
         0.29986E-09
         0.56912E-09
         0.62657E-09
         0.50620E-09
         0.64797E-09
         0.12061E-08
         0.94339E-09
         0.11995E-08
         0.70322E-09
         0.80371E-09
         0.75827E-09
         0.84048E-09
         0.64478E-09
         0.40044E-09
         0.75962E-09
         0.63293E-09
         0.65591E-09
         0.67343E-09
         0.58681E-09
         0.71576E-09
         0.91029E-09
         0.64223E-09
         0.10205E-08
         0.88923E-09
         0.40073E-09
         0.61754E-09
         0.70114E-09
         0.74119E-09
         0.71588E-09
         0.56254E-09
         0.35351E-09
         0.58372E-09
         0.77316E-09
         0.62380E-09
         0.54827E-09
         0.35917E-09
         0.61313E-09
         0.83278E-09
         0.87422E-09
         0.70582E-09
         0.43377E-09
         0.74785E-09
         0.27575E-09
         0.35138E-09
         0.32761E-09
         0.38778E-09
         0.37885E-09
         0.36786E-09
         0.39283E-09
         0.41566E-09
         0.39107E-09
         0.30470E-09
         0.24816E-09
         0.32007E-09
         0.42665E-09
         0.46911E-09
         0.44985E-09
         0.40538E-09
         0.36802E-09
         0.29887E-09
         0.25140E-09
         0.32864E-09
         0.43520E-09
         0.44963E-09
         0.36310E-09
         0.29478E-09
         0.36170E-09
         0.42760E-09
         0.91198E-09
         0.72248E-09
         0.77646E-09
         0.13386E-08
         0.71663E-09
         0.91520E-09
         0.50901E-09
         0.61131E-09
         0.10141E-08
         0.74000E-09
         0.29957E-09
         0.56902E-09
         0.62653E-09
         0.50549E-09
         0.64784E-09
         0.12065E-08
         0.94382E-09
         0.12002E-08
         0.70325E-09
         0.80381E-09
         0.75824E-09
         0.84052E-09
         0.64472E-09
         0.40040E-09
         0.75929E-09
         0.63288E-09
         0.65492E-09
         0.67276E-09
         0.58657E-09
         0.71560E-09
         0.91038E-09
         0.64216E-09
         0.10211E-08
         0.89003E-09
         0.40073E-09
         0.61742E-09
         0.70105E-09
         0.74114E-09
         0.71593E-09
         0.56257E-09
         0.35351E-09
         0.58364E-09
         0.77313E-09
         0.62371E-09
         0.54814E-09
         0.35908E-09
         0.61308E-09
         0.83280E-09
         0.87436E-09
         0.70597E-09
         0.43378E-09
         0.74823E-09
         0.27567E-09
         0.35138E-09
         0.32745E-09
         0.38779E-09
         0.37893E-09
         0.36794E-09
         0.39300E-09
         0.41596E-09
         0.39130E-09
         0.30477E-09
         0.24818E-09
         0.32008E-09
         0.42671E-09
         0.46921E-09
         0.44991E-09
         0.40537E-09
         0.36800E-09
         0.29885E-09
         0.25136E-09
         0.32862E-09
         0.43520E-09
         0.44963E-09
         0.36303E-09
         0.29472E-09
         0.36175E-09
         0.42759E-09
         0.91203E-09
         0.72233E-09
         0.77653E-09
         0.13392E-08
         0.71675E-09
         0.91547E-09
         0.50875E-09
         0.61094E-09
         0.10144E-08
         0.73952E-09
         0.29928E-09
         0.56892E-09
         0.62649E-09
         0.50478E-09
         0.64770E-09
         0.12068E-08
         0.94424E-09
         0.12008E-08
         0.70327E-09
         0.80391E-09
         0.75821E-09
         0.84055E-09
         0.64465E-09
         0.40035E-09
         0.75896E-09
         0.63282E-09
         0.65393E-09
         0.67210E-09
         0.58632E-09
         0.71543E-09
         0.91047E-09
         0.64208E-09
         0.10216E-08
         0.89084E-09
         0.40073E-09
         0.61730E-09
         0.70096E-09
         0.74108E-09
         0.71598E-09
         0.56259E-09
         0.35351E-09
         0.58356E-09
         0.77309E-09
         0.62362E-09
         0.54801E-09
         0.35898E-09
         0.61303E-09
         0.83281E-09
         0.87449E-09
         0.70611E-09
         0.43379E-09
         0.74860E-09
         0.27558E-09
         0.35137E-09
         0.32729E-09
         0.38781E-09
         0.37902E-09
         0.36802E-09
         0.39317E-09
         0.41625E-09
         0.39153E-09
         0.30484E-09
         0.24820E-09
         0.32009E-09
         0.42677E-09
         0.46932E-09
         0.44996E-09
         0.40536E-09
         0.36798E-09
         0.29883E-09
         0.25132E-09
         0.32859E-09
         0.43519E-09
         0.44963E-09
         0.36296E-09
         0.29465E-09
         0.36179E-09
         0.42758E-09
         0.91208E-09
         0.72218E-09
         0.77659E-09
         0.13399E-08
         0.71686E-09
         0.91576E-09
         0.50848E-09
         0.61058E-09
         0.10148E-08
         0.73903E-09
         0.29900E-09
         0.56882E-09
         0.62645E-09
         0.50408E-09
         0.64757E-09
         0.12072E-08
         0.94467E-09
         0.12014E-08
         0.70330E-09
         0.80401E-09
         0.75818E-09
         0.84059E-09
         0.64459E-09
         0.40031E-09
         0.75864E-09
         0.63277E-09
         0.65294E-09
         0.67143E-09
         0.58607E-09
         0.71527E-09
         0.91057E-09
         0.64200E-09
         0.10221E-08
         0.89164E-09
         0.40072E-09
         0.61719E-09
         0.70087E-09
         0.74103E-09
         0.71603E-09
         0.56262E-09
         0.35352E-09
         0.58348E-09
         0.77305E-09
         0.62354E-09
         0.54788E-09
         0.35889E-09
         0.61298E-09
         0.83282E-09
         0.87463E-09
         0.70626E-09
         0.43380E-09
         0.74897E-09
         0.27550E-09
         0.35137E-09
         0.32713E-09
         0.38782E-09
         0.37911E-09
         0.36810E-09
         0.39334E-09
         0.41655E-09
         0.39176E-09
         0.30491E-09
         0.24822E-09
         0.32010E-09
         0.42682E-09
         0.46942E-09
         0.45001E-09
         0.40534E-09
         0.36796E-09
         0.29881E-09
         0.25128E-09
         0.32857E-09
         0.43518E-09
         0.44963E-09
         0.36288E-09
         0.29459E-09
         0.36184E-09
         0.42757E-09
         0.91214E-09
         0.72204E-09
         0.77666E-09
         0.13405E-08
         0.71698E-09
         0.91604E-09
         0.50822E-09
         0.61022E-09
         0.10151E-08
         0.73855E-09
         0.29871E-09
         0.56872E-09
         0.62641E-09
         0.50337E-09
         0.64743E-09
         0.12075E-08
         0.94510E-09
         0.12020E-08
         0.70333E-09
         0.80411E-09
         0.75815E-09
         0.84063E-09
         0.64453E-09
         0.40027E-09
         0.75831E-09
         0.63272E-09
         0.65196E-09
         0.67077E-09
         0.58582E-09
         0.71511E-09
         0.91066E-09
         0.64192E-09
         0.10227E-08
         0.89245E-09
         0.40072E-09
         0.61707E-09
         0.70078E-09
         0.74098E-09
         0.71608E-09
         0.56265E-09
         0.35352E-09
         0.58340E-09
         0.77301E-09
         0.62345E-09
         0.54775E-09
         0.35880E-09
         0.61293E-09
         0.83283E-09
         0.87476E-09
         0.70641E-09
         0.43382E-09
         0.74935E-09
         0.27541E-09
         0.35136E-09
         0.32697E-09
         0.38784E-09
         0.37920E-09
         0.36818E-09
         0.39352E-09
         0.41685E-09
         0.39199E-09
         0.30498E-09
         0.24824E-09
         0.32011E-09
         0.42688E-09
         0.46953E-09
         0.45007E-09
         0.40533E-09
         0.36793E-09
         0.29878E-09
         0.25124E-09
         0.32855E-09
         0.43517E-09
         0.44963E-09
         0.36281E-09
         0.29452E-09
         0.36188E-09
         0.42756E-09
         0.91219E-09
         0.72188E-09
         0.77672E-09
         0.13412E-08
         0.71709E-09
         0.91632E-09
         0.50795E-09
         0.60986E-09
         0.10155E-08
         0.73806E-09
         0.29842E-09
         0.56862E-09
         0.62636E-09
         0.50266E-09
         0.64730E-09
         0.12079E-08
         0.94552E-09
         0.12026E-08
         0.70335E-09
         0.80421E-09
         0.75811E-09
         0.84066E-09
         0.64446E-09
         0.40023E-09
         0.75798E-09
         0.63267E-09
         0.65096E-09
         0.67010E-09
         0.58557E-09
         0.71494E-09
         0.91074E-09
         0.64184E-09
         0.10232E-08
         0.89325E-09
         0.40072E-09
         0.61695E-09
         0.70069E-09
         0.74092E-09
         0.71612E-09
         0.56268E-09
         0.35352E-09
         0.58332E-09
         0.77297E-09
         0.62336E-09
         0.54762E-09
         0.35871E-09
         0.61287E-09
         0.83284E-09
         0.87489E-09
         0.70655E-09
         0.43383E-09
         0.74972E-09
         0.27533E-09
         0.35136E-09
         0.32681E-09
         0.38785E-09
         0.37929E-09
         0.36825E-09
         0.39369E-09
         0.41715E-09
         0.39222E-09
         0.30505E-09
         0.24826E-09
         0.32011E-09
         0.42694E-09
         0.46963E-09
         0.45011E-09
         0.40532E-09
         0.36791E-09
         0.29876E-09
         0.25120E-09
         0.32853E-09
         0.43516E-09
         0.44962E-09
         0.36274E-09
         0.29445E-09
         0.36192E-09
         0.42755E-09
         0.91224E-09
         0.72173E-09
         0.77679E-09
         0.13418E-08
         0.71720E-09
         0.91660E-09
         0.50768E-09
         0.60949E-09
         0.10158E-08
         0.73758E-09
         0.29814E-09
         0.56852E-09
         0.62632E-09
         0.50195E-09
         0.64716E-09
         0.12082E-08
         0.94595E-09
         0.12032E-08
         0.70337E-09
         0.80431E-09
         0.75808E-09
         0.84069E-09
         0.64440E-09
         0.40018E-09
         0.75766E-09
         0.63262E-09
         0.64998E-09
         0.66943E-09
         0.58532E-09
         0.71478E-09
         0.91083E-09
         0.64176E-09
         0.10238E-08
         0.89406E-09
         0.40071E-09
         0.61683E-09
         0.70059E-09
         0.74087E-09
         0.71617E-09
         0.56270E-09
         0.35352E-09
         0.58324E-09
         0.77294E-09
         0.62327E-09
         0.54749E-09
         0.35861E-09
         0.61282E-09
         0.83284E-09
         0.87503E-09
         0.70669E-09
         0.43384E-09
         0.75009E-09
         0.27524E-09
         0.35135E-09
         0.32665E-09
         0.38786E-09
         0.37937E-09
         0.36833E-09
         0.39386E-09
         0.41745E-09
         0.39245E-09
         0.30512E-09
         0.24828E-09
         0.32012E-09
         0.42699E-09
         0.46974E-09
         0.45017E-09
         0.40531E-09
         0.36788E-09
         0.29873E-09
         0.25117E-09
         0.32850E-09
         0.43515E-09
         0.44962E-09
         0.36266E-09
         0.29439E-09
         0.36197E-09
         0.42754E-09
         0.91230E-09
         0.72159E-09
         0.77686E-09
         0.13425E-08
         0.71732E-09
         0.91688E-09
         0.50742E-09
         0.60913E-09
         0.10162E-08
         0.73710E-09
         0.29785E-09
         0.56842E-09
         0.62628E-09
         0.50125E-09
         0.64703E-09
         0.12086E-08
         0.94638E-09
         0.12038E-08
         0.70340E-09
         0.80441E-09
         0.75805E-09
         0.84073E-09
         0.64433E-09
         0.40014E-09
         0.75733E-09
         0.63257E-09
         0.64899E-09
         0.66877E-09
         0.58508E-09
         0.71462E-09
         0.91093E-09
         0.64169E-09
         0.10243E-08
         0.89487E-09
         0.40071E-09
         0.61671E-09
         0.70051E-09
         0.74082E-09
         0.71622E-09
         0.56273E-09
         0.35352E-09
         0.58316E-09
         0.77290E-09
         0.62318E-09
         0.54737E-09
         0.35852E-09
         0.61277E-09
         0.83286E-09
         0.87517E-09
         0.70684E-09
         0.43385E-09
         0.75047E-09
         0.27516E-09
         0.35135E-09
         0.32649E-09
         0.38788E-09
         0.37946E-09
         0.36841E-09
         0.39403E-09
         0.41775E-09
         0.39268E-09
         0.30519E-09
         0.24830E-09
         0.32013E-09
         0.42705E-09
         0.46985E-09
         0.45022E-09
         0.40530E-09
         0.36786E-09
         0.29871E-09
         0.25113E-09
         0.32848E-09
         0.43515E-09
         0.44962E-09
         0.36259E-09
         0.29433E-09
         0.36201E-09
         0.42753E-09
         0.91235E-09
         0.72143E-09
         0.77692E-09
         0.13431E-08
         0.71743E-09
         0.91716E-09
         0.50715E-09
         0.60877E-09
         0.10165E-08
         0.73661E-09
         0.29757E-09
         0.56832E-09
         0.62624E-09
         0.50054E-09
         0.64689E-09
         0.12089E-08
         0.94680E-09
         0.12044E-08
         0.70342E-09
         0.80450E-09
         0.75802E-09
         0.84076E-09
         0.64427E-09
         0.40010E-09
         0.75700E-09
         0.63251E-09
         0.64800E-09
         0.66810E-09
         0.58482E-09
         0.71445E-09
         0.91101E-09
         0.64161E-09
         0.10248E-08
         0.89567E-09
         0.40071E-09
         0.61659E-09
         0.70041E-09
         0.74077E-09
         0.71627E-09
         0.56276E-09
         0.35352E-09
         0.58308E-09
         0.77286E-09
         0.62309E-09
         0.54723E-09
         0.35843E-09
         0.61272E-09
         0.83287E-09
         0.87530E-09
         0.70698E-09
         0.43386E-09
         0.75084E-09
         0.27507E-09
         0.35134E-09
         0.32633E-09
         0.38789E-09
         0.37955E-09
         0.36849E-09
         0.39420E-09
         0.41804E-09
         0.39291E-09
         0.30525E-09
         0.24832E-09
         0.32014E-09
         0.42711E-09
         0.46995E-09
         0.45027E-09
         0.40528E-09
         0.36784E-09
         0.29869E-09
         0.25109E-09
         0.32845E-09
         0.43514E-09
         0.44962E-09
         0.36252E-09
         0.29426E-09
         0.36206E-09
         0.42751E-09
         0.91240E-09
         0.72128E-09
         0.77698E-09
         0.13437E-08
         0.71755E-09
         0.91744E-09
         0.50688E-09
         0.60841E-09
         0.10169E-08
         0.73612E-09
         0.29728E-09
         0.56822E-09
         0.62619E-09
         0.49984E-09
         0.64676E-09
         0.12093E-08
         0.94723E-09
         0.12050E-08
         0.70345E-09
         0.80460E-09
         0.75798E-09
         0.84080E-09
         0.64420E-09
         0.40006E-09
         0.75667E-09
         0.63246E-09
         0.64701E-09
         0.66744E-09
         0.58457E-09
         0.71429E-09
         0.91110E-09
         0.64153E-09
         0.10254E-08
         0.89648E-09
         0.40070E-09
         0.61647E-09
         0.70032E-09
         0.74071E-09
         0.71632E-09
         0.56279E-09
         0.35353E-09
         0.58300E-09
         0.77282E-09
         0.62300E-09
         0.54710E-09
         0.35834E-09
         0.61266E-09
         0.83288E-09
         0.87543E-09
         0.70713E-09
         0.43387E-09
         0.75122E-09
         0.27499E-09
         0.35133E-09
         0.32617E-09
         0.38790E-09
         0.37964E-09
         0.36857E-09
         0.39437E-09
         0.41834E-09
         0.39314E-09
         0.30532E-09
         0.24834E-09
         0.32014E-09
         0.42716E-09
         0.47005E-09
         0.45032E-09
         0.40527E-09
         0.36781E-09
         0.29866E-09
         0.25105E-09
         0.32843E-09
         0.43513E-09
         0.44962E-09
         0.36244E-09
         0.29419E-09
         0.36210E-09
         0.42750E-09
         0.91246E-09
         0.72114E-09
         0.77705E-09
         0.13444E-08
         0.71767E-09
         0.91773E-09
         0.50662E-09
         0.60805E-09
         0.10173E-08
         0.73564E-09
         0.29700E-09
         0.56812E-09
         0.62616E-09
         0.49914E-09
         0.64663E-09
         0.12097E-08
         0.94766E-09
         0.12056E-08
         0.70348E-09
         0.80471E-09
         0.75796E-09
         0.84084E-09
         0.64414E-09
         0.40002E-09
         0.75635E-09
         0.63241E-09
         0.64603E-09
         0.66678E-09
         0.58433E-09
         0.71413E-09
         0.91120E-09
         0.64146E-09
         0.10259E-08
         0.89729E-09
         0.40070E-09
         0.61636E-09
         0.70023E-09
         0.74067E-09
         0.71637E-09
         0.56282E-09
         0.35353E-09
         0.58293E-09
         0.77279E-09
         0.62291E-09
         0.54698E-09
         0.35825E-09
         0.61261E-09
         0.83289E-09
         0.87557E-09
         0.70728E-09
         0.43389E-09
         0.75160E-09
         0.27491E-09
         0.35133E-09
         0.32601E-09
         0.38792E-09
         0.37972E-09
         0.36865E-09
         0.39454E-09
         0.41864E-09
         0.39337E-09
         0.30539E-09
         0.24836E-09
         0.32015E-09
         0.42722E-09
         0.47016E-09
         0.45038E-09
         0.40526E-09
         0.36779E-09
         0.29864E-09
         0.25101E-09
         0.32841E-09
         0.43512E-09
         0.44962E-09
         0.36237E-09
         0.29413E-09
         0.36215E-09
         0.42750E-09
         0.91249E-09
         0.72097E-09
         0.77710E-09
         0.13450E-08
         0.71777E-09
         0.91799E-09
         0.50634E-09
         0.60767E-09
         0.10176E-08
         0.73514E-09
         0.29670E-09
         0.56801E-09
         0.62610E-09
         0.49842E-09
         0.64648E-09
         0.12100E-08
         0.94806E-09
         0.12062E-08
         0.70349E-09
         0.80479E-09
         0.75791E-09
         0.84086E-09
         0.64406E-09
         0.39997E-09
         0.75600E-09
         0.63234E-09
         0.64503E-09
         0.66610E-09
         0.58407E-09
         0.71395E-09
         0.91127E-09
         0.64136E-09
         0.10264E-08
         0.89808E-09
         0.40069E-09
         0.61622E-09
         0.70012E-09
         0.74060E-09
         0.71641E-09
         0.56283E-09
         0.35352E-09
         0.58283E-09
         0.77273E-09
         0.62281E-09
         0.54684E-09
         0.35815E-09
         0.61255E-09
         0.83288E-09
         0.87569E-09
         0.70741E-09
         0.43389E-09
         0.75195E-09
         0.27482E-09
         0.35132E-09
         0.32584E-09
         0.38793E-09
         0.37980E-09
         0.36872E-09
         0.39470E-09
         0.41893E-09
         0.39360E-09
         0.30545E-09
         0.24837E-09
         0.32016E-09
         0.42727E-09
         0.47026E-09
         0.45042E-09
         0.40524E-09
         0.36776E-09
         0.29861E-09
         0.25097E-09
         0.32838E-09
         0.43510E-09
         0.44961E-09
         0.36229E-09
         0.29406E-09
         0.36218E-09
         0.42748E-09
         0.91256E-09
         0.72083E-09
         0.77718E-09
         0.13457E-08
         0.71789E-09
         0.91829E-09
         0.50608E-09
         0.60732E-09
         0.10180E-08
         0.73467E-09
         0.29642E-09
         0.56792E-09
         0.62607E-09
         0.49772E-09
         0.64636E-09
         0.12103E-08
         0.94850E-09
         0.12068E-08
         0.70352E-09
         0.80490E-09
         0.75789E-09
         0.84091E-09
         0.64401E-09
         0.39993E-09
         0.75569E-09
         0.63230E-09
         0.64405E-09
         0.66544E-09
         0.58382E-09
         0.71379E-09
         0.91137E-09
         0.64129E-09
         0.10270E-08
         0.89890E-09
         0.40069E-09
         0.61611E-09
         0.70004E-09
         0.74056E-09
         0.71646E-09
         0.56287E-09
         0.35353E-09
         0.58276E-09
         0.77271E-09
         0.62273E-09
         0.54672E-09
         0.35806E-09
         0.61251E-09
         0.83291E-09
         0.87583E-09
         0.70756E-09
         0.43391E-09
         0.75234E-09
         0.27474E-09
         0.35132E-09
         0.32569E-09
         0.38794E-09
         0.37990E-09
         0.36881E-09
         0.39488E-09
         0.41923E-09
         0.39383E-09
         0.30553E-09
         0.24840E-09
         0.32017E-09
         0.42734E-09
         0.47037E-09
         0.45048E-09
         0.40524E-09
         0.36774E-09
         0.29859E-09
         0.25093E-09
         0.32836E-09
         0.43510E-09
         0.44962E-09
         0.36222E-09
         0.29400E-09
         0.36223E-09
         0.42747E-09
         0.45631E-09
         0.36039E-09
         0.38862E-09
         0.67302E-09
         0.35899E-09
         0.45923E-09
         0.25298E-09
         0.30358E-09
         0.50909E-09
         0.36723E-09
         0.14815E-09
         0.28394E-09
         0.31303E-09
         0.24869E-09
         0.32316E-09
         0.60528E-09
         0.47437E-09
         0.60357E-09
         0.35178E-09
         0.40249E-09
         0.37895E-09
         0.42048E-09
         0.32200E-09
         0.19996E-09
         0.37777E-09
         0.31615E-09
         0.32179E-09
         0.33257E-09
         0.29186E-09
         0.35687E-09
         0.45572E-09
         0.32064E-09
         0.51365E-09
         0.44967E-09
         0.20035E-09
         0.30804E-09
         0.35001E-09
         0.37028E-09
         0.35826E-09
         0.28145E-09
         0.17677E-09
         0.29137E-09
         0.38636E-09
         0.31135E-09
         0.27333E-09
         0.17901E-09
         0.30625E-09
         0.41647E-09
         0.43797E-09
         0.35383E-09
         0.21697E-09
         0.37628E-09
         0.13735E-09
         0.17566E-09
         0.16281E-09
         0.19398E-09
         0.18998E-09
         0.18443E-09
         0.19749E-09
         0.20970E-09
         0.19698E-09
         0.15279E-09
         0.12421E-09
         0.16009E-09
         0.21369E-09
         0.23522E-09
         0.22526E-09
         0.20262E-09
         0.18387E-09
         0.14930E-09
         0.12546E-09
         0.16418E-09
         0.21756E-09
         0.22482E-09
         0.18110E-09
         0.14699E-09
         0.18113E-09
         0.21374E-09
  
SCALARS               pre_disp_force_x  double 1
LOOKUP_TABLE default
         0.00000E+00
         0.00000E+00
         0.00000E+00
         0.00000E+00
         0.00000E+00
         0.00000E+00
         0.00000E+00
         0.00000E+00
         0.00000E+00
         0.00000E+00
         0.00000E+00
         0.00000E+00
         0.00000E+00
         0.00000E+00
         0.00000E+00
         0.00000E+00
         0.00000E+00
         0.00000E+00
         0.00000E+00
         0.00000E+00
         0.00000E+00
         0.00000E+00
         0.00000E+00
         0.00000E+00
         0.00000E+00
         0.00000E+00
         0.00000E+00
         0.00000E+00
         0.00000E+00
         0.00000E+00
         0.00000E+00
         0.00000E+00
         0.00000E+00
         0.00000E+00
         0.00000E+00
         0.00000E+00
         0.00000E+00
         0.00000E+00
         0.00000E+00
         0.00000E+00
         0.00000E+00
         0.00000E+00
         0.00000E+00
         0.00000E+00
         0.00000E+00
         0.00000E+00
         0.00000E+00
         0.00000E+00
         0.00000E+00
         0.00000E+00
         0.00000E+00
         0.00000E+00
         0.00000E+00
         0.00000E+00
         0.00000E+00
         0.00000E+00
         0.00000E+00
         0.00000E+00
         0.00000E+00
         0.00000E+00
         0.00000E+00
         0.00000E+00
         0.00000E+00
         0.00000E+00
         0.00000E+00
         0.00000E+00
         0.00000E+00
         0.00000E+00
         0.00000E+00
         0.00000E+00
         0.00000E+00
         0.00000E+00
         0.00000E+00
         0.00000E+00
         0.00000E+00
         0.00000E+00
         0.00000E+00
         0.00000E+00
         0.00000E+00
         0.00000E+00
         0.00000E+00
         0.00000E+00
         0.00000E+00
         0.00000E+00
         0.00000E+00
         0.00000E+00
         0.00000E+00
         0.00000E+00
         0.00000E+00
         0.00000E+00
         0.00000E+00
         0.00000E+00
         0.00000E+00
         0.00000E+00
         0.00000E+00
         0.00000E+00
         0.00000E+00
         0.00000E+00
         0.00000E+00
         0.00000E+00
         0.00000E+00
         0.00000E+00
         0.00000E+00
         0.00000E+00
         0.00000E+00
         0.00000E+00
         0.00000E+00
         0.00000E+00
         0.00000E+00
         0.00000E+00
         0.00000E+00
         0.00000E+00
         0.00000E+00
         0.00000E+00
         0.00000E+00
         0.00000E+00
         0.00000E+00
         0.00000E+00
         0.00000E+00
         0.00000E+00
         0.00000E+00
         0.00000E+00
         0.00000E+00
         0.00000E+00
         0.00000E+00
         0.00000E+00
         0.00000E+00
         0.00000E+00
         0.00000E+00
         0.00000E+00
         0.00000E+00
         0.00000E+00
         0.00000E+00
         0.00000E+00
         0.00000E+00
         0.00000E+00
         0.00000E+00
         0.00000E+00
         0.00000E+00
         0.00000E+00
         0.00000E+00
         0.00000E+00
         0.00000E+00
         0.00000E+00
         0.00000E+00
         0.00000E+00
         0.00000E+00
         0.00000E+00
         0.00000E+00
         0.00000E+00
         0.00000E+00
         0.00000E+00
         0.00000E+00
         0.00000E+00
         0.00000E+00
         0.00000E+00
         0.00000E+00
         0.00000E+00
         0.00000E+00
         0.00000E+00
         0.00000E+00
         0.00000E+00
         0.00000E+00
         0.00000E+00
         0.00000E+00
         0.00000E+00
         0.00000E+00
         0.00000E+00
         0.00000E+00
         0.00000E+00
         0.00000E+00
         0.00000E+00
         0.00000E+00
         0.00000E+00
         0.00000E+00
         0.00000E+00
         0.00000E+00
         0.00000E+00
         0.00000E+00
         0.00000E+00
         0.00000E+00
         0.00000E+00
         0.00000E+00
         0.00000E+00
         0.00000E+00
         0.00000E+00
         0.00000E+00
         0.00000E+00
         0.00000E+00
         0.00000E+00
         0.00000E+00
         0.00000E+00
         0.00000E+00
         0.00000E+00
         0.00000E+00
         0.00000E+00
         0.00000E+00
         0.00000E+00
         0.00000E+00
         0.00000E+00
         0.00000E+00
         0.00000E+00
         0.00000E+00
         0.00000E+00
         0.00000E+00
         0.00000E+00
         0.00000E+00
         0.00000E+00
         0.00000E+00
         0.00000E+00
         0.00000E+00
         0.00000E+00
         0.00000E+00
         0.00000E+00
         0.00000E+00
         0.00000E+00
         0.00000E+00
         0.00000E+00
         0.00000E+00
         0.00000E+00
         0.00000E+00
         0.00000E+00
         0.00000E+00
         0.00000E+00
         0.00000E+00
         0.00000E+00
         0.00000E+00
         0.00000E+00
         0.00000E+00
         0.00000E+00
         0.00000E+00
         0.00000E+00
         0.00000E+00
         0.00000E+00
         0.00000E+00
         0.00000E+00
         0.00000E+00
         0.00000E+00
         0.00000E+00
         0.00000E+00
         0.00000E+00
         0.00000E+00
         0.00000E+00
         0.00000E+00
         0.00000E+00
         0.00000E+00
         0.00000E+00
         0.00000E+00
         0.00000E+00
         0.00000E+00
         0.00000E+00
         0.00000E+00
         0.00000E+00
         0.00000E+00
         0.00000E+00
         0.00000E+00
         0.00000E+00
         0.00000E+00
         0.00000E+00
         0.00000E+00
         0.00000E+00
         0.00000E+00
         0.00000E+00
         0.00000E+00
         0.00000E+00
         0.00000E+00
         0.00000E+00
         0.00000E+00
         0.00000E+00
         0.00000E+00
         0.00000E+00
         0.00000E+00
         0.00000E+00
         0.00000E+00
         0.00000E+00
         0.00000E+00
         0.00000E+00
         0.00000E+00
         0.00000E+00
         0.00000E+00
         0.00000E+00
         0.00000E+00
         0.00000E+00
         0.00000E+00
         0.00000E+00
         0.00000E+00
         0.00000E+00
         0.00000E+00
         0.00000E+00
         0.00000E+00
         0.00000E+00
         0.00000E+00
         0.00000E+00
         0.00000E+00
         0.00000E+00
         0.00000E+00
         0.00000E+00
         0.00000E+00
         0.00000E+00
         0.00000E+00
         0.00000E+00
         0.00000E+00
         0.00000E+00
         0.00000E+00
         0.00000E+00
         0.00000E+00
         0.00000E+00
         0.00000E+00
         0.00000E+00
         0.00000E+00
         0.00000E+00
         0.00000E+00
         0.00000E+00
         0.00000E+00
         0.00000E+00
         0.00000E+00
         0.00000E+00
         0.00000E+00
         0.00000E+00
         0.00000E+00
         0.00000E+00
         0.00000E+00
         0.00000E+00
         0.00000E+00
         0.00000E+00
         0.00000E+00
         0.00000E+00
         0.00000E+00
         0.00000E+00
         0.00000E+00
         0.00000E+00
         0.00000E+00
         0.00000E+00
         0.00000E+00
         0.00000E+00
         0.00000E+00
         0.00000E+00
         0.00000E+00
         0.00000E+00
         0.00000E+00
         0.00000E+00
         0.00000E+00
         0.00000E+00
         0.00000E+00
         0.00000E+00
         0.00000E+00
         0.00000E+00
         0.00000E+00
         0.00000E+00
         0.00000E+00
         0.00000E+00
         0.00000E+00
         0.00000E+00
         0.00000E+00
         0.00000E+00
         0.00000E+00
         0.00000E+00
         0.00000E+00
         0.00000E+00
         0.00000E+00
         0.00000E+00
         0.00000E+00
         0.00000E+00
         0.00000E+00
         0.00000E+00
         0.00000E+00
         0.00000E+00
         0.00000E+00
         0.00000E+00
         0.00000E+00
         0.00000E+00
         0.00000E+00
         0.00000E+00
         0.00000E+00
         0.00000E+00
         0.00000E+00
         0.00000E+00
         0.00000E+00
         0.00000E+00
         0.00000E+00
         0.00000E+00
         0.00000E+00
         0.00000E+00
         0.00000E+00
         0.00000E+00
         0.00000E+00
         0.00000E+00
         0.00000E+00
         0.00000E+00
         0.00000E+00
         0.00000E+00
         0.00000E+00
         0.00000E+00
         0.00000E+00
         0.00000E+00
         0.00000E+00
         0.00000E+00
         0.00000E+00
         0.00000E+00
         0.00000E+00
         0.00000E+00
         0.00000E+00
         0.00000E+00
         0.00000E+00
         0.00000E+00
         0.00000E+00
         0.00000E+00
         0.00000E+00
         0.00000E+00
         0.00000E+00
         0.00000E+00
         0.00000E+00
         0.00000E+00
         0.00000E+00
         0.00000E+00
         0.00000E+00
         0.00000E+00
         0.00000E+00
         0.00000E+00
         0.00000E+00
         0.00000E+00
         0.00000E+00
         0.00000E+00
         0.00000E+00
         0.00000E+00
         0.00000E+00
         0.00000E+00
         0.00000E+00
         0.00000E+00
         0.00000E+00
         0.00000E+00
         0.00000E+00
         0.00000E+00
         0.00000E+00
         0.00000E+00
         0.00000E+00
         0.00000E+00
         0.00000E+00
         0.00000E+00
         0.00000E+00
         0.00000E+00
         0.00000E+00
         0.00000E+00
         0.00000E+00
         0.00000E+00
         0.00000E+00
         0.00000E+00
         0.00000E+00
         0.00000E+00
         0.00000E+00
         0.00000E+00
         0.00000E+00
         0.00000E+00
         0.00000E+00
         0.00000E+00
         0.00000E+00
         0.00000E+00
         0.00000E+00
         0.00000E+00
         0.00000E+00
         0.00000E+00
         0.00000E+00
         0.00000E+00
         0.00000E+00
         0.00000E+00
         0.00000E+00
         0.00000E+00
         0.00000E+00
         0.00000E+00
         0.00000E+00
         0.00000E+00
         0.00000E+00
         0.00000E+00
         0.00000E+00
         0.00000E+00
         0.00000E+00
         0.00000E+00
         0.00000E+00
         0.00000E+00
         0.00000E+00
         0.00000E+00
         0.00000E+00
         0.00000E+00
         0.00000E+00
         0.00000E+00
         0.00000E+00
         0.00000E+00
         0.00000E+00
         0.00000E+00
         0.00000E+00
         0.00000E+00
         0.00000E+00
         0.00000E+00
         0.00000E+00
         0.00000E+00
         0.00000E+00
         0.00000E+00
         0.00000E+00
         0.00000E+00
         0.00000E+00
         0.00000E+00
         0.00000E+00
         0.00000E+00
         0.00000E+00
         0.00000E+00
         0.00000E+00
         0.00000E+00
         0.00000E+00
         0.00000E+00
         0.00000E+00
         0.00000E+00
         0.00000E+00
         0.00000E+00
         0.00000E+00
         0.00000E+00
         0.00000E+00
         0.00000E+00
         0.00000E+00
         0.00000E+00
         0.00000E+00
         0.00000E+00
         0.00000E+00
         0.00000E+00
         0.00000E+00
         0.00000E+00
         0.00000E+00
         0.00000E+00
         0.00000E+00
         0.00000E+00
         0.00000E+00
         0.00000E+00
         0.00000E+00
         0.00000E+00
         0.00000E+00
         0.00000E+00
         0.00000E+00
         0.00000E+00
         0.00000E+00
         0.00000E+00
         0.00000E+00
         0.00000E+00
         0.00000E+00
         0.00000E+00
         0.00000E+00
         0.00000E+00
         0.00000E+00
         0.00000E+00
         0.00000E+00
         0.00000E+00
         0.00000E+00
         0.00000E+00
         0.00000E+00
         0.00000E+00
         0.00000E+00
         0.00000E+00
         0.00000E+00
         0.00000E+00
         0.00000E+00
         0.00000E+00
         0.00000E+00
         0.00000E+00
         0.00000E+00
         0.00000E+00
         0.00000E+00
         0.00000E+00
         0.00000E+00
         0.00000E+00
         0.00000E+00
         0.00000E+00
         0.00000E+00
         0.00000E+00
         0.00000E+00
         0.00000E+00
         0.00000E+00
         0.00000E+00
         0.00000E+00
         0.00000E+00
         0.00000E+00
         0.00000E+00
         0.00000E+00
         0.00000E+00
         0.00000E+00
         0.00000E+00
         0.00000E+00
         0.00000E+00
         0.00000E+00
         0.00000E+00
         0.00000E+00
         0.00000E+00
         0.00000E+00
         0.00000E+00
         0.00000E+00
         0.00000E+00
         0.00000E+00
         0.00000E+00
         0.00000E+00
         0.00000E+00
         0.00000E+00
         0.00000E+00
         0.00000E+00
         0.00000E+00
         0.00000E+00
         0.00000E+00
         0.00000E+00
         0.00000E+00
         0.00000E+00
         0.00000E+00
         0.00000E+00
         0.00000E+00
         0.00000E+00
         0.00000E+00
         0.00000E+00
         0.00000E+00
         0.00000E+00
         0.00000E+00
         0.00000E+00
         0.00000E+00
         0.00000E+00
         0.00000E+00
         0.00000E+00
         0.00000E+00
         0.00000E+00
         0.00000E+00
         0.00000E+00
         0.00000E+00
         0.00000E+00
         0.00000E+00
         0.00000E+00
         0.00000E+00
         0.00000E+00
         0.00000E+00
         0.00000E+00
         0.00000E+00
         0.00000E+00
         0.00000E+00
         0.00000E+00
         0.00000E+00
         0.00000E+00
         0.00000E+00
         0.00000E+00
         0.00000E+00
         0.00000E+00
         0.00000E+00
         0.00000E+00
         0.00000E+00
         0.00000E+00
         0.00000E+00
         0.00000E+00
         0.00000E+00
         0.00000E+00
         0.00000E+00
         0.00000E+00
         0.00000E+00
         0.00000E+00
         0.00000E+00
         0.00000E+00
         0.00000E+00
         0.00000E+00
         0.00000E+00
         0.00000E+00
         0.00000E+00
         0.00000E+00
         0.00000E+00
         0.00000E+00
         0.00000E+00
         0.00000E+00
         0.00000E+00
         0.00000E+00
         0.00000E+00
         0.00000E+00
         0.00000E+00
         0.00000E+00
         0.00000E+00
         0.00000E+00
         0.00000E+00
         0.00000E+00
         0.00000E+00
         0.00000E+00
         0.00000E+00
         0.00000E+00
         0.00000E+00
         0.00000E+00
         0.00000E+00
         0.00000E+00
         0.00000E+00
         0.00000E+00
         0.00000E+00
         0.00000E+00
         0.00000E+00
         0.00000E+00
         0.00000E+00
         0.00000E+00
         0.00000E+00
         0.00000E+00
         0.00000E+00
         0.00000E+00
         0.00000E+00
         0.00000E+00
         0.00000E+00
         0.00000E+00
         0.00000E+00
         0.00000E+00
         0.00000E+00
         0.00000E+00
         0.00000E+00
         0.00000E+00
         0.00000E+00
         0.00000E+00
         0.00000E+00
         0.00000E+00
         0.00000E+00
         0.00000E+00
         0.00000E+00
         0.00000E+00
         0.00000E+00
         0.00000E+00
         0.00000E+00
         0.00000E+00
         0.00000E+00
         0.00000E+00
         0.00000E+00
         0.00000E+00
         0.00000E+00
         0.00000E+00
         0.00000E+00
         0.00000E+00
         0.00000E+00
         0.00000E+00
         0.00000E+00
         0.00000E+00
         0.00000E+00
         0.00000E+00
         0.00000E+00
         0.00000E+00
         0.00000E+00
         0.00000E+00
         0.00000E+00
         0.00000E+00
         0.00000E+00
         0.00000E+00
         0.00000E+00
         0.00000E+00
         0.00000E+00
         0.00000E+00
         0.00000E+00
         0.00000E+00
         0.00000E+00
         0.00000E+00
         0.00000E+00
         0.00000E+00
         0.00000E+00
         0.00000E+00
         0.00000E+00
         0.00000E+00
         0.00000E+00
         0.00000E+00
         0.00000E+00
         0.00000E+00
         0.00000E+00
         0.00000E+00
         0.00000E+00
         0.00000E+00
         0.00000E+00
         0.00000E+00
         0.00000E+00
         0.00000E+00
         0.00000E+00
         0.00000E+00
         0.00000E+00
         0.00000E+00
         0.00000E+00
         0.00000E+00
         0.00000E+00
         0.00000E+00
         0.00000E+00
         0.00000E+00
         0.00000E+00
         0.00000E+00
         0.00000E+00
         0.00000E+00
         0.00000E+00
         0.00000E+00
         0.00000E+00
         0.00000E+00
         0.00000E+00
         0.00000E+00
         0.00000E+00
         0.00000E+00
         0.00000E+00
         0.00000E+00
         0.00000E+00
         0.00000E+00
         0.00000E+00
         0.00000E+00
         0.00000E+00
         0.00000E+00
         0.00000E+00
         0.00000E+00
         0.00000E+00
         0.00000E+00
         0.00000E+00
         0.00000E+00
         0.00000E+00
         0.00000E+00
         0.00000E+00
         0.00000E+00
         0.00000E+00
         0.00000E+00
         0.00000E+00
         0.00000E+00
         0.00000E+00
         0.00000E+00
         0.00000E+00
         0.00000E+00
         0.00000E+00
         0.00000E+00
         0.00000E+00
         0.00000E+00
         0.00000E+00
         0.00000E+00
         0.00000E+00
         0.00000E+00
         0.00000E+00
         0.00000E+00
         0.00000E+00
         0.00000E+00
         0.00000E+00
         0.00000E+00
         0.00000E+00
         0.00000E+00
         0.00000E+00
         0.00000E+00
         0.00000E+00
         0.00000E+00
         0.00000E+00
         0.00000E+00
         0.00000E+00
         0.00000E+00
         0.00000E+00
         0.00000E+00
         0.00000E+00
         0.00000E+00
         0.00000E+00
         0.00000E+00
         0.00000E+00
         0.00000E+00
         0.00000E+00
         0.00000E+00
         0.00000E+00
         0.00000E+00
         0.00000E+00
         0.00000E+00
         0.00000E+00
         0.00000E+00
         0.00000E+00
         0.00000E+00
         0.00000E+00
         0.00000E+00
         0.00000E+00
         0.00000E+00
         0.00000E+00
         0.00000E+00
         0.00000E+00
         0.00000E+00
         0.00000E+00
         0.00000E+00
         0.00000E+00
         0.00000E+00
         0.00000E+00
         0.00000E+00
         0.00000E+00
         0.00000E+00
         0.00000E+00
         0.00000E+00
         0.00000E+00
         0.00000E+00
         0.00000E+00
         0.00000E+00
         0.00000E+00
         0.00000E+00
         0.00000E+00
         0.00000E+00
         0.00000E+00
         0.00000E+00
         0.00000E+00
         0.00000E+00
         0.00000E+00
         0.00000E+00
         0.00000E+00
         0.00000E+00
         0.00000E+00
         0.00000E+00
         0.00000E+00
         0.00000E+00
         0.00000E+00
         0.00000E+00
         0.00000E+00
         0.00000E+00
         0.00000E+00
         0.00000E+00
         0.00000E+00
         0.00000E+00
         0.00000E+00
         0.00000E+00
         0.00000E+00
         0.00000E+00
         0.00000E+00
         0.00000E+00
         0.00000E+00
         0.00000E+00
         0.00000E+00
         0.00000E+00
         0.00000E+00
         0.00000E+00
         0.00000E+00
         0.00000E+00
         0.00000E+00
         0.00000E+00
         0.00000E+00
         0.00000E+00
         0.00000E+00
         0.00000E+00
         0.00000E+00
         0.00000E+00
         0.00000E+00
         0.00000E+00
         0.00000E+00
         0.00000E+00
         0.00000E+00
         0.00000E+00
         0.00000E+00
         0.00000E+00
         0.00000E+00
         0.00000E+00
         0.00000E+00
         0.00000E+00
         0.00000E+00
         0.00000E+00
         0.00000E+00
         0.00000E+00
         0.00000E+00
         0.00000E+00
         0.00000E+00
         0.00000E+00
         0.00000E+00
         0.00000E+00
         0.00000E+00
         0.00000E+00
         0.00000E+00
         0.00000E+00
         0.00000E+00
         0.00000E+00
         0.00000E+00
         0.00000E+00
         0.00000E+00
         0.00000E+00
         0.00000E+00
         0.00000E+00
         0.00000E+00
         0.00000E+00
         0.00000E+00
         0.00000E+00
         0.00000E+00
         0.00000E+00
         0.00000E+00
         0.00000E+00
         0.00000E+00
         0.00000E+00
         0.00000E+00
         0.00000E+00
         0.00000E+00
         0.00000E+00
         0.00000E+00
         0.00000E+00
         0.00000E+00
         0.00000E+00
         0.00000E+00
         0.00000E+00
         0.00000E+00
         0.00000E+00
         0.00000E+00
         0.00000E+00
         0.00000E+00
         0.00000E+00
         0.00000E+00
         0.00000E+00
         0.00000E+00
         0.00000E+00
         0.00000E+00
         0.00000E+00
         0.00000E+00
         0.00000E+00
         0.00000E+00
         0.00000E+00
         0.00000E+00
         0.00000E+00
         0.00000E+00
         0.00000E+00
         0.00000E+00
         0.00000E+00
         0.00000E+00
         0.00000E+00
         0.00000E+00
         0.00000E+00
         0.00000E+00
         0.00000E+00
         0.00000E+00
         0.00000E+00
         0.00000E+00
         0.00000E+00
         0.00000E+00
         0.00000E+00
         0.00000E+00
         0.00000E+00
         0.00000E+00
         0.00000E+00
         0.00000E+00
         0.00000E+00
         0.00000E+00
         0.00000E+00
         0.00000E+00
         0.00000E+00
         0.00000E+00
         0.00000E+00
         0.00000E+00
         0.00000E+00
         0.00000E+00
         0.00000E+00
         0.00000E+00
         0.00000E+00
         0.00000E+00
         0.00000E+00
         0.00000E+00
         0.00000E+00
         0.00000E+00
         0.00000E+00
         0.00000E+00
         0.00000E+00
         0.00000E+00
         0.00000E+00
         0.00000E+00
         0.00000E+00
         0.00000E+00
         0.00000E+00
         0.00000E+00
         0.00000E+00
         0.00000E+00
         0.00000E+00
         0.00000E+00
         0.00000E+00
         0.00000E+00
         0.00000E+00
         0.00000E+00
         0.00000E+00
         0.00000E+00
         0.00000E+00
         0.00000E+00
         0.00000E+00
         0.00000E+00
         0.00000E+00
         0.00000E+00
         0.00000E+00
         0.00000E+00
         0.00000E+00
         0.00000E+00
         0.00000E+00
         0.00000E+00
         0.00000E+00
         0.00000E+00
         0.00000E+00
         0.00000E+00
         0.00000E+00
         0.00000E+00
         0.00000E+00
         0.00000E+00
         0.00000E+00
         0.00000E+00
         0.00000E+00
         0.00000E+00
         0.00000E+00
         0.00000E+00
         0.00000E+00
         0.00000E+00
         0.00000E+00
         0.00000E+00
         0.00000E+00
         0.00000E+00
         0.00000E+00
         0.00000E+00
         0.00000E+00
         0.00000E+00
         0.00000E+00
         0.00000E+00
         0.00000E+00
         0.00000E+00
         0.00000E+00
         0.00000E+00
         0.00000E+00
         0.00000E+00
         0.00000E+00
         0.00000E+00
         0.00000E+00
         0.00000E+00
         0.00000E+00
         0.00000E+00
         0.00000E+00
         0.00000E+00
         0.00000E+00
         0.00000E+00
         0.00000E+00
         0.00000E+00
         0.00000E+00
         0.00000E+00
         0.00000E+00
         0.00000E+00
         0.00000E+00
         0.00000E+00
         0.00000E+00
         0.00000E+00
         0.00000E+00
         0.00000E+00
         0.00000E+00
         0.00000E+00
         0.00000E+00
         0.00000E+00
         0.00000E+00
         0.00000E+00
         0.00000E+00
         0.00000E+00
         0.00000E+00
         0.00000E+00
         0.00000E+00
         0.00000E+00
         0.00000E+00
         0.00000E+00
         0.00000E+00
         0.00000E+00
         0.00000E+00
         0.00000E+00
         0.00000E+00
         0.00000E+00
         0.00000E+00
         0.00000E+00
         0.00000E+00
         0.00000E+00
         0.00000E+00
         0.00000E+00
         0.00000E+00
         0.00000E+00
         0.00000E+00
         0.00000E+00
         0.00000E+00
         0.00000E+00
         0.00000E+00
         0.00000E+00
         0.00000E+00
         0.00000E+00
         0.00000E+00
         0.00000E+00
         0.00000E+00
         0.00000E+00
         0.00000E+00
         0.00000E+00
         0.00000E+00
         0.00000E+00
         0.00000E+00
         0.00000E+00
         0.00000E+00
         0.00000E+00
         0.00000E+00
         0.00000E+00
         0.00000E+00
         0.00000E+00
         0.00000E+00
         0.00000E+00
         0.00000E+00
         0.00000E+00
         0.00000E+00
         0.00000E+00
         0.00000E+00
         0.00000E+00
         0.00000E+00
         0.00000E+00
         0.00000E+00
         0.00000E+00
         0.00000E+00
         0.00000E+00
         0.00000E+00
         0.00000E+00
         0.00000E+00
         0.00000E+00
         0.00000E+00
         0.00000E+00
         0.00000E+00
         0.00000E+00
         0.00000E+00
         0.00000E+00
         0.00000E+00
         0.00000E+00
         0.00000E+00
         0.00000E+00
         0.00000E+00
         0.00000E+00
         0.00000E+00
         0.00000E+00
         0.00000E+00
         0.00000E+00
         0.00000E+00
         0.00000E+00
         0.00000E+00
         0.00000E+00
         0.00000E+00
         0.00000E+00
         0.00000E+00
         0.00000E+00
         0.00000E+00
         0.00000E+00
         0.00000E+00
         0.00000E+00
         0.00000E+00
         0.00000E+00
         0.00000E+00
         0.00000E+00
         0.00000E+00
         0.00000E+00
         0.00000E+00
         0.00000E+00
         0.00000E+00
         0.00000E+00
         0.00000E+00
         0.00000E+00
         0.00000E+00
         0.00000E+00
         0.00000E+00
         0.00000E+00
         0.00000E+00
         0.00000E+00
         0.00000E+00
         0.00000E+00
         0.00000E+00
         0.00000E+00
         0.00000E+00
         0.00000E+00
         0.00000E+00
         0.00000E+00
         0.00000E+00
         0.00000E+00
         0.00000E+00
         0.00000E+00
         0.00000E+00
         0.00000E+00
         0.00000E+00
         0.00000E+00
         0.00000E+00
         0.00000E+00
         0.00000E+00
         0.00000E+00
         0.00000E+00
         0.00000E+00
         0.00000E+00
         0.00000E+00
         0.00000E+00
         0.00000E+00
         0.00000E+00
         0.00000E+00
         0.00000E+00
         0.00000E+00
         0.00000E+00
         0.00000E+00
         0.00000E+00
         0.00000E+00
         0.00000E+00
         0.00000E+00
         0.00000E+00
         0.00000E+00
         0.00000E+00
         0.00000E+00
         0.00000E+00
         0.00000E+00
         0.00000E+00
         0.00000E+00
         0.00000E+00
         0.00000E+00
         0.00000E+00
         0.00000E+00
         0.00000E+00
         0.00000E+00
         0.00000E+00
         0.00000E+00
         0.00000E+00
         0.00000E+00
         0.00000E+00
         0.00000E+00
         0.00000E+00
         0.00000E+00
         0.00000E+00
         0.00000E+00
         0.00000E+00
         0.00000E+00
         0.00000E+00
         0.00000E+00
         0.00000E+00
         0.00000E+00
         0.00000E+00
         0.00000E+00
         0.00000E+00
         0.00000E+00
         0.00000E+00
         0.00000E+00
         0.00000E+00
         0.00000E+00
         0.00000E+00
         0.00000E+00
         0.00000E+00
         0.00000E+00
         0.00000E+00
         0.00000E+00
         0.00000E+00
         0.00000E+00
         0.00000E+00
         0.00000E+00
         0.00000E+00
         0.00000E+00
         0.00000E+00
         0.00000E+00
         0.00000E+00
         0.00000E+00
         0.00000E+00
         0.00000E+00
         0.00000E+00
         0.00000E+00
         0.00000E+00
         0.00000E+00
         0.00000E+00
         0.00000E+00
         0.00000E+00
         0.00000E+00
         0.00000E+00
         0.00000E+00
         0.00000E+00
         0.00000E+00
         0.00000E+00
         0.00000E+00
         0.00000E+00
         0.00000E+00
         0.00000E+00
         0.00000E+00
         0.00000E+00
         0.00000E+00
         0.00000E+00
         0.00000E+00
         0.00000E+00
         0.00000E+00
         0.00000E+00
         0.00000E+00
         0.00000E+00
         0.00000E+00
         0.00000E+00
         0.00000E+00
         0.00000E+00
         0.00000E+00
         0.00000E+00
         0.00000E+00
         0.00000E+00
         0.00000E+00
         0.00000E+00
         0.00000E+00
         0.00000E+00
         0.00000E+00
         0.00000E+00
         0.00000E+00
         0.00000E+00
         0.00000E+00
         0.00000E+00
         0.00000E+00
         0.00000E+00
         0.00000E+00
         0.00000E+00
         0.00000E+00
         0.00000E+00
         0.00000E+00
         0.00000E+00
         0.00000E+00
         0.00000E+00
         0.00000E+00
         0.00000E+00
         0.00000E+00
         0.00000E+00
         0.00000E+00
         0.00000E+00
         0.00000E+00
         0.00000E+00
         0.00000E+00
         0.00000E+00
         0.00000E+00
         0.00000E+00
         0.00000E+00
         0.00000E+00
         0.00000E+00
         0.00000E+00
         0.00000E+00
         0.00000E+00
         0.00000E+00
         0.00000E+00
         0.00000E+00
         0.00000E+00
         0.00000E+00
         0.00000E+00
         0.00000E+00
         0.00000E+00
         0.00000E+00
         0.00000E+00
         0.00000E+00
         0.00000E+00
         0.00000E+00
         0.00000E+00
         0.00000E+00
         0.00000E+00
         0.00000E+00
         0.00000E+00
         0.00000E+00
         0.00000E+00
         0.00000E+00
         0.00000E+00
         0.00000E+00
         0.00000E+00
         0.00000E+00
         0.00000E+00
         0.00000E+00
         0.00000E+00
         0.00000E+00
         0.00000E+00
         0.00000E+00
         0.00000E+00
         0.00000E+00
         0.00000E+00
         0.00000E+00
         0.00000E+00
         0.00000E+00
         0.00000E+00
         0.00000E+00
         0.00000E+00
         0.00000E+00
         0.00000E+00
         0.00000E+00
         0.00000E+00
         0.00000E+00
         0.00000E+00
         0.00000E+00
         0.00000E+00
         0.00000E+00
         0.00000E+00
         0.00000E+00
         0.00000E+00
         0.00000E+00
         0.00000E+00
         0.00000E+00
         0.00000E+00
         0.00000E+00
         0.00000E+00
         0.00000E+00
         0.00000E+00
         0.00000E+00
         0.00000E+00
         0.00000E+00
         0.00000E+00
         0.00000E+00
         0.00000E+00
         0.00000E+00
         0.00000E+00
         0.00000E+00
         0.00000E+00
         0.00000E+00
         0.00000E+00
         0.00000E+00
         0.00000E+00
         0.00000E+00
         0.00000E+00
         0.00000E+00
         0.00000E+00
         0.00000E+00
         0.00000E+00
         0.00000E+00
         0.00000E+00
         0.00000E+00
         0.00000E+00
         0.00000E+00
         0.00000E+00
         0.00000E+00
         0.00000E+00
         0.00000E+00
         0.00000E+00
         0.00000E+00
         0.00000E+00
         0.00000E+00
         0.00000E+00
         0.00000E+00
         0.00000E+00
         0.00000E+00
         0.00000E+00
         0.00000E+00
         0.00000E+00
         0.00000E+00
         0.00000E+00
         0.00000E+00
         0.00000E+00
         0.00000E+00
         0.00000E+00
         0.00000E+00
         0.00000E+00
         0.00000E+00
         0.00000E+00
         0.00000E+00
         0.00000E+00
         0.00000E+00
         0.00000E+00
         0.00000E+00
         0.00000E+00
         0.00000E+00
         0.00000E+00
         0.00000E+00
         0.00000E+00
         0.00000E+00
         0.00000E+00
         0.00000E+00
         0.00000E+00
         0.00000E+00
         0.00000E+00
         0.00000E+00
         0.00000E+00
         0.00000E+00
         0.00000E+00
         0.00000E+00
         0.00000E+00
         0.00000E+00
         0.00000E+00
         0.00000E+00
         0.00000E+00
         0.00000E+00
         0.00000E+00
         0.00000E+00
         0.00000E+00
         0.00000E+00
         0.00000E+00
         0.00000E+00
         0.00000E+00
         0.00000E+00
         0.00000E+00
         0.00000E+00
         0.00000E+00
         0.00000E+00
         0.00000E+00
         0.00000E+00
         0.00000E+00
         0.00000E+00
         0.00000E+00
         0.00000E+00
         0.00000E+00
         0.00000E+00
         0.00000E+00
         0.00000E+00
         0.00000E+00
         0.00000E+00
         0.00000E+00
         0.00000E+00
         0.00000E+00
         0.00000E+00
         0.00000E+00
         0.00000E+00
         0.00000E+00
         0.00000E+00
         0.00000E+00
         0.00000E+00
         0.00000E+00
         0.00000E+00
         0.00000E+00
         0.00000E+00
         0.00000E+00
         0.00000E+00
         0.00000E+00
         0.00000E+00
         0.00000E+00
         0.00000E+00
         0.00000E+00
         0.00000E+00
         0.00000E+00
         0.00000E+00
         0.00000E+00
         0.00000E+00
         0.00000E+00
         0.00000E+00
         0.00000E+00
         0.00000E+00
         0.00000E+00
         0.00000E+00
         0.00000E+00
         0.00000E+00
         0.00000E+00
         0.00000E+00
         0.00000E+00
         0.00000E+00
         0.00000E+00
         0.00000E+00
         0.00000E+00
         0.00000E+00
         0.00000E+00
         0.00000E+00
         0.00000E+00
         0.00000E+00
         0.00000E+00
         0.00000E+00
         0.00000E+00
         0.00000E+00
         0.00000E+00
         0.00000E+00
         0.00000E+00
         0.00000E+00
         0.00000E+00
         0.00000E+00
         0.00000E+00
         0.00000E+00
         0.00000E+00
         0.00000E+00
         0.00000E+00
         0.00000E+00
         0.00000E+00
         0.00000E+00
         0.00000E+00
         0.00000E+00
         0.00000E+00
         0.00000E+00
         0.00000E+00
         0.00000E+00
         0.00000E+00
         0.00000E+00
         0.00000E+00
         0.00000E+00
         0.00000E+00
         0.00000E+00
         0.00000E+00
         0.00000E+00
         0.00000E+00
         0.00000E+00
         0.00000E+00
         0.00000E+00
         0.00000E+00
         0.00000E+00
         0.00000E+00
         0.00000E+00
         0.00000E+00
         0.00000E+00
         0.00000E+00
         0.00000E+00
         0.00000E+00
         0.00000E+00
         0.00000E+00
         0.00000E+00
         0.00000E+00
         0.00000E+00
         0.00000E+00
         0.00000E+00
         0.00000E+00
         0.00000E+00
         0.00000E+00
         0.00000E+00
         0.00000E+00
         0.00000E+00
         0.00000E+00
         0.00000E+00
         0.00000E+00
         0.00000E+00
         0.00000E+00
         0.00000E+00
         0.00000E+00
         0.00000E+00
         0.00000E+00
         0.00000E+00
         0.00000E+00
         0.00000E+00
         0.00000E+00
         0.00000E+00
         0.00000E+00
         0.00000E+00
         0.00000E+00
         0.00000E+00
         0.00000E+00
         0.00000E+00
         0.00000E+00
         0.00000E+00
         0.00000E+00
         0.00000E+00
         0.00000E+00
         0.00000E+00
         0.00000E+00
         0.00000E+00
         0.00000E+00
         0.00000E+00
         0.00000E+00
         0.00000E+00
         0.00000E+00
         0.00000E+00
         0.00000E+00
         0.00000E+00
         0.00000E+00
         0.00000E+00
         0.00000E+00
         0.00000E+00
         0.00000E+00
         0.00000E+00
         0.00000E+00
         0.00000E+00
         0.00000E+00
         0.00000E+00
         0.00000E+00
         0.00000E+00
         0.00000E+00
         0.00000E+00
         0.00000E+00
         0.00000E+00
         0.00000E+00
         0.00000E+00
         0.00000E+00
         0.00000E+00
         0.00000E+00
         0.00000E+00
         0.00000E+00
         0.00000E+00
         0.00000E+00
         0.00000E+00
         0.00000E+00
         0.00000E+00
         0.00000E+00
         0.00000E+00
         0.00000E+00
         0.00000E+00
         0.00000E+00
         0.00000E+00
         0.00000E+00
         0.00000E+00
         0.00000E+00
         0.00000E+00
         0.00000E+00
         0.00000E+00
         0.00000E+00
         0.00000E+00
         0.00000E+00
         0.00000E+00
         0.00000E+00
         0.00000E+00
         0.00000E+00
         0.00000E+00
         0.00000E+00
         0.00000E+00
         0.00000E+00
         0.00000E+00
         0.00000E+00
         0.00000E+00
         0.00000E+00
         0.00000E+00
         0.00000E+00
         0.00000E+00
         0.00000E+00
         0.00000E+00
         0.00000E+00
         0.00000E+00
         0.00000E+00
         0.00000E+00
         0.00000E+00
         0.00000E+00
         0.00000E+00
         0.00000E+00
         0.00000E+00
         0.00000E+00
         0.00000E+00
         0.00000E+00
         0.00000E+00
         0.00000E+00
         0.00000E+00
         0.00000E+00
         0.00000E+00
         0.00000E+00
         0.00000E+00
         0.00000E+00
         0.00000E+00
         0.00000E+00
         0.00000E+00
         0.00000E+00
         0.00000E+00
         0.00000E+00
         0.00000E+00
         0.00000E+00
         0.00000E+00
         0.00000E+00
         0.00000E+00
         0.00000E+00
         0.00000E+00
         0.00000E+00
         0.00000E+00
         0.00000E+00
         0.00000E+00
         0.00000E+00
         0.00000E+00
         0.00000E+00
         0.00000E+00
         0.00000E+00
         0.00000E+00
         0.00000E+00
         0.00000E+00
         0.00000E+00
         0.00000E+00
         0.00000E+00
         0.00000E+00
         0.00000E+00
         0.00000E+00
         0.00000E+00
         0.00000E+00
         0.00000E+00
         0.00000E+00
         0.00000E+00
         0.00000E+00
         0.00000E+00
         0.00000E+00
         0.00000E+00
         0.00000E+00
         0.00000E+00
         0.00000E+00
         0.00000E+00
         0.00000E+00
         0.00000E+00
         0.00000E+00
         0.00000E+00
         0.00000E+00
         0.00000E+00
         0.00000E+00
         0.00000E+00
         0.00000E+00
         0.00000E+00
         0.00000E+00
         0.00000E+00
         0.00000E+00
         0.00000E+00
         0.00000E+00
         0.00000E+00
         0.00000E+00
         0.00000E+00
         0.00000E+00
         0.00000E+00
         0.00000E+00
         0.00000E+00
         0.00000E+00
         0.00000E+00
         0.00000E+00
         0.00000E+00
         0.00000E+00
         0.00000E+00
         0.00000E+00
         0.00000E+00
         0.00000E+00
         0.00000E+00
         0.00000E+00
         0.00000E+00
         0.00000E+00
         0.00000E+00
         0.00000E+00
         0.00000E+00
         0.00000E+00
         0.00000E+00
         0.00000E+00
         0.00000E+00
         0.00000E+00
         0.00000E+00
         0.00000E+00
         0.00000E+00
         0.00000E+00
         0.00000E+00
         0.00000E+00
         0.00000E+00
         0.00000E+00
         0.00000E+00
         0.00000E+00
         0.00000E+00
         0.00000E+00
         0.00000E+00
         0.00000E+00
         0.00000E+00
         0.00000E+00
         0.00000E+00
         0.00000E+00
         0.00000E+00
         0.00000E+00
         0.00000E+00
         0.00000E+00
         0.00000E+00
         0.00000E+00
         0.00000E+00
         0.00000E+00
         0.00000E+00
         0.00000E+00
         0.00000E+00
         0.00000E+00
         0.00000E+00
         0.00000E+00
         0.00000E+00
         0.00000E+00
         0.00000E+00
         0.00000E+00
         0.00000E+00
         0.00000E+00
         0.00000E+00
         0.00000E+00
         0.00000E+00
         0.00000E+00
         0.00000E+00
         0.00000E+00
         0.00000E+00
         0.00000E+00
         0.00000E+00
         0.00000E+00
         0.00000E+00
         0.00000E+00
         0.00000E+00
         0.00000E+00
         0.00000E+00
         0.00000E+00
         0.00000E+00
         0.00000E+00
         0.00000E+00
         0.00000E+00
         0.00000E+00
         0.00000E+00
         0.00000E+00
         0.00000E+00
         0.00000E+00
         0.00000E+00
         0.00000E+00
         0.00000E+00
         0.00000E+00
         0.00000E+00
         0.00000E+00
         0.00000E+00
         0.00000E+00
         0.00000E+00
         0.00000E+00
         0.00000E+00
         0.00000E+00
         0.00000E+00
         0.00000E+00
         0.00000E+00
         0.00000E+00
         0.00000E+00
  
SCALARS               pre_disp_force_y  double 1
LOOKUP_TABLE default
         0.00000E+00
         0.00000E+00
         0.00000E+00
         0.00000E+00
         0.00000E+00
         0.00000E+00
         0.00000E+00
         0.00000E+00
         0.00000E+00
         0.00000E+00
         0.00000E+00
         0.00000E+00
         0.00000E+00
         0.00000E+00
         0.00000E+00
         0.00000E+00
         0.00000E+00
         0.00000E+00
         0.00000E+00
         0.00000E+00
         0.00000E+00
         0.00000E+00
         0.00000E+00
         0.00000E+00
         0.00000E+00
         0.00000E+00
         0.00000E+00
         0.00000E+00
         0.00000E+00
         0.00000E+00
         0.00000E+00
         0.00000E+00
         0.00000E+00
         0.00000E+00
         0.00000E+00
         0.00000E+00
         0.00000E+00
         0.00000E+00
         0.00000E+00
         0.00000E+00
         0.00000E+00
         0.00000E+00
         0.00000E+00
         0.00000E+00
         0.00000E+00
         0.00000E+00
         0.00000E+00
         0.00000E+00
         0.00000E+00
         0.00000E+00
         0.00000E+00
         0.00000E+00
         0.00000E+00
         0.00000E+00
         0.00000E+00
         0.00000E+00
         0.00000E+00
         0.00000E+00
         0.00000E+00
         0.00000E+00
         0.00000E+00
         0.00000E+00
         0.00000E+00
         0.00000E+00
         0.00000E+00
         0.00000E+00
         0.00000E+00
         0.00000E+00
         0.00000E+00
         0.00000E+00
         0.00000E+00
         0.00000E+00
         0.00000E+00
         0.00000E+00
         0.00000E+00
         0.00000E+00
         0.00000E+00
         0.00000E+00
         0.00000E+00
         0.00000E+00
         0.00000E+00
         0.00000E+00
         0.00000E+00
         0.00000E+00
         0.00000E+00
         0.00000E+00
         0.00000E+00
         0.00000E+00
         0.00000E+00
         0.00000E+00
         0.00000E+00
         0.00000E+00
         0.00000E+00
         0.00000E+00
         0.00000E+00
         0.00000E+00
         0.00000E+00
         0.00000E+00
         0.00000E+00
         0.00000E+00
         0.00000E+00
         0.00000E+00
         0.00000E+00
         0.00000E+00
         0.00000E+00
         0.00000E+00
         0.00000E+00
         0.00000E+00
         0.00000E+00
         0.00000E+00
         0.00000E+00
         0.00000E+00
         0.00000E+00
         0.00000E+00
         0.00000E+00
         0.00000E+00
         0.00000E+00
         0.00000E+00
         0.00000E+00
         0.00000E+00
         0.00000E+00
         0.00000E+00
         0.00000E+00
         0.00000E+00
         0.00000E+00
         0.00000E+00
         0.00000E+00
         0.00000E+00
         0.00000E+00
         0.00000E+00
         0.00000E+00
         0.00000E+00
         0.00000E+00
         0.00000E+00
         0.00000E+00
         0.00000E+00
         0.00000E+00
         0.00000E+00
         0.00000E+00
         0.00000E+00
         0.00000E+00
         0.00000E+00
         0.00000E+00
         0.00000E+00
         0.00000E+00
         0.00000E+00
         0.00000E+00
         0.00000E+00
         0.00000E+00
         0.00000E+00
         0.00000E+00
         0.00000E+00
         0.00000E+00
         0.00000E+00
         0.00000E+00
         0.00000E+00
         0.00000E+00
         0.00000E+00
         0.00000E+00
         0.00000E+00
         0.00000E+00
         0.00000E+00
         0.00000E+00
         0.00000E+00
         0.00000E+00
         0.00000E+00
         0.00000E+00
         0.00000E+00
         0.00000E+00
         0.00000E+00
         0.00000E+00
         0.00000E+00
         0.00000E+00
         0.00000E+00
         0.00000E+00
         0.00000E+00
         0.00000E+00
         0.00000E+00
         0.00000E+00
         0.00000E+00
         0.00000E+00
         0.00000E+00
         0.00000E+00
         0.00000E+00
         0.00000E+00
         0.00000E+00
         0.00000E+00
         0.00000E+00
         0.00000E+00
         0.00000E+00
         0.00000E+00
         0.00000E+00
         0.00000E+00
         0.00000E+00
         0.00000E+00
         0.00000E+00
         0.00000E+00
         0.00000E+00
         0.00000E+00
         0.00000E+00
         0.00000E+00
         0.00000E+00
         0.00000E+00
         0.00000E+00
         0.00000E+00
         0.00000E+00
         0.00000E+00
         0.00000E+00
         0.00000E+00
         0.00000E+00
         0.00000E+00
         0.00000E+00
         0.00000E+00
         0.00000E+00
         0.00000E+00
         0.00000E+00
         0.00000E+00
         0.00000E+00
         0.00000E+00
         0.00000E+00
         0.00000E+00
         0.00000E+00
         0.00000E+00
         0.00000E+00
         0.00000E+00
         0.00000E+00
         0.00000E+00
         0.00000E+00
         0.00000E+00
         0.00000E+00
         0.00000E+00
         0.00000E+00
         0.00000E+00
         0.00000E+00
         0.00000E+00
         0.00000E+00
         0.00000E+00
         0.00000E+00
         0.00000E+00
         0.00000E+00
         0.00000E+00
         0.00000E+00
         0.00000E+00
         0.00000E+00
         0.00000E+00
         0.00000E+00
         0.00000E+00
         0.00000E+00
         0.00000E+00
         0.00000E+00
         0.00000E+00
         0.00000E+00
         0.00000E+00
         0.00000E+00
         0.00000E+00
         0.00000E+00
         0.00000E+00
         0.00000E+00
         0.00000E+00
         0.00000E+00
         0.00000E+00
         0.00000E+00
         0.00000E+00
         0.00000E+00
         0.00000E+00
         0.00000E+00
         0.00000E+00
         0.00000E+00
         0.00000E+00
         0.00000E+00
         0.00000E+00
         0.00000E+00
         0.00000E+00
         0.00000E+00
         0.00000E+00
         0.00000E+00
         0.00000E+00
         0.00000E+00
         0.00000E+00
         0.00000E+00
         0.00000E+00
         0.00000E+00
         0.00000E+00
         0.00000E+00
         0.00000E+00
         0.00000E+00
         0.00000E+00
         0.00000E+00
         0.00000E+00
         0.00000E+00
         0.00000E+00
         0.00000E+00
         0.00000E+00
         0.00000E+00
         0.00000E+00
         0.00000E+00
         0.00000E+00
         0.00000E+00
         0.00000E+00
         0.00000E+00
         0.00000E+00
         0.00000E+00
         0.00000E+00
         0.00000E+00
         0.00000E+00
         0.00000E+00
         0.00000E+00
         0.00000E+00
         0.00000E+00
         0.00000E+00
         0.00000E+00
         0.00000E+00
         0.00000E+00
         0.00000E+00
         0.00000E+00
         0.00000E+00
         0.00000E+00
         0.00000E+00
         0.00000E+00
         0.00000E+00
         0.00000E+00
         0.00000E+00
         0.00000E+00
         0.00000E+00
         0.00000E+00
         0.00000E+00
         0.00000E+00
         0.00000E+00
         0.00000E+00
         0.00000E+00
         0.00000E+00
         0.00000E+00
         0.00000E+00
         0.00000E+00
         0.00000E+00
         0.00000E+00
         0.00000E+00
         0.00000E+00
         0.00000E+00
         0.00000E+00
         0.00000E+00
         0.00000E+00
         0.00000E+00
         0.00000E+00
         0.00000E+00
         0.00000E+00
         0.00000E+00
         0.00000E+00
         0.00000E+00
         0.00000E+00
         0.00000E+00
         0.00000E+00
         0.00000E+00
         0.00000E+00
         0.00000E+00
         0.00000E+00
         0.00000E+00
         0.00000E+00
         0.00000E+00
         0.00000E+00
         0.00000E+00
         0.00000E+00
         0.00000E+00
         0.00000E+00
         0.00000E+00
         0.00000E+00
         0.00000E+00
         0.00000E+00
         0.00000E+00
         0.00000E+00
         0.00000E+00
         0.00000E+00
         0.00000E+00
         0.00000E+00
         0.00000E+00
         0.00000E+00
         0.00000E+00
         0.00000E+00
         0.00000E+00
         0.00000E+00
         0.00000E+00
         0.00000E+00
         0.00000E+00
         0.00000E+00
         0.00000E+00
         0.00000E+00
         0.00000E+00
         0.00000E+00
         0.00000E+00
         0.00000E+00
         0.00000E+00
         0.00000E+00
         0.00000E+00
         0.00000E+00
         0.00000E+00
         0.00000E+00
         0.00000E+00
         0.00000E+00
         0.00000E+00
         0.00000E+00
         0.00000E+00
         0.00000E+00
         0.00000E+00
         0.00000E+00
         0.00000E+00
         0.00000E+00
         0.00000E+00
         0.00000E+00
         0.00000E+00
         0.00000E+00
         0.00000E+00
         0.00000E+00
         0.00000E+00
         0.00000E+00
         0.00000E+00
         0.00000E+00
         0.00000E+00
         0.00000E+00
         0.00000E+00
         0.00000E+00
         0.00000E+00
         0.00000E+00
         0.00000E+00
         0.00000E+00
         0.00000E+00
         0.00000E+00
         0.00000E+00
         0.00000E+00
         0.00000E+00
         0.00000E+00
         0.00000E+00
         0.00000E+00
         0.00000E+00
         0.00000E+00
         0.00000E+00
         0.00000E+00
         0.00000E+00
         0.00000E+00
         0.00000E+00
         0.00000E+00
         0.00000E+00
         0.00000E+00
         0.00000E+00
         0.00000E+00
         0.00000E+00
         0.00000E+00
         0.00000E+00
         0.00000E+00
         0.00000E+00
         0.00000E+00
         0.00000E+00
         0.00000E+00
         0.00000E+00
         0.00000E+00
         0.00000E+00
         0.00000E+00
         0.00000E+00
         0.00000E+00
         0.00000E+00
         0.00000E+00
         0.00000E+00
         0.00000E+00
         0.00000E+00
         0.00000E+00
         0.00000E+00
         0.00000E+00
         0.00000E+00
         0.00000E+00
         0.00000E+00
         0.00000E+00
         0.00000E+00
         0.00000E+00
         0.00000E+00
         0.00000E+00
         0.00000E+00
         0.00000E+00
         0.00000E+00
         0.00000E+00
         0.00000E+00
         0.00000E+00
         0.00000E+00
         0.00000E+00
         0.00000E+00
         0.00000E+00
         0.00000E+00
         0.00000E+00
         0.00000E+00
         0.00000E+00
         0.00000E+00
         0.00000E+00
         0.00000E+00
         0.00000E+00
         0.00000E+00
         0.00000E+00
         0.00000E+00
         0.00000E+00
         0.00000E+00
         0.00000E+00
         0.00000E+00
         0.00000E+00
         0.00000E+00
         0.00000E+00
         0.00000E+00
         0.00000E+00
         0.00000E+00
         0.00000E+00
         0.00000E+00
         0.00000E+00
         0.00000E+00
         0.00000E+00
         0.00000E+00
         0.00000E+00
         0.00000E+00
         0.00000E+00
         0.00000E+00
         0.00000E+00
         0.00000E+00
         0.00000E+00
         0.00000E+00
         0.00000E+00
         0.00000E+00
         0.00000E+00
         0.00000E+00
         0.00000E+00
         0.00000E+00
         0.00000E+00
         0.00000E+00
         0.00000E+00
         0.00000E+00
         0.00000E+00
         0.00000E+00
         0.00000E+00
         0.00000E+00
         0.00000E+00
         0.00000E+00
         0.00000E+00
         0.00000E+00
         0.00000E+00
         0.00000E+00
         0.00000E+00
         0.00000E+00
         0.00000E+00
         0.00000E+00
         0.00000E+00
         0.00000E+00
         0.00000E+00
         0.00000E+00
         0.00000E+00
         0.00000E+00
         0.00000E+00
         0.00000E+00
         0.00000E+00
         0.00000E+00
         0.00000E+00
         0.00000E+00
         0.00000E+00
         0.00000E+00
         0.00000E+00
         0.00000E+00
         0.00000E+00
         0.00000E+00
         0.00000E+00
         0.00000E+00
         0.00000E+00
         0.00000E+00
         0.00000E+00
         0.00000E+00
         0.00000E+00
         0.00000E+00
         0.00000E+00
         0.00000E+00
         0.00000E+00
         0.00000E+00
         0.00000E+00
         0.00000E+00
         0.00000E+00
         0.00000E+00
         0.00000E+00
         0.00000E+00
         0.00000E+00
         0.00000E+00
         0.00000E+00
         0.00000E+00
         0.00000E+00
         0.00000E+00
         0.00000E+00
         0.00000E+00
         0.00000E+00
         0.00000E+00
         0.00000E+00
         0.00000E+00
         0.00000E+00
         0.00000E+00
         0.00000E+00
         0.00000E+00
         0.00000E+00
         0.00000E+00
         0.00000E+00
         0.00000E+00
         0.00000E+00
         0.00000E+00
         0.00000E+00
         0.00000E+00
         0.00000E+00
         0.00000E+00
         0.00000E+00
         0.00000E+00
         0.00000E+00
         0.00000E+00
         0.00000E+00
         0.00000E+00
         0.00000E+00
         0.00000E+00
         0.00000E+00
         0.00000E+00
         0.00000E+00
         0.00000E+00
         0.00000E+00
         0.00000E+00
         0.00000E+00
         0.00000E+00
         0.00000E+00
         0.00000E+00
         0.00000E+00
         0.00000E+00
         0.00000E+00
         0.00000E+00
         0.00000E+00
         0.00000E+00
         0.00000E+00
         0.00000E+00
         0.00000E+00
         0.00000E+00
         0.00000E+00
         0.00000E+00
         0.00000E+00
         0.00000E+00
         0.00000E+00
         0.00000E+00
         0.00000E+00
         0.00000E+00
         0.00000E+00
         0.00000E+00
         0.00000E+00
         0.00000E+00
         0.00000E+00
         0.00000E+00
         0.00000E+00
         0.00000E+00
         0.00000E+00
         0.00000E+00
         0.00000E+00
         0.00000E+00
         0.00000E+00
         0.00000E+00
         0.00000E+00
         0.00000E+00
         0.00000E+00
         0.00000E+00
         0.00000E+00
         0.00000E+00
         0.00000E+00
         0.00000E+00
         0.00000E+00
         0.00000E+00
         0.00000E+00
         0.00000E+00
         0.00000E+00
         0.00000E+00
         0.00000E+00
         0.00000E+00
         0.00000E+00
         0.00000E+00
         0.00000E+00
         0.00000E+00
         0.00000E+00
         0.00000E+00
         0.00000E+00
         0.00000E+00
         0.00000E+00
         0.00000E+00
         0.00000E+00
         0.00000E+00
         0.00000E+00
         0.00000E+00
         0.00000E+00
         0.00000E+00
         0.00000E+00
         0.00000E+00
         0.00000E+00
         0.00000E+00
         0.00000E+00
         0.00000E+00
         0.00000E+00
         0.00000E+00
         0.00000E+00
         0.00000E+00
         0.00000E+00
         0.00000E+00
         0.00000E+00
         0.00000E+00
         0.00000E+00
         0.00000E+00
         0.00000E+00
         0.00000E+00
         0.00000E+00
         0.00000E+00
         0.00000E+00
         0.00000E+00
         0.00000E+00
         0.00000E+00
         0.00000E+00
         0.00000E+00
         0.00000E+00
         0.00000E+00
         0.00000E+00
         0.00000E+00
         0.00000E+00
         0.00000E+00
         0.00000E+00
         0.00000E+00
         0.00000E+00
         0.00000E+00
         0.00000E+00
         0.00000E+00
         0.00000E+00
         0.00000E+00
         0.00000E+00
         0.00000E+00
         0.00000E+00
         0.00000E+00
         0.00000E+00
         0.00000E+00
         0.00000E+00
         0.00000E+00
         0.00000E+00
         0.00000E+00
         0.00000E+00
         0.00000E+00
         0.00000E+00
         0.00000E+00
         0.00000E+00
         0.00000E+00
         0.00000E+00
         0.00000E+00
         0.00000E+00
         0.00000E+00
         0.00000E+00
         0.00000E+00
         0.00000E+00
         0.00000E+00
         0.00000E+00
         0.00000E+00
         0.00000E+00
         0.00000E+00
         0.00000E+00
         0.00000E+00
         0.00000E+00
         0.00000E+00
         0.00000E+00
         0.00000E+00
         0.00000E+00
         0.00000E+00
         0.00000E+00
         0.00000E+00
         0.00000E+00
         0.00000E+00
         0.00000E+00
         0.00000E+00
         0.00000E+00
         0.00000E+00
         0.00000E+00
         0.00000E+00
         0.00000E+00
         0.00000E+00
         0.00000E+00
         0.00000E+00
         0.00000E+00
         0.00000E+00
         0.00000E+00
         0.00000E+00
         0.00000E+00
         0.00000E+00
         0.00000E+00
         0.00000E+00
         0.00000E+00
         0.00000E+00
         0.00000E+00
         0.00000E+00
         0.00000E+00
         0.00000E+00
         0.00000E+00
         0.00000E+00
         0.00000E+00
         0.00000E+00
         0.00000E+00
         0.00000E+00
         0.00000E+00
         0.00000E+00
         0.00000E+00
         0.00000E+00
         0.00000E+00
         0.00000E+00
         0.00000E+00
         0.00000E+00
         0.00000E+00
         0.00000E+00
         0.00000E+00
         0.00000E+00
         0.00000E+00
         0.00000E+00
         0.00000E+00
         0.00000E+00
         0.00000E+00
         0.00000E+00
         0.00000E+00
         0.00000E+00
         0.00000E+00
         0.00000E+00
         0.00000E+00
         0.00000E+00
         0.00000E+00
         0.00000E+00
         0.00000E+00
         0.00000E+00
         0.00000E+00
         0.00000E+00
         0.00000E+00
         0.00000E+00
         0.00000E+00
         0.00000E+00
         0.00000E+00
         0.00000E+00
         0.00000E+00
         0.00000E+00
         0.00000E+00
         0.00000E+00
         0.00000E+00
         0.00000E+00
         0.00000E+00
         0.00000E+00
         0.00000E+00
         0.00000E+00
         0.00000E+00
         0.00000E+00
         0.00000E+00
         0.00000E+00
         0.00000E+00
         0.00000E+00
         0.00000E+00
         0.00000E+00
         0.00000E+00
         0.00000E+00
         0.00000E+00
         0.00000E+00
         0.00000E+00
         0.00000E+00
         0.00000E+00
         0.00000E+00
         0.00000E+00
         0.00000E+00
         0.00000E+00
         0.00000E+00
         0.00000E+00
         0.00000E+00
         0.00000E+00
         0.00000E+00
         0.00000E+00
         0.00000E+00
         0.00000E+00
         0.00000E+00
         0.00000E+00
         0.00000E+00
         0.00000E+00
         0.00000E+00
         0.00000E+00
         0.00000E+00
         0.00000E+00
         0.00000E+00
         0.00000E+00
         0.00000E+00
         0.00000E+00
         0.00000E+00
         0.00000E+00
         0.00000E+00
         0.00000E+00
         0.00000E+00
         0.00000E+00
         0.00000E+00
         0.00000E+00
         0.00000E+00
         0.00000E+00
         0.00000E+00
         0.00000E+00
         0.00000E+00
         0.00000E+00
         0.00000E+00
         0.00000E+00
         0.00000E+00
         0.00000E+00
         0.00000E+00
         0.00000E+00
         0.00000E+00
         0.00000E+00
         0.00000E+00
         0.00000E+00
         0.00000E+00
         0.00000E+00
         0.00000E+00
         0.00000E+00
         0.00000E+00
         0.00000E+00
         0.00000E+00
         0.00000E+00
         0.00000E+00
         0.00000E+00
         0.00000E+00
         0.00000E+00
         0.00000E+00
         0.00000E+00
         0.00000E+00
         0.00000E+00
         0.00000E+00
         0.00000E+00
         0.00000E+00
         0.00000E+00
         0.00000E+00
         0.00000E+00
         0.00000E+00
         0.00000E+00
         0.00000E+00
         0.00000E+00
         0.00000E+00
         0.00000E+00
         0.00000E+00
         0.00000E+00
         0.00000E+00
         0.00000E+00
         0.00000E+00
         0.00000E+00
         0.00000E+00
         0.00000E+00
         0.00000E+00
         0.00000E+00
         0.00000E+00
         0.00000E+00
         0.00000E+00
         0.00000E+00
         0.00000E+00
         0.00000E+00
         0.00000E+00
         0.00000E+00
         0.00000E+00
         0.00000E+00
         0.00000E+00
         0.00000E+00
         0.00000E+00
         0.00000E+00
         0.00000E+00
         0.00000E+00
         0.00000E+00
         0.00000E+00
         0.00000E+00
         0.00000E+00
         0.00000E+00
         0.00000E+00
         0.00000E+00
         0.00000E+00
         0.00000E+00
         0.00000E+00
         0.00000E+00
         0.00000E+00
         0.00000E+00
         0.00000E+00
         0.00000E+00
         0.00000E+00
         0.00000E+00
         0.00000E+00
         0.00000E+00
         0.00000E+00
         0.00000E+00
         0.00000E+00
         0.00000E+00
         0.00000E+00
         0.00000E+00
         0.00000E+00
         0.00000E+00
         0.00000E+00
         0.00000E+00
         0.00000E+00
         0.00000E+00
         0.00000E+00
         0.00000E+00
         0.00000E+00
         0.00000E+00
         0.00000E+00
         0.00000E+00
         0.00000E+00
         0.00000E+00
         0.00000E+00
         0.00000E+00
         0.00000E+00
         0.00000E+00
         0.00000E+00
         0.00000E+00
         0.00000E+00
         0.00000E+00
         0.00000E+00
         0.00000E+00
         0.00000E+00
         0.00000E+00
         0.00000E+00
         0.00000E+00
         0.00000E+00
         0.00000E+00
         0.00000E+00
         0.00000E+00
         0.00000E+00
         0.00000E+00
         0.00000E+00
         0.00000E+00
         0.00000E+00
         0.00000E+00
         0.00000E+00
         0.00000E+00
         0.00000E+00
         0.00000E+00
         0.00000E+00
         0.00000E+00
         0.00000E+00
         0.00000E+00
         0.00000E+00
         0.00000E+00
         0.00000E+00
         0.00000E+00
         0.00000E+00
         0.00000E+00
         0.00000E+00
         0.00000E+00
         0.00000E+00
         0.00000E+00
         0.00000E+00
         0.00000E+00
         0.00000E+00
         0.00000E+00
         0.00000E+00
         0.00000E+00
         0.00000E+00
         0.00000E+00
         0.00000E+00
         0.00000E+00
         0.00000E+00
         0.00000E+00
         0.00000E+00
         0.00000E+00
         0.00000E+00
         0.00000E+00
         0.00000E+00
         0.00000E+00
         0.00000E+00
         0.00000E+00
         0.00000E+00
         0.00000E+00
         0.00000E+00
         0.00000E+00
         0.00000E+00
         0.00000E+00
         0.00000E+00
         0.00000E+00
         0.00000E+00
         0.00000E+00
         0.00000E+00
         0.00000E+00
         0.00000E+00
         0.00000E+00
         0.00000E+00
         0.00000E+00
         0.00000E+00
         0.00000E+00
         0.00000E+00
         0.00000E+00
         0.00000E+00
         0.00000E+00
         0.00000E+00
         0.00000E+00
         0.00000E+00
         0.00000E+00
         0.00000E+00
         0.00000E+00
         0.00000E+00
         0.00000E+00
         0.00000E+00
         0.00000E+00
         0.00000E+00
         0.00000E+00
         0.00000E+00
         0.00000E+00
         0.00000E+00
         0.00000E+00
         0.00000E+00
         0.00000E+00
         0.00000E+00
         0.00000E+00
         0.00000E+00
         0.00000E+00
         0.00000E+00
         0.00000E+00
         0.00000E+00
         0.00000E+00
         0.00000E+00
         0.00000E+00
         0.00000E+00
         0.00000E+00
         0.00000E+00
         0.00000E+00
         0.00000E+00
         0.00000E+00
         0.00000E+00
         0.00000E+00
         0.00000E+00
         0.00000E+00
         0.00000E+00
         0.00000E+00
         0.00000E+00
         0.00000E+00
         0.00000E+00
         0.00000E+00
         0.00000E+00
         0.00000E+00
         0.00000E+00
         0.00000E+00
         0.00000E+00
         0.00000E+00
         0.00000E+00
         0.00000E+00
         0.00000E+00
         0.00000E+00
         0.00000E+00
         0.00000E+00
         0.00000E+00
         0.00000E+00
         0.00000E+00
         0.00000E+00
         0.00000E+00
         0.00000E+00
         0.00000E+00
         0.00000E+00
         0.00000E+00
         0.00000E+00
         0.00000E+00
         0.00000E+00
         0.00000E+00
         0.00000E+00
         0.00000E+00
         0.00000E+00
         0.00000E+00
         0.00000E+00
         0.00000E+00
         0.00000E+00
         0.00000E+00
         0.00000E+00
         0.00000E+00
         0.00000E+00
         0.00000E+00
         0.00000E+00
         0.00000E+00
         0.00000E+00
         0.00000E+00
         0.00000E+00
         0.00000E+00
         0.00000E+00
         0.00000E+00
         0.00000E+00
         0.00000E+00
         0.00000E+00
         0.00000E+00
         0.00000E+00
         0.00000E+00
         0.00000E+00
         0.00000E+00
         0.00000E+00
         0.00000E+00
         0.00000E+00
         0.00000E+00
         0.00000E+00
         0.00000E+00
         0.00000E+00
         0.00000E+00
         0.00000E+00
         0.00000E+00
         0.00000E+00
         0.00000E+00
         0.00000E+00
         0.00000E+00
         0.00000E+00
         0.00000E+00
         0.00000E+00
         0.00000E+00
         0.00000E+00
         0.00000E+00
         0.00000E+00
         0.00000E+00
         0.00000E+00
         0.00000E+00
         0.00000E+00
         0.00000E+00
         0.00000E+00
         0.00000E+00
         0.00000E+00
         0.00000E+00
         0.00000E+00
         0.00000E+00
         0.00000E+00
         0.00000E+00
         0.00000E+00
         0.00000E+00
         0.00000E+00
         0.00000E+00
         0.00000E+00
         0.00000E+00
         0.00000E+00
         0.00000E+00
         0.00000E+00
         0.00000E+00
         0.00000E+00
         0.00000E+00
         0.00000E+00
         0.00000E+00
         0.00000E+00
         0.00000E+00
         0.00000E+00
         0.00000E+00
         0.00000E+00
         0.00000E+00
         0.00000E+00
         0.00000E+00
         0.00000E+00
         0.00000E+00
         0.00000E+00
         0.00000E+00
         0.00000E+00
         0.00000E+00
         0.00000E+00
         0.00000E+00
         0.00000E+00
         0.00000E+00
         0.00000E+00
         0.00000E+00
         0.00000E+00
         0.00000E+00
         0.00000E+00
         0.00000E+00
         0.00000E+00
         0.00000E+00
         0.00000E+00
         0.00000E+00
         0.00000E+00
         0.00000E+00
         0.00000E+00
         0.00000E+00
         0.00000E+00
         0.00000E+00
         0.00000E+00
         0.00000E+00
         0.00000E+00
         0.00000E+00
         0.00000E+00
         0.00000E+00
         0.00000E+00
         0.00000E+00
         0.00000E+00
         0.00000E+00
         0.00000E+00
         0.00000E+00
         0.00000E+00
         0.00000E+00
         0.00000E+00
         0.00000E+00
         0.00000E+00
         0.00000E+00
         0.00000E+00
         0.00000E+00
         0.00000E+00
         0.00000E+00
         0.00000E+00
         0.00000E+00
         0.00000E+00
         0.00000E+00
         0.00000E+00
         0.00000E+00
         0.00000E+00
         0.00000E+00
         0.00000E+00
         0.00000E+00
         0.00000E+00
         0.00000E+00
         0.00000E+00
         0.00000E+00
         0.00000E+00
         0.00000E+00
         0.00000E+00
         0.00000E+00
         0.00000E+00
         0.00000E+00
         0.00000E+00
         0.00000E+00
         0.00000E+00
         0.00000E+00
         0.00000E+00
         0.00000E+00
         0.00000E+00
         0.00000E+00
         0.00000E+00
         0.00000E+00
         0.00000E+00
         0.00000E+00
         0.00000E+00
         0.00000E+00
         0.00000E+00
         0.00000E+00
         0.00000E+00
         0.00000E+00
         0.00000E+00
         0.00000E+00
         0.00000E+00
         0.00000E+00
         0.00000E+00
         0.00000E+00
         0.00000E+00
         0.00000E+00
         0.00000E+00
         0.00000E+00
         0.00000E+00
         0.00000E+00
         0.00000E+00
         0.00000E+00
         0.00000E+00
         0.00000E+00
         0.00000E+00
         0.00000E+00
         0.00000E+00
         0.00000E+00
         0.00000E+00
         0.00000E+00
         0.00000E+00
         0.00000E+00
         0.00000E+00
         0.00000E+00
         0.00000E+00
         0.00000E+00
         0.00000E+00
         0.00000E+00
         0.00000E+00
         0.00000E+00
         0.00000E+00
         0.00000E+00
         0.00000E+00
         0.00000E+00
         0.00000E+00
         0.00000E+00
         0.00000E+00
         0.00000E+00
         0.00000E+00
         0.00000E+00
         0.00000E+00
         0.00000E+00
         0.00000E+00
         0.00000E+00
         0.00000E+00
         0.00000E+00
         0.00000E+00
         0.00000E+00
         0.00000E+00
         0.00000E+00
         0.00000E+00
         0.00000E+00
         0.00000E+00
         0.00000E+00
         0.00000E+00
         0.00000E+00
         0.00000E+00
         0.00000E+00
         0.00000E+00
         0.00000E+00
         0.00000E+00
         0.00000E+00
         0.00000E+00
         0.00000E+00
         0.00000E+00
         0.00000E+00
         0.00000E+00
         0.00000E+00
         0.00000E+00
         0.00000E+00
         0.00000E+00
         0.00000E+00
         0.00000E+00
         0.00000E+00
         0.00000E+00
         0.00000E+00
         0.00000E+00
         0.00000E+00
         0.00000E+00
         0.00000E+00
         0.00000E+00
         0.00000E+00
         0.00000E+00
         0.00000E+00
         0.00000E+00
         0.00000E+00
         0.00000E+00
         0.00000E+00
         0.00000E+00
         0.00000E+00
         0.00000E+00
         0.00000E+00
         0.00000E+00
         0.00000E+00
         0.00000E+00
         0.00000E+00
         0.00000E+00
         0.00000E+00
         0.00000E+00
         0.00000E+00
         0.00000E+00
         0.00000E+00
         0.00000E+00
         0.00000E+00
         0.00000E+00
         0.00000E+00
         0.00000E+00
         0.00000E+00
         0.00000E+00
         0.00000E+00
         0.00000E+00
         0.00000E+00
         0.00000E+00
         0.00000E+00
         0.00000E+00
         0.00000E+00
         0.00000E+00
         0.00000E+00
         0.00000E+00
         0.00000E+00
         0.00000E+00
         0.00000E+00
         0.00000E+00
         0.00000E+00
         0.00000E+00
         0.00000E+00
         0.00000E+00
         0.00000E+00
         0.00000E+00
         0.00000E+00
         0.00000E+00
         0.00000E+00
         0.00000E+00
         0.00000E+00
         0.00000E+00
         0.00000E+00
         0.00000E+00
         0.00000E+00
         0.00000E+00
         0.00000E+00
         0.00000E+00
         0.00000E+00
         0.00000E+00
         0.00000E+00
         0.00000E+00
         0.00000E+00
         0.00000E+00
         0.00000E+00
         0.00000E+00
         0.00000E+00
         0.00000E+00
         0.00000E+00
         0.00000E+00
         0.00000E+00
         0.00000E+00
         0.00000E+00
         0.00000E+00
         0.00000E+00
         0.00000E+00
         0.00000E+00
         0.00000E+00
         0.00000E+00
         0.00000E+00
         0.00000E+00
         0.00000E+00
         0.00000E+00
         0.00000E+00
         0.00000E+00
         0.00000E+00
         0.00000E+00
         0.00000E+00
         0.00000E+00
         0.00000E+00
         0.00000E+00
         0.00000E+00
         0.00000E+00
         0.00000E+00
         0.00000E+00
         0.00000E+00
         0.00000E+00
         0.00000E+00
         0.00000E+00
         0.00000E+00
         0.00000E+00
         0.00000E+00
         0.00000E+00
         0.00000E+00
         0.00000E+00
         0.00000E+00
         0.00000E+00
         0.00000E+00
         0.00000E+00
         0.00000E+00
         0.00000E+00
         0.00000E+00
         0.00000E+00
         0.00000E+00
         0.00000E+00
         0.00000E+00
         0.00000E+00
         0.00000E+00
         0.00000E+00
         0.00000E+00
         0.00000E+00
         0.00000E+00
         0.00000E+00
         0.00000E+00
         0.00000E+00
         0.00000E+00
         0.00000E+00
         0.00000E+00
         0.00000E+00
         0.00000E+00
         0.00000E+00
         0.00000E+00
         0.00000E+00
         0.00000E+00
         0.00000E+00
         0.00000E+00
         0.00000E+00
         0.00000E+00
         0.00000E+00
         0.00000E+00
         0.00000E+00
         0.00000E+00
         0.00000E+00
         0.00000E+00
         0.00000E+00
         0.00000E+00
         0.00000E+00
         0.00000E+00
         0.00000E+00
         0.00000E+00
         0.00000E+00
         0.00000E+00
         0.00000E+00
         0.00000E+00
         0.00000E+00
         0.00000E+00
         0.00000E+00
         0.00000E+00
         0.00000E+00
         0.00000E+00
         0.00000E+00
         0.00000E+00
         0.00000E+00
         0.00000E+00
         0.00000E+00
         0.00000E+00
         0.00000E+00
         0.00000E+00
         0.00000E+00
         0.00000E+00
         0.00000E+00
         0.00000E+00
         0.00000E+00
         0.00000E+00
         0.00000E+00
         0.00000E+00
         0.00000E+00
         0.00000E+00
         0.00000E+00
         0.00000E+00
         0.00000E+00
         0.00000E+00
         0.00000E+00
         0.00000E+00
         0.00000E+00
         0.00000E+00
         0.00000E+00
         0.00000E+00
         0.00000E+00
         0.00000E+00
         0.00000E+00
         0.00000E+00
         0.00000E+00
         0.00000E+00
         0.00000E+00
         0.00000E+00
         0.00000E+00
         0.00000E+00
         0.00000E+00
         0.00000E+00
         0.00000E+00
         0.00000E+00
         0.00000E+00
         0.00000E+00
         0.00000E+00
         0.00000E+00
         0.00000E+00
         0.00000E+00
         0.00000E+00
         0.00000E+00
         0.00000E+00
         0.00000E+00
         0.00000E+00
         0.00000E+00
         0.00000E+00
         0.00000E+00
         0.00000E+00
         0.00000E+00
         0.00000E+00
         0.00000E+00
         0.00000E+00
         0.00000E+00
         0.00000E+00
         0.00000E+00
         0.00000E+00
         0.00000E+00
         0.00000E+00
         0.00000E+00
         0.00000E+00
         0.00000E+00
         0.00000E+00
         0.00000E+00
         0.00000E+00
         0.00000E+00
         0.00000E+00
         0.00000E+00
         0.00000E+00
         0.00000E+00
         0.00000E+00
         0.00000E+00
         0.00000E+00
         0.00000E+00
         0.00000E+00
         0.00000E+00
         0.00000E+00
         0.00000E+00
         0.00000E+00
         0.00000E+00
         0.00000E+00
         0.00000E+00
         0.00000E+00
         0.00000E+00
         0.00000E+00
         0.00000E+00
         0.00000E+00
         0.00000E+00
         0.00000E+00
         0.00000E+00
         0.00000E+00
         0.00000E+00
         0.00000E+00
         0.00000E+00
         0.00000E+00
         0.00000E+00
         0.00000E+00
         0.00000E+00
         0.00000E+00
         0.00000E+00
         0.00000E+00
         0.00000E+00
         0.00000E+00
         0.00000E+00
         0.00000E+00
         0.00000E+00
         0.00000E+00
         0.00000E+00
         0.00000E+00
         0.00000E+00
         0.00000E+00
         0.00000E+00
         0.00000E+00
         0.00000E+00
         0.00000E+00
         0.00000E+00
         0.00000E+00
         0.00000E+00
         0.00000E+00
         0.00000E+00
         0.00000E+00
         0.00000E+00
         0.00000E+00
         0.00000E+00
         0.00000E+00
         0.00000E+00
         0.00000E+00
         0.00000E+00
         0.00000E+00
         0.00000E+00
         0.00000E+00
         0.00000E+00
         0.00000E+00
         0.00000E+00
         0.00000E+00
         0.00000E+00
         0.00000E+00
         0.00000E+00
         0.00000E+00
         0.00000E+00
         0.00000E+00
         0.00000E+00
         0.00000E+00
         0.00000E+00
         0.00000E+00
         0.00000E+00
         0.00000E+00
         0.00000E+00
         0.00000E+00
         0.00000E+00
         0.00000E+00
         0.00000E+00
         0.00000E+00
         0.00000E+00
         0.00000E+00
         0.00000E+00
         0.00000E+00
         0.00000E+00
         0.00000E+00
         0.00000E+00
         0.00000E+00
         0.00000E+00
         0.00000E+00
         0.00000E+00
         0.00000E+00
         0.00000E+00
         0.00000E+00
         0.00000E+00
         0.00000E+00
         0.00000E+00
         0.00000E+00
         0.00000E+00
         0.00000E+00
         0.00000E+00
         0.00000E+00
         0.00000E+00
         0.00000E+00
         0.00000E+00
         0.00000E+00
         0.00000E+00
         0.00000E+00
         0.00000E+00
         0.00000E+00
         0.00000E+00
         0.00000E+00
         0.00000E+00
         0.00000E+00
         0.00000E+00
         0.00000E+00
         0.00000E+00
         0.00000E+00
         0.00000E+00
         0.00000E+00
         0.00000E+00
         0.00000E+00
         0.00000E+00
         0.00000E+00
         0.00000E+00
         0.00000E+00
         0.00000E+00
         0.00000E+00
         0.00000E+00
         0.00000E+00
         0.00000E+00
         0.00000E+00
         0.00000E+00
         0.00000E+00
         0.00000E+00
         0.00000E+00
         0.00000E+00
         0.00000E+00
         0.00000E+00
         0.00000E+00
         0.00000E+00
         0.00000E+00
         0.00000E+00
         0.00000E+00
         0.00000E+00
         0.00000E+00
         0.00000E+00
         0.00000E+00
         0.00000E+00
         0.00000E+00
         0.00000E+00
         0.00000E+00
         0.00000E+00
         0.00000E+00
         0.00000E+00
         0.00000E+00
         0.00000E+00
         0.00000E+00
         0.00000E+00
         0.00000E+00
         0.00000E+00
         0.00000E+00
         0.00000E+00
         0.00000E+00
         0.00000E+00
         0.00000E+00
         0.00000E+00
         0.00000E+00
         0.00000E+00
         0.00000E+00
         0.00000E+00
         0.00000E+00
         0.00000E+00
         0.00000E+00
         0.00000E+00
         0.00000E+00
         0.00000E+00
         0.00000E+00
         0.00000E+00
         0.00000E+00
         0.00000E+00
         0.00000E+00
         0.00000E+00
         0.00000E+00
         0.00000E+00
         0.00000E+00
         0.00000E+00
         0.00000E+00
         0.00000E+00
         0.00000E+00
         0.00000E+00
         0.00000E+00
         0.00000E+00
         0.00000E+00
         0.00000E+00
         0.00000E+00
         0.00000E+00
         0.00000E+00
         0.00000E+00
         0.00000E+00
         0.00000E+00
         0.00000E+00
         0.00000E+00
         0.00000E+00
         0.00000E+00
         0.00000E+00
         0.00000E+00
         0.00000E+00
         0.00000E+00
         0.00000E+00
         0.00000E+00
         0.00000E+00
         0.00000E+00
         0.00000E+00
         0.00000E+00
         0.00000E+00
         0.00000E+00
         0.00000E+00
         0.00000E+00
         0.00000E+00
         0.00000E+00
         0.00000E+00
         0.00000E+00
         0.00000E+00
         0.00000E+00
         0.00000E+00
         0.00000E+00
         0.00000E+00
         0.00000E+00
         0.00000E+00
         0.00000E+00
         0.00000E+00
         0.00000E+00
         0.00000E+00
         0.00000E+00
         0.00000E+00
         0.00000E+00
         0.00000E+00
         0.00000E+00
         0.00000E+00
         0.00000E+00
         0.00000E+00
         0.00000E+00
         0.00000E+00
         0.00000E+00
         0.00000E+00
         0.00000E+00
         0.00000E+00
         0.00000E+00
         0.00000E+00
         0.00000E+00
         0.00000E+00
         0.00000E+00
         0.00000E+00
         0.00000E+00
         0.00000E+00
         0.00000E+00
         0.00000E+00
         0.00000E+00
         0.00000E+00
         0.00000E+00
         0.00000E+00
         0.00000E+00
         0.00000E+00
         0.00000E+00
         0.00000E+00
         0.00000E+00
         0.00000E+00
         0.00000E+00
         0.00000E+00
         0.00000E+00
         0.00000E+00
         0.00000E+00
         0.00000E+00
         0.00000E+00
         0.00000E+00
         0.00000E+00
         0.00000E+00
         0.00000E+00
         0.00000E+00
         0.00000E+00
         0.00000E+00
         0.00000E+00
         0.00000E+00
         0.00000E+00
         0.00000E+00
         0.00000E+00
         0.00000E+00
         0.00000E+00
         0.00000E+00
         0.00000E+00
         0.00000E+00
         0.00000E+00
         0.00000E+00
         0.00000E+00
         0.00000E+00
         0.00000E+00
         0.00000E+00
         0.00000E+00
         0.00000E+00
         0.00000E+00
         0.00000E+00
  
SCALARS               pre_disp_force_z  double 1
LOOKUP_TABLE default
         0.00000E+00
         0.00000E+00
         0.00000E+00
         0.00000E+00
        -0.00000E+00
        -0.00000E+00
        -0.00000E+00
        -0.00000E+00
         0.00000E+00
         0.00000E+00
        -0.00000E+00
        -0.00000E+00
         0.00000E+00
         0.00000E+00
        -0.00000E+00
        -0.00000E+00
         0.00000E+00
         0.00000E+00
        -0.00000E+00
        -0.00000E+00
         0.00000E+00
         0.00000E+00
         0.00000E+00
        -0.00000E+00
        -0.00000E+00
        -0.00000E+00
         0.00000E+00
         0.00000E+00
        -0.00000E+00
        -0.00000E+00
         0.00000E+00
         0.00000E+00
         0.00000E+00
        -0.00000E+00
        -0.00000E+00
        -0.00000E+00
         0.00000E+00
         0.00000E+00
        -0.00000E+00
        -0.00000E+00
         0.00000E+00
         0.00000E+00
        -0.00000E+00
        -0.00000E+00
         0.00000E+00
         0.00000E+00
        -0.00000E+00
        -0.00000E+00
         0.00000E+00
        -0.00000E+00
         0.00000E+00
        -0.00000E+00
         0.00000E+00
        -0.00000E+00
         0.00000E+00
        -0.00000E+00
         0.00000E+00
         0.00000E+00
        -0.00000E+00
        -0.00000E+00
         0.00000E+00
         0.00000E+00
        -0.00000E+00
        -0.00000E+00
         0.00000E+00
        -0.00000E+00
         0.00000E+00
        -0.00000E+00
         0.00000E+00
         0.00000E+00
        -0.00000E+00
        -0.00000E+00
         0.00000E+00
        -0.00000E+00
         0.00000E+00
        -0.00000E+00
         0.00000E+00
        -0.00000E+00
         0.00000E+00
        -0.00000E+00
         0.00000E+00
         0.00000E+00
        -0.00000E+00
        -0.00000E+00
         0.00000E+00
        -0.00000E+00
         0.00000E+00
        -0.00000E+00
         0.00000E+00
        -0.00000E+00
         0.00000E+00
         0.00000E+00
        -0.00000E+00
        -0.00000E+00
         0.00000E+00
        -0.00000E+00
         0.00000E+00
        -0.00000E+00
         0.00000E+00
        -0.00000E+00
         0.00000E+00
         0.00000E+00
        -0.00000E+00
        -0.00000E+00
         0.00000E+00
         0.00000E+00
        -0.00000E+00
        -0.00000E+00
         0.00000E+00
        -0.00000E+00
         0.00000E+00
        -0.00000E+00
         0.00000E+00
        -0.00000E+00
         0.00000E+00
        -0.00000E+00
         0.00000E+00
        -0.00000E+00
         0.00000E+00
        -0.00000E+00
         0.00000E+00
        -0.00000E+00
         0.00000E+00
        -0.00000E+00
         0.00000E+00
        -0.00000E+00
         0.00000E+00
        -0.00000E+00
         0.00000E+00
        -0.00000E+00
         0.00000E+00
        -0.00000E+00
         0.00000E+00
        -0.00000E+00
         0.00000E+00
        -0.00000E+00
         0.00000E+00
        -0.00000E+00
         0.00000E+00
        -0.00000E+00
         0.00000E+00
        -0.00000E+00
         0.00000E+00
        -0.00000E+00
         0.00000E+00
        -0.00000E+00
         0.00000E+00
        -0.00000E+00
         0.00000E+00
        -0.00000E+00
         0.00000E+00
        -0.00000E+00
         0.00000E+00
        -0.00000E+00
         0.00000E+00
        -0.00000E+00
         0.00000E+00
         0.00000E+00
         0.00000E+00
         0.00000E+00
         0.00000E+00
         0.00000E+00
         0.00000E+00
         0.00000E+00
         0.00000E+00
         0.00000E+00
         0.00000E+00
         0.00000E+00
         0.00000E+00
         0.00000E+00
         0.00000E+00
         0.00000E+00
         0.00000E+00
         0.00000E+00
         0.00000E+00
         0.00000E+00
         0.00000E+00
         0.00000E+00
         0.00000E+00
         0.00000E+00
         0.00000E+00
         0.00000E+00
         0.00000E+00
         0.00000E+00
         0.00000E+00
         0.00000E+00
         0.00000E+00
         0.00000E+00
         0.00000E+00
         0.00000E+00
         0.00000E+00
         0.00000E+00
         0.00000E+00
         0.00000E+00
         0.00000E+00
         0.00000E+00
         0.00000E+00
         0.00000E+00
         0.00000E+00
         0.00000E+00
         0.00000E+00
         0.00000E+00
         0.00000E+00
         0.00000E+00
         0.00000E+00
         0.00000E+00
         0.00000E+00
         0.00000E+00
         0.00000E+00
         0.00000E+00
         0.00000E+00
         0.00000E+00
         0.00000E+00
         0.00000E+00
         0.00000E+00
         0.00000E+00
         0.00000E+00
         0.00000E+00
         0.00000E+00
         0.00000E+00
         0.00000E+00
         0.00000E+00
         0.00000E+00
         0.00000E+00
         0.00000E+00
         0.00000E+00
         0.00000E+00
         0.00000E+00
         0.00000E+00
         0.00000E+00
         0.00000E+00
         0.00000E+00
         0.00000E+00
         0.00000E+00
         0.00000E+00
         0.00000E+00
         0.00000E+00
         0.00000E+00
         0.00000E+00
         0.00000E+00
         0.00000E+00
         0.00000E+00
         0.00000E+00
         0.00000E+00
         0.00000E+00
         0.00000E+00
         0.00000E+00
         0.00000E+00
         0.00000E+00
         0.00000E+00
         0.00000E+00
         0.00000E+00
         0.00000E+00
         0.00000E+00
         0.00000E+00
         0.00000E+00
         0.00000E+00
         0.00000E+00
         0.00000E+00
         0.00000E+00
         0.00000E+00
         0.00000E+00
         0.00000E+00
         0.00000E+00
         0.00000E+00
         0.00000E+00
         0.00000E+00
         0.00000E+00
         0.00000E+00
         0.00000E+00
         0.00000E+00
         0.00000E+00
         0.00000E+00
         0.00000E+00
         0.00000E+00
         0.00000E+00
         0.00000E+00
         0.00000E+00
         0.00000E+00
         0.00000E+00
         0.00000E+00
         0.00000E+00
         0.00000E+00
         0.00000E+00
         0.00000E+00
         0.00000E+00
         0.00000E+00
         0.00000E+00
         0.00000E+00
         0.00000E+00
         0.00000E+00
         0.00000E+00
         0.00000E+00
         0.00000E+00
         0.00000E+00
         0.00000E+00
         0.00000E+00
         0.00000E+00
         0.00000E+00
         0.00000E+00
         0.00000E+00
         0.00000E+00
         0.00000E+00
         0.00000E+00
         0.00000E+00
         0.00000E+00
         0.00000E+00
         0.00000E+00
         0.00000E+00
         0.00000E+00
         0.00000E+00
         0.00000E+00
         0.00000E+00
         0.00000E+00
         0.00000E+00
         0.00000E+00
         0.00000E+00
         0.00000E+00
         0.00000E+00
         0.00000E+00
         0.00000E+00
         0.00000E+00
         0.00000E+00
         0.00000E+00
         0.00000E+00
         0.00000E+00
         0.00000E+00
         0.00000E+00
         0.00000E+00
         0.00000E+00
         0.00000E+00
         0.00000E+00
         0.00000E+00
         0.00000E+00
         0.00000E+00
         0.00000E+00
         0.00000E+00
         0.00000E+00
         0.00000E+00
         0.00000E+00
         0.00000E+00
         0.00000E+00
         0.00000E+00
         0.00000E+00
         0.00000E+00
         0.00000E+00
         0.00000E+00
         0.00000E+00
         0.00000E+00
         0.00000E+00
         0.00000E+00
         0.00000E+00
         0.00000E+00
         0.00000E+00
         0.00000E+00
         0.00000E+00
         0.00000E+00
         0.00000E+00
         0.00000E+00
         0.00000E+00
         0.00000E+00
         0.00000E+00
         0.00000E+00
         0.00000E+00
         0.00000E+00
         0.00000E+00
         0.00000E+00
         0.00000E+00
         0.00000E+00
         0.00000E+00
         0.00000E+00
         0.00000E+00
         0.00000E+00
         0.00000E+00
         0.00000E+00
         0.00000E+00
         0.00000E+00
         0.00000E+00
         0.00000E+00
         0.00000E+00
         0.00000E+00
         0.00000E+00
         0.00000E+00
         0.00000E+00
         0.00000E+00
         0.00000E+00
         0.00000E+00
         0.00000E+00
         0.00000E+00
         0.00000E+00
         0.00000E+00
         0.00000E+00
         0.00000E+00
         0.00000E+00
         0.00000E+00
         0.00000E+00
         0.00000E+00
         0.00000E+00
         0.00000E+00
         0.00000E+00
         0.00000E+00
         0.00000E+00
         0.00000E+00
         0.00000E+00
         0.00000E+00
         0.00000E+00
         0.00000E+00
         0.00000E+00
         0.00000E+00
         0.00000E+00
         0.00000E+00
         0.00000E+00
         0.00000E+00
         0.00000E+00
         0.00000E+00
         0.00000E+00
         0.00000E+00
         0.00000E+00
         0.00000E+00
         0.00000E+00
         0.00000E+00
         0.00000E+00
         0.00000E+00
         0.00000E+00
         0.00000E+00
         0.00000E+00
         0.00000E+00
         0.00000E+00
         0.00000E+00
         0.00000E+00
         0.00000E+00
         0.00000E+00
         0.00000E+00
         0.00000E+00
         0.00000E+00
         0.00000E+00
         0.00000E+00
         0.00000E+00
         0.00000E+00
         0.00000E+00
         0.00000E+00
         0.00000E+00
         0.00000E+00
         0.00000E+00
         0.00000E+00
         0.00000E+00
         0.00000E+00
         0.00000E+00
         0.00000E+00
         0.00000E+00
         0.00000E+00
         0.00000E+00
         0.00000E+00
         0.00000E+00
         0.00000E+00
         0.00000E+00
         0.00000E+00
         0.00000E+00
         0.00000E+00
         0.00000E+00
         0.00000E+00
         0.00000E+00
         0.00000E+00
         0.00000E+00
         0.00000E+00
         0.00000E+00
         0.00000E+00
         0.00000E+00
         0.00000E+00
         0.00000E+00
         0.00000E+00
         0.00000E+00
         0.00000E+00
         0.00000E+00
         0.00000E+00
         0.00000E+00
         0.00000E+00
         0.00000E+00
         0.00000E+00
         0.00000E+00
         0.00000E+00
         0.00000E+00
         0.00000E+00
         0.00000E+00
         0.00000E+00
         0.00000E+00
         0.00000E+00
         0.00000E+00
         0.00000E+00
         0.00000E+00
         0.00000E+00
         0.00000E+00
         0.00000E+00
         0.00000E+00
         0.00000E+00
         0.00000E+00
         0.00000E+00
         0.00000E+00
         0.00000E+00
         0.00000E+00
         0.00000E+00
         0.00000E+00
         0.00000E+00
         0.00000E+00
         0.00000E+00
         0.00000E+00
         0.00000E+00
         0.00000E+00
         0.00000E+00
         0.00000E+00
         0.00000E+00
         0.00000E+00
         0.00000E+00
         0.00000E+00
         0.00000E+00
         0.00000E+00
         0.00000E+00
         0.00000E+00
         0.00000E+00
         0.00000E+00
         0.00000E+00
         0.00000E+00
         0.00000E+00
         0.00000E+00
         0.00000E+00
         0.00000E+00
         0.00000E+00
         0.00000E+00
         0.00000E+00
         0.00000E+00
         0.00000E+00
         0.00000E+00
         0.00000E+00
         0.00000E+00
         0.00000E+00
         0.00000E+00
         0.00000E+00
         0.00000E+00
         0.00000E+00
         0.00000E+00
         0.00000E+00
         0.00000E+00
         0.00000E+00
         0.00000E+00
         0.00000E+00
         0.00000E+00
         0.00000E+00
         0.00000E+00
         0.00000E+00
         0.00000E+00
         0.00000E+00
         0.00000E+00
         0.00000E+00
         0.00000E+00
         0.00000E+00
         0.00000E+00
         0.00000E+00
         0.00000E+00
         0.00000E+00
         0.00000E+00
         0.00000E+00
         0.00000E+00
         0.00000E+00
         0.00000E+00
         0.00000E+00
         0.00000E+00
         0.00000E+00
         0.00000E+00
         0.00000E+00
         0.00000E+00
         0.00000E+00
         0.00000E+00
         0.00000E+00
         0.00000E+00
         0.00000E+00
         0.00000E+00
         0.00000E+00
         0.00000E+00
         0.00000E+00
         0.00000E+00
         0.00000E+00
         0.00000E+00
         0.00000E+00
         0.00000E+00
         0.00000E+00
         0.00000E+00
         0.00000E+00
         0.00000E+00
         0.00000E+00
         0.00000E+00
         0.00000E+00
         0.00000E+00
         0.00000E+00
         0.00000E+00
         0.00000E+00
         0.00000E+00
         0.00000E+00
         0.00000E+00
         0.00000E+00
         0.00000E+00
         0.00000E+00
         0.00000E+00
         0.00000E+00
         0.00000E+00
         0.00000E+00
         0.00000E+00
         0.00000E+00
         0.00000E+00
         0.00000E+00
         0.00000E+00
         0.00000E+00
         0.00000E+00
         0.00000E+00
         0.00000E+00
         0.00000E+00
         0.00000E+00
         0.00000E+00
         0.00000E+00
         0.00000E+00
         0.00000E+00
         0.00000E+00
         0.00000E+00
         0.00000E+00
         0.00000E+00
         0.00000E+00
         0.00000E+00
         0.00000E+00
         0.00000E+00
         0.00000E+00
         0.00000E+00
         0.00000E+00
         0.00000E+00
         0.00000E+00
         0.00000E+00
         0.00000E+00
         0.00000E+00
         0.00000E+00
         0.00000E+00
         0.00000E+00
         0.00000E+00
         0.00000E+00
         0.00000E+00
         0.00000E+00
         0.00000E+00
         0.00000E+00
         0.00000E+00
         0.00000E+00
         0.00000E+00
         0.00000E+00
         0.00000E+00
         0.00000E+00
         0.00000E+00
         0.00000E+00
         0.00000E+00
         0.00000E+00
         0.00000E+00
         0.00000E+00
         0.00000E+00
         0.00000E+00
         0.00000E+00
         0.00000E+00
         0.00000E+00
         0.00000E+00
         0.00000E+00
         0.00000E+00
         0.00000E+00
         0.00000E+00
         0.00000E+00
         0.00000E+00
         0.00000E+00
         0.00000E+00
         0.00000E+00
         0.00000E+00
         0.00000E+00
         0.00000E+00
         0.00000E+00
         0.00000E+00
         0.00000E+00
         0.00000E+00
         0.00000E+00
         0.00000E+00
         0.00000E+00
         0.00000E+00
         0.00000E+00
         0.00000E+00
         0.00000E+00
         0.00000E+00
         0.00000E+00
         0.00000E+00
         0.00000E+00
         0.00000E+00
         0.00000E+00
         0.00000E+00
         0.00000E+00
         0.00000E+00
         0.00000E+00
         0.00000E+00
         0.00000E+00
         0.00000E+00
         0.00000E+00
         0.00000E+00
         0.00000E+00
         0.00000E+00
         0.00000E+00
         0.00000E+00
         0.00000E+00
         0.00000E+00
         0.00000E+00
         0.00000E+00
         0.00000E+00
         0.00000E+00
         0.00000E+00
         0.00000E+00
         0.00000E+00
         0.00000E+00
         0.00000E+00
         0.00000E+00
         0.00000E+00
         0.00000E+00
         0.00000E+00
         0.00000E+00
         0.00000E+00
         0.00000E+00
         0.00000E+00
         0.00000E+00
         0.00000E+00
         0.00000E+00
         0.00000E+00
         0.00000E+00
         0.00000E+00
         0.00000E+00
         0.00000E+00
         0.00000E+00
         0.00000E+00
         0.00000E+00
         0.00000E+00
         0.00000E+00
         0.00000E+00
         0.00000E+00
         0.00000E+00
         0.00000E+00
         0.00000E+00
         0.00000E+00
         0.00000E+00
         0.00000E+00
         0.00000E+00
         0.00000E+00
         0.00000E+00
         0.00000E+00
         0.00000E+00
         0.00000E+00
         0.00000E+00
         0.00000E+00
         0.00000E+00
         0.00000E+00
         0.00000E+00
         0.00000E+00
         0.00000E+00
         0.00000E+00
         0.00000E+00
         0.00000E+00
         0.00000E+00
         0.00000E+00
         0.00000E+00
         0.00000E+00
         0.00000E+00
         0.00000E+00
         0.00000E+00
         0.00000E+00
         0.00000E+00
         0.00000E+00
         0.00000E+00
         0.00000E+00
         0.00000E+00
         0.00000E+00
         0.00000E+00
         0.00000E+00
         0.00000E+00
         0.00000E+00
         0.00000E+00
         0.00000E+00
         0.00000E+00
         0.00000E+00
         0.00000E+00
         0.00000E+00
         0.00000E+00
         0.00000E+00
         0.00000E+00
         0.00000E+00
         0.00000E+00
         0.00000E+00
         0.00000E+00
         0.00000E+00
         0.00000E+00
         0.00000E+00
         0.00000E+00
         0.00000E+00
         0.00000E+00
         0.00000E+00
         0.00000E+00
         0.00000E+00
         0.00000E+00
         0.00000E+00
         0.00000E+00
         0.00000E+00
         0.00000E+00
         0.00000E+00
         0.00000E+00
         0.00000E+00
         0.00000E+00
         0.00000E+00
         0.00000E+00
         0.00000E+00
         0.00000E+00
         0.00000E+00
         0.00000E+00
         0.00000E+00
         0.00000E+00
         0.00000E+00
         0.00000E+00
         0.00000E+00
         0.00000E+00
         0.00000E+00
         0.00000E+00
         0.00000E+00
         0.00000E+00
         0.00000E+00
         0.00000E+00
         0.00000E+00
         0.00000E+00
         0.00000E+00
         0.00000E+00
         0.00000E+00
         0.00000E+00
         0.00000E+00
         0.00000E+00
         0.00000E+00
         0.00000E+00
         0.00000E+00
         0.00000E+00
         0.00000E+00
         0.00000E+00
         0.00000E+00
         0.00000E+00
         0.00000E+00
         0.00000E+00
         0.00000E+00
         0.00000E+00
         0.00000E+00
         0.00000E+00
         0.00000E+00
         0.00000E+00
         0.00000E+00
         0.00000E+00
         0.00000E+00
         0.00000E+00
         0.00000E+00
         0.00000E+00
         0.00000E+00
         0.00000E+00
         0.00000E+00
         0.00000E+00
         0.00000E+00
         0.00000E+00
         0.00000E+00
         0.00000E+00
         0.00000E+00
         0.00000E+00
         0.00000E+00
         0.00000E+00
         0.00000E+00
         0.00000E+00
         0.00000E+00
         0.00000E+00
         0.00000E+00
         0.00000E+00
         0.00000E+00
         0.00000E+00
         0.00000E+00
         0.00000E+00
         0.00000E+00
         0.00000E+00
         0.00000E+00
         0.00000E+00
         0.00000E+00
         0.00000E+00
         0.00000E+00
         0.00000E+00
         0.00000E+00
         0.00000E+00
         0.00000E+00
         0.00000E+00
         0.00000E+00
         0.00000E+00
         0.00000E+00
         0.00000E+00
         0.00000E+00
         0.00000E+00
         0.00000E+00
         0.00000E+00
         0.00000E+00
         0.00000E+00
         0.00000E+00
         0.00000E+00
         0.00000E+00
         0.00000E+00
         0.00000E+00
         0.00000E+00
         0.00000E+00
         0.00000E+00
         0.00000E+00
         0.00000E+00
         0.00000E+00
         0.00000E+00
         0.00000E+00
         0.00000E+00
         0.00000E+00
         0.00000E+00
         0.00000E+00
         0.00000E+00
         0.00000E+00
         0.00000E+00
         0.00000E+00
         0.00000E+00
         0.00000E+00
         0.00000E+00
         0.00000E+00
         0.00000E+00
         0.00000E+00
         0.00000E+00
         0.00000E+00
         0.00000E+00
         0.00000E+00
         0.00000E+00
         0.00000E+00
         0.00000E+00
         0.00000E+00
         0.00000E+00
         0.00000E+00
         0.00000E+00
         0.00000E+00
         0.00000E+00
         0.00000E+00
         0.00000E+00
         0.00000E+00
         0.00000E+00
         0.00000E+00
         0.00000E+00
         0.00000E+00
         0.00000E+00
         0.00000E+00
         0.00000E+00
         0.00000E+00
         0.00000E+00
         0.00000E+00
         0.00000E+00
         0.00000E+00
         0.00000E+00
         0.00000E+00
         0.00000E+00
         0.00000E+00
         0.00000E+00
         0.00000E+00
         0.00000E+00
         0.00000E+00
         0.00000E+00
         0.00000E+00
         0.00000E+00
         0.00000E+00
         0.00000E+00
         0.00000E+00
         0.00000E+00
         0.00000E+00
         0.00000E+00
         0.00000E+00
         0.00000E+00
         0.00000E+00
         0.00000E+00
         0.00000E+00
         0.00000E+00
         0.00000E+00
         0.00000E+00
         0.00000E+00
         0.00000E+00
         0.00000E+00
         0.00000E+00
         0.00000E+00
         0.00000E+00
         0.00000E+00
         0.00000E+00
         0.00000E+00
         0.00000E+00
         0.00000E+00
         0.00000E+00
         0.00000E+00
         0.00000E+00
         0.00000E+00
         0.00000E+00
         0.00000E+00
         0.00000E+00
         0.00000E+00
         0.00000E+00
         0.00000E+00
         0.00000E+00
         0.00000E+00
         0.00000E+00
         0.00000E+00
         0.00000E+00
         0.00000E+00
         0.00000E+00
         0.00000E+00
         0.00000E+00
         0.00000E+00
         0.00000E+00
         0.00000E+00
         0.00000E+00
         0.00000E+00
         0.00000E+00
         0.00000E+00
         0.00000E+00
         0.00000E+00
         0.00000E+00
         0.00000E+00
         0.00000E+00
         0.00000E+00
         0.00000E+00
         0.00000E+00
         0.00000E+00
         0.00000E+00
         0.00000E+00
         0.00000E+00
         0.00000E+00
         0.00000E+00
         0.00000E+00
         0.00000E+00
         0.00000E+00
         0.00000E+00
         0.00000E+00
         0.00000E+00
         0.00000E+00
         0.00000E+00
         0.00000E+00
         0.00000E+00
         0.00000E+00
         0.00000E+00
         0.00000E+00
         0.00000E+00
         0.00000E+00
         0.00000E+00
         0.00000E+00
         0.00000E+00
         0.00000E+00
         0.00000E+00
         0.00000E+00
         0.00000E+00
         0.00000E+00
         0.00000E+00
         0.00000E+00
         0.00000E+00
         0.00000E+00
         0.00000E+00
         0.00000E+00
         0.00000E+00
         0.00000E+00
         0.00000E+00
         0.00000E+00
         0.00000E+00
         0.00000E+00
         0.00000E+00
         0.00000E+00
         0.00000E+00
         0.00000E+00
         0.00000E+00
         0.00000E+00
         0.00000E+00
         0.00000E+00
         0.00000E+00
         0.00000E+00
         0.00000E+00
         0.00000E+00
         0.00000E+00
         0.00000E+00
         0.00000E+00
         0.00000E+00
         0.00000E+00
         0.00000E+00
         0.00000E+00
         0.00000E+00
         0.00000E+00
         0.00000E+00
         0.00000E+00
         0.00000E+00
         0.00000E+00
         0.00000E+00
         0.00000E+00
         0.00000E+00
         0.00000E+00
         0.00000E+00
         0.00000E+00
         0.00000E+00
         0.00000E+00
         0.00000E+00
         0.00000E+00
         0.00000E+00
         0.00000E+00
         0.00000E+00
         0.00000E+00
         0.00000E+00
         0.00000E+00
         0.00000E+00
         0.00000E+00
         0.00000E+00
         0.00000E+00
         0.00000E+00
         0.00000E+00
         0.00000E+00
         0.00000E+00
         0.00000E+00
         0.00000E+00
         0.00000E+00
         0.00000E+00
         0.00000E+00
         0.00000E+00
         0.00000E+00
         0.00000E+00
         0.00000E+00
         0.00000E+00
         0.00000E+00
         0.00000E+00
         0.00000E+00
         0.00000E+00
         0.00000E+00
         0.00000E+00
         0.00000E+00
         0.00000E+00
         0.00000E+00
         0.00000E+00
         0.00000E+00
         0.00000E+00
         0.00000E+00
         0.00000E+00
         0.00000E+00
         0.00000E+00
         0.00000E+00
         0.00000E+00
         0.00000E+00
         0.00000E+00
         0.00000E+00
         0.00000E+00
         0.00000E+00
         0.00000E+00
         0.00000E+00
         0.00000E+00
         0.00000E+00
         0.00000E+00
         0.00000E+00
         0.00000E+00
         0.00000E+00
         0.00000E+00
         0.00000E+00
         0.00000E+00
         0.00000E+00
         0.00000E+00
         0.00000E+00
         0.00000E+00
         0.00000E+00
         0.00000E+00
         0.00000E+00
         0.00000E+00
         0.00000E+00
         0.00000E+00
         0.00000E+00
         0.00000E+00
         0.00000E+00
         0.00000E+00
         0.00000E+00
         0.00000E+00
         0.00000E+00
         0.00000E+00
         0.00000E+00
         0.00000E+00
         0.00000E+00
         0.00000E+00
         0.00000E+00
         0.00000E+00
         0.00000E+00
         0.00000E+00
         0.00000E+00
         0.00000E+00
         0.00000E+00
         0.00000E+00
         0.00000E+00
         0.00000E+00
         0.00000E+00
         0.00000E+00
         0.00000E+00
         0.00000E+00
         0.00000E+00
         0.00000E+00
         0.00000E+00
         0.00000E+00
         0.00000E+00
         0.00000E+00
         0.00000E+00
         0.00000E+00
         0.00000E+00
         0.00000E+00
         0.00000E+00
         0.00000E+00
         0.00000E+00
         0.00000E+00
         0.00000E+00
         0.00000E+00
         0.00000E+00
         0.00000E+00
         0.00000E+00
         0.00000E+00
         0.00000E+00
         0.00000E+00
         0.00000E+00
         0.00000E+00
         0.00000E+00
         0.00000E+00
         0.00000E+00
         0.00000E+00
         0.00000E+00
         0.00000E+00
         0.00000E+00
         0.00000E+00
         0.00000E+00
         0.00000E+00
         0.00000E+00
         0.00000E+00
         0.00000E+00
         0.00000E+00
         0.00000E+00
         0.00000E+00
         0.00000E+00
         0.00000E+00
         0.00000E+00
         0.00000E+00
         0.00000E+00
         0.00000E+00
         0.00000E+00
         0.00000E+00
         0.00000E+00
         0.00000E+00
         0.00000E+00
         0.00000E+00
         0.00000E+00
         0.00000E+00
         0.00000E+00
         0.00000E+00
         0.00000E+00
         0.00000E+00
         0.00000E+00
         0.00000E+00
         0.00000E+00
         0.00000E+00
         0.00000E+00
         0.00000E+00
         0.00000E+00
         0.00000E+00
         0.00000E+00
         0.00000E+00
         0.00000E+00
         0.00000E+00
         0.00000E+00
         0.00000E+00
         0.00000E+00
         0.00000E+00
         0.00000E+00
         0.00000E+00
         0.00000E+00
         0.00000E+00
         0.00000E+00
         0.00000E+00
         0.00000E+00
         0.00000E+00
         0.00000E+00
         0.00000E+00
         0.00000E+00
         0.00000E+00
         0.00000E+00
         0.00000E+00
         0.00000E+00
         0.00000E+00
         0.00000E+00
         0.00000E+00
         0.00000E+00
         0.00000E+00
         0.00000E+00
         0.00000E+00
         0.00000E+00
         0.00000E+00
         0.00000E+00
         0.00000E+00
         0.00000E+00
         0.00000E+00
         0.00000E+00
         0.00000E+00
         0.00000E+00
         0.00000E+00
         0.00000E+00
         0.00000E+00
         0.00000E+00
         0.00000E+00
         0.00000E+00
         0.00000E+00
         0.00000E+00
         0.00000E+00
         0.00000E+00
         0.00000E+00
         0.00000E+00
         0.00000E+00
         0.00000E+00
         0.00000E+00
         0.00000E+00
         0.00000E+00
         0.00000E+00
         0.00000E+00
         0.00000E+00
         0.00000E+00
         0.00000E+00
         0.00000E+00
         0.00000E+00
         0.00000E+00
         0.00000E+00
         0.00000E+00
         0.00000E+00
         0.00000E+00
         0.00000E+00
         0.00000E+00
         0.00000E+00
         0.00000E+00
         0.00000E+00
         0.00000E+00
         0.00000E+00
         0.00000E+00
         0.00000E+00
         0.00000E+00
         0.00000E+00
         0.00000E+00
         0.00000E+00
         0.00000E+00
         0.00000E+00
         0.00000E+00
         0.00000E+00
         0.00000E+00
         0.00000E+00
         0.00000E+00
         0.00000E+00
         0.00000E+00
         0.00000E+00
         0.00000E+00
         0.00000E+00
         0.00000E+00
         0.00000E+00
         0.00000E+00
         0.00000E+00
         0.00000E+00
         0.00000E+00
         0.00000E+00
         0.00000E+00
         0.00000E+00
         0.00000E+00
         0.00000E+00
         0.00000E+00
         0.00000E+00
         0.00000E+00
         0.00000E+00
         0.00000E+00
         0.00000E+00
         0.00000E+00
         0.00000E+00
         0.00000E+00
         0.00000E+00
         0.00000E+00
         0.00000E+00
         0.00000E+00
         0.00000E+00
         0.00000E+00
         0.00000E+00
         0.00000E+00
         0.00000E+00
         0.00000E+00
         0.00000E+00
         0.00000E+00
         0.00000E+00
         0.00000E+00
         0.00000E+00
         0.00000E+00
         0.00000E+00
         0.00000E+00
         0.00000E+00
         0.00000E+00
         0.00000E+00
         0.00000E+00
         0.00000E+00
         0.00000E+00
         0.00000E+00
         0.00000E+00
         0.00000E+00
         0.00000E+00
         0.00000E+00
         0.00000E+00
         0.00000E+00
         0.00000E+00
         0.00000E+00
         0.00000E+00
         0.00000E+00
         0.00000E+00
         0.00000E+00
         0.00000E+00
         0.00000E+00
         0.00000E+00
         0.00000E+00
         0.00000E+00
         0.00000E+00
         0.00000E+00
         0.00000E+00
         0.00000E+00
         0.00000E+00
         0.00000E+00
         0.00000E+00
         0.00000E+00
         0.00000E+00
         0.00000E+00
         0.00000E+00
         0.00000E+00
         0.00000E+00
         0.00000E+00
         0.00000E+00
         0.00000E+00
         0.00000E+00
         0.00000E+00
         0.00000E+00
         0.00000E+00
         0.00000E+00
         0.00000E+00
         0.00000E+00
         0.00000E+00
         0.00000E+00
         0.00000E+00
         0.00000E+00
         0.00000E+00
         0.00000E+00
         0.00000E+00
         0.00000E+00
         0.00000E+00
         0.00000E+00
         0.00000E+00
         0.00000E+00
         0.00000E+00
         0.00000E+00
         0.00000E+00
         0.00000E+00
         0.00000E+00
         0.00000E+00
         0.00000E+00
         0.00000E+00
         0.00000E+00
         0.00000E+00
         0.00000E+00
         0.00000E+00
         0.00000E+00
         0.00000E+00
         0.00000E+00
         0.00000E+00
         0.00000E+00
         0.00000E+00
         0.00000E+00
         0.00000E+00
         0.00000E+00
         0.00000E+00
         0.00000E+00
         0.00000E+00
         0.00000E+00
         0.00000E+00
         0.00000E+00
         0.00000E+00
         0.00000E+00
         0.00000E+00
         0.00000E+00
         0.00000E+00
         0.00000E+00
         0.00000E+00
         0.00000E+00
         0.00000E+00
         0.00000E+00
         0.00000E+00
         0.00000E+00
         0.00000E+00
         0.00000E+00
         0.00000E+00
         0.00000E+00
         0.00000E+00
         0.00000E+00
         0.00000E+00
         0.00000E+00
         0.00000E+00
         0.00000E+00
         0.00000E+00
         0.00000E+00
         0.00000E+00
         0.00000E+00
         0.00000E+00
         0.00000E+00
         0.00000E+00
         0.00000E+00
         0.00000E+00
         0.00000E+00
         0.00000E+00
         0.00000E+00
         0.00000E+00
         0.00000E+00
         0.00000E+00
         0.00000E+00
         0.00000E+00
         0.00000E+00
         0.00000E+00
         0.00000E+00
         0.00000E+00
         0.00000E+00
         0.00000E+00
         0.00000E+00
         0.00000E+00
         0.00000E+00
         0.00000E+00
         0.00000E+00
         0.00000E+00
         0.00000E+00
         0.00000E+00
         0.00000E+00
         0.00000E+00
         0.00000E+00
         0.00000E+00
         0.00000E+00
         0.00000E+00
         0.00000E+00
         0.00000E+00
         0.00000E+00
         0.00000E+00
         0.00000E+00
         0.00000E+00
         0.00000E+00
         0.00000E+00
         0.00000E+00
         0.00000E+00
         0.00000E+00
         0.00000E+00
         0.00000E+00
         0.00000E+00
         0.00000E+00
         0.00000E+00
         0.00000E+00
         0.00000E+00
         0.00000E+00
         0.00000E+00
         0.00000E+00
         0.00000E+00
         0.00000E+00
         0.00000E+00
         0.00000E+00
         0.00000E+00
         0.00000E+00
         0.00000E+00
         0.00000E+00
         0.00000E+00
         0.00000E+00
         0.00000E+00
         0.00000E+00
         0.00000E+00
         0.00000E+00
         0.00000E+00
         0.00000E+00
         0.00000E+00
         0.00000E+00
         0.00000E+00
         0.00000E+00
         0.00000E+00
         0.00000E+00
         0.00000E+00
         0.00000E+00
         0.00000E+00
         0.00000E+00
         0.00000E+00
         0.00000E+00
         0.00000E+00
         0.00000E+00
         0.00000E+00
         0.00000E+00
         0.00000E+00
         0.00000E+00
         0.00000E+00
         0.00000E+00
         0.00000E+00
         0.00000E+00
         0.00000E+00
         0.00000E+00
         0.00000E+00
         0.00000E+00
         0.00000E+00
         0.00000E+00
         0.00000E+00
         0.00000E+00
         0.00000E+00
         0.00000E+00
         0.00000E+00
         0.00000E+00
         0.00000E+00
         0.00000E+00
         0.00000E+00
         0.00000E+00
         0.00000E+00
         0.00000E+00
         0.00000E+00
         0.00000E+00
         0.00000E+00
         0.00000E+00
         0.00000E+00
         0.00000E+00
         0.00000E+00
         0.00000E+00
         0.00000E+00
         0.00000E+00
         0.00000E+00
         0.00000E+00
         0.00000E+00
         0.00000E+00
         0.00000E+00
         0.00000E+00
         0.00000E+00
         0.00000E+00
         0.00000E+00
         0.00000E+00
         0.00000E+00
         0.00000E+00
         0.00000E+00
         0.00000E+00
         0.00000E+00
         0.00000E+00
         0.00000E+00
         0.00000E+00
         0.00000E+00
         0.00000E+00
         0.00000E+00
         0.00000E+00
         0.00000E+00
         0.00000E+00
         0.00000E+00
         0.00000E+00
         0.00000E+00
         0.00000E+00
         0.00000E+00
         0.00000E+00
         0.00000E+00
         0.00000E+00
         0.00000E+00
         0.00000E+00
         0.00000E+00
         0.00000E+00
         0.00000E+00
         0.00000E+00
         0.00000E+00
         0.00000E+00
         0.00000E+00
         0.00000E+00
         0.00000E+00
         0.00000E+00
         0.00000E+00
         0.00000E+00
         0.00000E+00
         0.00000E+00
         0.00000E+00
         0.00000E+00
         0.00000E+00
         0.00000E+00
         0.00000E+00
         0.00000E+00
         0.00000E+00
         0.00000E+00
         0.00000E+00
         0.00000E+00
         0.00000E+00
         0.00000E+00
         0.00000E+00
         0.00000E+00
         0.00000E+00
         0.00000E+00
         0.00000E+00
         0.00000E+00
         0.00000E+00
         0.00000E+00
         0.00000E+00
         0.00000E+00
         0.00000E+00
         0.00000E+00
         0.00000E+00
         0.00000E+00
         0.00000E+00
         0.00000E+00
         0.00000E+00
         0.00000E+00
         0.00000E+00
         0.00000E+00
         0.00000E+00
         0.00000E+00
         0.00000E+00
         0.00000E+00
         0.00000E+00
         0.00000E+00
         0.00000E+00
         0.00000E+00
         0.00000E+00
         0.00000E+00
         0.00000E+00
         0.00000E+00
         0.00000E+00
         0.00000E+00
         0.00000E+00
         0.00000E+00
         0.00000E+00
         0.00000E+00
         0.00000E+00
         0.00000E+00
         0.00000E+00
         0.00000E+00
         0.00000E+00
         0.00000E+00
         0.00000E+00
         0.00000E+00
         0.00000E+00
         0.00000E+00
         0.00000E+00
         0.00000E+00
         0.00000E+00
         0.00000E+00
         0.00000E+00
         0.00000E+00
         0.00000E+00
         0.00000E+00
         0.00000E+00
         0.00000E+00
         0.00000E+00
         0.00000E+00
         0.00000E+00
         0.00000E+00
         0.00000E+00
         0.00000E+00
         0.00000E+00
         0.00000E+00
         0.00000E+00
         0.00000E+00
         0.00000E+00
         0.00000E+00
         0.00000E+00
         0.00000E+00
         0.00000E+00
         0.00000E+00
         0.00000E+00
         0.00000E+00
         0.00000E+00
         0.00000E+00
         0.00000E+00
         0.00000E+00
         0.00000E+00
         0.00000E+00
         0.00000E+00
         0.00000E+00
         0.00000E+00
         0.00000E+00
         0.00000E+00
         0.00000E+00
         0.00000E+00
         0.00000E+00
         0.00000E+00
         0.00000E+00
         0.00000E+00
         0.00000E+00
         0.00000E+00
         0.00000E+00
         0.00000E+00
         0.00000E+00
         0.00000E+00
         0.00000E+00
         0.00000E+00
         0.00000E+00
         0.00000E+00
         0.00000E+00
         0.00000E+00
         0.00000E+00
         0.00000E+00
         0.00000E+00
         0.00000E+00
         0.00000E+00
         0.00000E+00
         0.00000E+00
         0.00000E+00
         0.00000E+00
         0.00000E+00
         0.00000E+00
         0.00000E+00
         0.00000E+00
         0.00000E+00
         0.00000E+00
         0.00000E+00
         0.00000E+00
         0.00000E+00
         0.00000E+00
         0.00000E+00
         0.00000E+00
         0.00000E+00
         0.00000E+00
         0.00000E+00
         0.00000E+00
         0.00000E+00
         0.00000E+00
         0.00000E+00
         0.00000E+00
         0.00000E+00
         0.00000E+00
         0.00000E+00
         0.00000E+00
         0.00000E+00
         0.00000E+00
         0.00000E+00
         0.00000E+00
         0.00000E+00
         0.00000E+00
         0.00000E+00
         0.00000E+00
         0.00000E+00
         0.00000E+00
         0.00000E+00
         0.00000E+00
         0.00000E+00
         0.00000E+00
         0.00000E+00
         0.00000E+00
         0.00000E+00
         0.00000E+00
         0.00000E+00
         0.00000E+00
         0.00000E+00
         0.00000E+00
         0.00000E+00
         0.00000E+00
         0.00000E+00
         0.00000E+00
         0.00000E+00
         0.00000E+00
         0.00000E+00
         0.00000E+00
         0.00000E+00
         0.00000E+00
         0.00000E+00
         0.00000E+00
         0.00000E+00
         0.00000E+00
         0.00000E+00
         0.00000E+00
         0.00000E+00
         0.00000E+00
         0.00000E+00
         0.00000E+00
         0.00000E+00
         0.00000E+00
         0.00000E+00
         0.00000E+00
         0.00000E+00
         0.00000E+00
         0.00000E+00
         0.00000E+00
         0.00000E+00
         0.00000E+00
         0.00000E+00
         0.00000E+00
         0.00000E+00
         0.00000E+00
         0.00000E+00
         0.00000E+00
         0.00000E+00
         0.00000E+00
         0.00000E+00
         0.00000E+00
         0.00000E+00
         0.00000E+00
         0.00000E+00
         0.00000E+00
         0.00000E+00
         0.00000E+00
         0.00000E+00
         0.00000E+00
         0.00000E+00
         0.00000E+00
         0.00000E+00
         0.00000E+00
         0.00000E+00
         0.00000E+00
         0.00000E+00
         0.00000E+00
         0.00000E+00
         0.00000E+00
         0.00000E+00
         0.00000E+00
         0.00000E+00
         0.00000E+00
         0.00000E+00
         0.00000E+00
         0.00000E+00
         0.00000E+00
         0.00000E+00
         0.00000E+00
         0.00000E+00
         0.00000E+00
         0.00000E+00
         0.00000E+00
         0.00000E+00
         0.00000E+00
         0.00000E+00
         0.00000E+00
         0.00000E+00
         0.00000E+00
         0.00000E+00
         0.00000E+00
         0.00000E+00
         0.00000E+00
         0.00000E+00
         0.00000E+00
         0.00000E+00
         0.00000E+00
         0.00000E+00
         0.00000E+00
         0.00000E+00
         0.00000E+00
         0.00000E+00
         0.00000E+00
         0.00000E+00
         0.00000E+00
         0.00000E+00
         0.00000E+00
         0.00000E+00
         0.00000E+00
         0.00000E+00
         0.00000E+00
         0.00000E+00
         0.00000E+00
         0.00000E+00
         0.00000E+00
  
SCALARS                      stress_xx  double 1
LOOKUP_TABLE default
         0.15216E+13
         0.15024E+13
         0.15146E+13
         0.15364E+13
        -0.20171E+03
        -0.22618E+03
        -0.21658E+03
        -0.19675E+03
         0.15018E+13
         0.15083E+13
        -0.20339E+03
        -0.19683E+03
         0.14747E+13
         0.14736E+13
        -0.24167E+03
        -0.22724E+03
         0.15332E+13
         0.14751E+13
        -0.17857E+03
        -0.19806E+03
         0.14538E+13
         0.14372E+13
         0.14636E+13
        -0.23953E+03
        -0.20918E+03
        -0.21601E+03
         0.14378E+13
         0.14136E+13
        -0.22979E+03
        -0.19379E+03
         0.15321E+13
         0.15069E+13
         0.15566E+13
        -0.19610E+03
        -0.18230E+03
        -0.17724E+03
         0.15175E+13
         0.14854E+13
        -0.20746E+03
        -0.18931E+03
         0.15048E+13
         0.14800E+13
        -0.17930E+03
        -0.15874E+03
         0.15258E+13
         0.15351E+13
        -0.19649E+03
        -0.21955E+03
         0.14600E+13
        -0.19196E+03
         0.15333E+13
        -0.22556E+03
         0.14308E+13
        -0.20271E+03
         0.14232E+13
        -0.19444E+03
         0.14233E+13
         0.14504E+13
        -0.19811E+03
        -0.19294E+03
         0.15316E+13
         0.15219E+13
        -0.19866E+03
        -0.22458E+03
         0.15377E+13
        -0.19169E+03
         0.15262E+13
        -0.20921E+03
         0.14958E+13
         0.14928E+13
        -0.20138E+03
        -0.21101E+03
         0.14859E+13
        -0.21278E+03
         0.14049E+13
        -0.16811E+03
         0.14007E+13
        -0.16318E+03
         0.14028E+13
        -0.17206E+03
         0.14145E+13
         0.14267E+13
        -0.16393E+03
        -0.17091E+03
         0.14513E+13
        -0.15918E+03
         0.15253E+13
        -0.20874E+03
         0.15138E+13
        -0.21364E+03
         0.15043E+13
         0.14991E+13
        -0.20517E+03
        -0.20756E+03
         0.15055E+13
        -0.18852E+03
         0.15101E+13
        -0.18583E+03
         0.15060E+13
        -0.19894E+03
         0.15045E+13
         0.15087E+13
        -0.19509E+03
        -0.20081E+03
         0.14816E+13
         0.14926E+13
        -0.15147E+03
        -0.14246E+03
         0.14796E+13
        -0.14463E+03
         0.14922E+13
        -0.13868E+03
         0.14797E+13
        -0.13675E+03
         0.14521E+13
        -0.12923E+03
         0.14252E+13
        -0.11480E+03
         0.14091E+13
        -0.10337E+03
         0.14074E+13
        -0.10266E+03
         0.14079E+13
        -0.11132E+03
         0.14254E+13
        -0.11700E+03
         0.14580E+13
        -0.10683E+03
         0.14938E+13
        -0.96298E+02
         0.15147E+13
        -0.96188E+02
         0.15353E+13
        -0.10751E+03
         0.15490E+13
        -0.12259E+03
         0.15485E+13
        -0.13170E+03
         0.15153E+13
        -0.14224E+03
         0.14922E+13
        -0.15238E+03
         0.14843E+13
        -0.13959E+03
         0.14967E+13
        -0.12246E+03
         0.15031E+13
        -0.12208E+03
         0.14923E+13
        -0.13357E+03
         0.14925E+13
        -0.14240E+03
         0.15007E+13
        -0.13514E+03
         0.15113E+13
        -0.13064E+03
        -0.25442E+11
        -0.24526E+11
        -0.24652E+11
        -0.25821E+11
        -0.23598E+11
        -0.24758E+11
        -0.23310E+11
        -0.24079E+11
        -0.25642E+11
        -0.24685E+11
        -0.22456E+11
        -0.22190E+11
        -0.22894E+11
        -0.22942E+11
        -0.22490E+11
        -0.25767E+11
        -0.25555E+11
        -0.26143E+11
        -0.24424E+11
        -0.24750E+11
        -0.24283E+11
        -0.24593E+11
        -0.24015E+11
        -0.24167E+11
        -0.24723E+11
        -0.24684E+11
        -0.23722E+11
        -0.23812E+11
        -0.23072E+11
        -0.24181E+11
        -0.25663E+11
        -0.24513E+11
        -0.25655E+11
        -0.24909E+11
        -0.22004E+11
        -0.22976E+11
        -0.23425E+11
        -0.22897E+11
        -0.22827E+11
        -0.21933E+11
        -0.21264E+11
        -0.22867E+11
        -0.24302E+11
        -0.24113E+11
        -0.23382E+11
        -0.22040E+11
        -0.23189E+11
        -0.24361E+11
        -0.24282E+11
        -0.23377E+11
        -0.22415E+11
        -0.23704E+11
        -0.19574E+11
        -0.20853E+11
        -0.20645E+11
        -0.20938E+11
        -0.20864E+11
        -0.20180E+11
        -0.19463E+11
        -0.19226E+11
        -0.19328E+11
        -0.19255E+11
        -0.18944E+11
        -0.20799E+11
        -0.21466E+11
        -0.21719E+11
        -0.22145E+11
        -0.22464E+11
        -0.22449E+11
        -0.21904E+11
        -0.20007E+11
        -0.20470E+11
        -0.21127E+11
        -0.21120E+11
        -0.21007E+11
        -0.20375E+11
        -0.21301E+11
        -0.21637E+11
         0.15626E+07
         0.70017E+06
         0.89289E+06
         0.98653E+06
         0.65300E+06
         0.11938E+07
        -0.59231E+06
        -0.11644E+07
         0.19861E+07
        -0.12886E+07
        -0.15523E+07
        -0.50062E+05
         0.31076E+05
        -0.43983E+07
        -0.13619E+07
        -0.16435E+06
         0.40674E+06
         0.81317E+06
        -0.13729E+05
        -0.25997E+06
        -0.12886E+07
        -0.44958E+06
        -0.19578E+07
        -0.85246E+06
        -0.14894E+07
        -0.24670E+06
        -0.56871E+07
        -0.30562E+07
        -0.19568E+07
        -0.14246E+07
        -0.64233E+05
        -0.58319E+06
         0.93032E+06
         0.16405E+07
        -0.10159E+07
        -0.71679E+06
        -0.23834E+06
        -0.17038E+07
        -0.11676E+07
        -0.70129E+06
        -0.77169E+06
        -0.14742E+07
        -0.12180E+07
        -0.16147E+07
        -0.12297E+07
        -0.57526E+06
        -0.19529E+06
        -0.17716E+06
         0.83901E+06
         0.13778E+07
         0.70545E+06
         0.95517E+06
        -0.33606E+07
        -0.36934E+06
        -0.18980E+07
         0.71876E+06
         0.29220E+07
         0.44850E+07
         0.36955E+07
         0.40350E+07
         0.32215E+07
         0.17807E+07
         0.69040E+06
        -0.19673E+06
        -0.11141E+07
         0.84442E+05
        -0.19770E+07
        -0.33399E+07
        -0.28105E+07
        -0.24989E+07
        -0.13916E+07
         0.79224E+06
         0.80461E+06
         0.96063E+05
        -0.11266E+07
        -0.16961E+07
        -0.89946E+06
         0.26948E+06
         0.14683E+07
         0.60761E+06
         0.80217E+06
         0.91151E+06
         0.54111E+06
         0.10930E+07
        -0.68302E+06
        -0.12716E+07
         0.18913E+07
        -0.14054E+07
        -0.16596E+07
        -0.19618E+06
        -0.95438E+05
        -0.45120E+07
        -0.15067E+07
        -0.26404E+06
         0.31010E+06
         0.74990E+06
        -0.11843E+06
        -0.35277E+06
        -0.14137E+07
        -0.57161E+06
        -0.20866E+07
        -0.95287E+06
        -0.16130E+07
        -0.33100E+06
        -0.57984E+07
        -0.31446E+07
        -0.20624E+07
        -0.15527E+07
        -0.15901E+06
        -0.67147E+06
         0.85366E+06
         0.15659E+07
        -0.11442E+07
        -0.82464E+06
        -0.34908E+06
        -0.18502E+07
        -0.13037E+07
        -0.83527E+06
        -0.91592E+06
        -0.16152E+07
        -0.13518E+07
        -0.17382E+07
        -0.13461E+07
        -0.70441E+06
        -0.31192E+06
        -0.28647E+06
         0.74142E+06
         0.12781E+07
         0.58747E+06
         0.84923E+06
        -0.35949E+07
        -0.59781E+06
        -0.21229E+07
         0.50330E+06
         0.26942E+07
         0.42313E+07
         0.34421E+07
         0.37785E+07
         0.29624E+07
         0.15159E+07
         0.42678E+06
        -0.44045E+06
        -0.13177E+07
        -0.10579E+06
        -0.21763E+07
        -0.35527E+07
        -0.30278E+07
        -0.27260E+07
        -0.16196E+07
         0.55116E+06
         0.57709E+06
        -0.10952E+06
        -0.13323E+07
        -0.19069E+07
        -0.11125E+07
         0.52499E+05
         0.14902E+07
         0.62576E+06
         0.82142E+06
         0.93282E+06
         0.57127E+06
         0.11210E+07
        -0.66717E+06
        -0.12462E+07
         0.19077E+07
        -0.14000E+07
        -0.16368E+07
        -0.16839E+06
        -0.71643E+05
        -0.44814E+07
        -0.14708E+07
        -0.28458E+06
         0.30514E+06
         0.76939E+06
        -0.14415E+06
        -0.37000E+06
        -0.14341E+07
        -0.57940E+06
        -0.21711E+07
        -0.10253E+07
        -0.16666E+07
        -0.39021E+06
        -0.57767E+07
        -0.31541E+07
        -0.21092E+07
        -0.16423E+07
        -0.15967E+06
        -0.69159E+06
         0.87700E+06
         0.15912E+07
        -0.11111E+07
        -0.79695E+06
        -0.32430E+06
        -0.18255E+07
        -0.12825E+07
        -0.82852E+06
        -0.91963E+06
        -0.16666E+07
        -0.14238E+07
        -0.18207E+07
        -0.13658E+07
        -0.68652E+06
        -0.29064E+06
        -0.26232E+06
         0.76826E+06
         0.13088E+07
         0.62122E+06
         0.87943E+06
        -0.35250E+07
        -0.53510E+06
        -0.20534E+07
         0.55669E+06
         0.27339E+07
         0.42707E+07
         0.34924E+07
         0.38289E+07
         0.30137E+07
         0.15690E+07
         0.45797E+06
        -0.44158E+06
        -0.13144E+07
        -0.70719E+05
        -0.21532E+07
        -0.35958E+07
        -0.30745E+07
        -0.27139E+07
        -0.15569E+07
         0.62367E+06
         0.64204E+06
        -0.43915E+05
        -0.12586E+07
        -0.18449E+07
        -0.10622E+07
         0.10104E+06
         0.14767E+07
         0.61788E+06
         0.81382E+06
         0.92176E+06
         0.56134E+06
         0.11130E+07
        -0.67703E+06
        -0.12593E+07
         0.18806E+07
        -0.14498E+07
        -0.16471E+07
        -0.18361E+06
        -0.81994E+05
        -0.44930E+07
        -0.14886E+07
        -0.36409E+06
         0.24813E+06
         0.75961E+06
        -0.23567E+06
        -0.44783E+06
        -0.15290E+07
        -0.66370E+06
        -0.23678E+07
        -0.11874E+07
        -0.18136E+07
        -0.52463E+06
        -0.58071E+07
        -0.32253E+07
        -0.22381E+07
        -0.18571E+07
        -0.20625E+06
        -0.77131E+06
         0.86704E+06
         0.15796E+07
        -0.11279E+07
        -0.80744E+06
        -0.33297E+06
        -0.18529E+07
        -0.13165E+07
        -0.88973E+06
        -0.10013E+07
        -0.18263E+07
        -0.16192E+07
        -0.20157E+07
        -0.14620E+07
        -0.73845E+06
        -0.32806E+06
        -0.28297E+06
         0.75176E+06
         0.12900E+07
         0.60362E+06
         0.86800E+06
        -0.35577E+07
        -0.55754E+06
        -0.20888E+07
         0.52561E+06
         0.27131E+07
         0.42466E+07
         0.34520E+07
         0.37851E+07
         0.29714E+07
         0.15177E+07
         0.37676E+06
        -0.57268E+06
        -0.14378E+07
        -0.12925E+06
        -0.22190E+07
        -0.37768E+07
        -0.32661E+07
        -0.28036E+07
        -0.15995E+07
         0.58303E+06
         0.61114E+06
        -0.80476E+05
        -0.12966E+07
        -0.18708E+07
        -0.10818E+07
         0.81411E+05
         0.14521E+07
         0.60193E+06
         0.80059E+06
         0.91031E+06
         0.54979E+06
         0.11016E+07
        -0.69120E+06
        -0.12818E+07
         0.18482E+07
        -0.15016E+07
        -0.16581E+07
        -0.19314E+06
        -0.93520E+05
        -0.45059E+07
        -0.14969E+07
        -0.41815E+06
         0.20293E+06
         0.75069E+06
        -0.29588E+06
        -0.50363E+06
        -0.15900E+07
        -0.72423E+06
        -0.24887E+07
        -0.12878E+07
        -0.19199E+07
        -0.61095E+06
        -0.58335E+07
        -0.32760E+07
        -0.23294E+07
        -0.19998E+07
        -0.25493E+06
        -0.82940E+06
         0.84548E+06
         0.15632E+07
        -0.11452E+07
        -0.82097E+06
        -0.34608E+06
        -0.18734E+07
        -0.13447E+07
        -0.93630E+06
        -0.10590E+07
        -0.19338E+07
        -0.17475E+07
        -0.21393E+07
        -0.15251E+07
        -0.77266E+06
        -0.36125E+06
        -0.31582E+06
         0.72297E+06
         0.12621E+07
         0.57602E+06
         0.84934E+06
        -0.35870E+07
        -0.57710E+06
        -0.21190E+07
         0.50142E+06
         0.27034E+07
         0.42395E+07
         0.34347E+07
         0.37561E+07
         0.29356E+07
         0.14861E+07
         0.32733E+06
        -0.66337E+06
        -0.15219E+07
        -0.17448E+06
        -0.22655E+07
        -0.38940E+07
        -0.34006E+07
        -0.28677E+07
        -0.16188E+07
         0.54612E+06
         0.57018E+06
        -0.12243E+06
        -0.13456E+07
        -0.19129E+07
        -0.11079E+07
         0.61822E+05
         0.13929E+07
         0.57136E+06
         0.78753E+06
         0.92183E+06
         0.56571E+06
         0.11213E+07
        -0.70178E+06
        -0.13218E+07
         0.18025E+07
        -0.15719E+07
        -0.16481E+07
        -0.16064E+06
        -0.81158E+05
        -0.44990E+07
        -0.14558E+07
        -0.40919E+06
         0.19239E+06
         0.77060E+06
        -0.28345E+06
        -0.49487E+06
        -0.15719E+07
        -0.70286E+06
        -0.24860E+07
        -0.12899E+07
        -0.19659E+07
        -0.62353E+06
        -0.58397E+07
        -0.32796E+07
        -0.23316E+07
        -0.20051E+07
        -0.31294E+06
        -0.86017E+06
         0.80797E+06
         0.15596E+07
        -0.11308E+07
        -0.81911E+06
        -0.34833E+06
        -0.18483E+07
        -0.13231E+07
        -0.91229E+06
        -0.10309E+07
        -0.19173E+07
        -0.17339E+07
        -0.21468E+07
        -0.15328E+07
        -0.77824E+06
        -0.38993E+06
        -0.38155E+06
         0.65222E+06
         0.12242E+07
         0.56709E+06
         0.85844E+06
        -0.35296E+07
        -0.51771E+06
        -0.20705E+07
         0.53378E+06
         0.27374E+07
         0.42857E+07
         0.34870E+07
         0.38062E+07
         0.29933E+07
         0.15623E+07
         0.39395E+06
        -0.62316E+06
        -0.14775E+07
        -0.12815E+06
        -0.22209E+07
        -0.38584E+07
        -0.33746E+07
        -0.28420E+07
        -0.15878E+07
         0.56749E+06
         0.56558E+06
        -0.15161E+06
        -0.13647E+07
        -0.19030E+07
        -0.10791E+07
         0.10308E+06
         0.13029E+07
         0.51729E+06
         0.75627E+06
         0.91533E+06
         0.55428E+06
         0.11208E+07
        -0.74008E+06
        -0.14008E+07
         0.17249E+07
        -0.16759E+07
        -0.16733E+07
        -0.17324E+06
        -0.10181E+06
        -0.45338E+07
        -0.14643E+07
        -0.42593E+06
         0.15525E+06
         0.76924E+06
        -0.29396E+06
        -0.50737E+06
        -0.15802E+07
        -0.70875E+06
        -0.24955E+07
        -0.13022E+07
        -0.20306E+07
        -0.64567E+06
        -0.58847E+07
        -0.33045E+07
        -0.23477E+07
        -0.20223E+07
        -0.39363E+06
        -0.91031E+06
         0.74967E+06
         0.15375E+07
        -0.11511E+07
        -0.84135E+06
        -0.37426E+06
        -0.18698E+07
        -0.13437E+07
        -0.92376E+06
        -0.10359E+07
        -0.19201E+07
        -0.17352E+07
        -0.21654E+07
        -0.15676E+07
        -0.82672E+06
        -0.45615E+06
        -0.48009E+06
         0.55127E+06
         0.11580E+07
         0.53011E+06
         0.84584E+06
        -0.35535E+07
        -0.53628E+06
        -0.20847E+07
         0.51746E+06
         0.27139E+07
         0.42574E+07
         0.34635E+07
         0.37860E+07
         0.29732E+07
         0.15473E+07
         0.38193E+06
        -0.63776E+06
        -0.14800E+07
        -0.13177E+06
        -0.22308E+07
        -0.38640E+07
        -0.33860E+07
        -0.28826E+07
        -0.16481E+07
         0.50094E+06
         0.49081E+06
        -0.24401E+06
        -0.14457E+07
        -0.19459E+07
        -0.11022E+07
         0.84892E+05
         0.12765E+07
         0.49716E+06
         0.74342E+06
         0.90617E+06
         0.54193E+06
         0.11098E+07
        -0.76082E+06
        -0.14274E+07
         0.17024E+07
        -0.17069E+07
        -0.16911E+07
        -0.19092E+06
        -0.12216E+06
        -0.45519E+07
        -0.14791E+07
        -0.44107E+06
         0.14024E+06
         0.76274E+06
        -0.30358E+06
        -0.51705E+06
        -0.15934E+07
        -0.72266E+06
        -0.25081E+07
        -0.13117E+07
        -0.20543E+07
        -0.65843E+06
        -0.59040E+07
        -0.33166E+07
        -0.23704E+07
        -0.20388E+07
        -0.42063E+06
        -0.93024E+06
         0.73256E+06
         0.15254E+07
        -0.11682E+07
        -0.85323E+06
        -0.39001E+06
        -0.18968E+07
        -0.13675E+07
        -0.94751E+06
        -0.10601E+07
        -0.19397E+07
        -0.17475E+07
        -0.21820E+07
        -0.15882E+07
        -0.84937E+06
        -0.47789E+06
        -0.50473E+06
         0.52640E+06
         0.11350E+07
         0.50731E+06
         0.83005E+06
        -0.35864E+07
        -0.56856E+06
        -0.21066E+07
         0.49490E+06
         0.26866E+07
         0.42335E+07
         0.34389E+07
         0.37518E+07
         0.29283E+07
         0.15000E+07
         0.33908E+06
        -0.65715E+06
        -0.14954E+07
        -0.16467E+06
        -0.22654E+07
        -0.38970E+07
        -0.34286E+07
        -0.29235E+07
        -0.16824E+07
         0.47311E+06
         0.46809E+06
        -0.27480E+06
        -0.14863E+07
        -0.19837E+07
        -0.11341E+07
         0.53188E+05
         0.12930E+07
         0.51061E+06
         0.75327E+06
         0.91053E+06
         0.55668E+06
         0.11141E+07
        -0.75099E+06
        -0.14061E+07
         0.17178E+07
        -0.16867E+07
        -0.16774E+07
        -0.17336E+06
        -0.10946E+06
        -0.45285E+07
        -0.14508E+07
        -0.42309E+06
         0.15459E+06
         0.77292E+06
        -0.28535E+06
        -0.50319E+06
        -0.15749E+07
        -0.70552E+06
        -0.24897E+07
        -0.12953E+07
        -0.20391E+07
        -0.64525E+06
        -0.58765E+07
        -0.32973E+07
        -0.23648E+07
        -0.20236E+07
        -0.40641E+06
        -0.91905E+06
         0.74472E+06
         0.15306E+07
        -0.11494E+07
        -0.83879E+06
        -0.37745E+06
        -0.18782E+07
        -0.13530E+07
        -0.93468E+06
        -0.10436E+07
        -0.19221E+07
        -0.17292E+07
        -0.21652E+07
        -0.15741E+07
        -0.83477E+06
        -0.46337E+06
        -0.48800E+06
         0.54310E+06
         0.11480E+07
         0.51723E+06
         0.83413E+06
        -0.35373E+07
        -0.52027E+06
        -0.20777E+07
         0.50671E+06
         0.27107E+07
         0.42709E+07
         0.34805E+07
         0.37815E+07
         0.29398E+07
         0.15176E+07
         0.37072E+06
        -0.61223E+06
        -0.14561E+07
        -0.13919E+06
        -0.22415E+07
        -0.38693E+07
        -0.34004E+07
        -0.28888E+07
        -0.16493E+07
         0.51186E+06
         0.50815E+06
        -0.23907E+06
        -0.14563E+07
        -0.19571E+07
        -0.11075E+07
         0.81914E+05
         0.12886E+07
         0.50935E+06
         0.75069E+06
         0.90480E+06
         0.55464E+06
         0.11085E+07
        -0.75582E+06
        -0.14124E+07
         0.17069E+07
        -0.16984E+07
        -0.16847E+07
        -0.18411E+06
        -0.11277E+06
        -0.45364E+07
        -0.14663E+07
        -0.43272E+06
         0.14490E+06
         0.76578E+06
        -0.29328E+06
        -0.51060E+06
        -0.15816E+07
        -0.71437E+06
        -0.24962E+07
        -0.13015E+07
        -0.20468E+07
        -0.65077E+06
        -0.58827E+07
        -0.32967E+07
        -0.23761E+07
        -0.20314E+07
        -0.41549E+06
        -0.92524E+06
         0.73653E+06
         0.15219E+07
        -0.11559E+07
        -0.84393E+06
        -0.38096E+06
        -0.19016E+07
        -0.13666E+07
        -0.94700E+06
        -0.10554E+07
        -0.19300E+07
        -0.17397E+07
        -0.21696E+07
        -0.15785E+07
        -0.84193E+06
        -0.47337E+06
        -0.49938E+06
         0.53342E+06
         0.11390E+07
         0.50837E+06
         0.82511E+06
        -0.35514E+07
        -0.53142E+06
        -0.21006E+07
         0.48717E+06
         0.27080E+07
         0.42571E+07
         0.34485E+07
         0.37457E+07
         0.29189E+07
         0.14861E+07
         0.33637E+06
        -0.62934E+06
        -0.14764E+07
        -0.15029E+06
        -0.22520E+07
        -0.38792E+07
        -0.34019E+07
        -0.28957E+07
        -0.16591E+07
         0.48563E+06
         0.47574E+06
        -0.26408E+06
        -0.14688E+07
        -0.19632E+07
        -0.11219E+07
         0.61640E+05
         0.12764E+07
         0.49902E+06
         0.74332E+06
         0.90201E+06
         0.54615E+06
         0.11052E+07
        -0.76584E+06
        -0.14223E+07
         0.16971E+07
        -0.17101E+07
        -0.16929E+07
        -0.19836E+06
        -0.12214E+06
        -0.45420E+07
        -0.14822E+07
        -0.44585E+06
         0.13722E+06
         0.76249E+06
        -0.30306E+06
        -0.51601E+06
        -0.15903E+07
        -0.72336E+06
        -0.25061E+07
        -0.13112E+07
        -0.20544E+07
        -0.66083E+06
        -0.58872E+07
        -0.32981E+07
        -0.23879E+07
        -0.20372E+07
        -0.42813E+06
        -0.93531E+06
         0.73296E+06
         0.15210E+07
        -0.11711E+07
        -0.85317E+06
        -0.38934E+06
        -0.19242E+07
        -0.13817E+07
        -0.95784E+06
        -0.10622E+07
        -0.19367E+07
        -0.17493E+07
        -0.21784E+07
        -0.15869E+07
        -0.85161E+06
        -0.48268E+06
        -0.50926E+06
         0.52419E+06
         0.11311E+07
         0.49997E+06
         0.82122E+06
        -0.35797E+07
        -0.55501E+06
        -0.21180E+07
         0.48123E+06
         0.27004E+07
         0.42292E+07
         0.34083E+07
         0.37133E+07
         0.28973E+07
         0.14635E+07
         0.32232E+06
        -0.64623E+06
        -0.15007E+07
        -0.16682E+06
        -0.22695E+07
        -0.38994E+07
        -0.34152E+07
        -0.29115E+07
        -0.16784E+07
         0.46401E+06
         0.45114E+06
        -0.28968E+06
        -0.14871E+07
        -0.19806E+07
        -0.11437E+07
         0.38566E+05
         0.12841E+07
         0.50316E+06
         0.74694E+06
         0.90901E+06
         0.55633E+06
         0.11147E+07
        -0.76042E+06
        -0.14072E+07
         0.17045E+07
        -0.17014E+07
        -0.16801E+07
        -0.18638E+06
        -0.11843E+06
        -0.45204E+07
        -0.14560E+07
        -0.43609E+06
         0.14298E+06
         0.77262E+06
        -0.29206E+06
        -0.50485E+06
        -0.15755E+07
        -0.70804E+06
        -0.24936E+07
        -0.13012E+07
        -0.20478E+07
        -0.65264E+06
        -0.58696E+07
        -0.32851E+07
        -0.23805E+07
        -0.20205E+07
        -0.41710E+06
        -0.92773E+06
         0.74716E+06
         0.15326E+07
        -0.11596E+07
        -0.84378E+06
        -0.38397E+06
        -0.19094E+07
        -0.13673E+07
        -0.93874E+06
        -0.10438E+07
        -0.19234E+07
        -0.17346E+07
        -0.21680E+07
        -0.15781E+07
        -0.84346E+06
        -0.47377E+06
        -0.49921E+06
         0.53526E+06
         0.11422E+07
         0.51036E+06
         0.83223E+06
        -0.35438E+07
        -0.51608E+06
        -0.20813E+07
         0.49914E+06
         0.26946E+07
         0.42311E+07
         0.34371E+07
         0.37451E+07
         0.29190E+07
         0.14963E+07
         0.35341E+06
        -0.63146E+06
        -0.14744E+07
        -0.14013E+06
        -0.22453E+07
        -0.38808E+07
        -0.34026E+07
        -0.28956E+07
        -0.16633E+07
         0.48733E+06
         0.47879E+06
        -0.26312E+06
        -0.14639E+07
        -0.19610E+07
        -0.11148E+07
         0.72270E+05
         0.12784E+07
         0.49487E+06
         0.73980E+06
         0.90243E+06
         0.54768E+06
         0.11064E+07
        -0.77242E+06
        -0.14161E+07
         0.16967E+07
        -0.17159E+07
        -0.16923E+07
        -0.20407E+06
        -0.13715E+06
        -0.45312E+07
        -0.14672E+07
        -0.44683E+06
         0.13309E+06
         0.76488E+06
        -0.30405E+06
        -0.51361E+06
        -0.15914E+07
        -0.72433E+06
        -0.25105E+07
        -0.13123E+07
        -0.20623E+07
        -0.66152E+06
        -0.58861E+07
        -0.32968E+07
        -0.23994E+07
        -0.20306E+07
        -0.42894E+06
        -0.93724E+06
         0.73678E+06
         0.15248E+07
        -0.11741E+07
        -0.85464E+06
        -0.39790E+06
        -0.19340E+07
        -0.13912E+07
        -0.95934E+06
        -0.10664E+07
        -0.19448E+07
        -0.17510E+07
        -0.21862E+07
        -0.15938E+07
        -0.85758E+06
        -0.48714E+06
        -0.51459E+06
         0.52328E+06
         0.11333E+07
         0.49911E+06
         0.82194E+06
        -0.35718E+07
        -0.54025E+06
        -0.21089E+07
         0.46721E+06
         0.26575E+07
         0.41955E+07
         0.34153E+07
         0.37171E+07
         0.28823E+07
         0.14599E+07
         0.30908E+06
        -0.67524E+06
        -0.15035E+07
        -0.17027E+06
        -0.22713E+07
        -0.39106E+07
        -0.34484E+07
        -0.29367E+07
        -0.16838E+07
         0.45876E+06
         0.44945E+06
        -0.27819E+06
        -0.14740E+07
        -0.19824E+07
        -0.11443E+07
         0.42882E+05
         0.12772E+07
         0.49207E+06
         0.73764E+06
         0.90120E+06
         0.54723E+06
         0.11046E+07
        -0.77659E+06
        -0.14157E+07
         0.16977E+07
        -0.17160E+07
        -0.16937E+07
        -0.20658E+06
        -0.14035E+06
        -0.45275E+07
        -0.14661E+07
        -0.44946E+06
         0.13355E+06
         0.76476E+06
        -0.30515E+06
        -0.51383E+06
        -0.15946E+07
        -0.72678E+06
        -0.25143E+07
        -0.13145E+07
        -0.20646E+07
        -0.66437E+06
        -0.58826E+07
        -0.32966E+07
        -0.24095E+07
        -0.20330E+07
        -0.43567E+06
        -0.94108E+06
         0.73407E+06
         0.15238E+07
        -0.11778E+07
        -0.85782E+06
        -0.40195E+06
        -0.19461E+07
        -0.14051E+07
        -0.96801E+06
        -0.10690E+07
        -0.19470E+07
        -0.17533E+07
        -0.21890E+07
        -0.15963E+07
        -0.86087E+06
        -0.49131E+06
        -0.52075E+06
         0.51872E+06
         0.11315E+07
         0.49714E+06
         0.81961E+06
        -0.35725E+07
        -0.53965E+06
        -0.21163E+07
         0.45490E+06
         0.26568E+07
         0.41949E+07
         0.34065E+07
         0.36936E+07
         0.28559E+07
         0.14454E+07
         0.30765E+06
        -0.67953E+06
        -0.15108E+07
        -0.18198E+06
        -0.22850E+07
        -0.39203E+07
        -0.34546E+07
        -0.29422E+07
        -0.16896E+07
         0.44845E+06
         0.43654E+06
        -0.28646E+06
        -0.14747E+07
        -0.19851E+07
        -0.11574E+07
         0.30936E+05
         0.13019E+07
         0.51776E+06
         0.75908E+06
         0.91762E+06
         0.57582E+06
         0.11255E+07
        -0.75249E+06
        -0.13851E+07
         0.17161E+07
        -0.16928E+07
        -0.16638E+07
        -0.16845E+06
        -0.10740E+06
        -0.44924E+07
        -0.14272E+07
        -0.42752E+06
         0.15329E+06
         0.78197E+06
        -0.28114E+06
        -0.49144E+06
        -0.15621E+07
        -0.69653E+06
        -0.24838E+07
        -0.12927E+07
        -0.20388E+07
        -0.64562E+06
        -0.58479E+07
        -0.32657E+07
        -0.23881E+07
        -0.20019E+07
        -0.41245E+06
        -0.91952E+06
         0.75466E+06
         0.15390E+07
        -0.11464E+07
        -0.83134E+06
        -0.37456E+06
        -0.19224E+07
        -0.13759E+07
        -0.93647E+06
        -0.10381E+07
        -0.19165E+07
        -0.17258E+07
        -0.21574E+07
        -0.15647E+07
        -0.82884E+06
        -0.46324E+06
        -0.49490E+06
         0.54087E+06
         0.11513E+07
         0.51863E+06
         0.83864E+06
        -0.35073E+07
        -0.47465E+06
        -0.20615E+07
         0.49448E+06
         0.27052E+07
         0.42561E+07
         0.34578E+07
         0.37325E+07
         0.28998E+07
         0.14933E+07
         0.35088E+06
        -0.62887E+06
        -0.14707E+07
        -0.13731E+06
        -0.22342E+07
        -0.38674E+07
        -0.33948E+07
        -0.28779E+07
        -0.16343E+07
         0.50611E+06
         0.48579E+06
        -0.24985E+06
        -0.14342E+07
        -0.19369E+07
        -0.11053E+07
         0.83563E+05
         0.12914E+07
         0.51028E+06
         0.75245E+06
         0.90923E+06
         0.56478E+06
         0.11170E+07
        -0.76345E+06
        -0.13969E+07
         0.17047E+07
        -0.17109E+07
        -0.16758E+07
        -0.18207E+06
        -0.11580E+06
        -0.45040E+07
        -0.14434E+07
        -0.44113E+06
         0.14081E+06
         0.77596E+06
        -0.29699E+06
        -0.50233E+06
        -0.15727E+07
        -0.71139E+06
        -0.24942E+07
        -0.13061E+07
        -0.20556E+07
        -0.65801E+06
        -0.58626E+07
        -0.32732E+07
        -0.23974E+07
        -0.20091E+07
        -0.42135E+06
        -0.93029E+06
         0.74830E+06
         0.15293E+07
        -0.11650E+07
        -0.84113E+06
        -0.38123E+06
        -0.19502E+07
        -0.13955E+07
        -0.94587E+06
        -0.10524E+07
        -0.19331E+07
        -0.17446E+07
        -0.21709E+07
        -0.15783E+07
        -0.84213E+06
        -0.47433E+06
        -0.50361E+06
         0.53086E+06
         0.11380E+07
         0.50512E+06
         0.82806E+06
        -0.35487E+07
        -0.50955E+06
        -0.20934E+07
         0.47762E+06
         0.26995E+07
         0.42403E+07
         0.34228E+07
         0.36903E+07
         0.28592E+07
         0.14571E+07
         0.30815E+06
        -0.67779E+06
        -0.15053E+07
        -0.15452E+06
        -0.22423E+07
        -0.38726E+07
        -0.34115E+07
        -0.29069E+07
        -0.16558E+07
         0.48042E+06
         0.46229E+06
        -0.27633E+06
        -0.14624E+07
        -0.19547E+07
        -0.11220E+07
         0.55762E+05
         0.12740E+07
         0.49135E+06
         0.73425E+06
         0.89759E+06
         0.54670E+06
         0.11003E+07
        -0.78003E+06
        -0.14112E+07
         0.16881E+07
        -0.17435E+07
        -0.16906E+07
        -0.20406E+06
        -0.13410E+06
        -0.45159E+07
        -0.14641E+07
        -0.45769E+06
         0.12177E+06
         0.76872E+06
        -0.30999E+06
        -0.50720E+06
        -0.15858E+07
        -0.72878E+06
        -0.25068E+07
        -0.13177E+07
        -0.20848E+07
        -0.67016E+06
        -0.58966E+07
        -0.32866E+07
        -0.23708E+07
        -0.19870E+07
        -0.43668E+06
        -0.94538E+06
         0.74202E+06
         0.15229E+07
        -0.11859E+07
        -0.85759E+06
        -0.39760E+06
        -0.19911E+07
        -0.14148E+07
        -0.91681E+06
        -0.10537E+07
        -0.19511E+07
        -0.17698E+07
        -0.21855E+07
        -0.15956E+07
        -0.86346E+06
        -0.49383E+06
        -0.51902E+06
         0.51925E+06
         0.11273E+07
         0.49317E+06
         0.81503E+06
        -0.35762E+07
        -0.53491E+06
        -0.21150E+07
         0.45863E+06
         0.26731E+07
         0.41972E+07
         0.33735E+07
         0.36433E+07
         0.28183E+07
         0.14476E+07
         0.23357E+06
        -0.79505E+06
        -0.15540E+07
        -0.18153E+06
        -0.22666E+07
        -0.38943E+07
        -0.34381E+07
        -0.29374E+07
        -0.16912E+07
         0.44025E+06
         0.43533E+06
        -0.30163E+06
        -0.14911E+07
        -0.19760E+07
        -0.11550E+07
         0.18748E+05
         0.12974E+07
         0.51496E+06
         0.75753E+06
         0.91734E+06
         0.57703E+06
         0.11229E+07
        -0.75911E+06
        -0.13811E+07
         0.17009E+07
        -0.17485E+07
        -0.16636E+07
        -0.17559E+06
        -0.10974E+06
        -0.44825E+07
        -0.14293E+07
        -0.43549E+06
         0.13536E+06
         0.78496E+06
        -0.28227E+06
        -0.47093E+06
        -0.15588E+07
        -0.70234E+06
        -0.24823E+07
        -0.12941E+07
        -0.20791E+07
        -0.64973E+06
        -0.59021E+07
        -0.32666E+07
        -0.22732E+07
        -0.18905E+07
        -0.41699E+06
        -0.92348E+06
         0.76220E+06
         0.15428E+07
        -0.11523E+07
        -0.82811E+06
        -0.37172E+06
        -0.19894E+07
        -0.13813E+07
        -0.80567E+06
        -0.99436E+06
        -0.19201E+07
        -0.17538E+07
        -0.21584E+07
        -0.15648E+07
        -0.82786E+06
        -0.46457E+06
        -0.49538E+06
         0.54352E+06
         0.11543E+07
         0.52174E+06
         0.83755E+06
        -0.35091E+07
        -0.46889E+06
        -0.20475E+07
         0.50579E+06
         0.27033E+07
         0.42319E+07
         0.34216E+07
         0.36919E+07
         0.28719E+07
         0.15521E+07
         0.20939E+06
        -0.88942E+06
        -0.15504E+07
        -0.14450E+06
        -0.22356E+07
        -0.38684E+07
        -0.34058E+07
        -0.28836E+07
        -0.16252E+07
         0.50194E+06
         0.48874E+06
        -0.24662E+06
        -0.14290E+07
        -0.19185E+07
        -0.11084E+07
         0.67492E+05
         0.12093E+07
         0.42781E+06
         0.67364E+06
         0.84333E+06
         0.47216E+06
         0.10271E+07
        -0.84638E+06
        -0.14830E+07
         0.16091E+07
        -0.18757E+07
        -0.17656E+07
        -0.31143E+06
        -0.23603E+06
        -0.45939E+07
        -0.15673E+07
        -0.52241E+06
         0.45054E+05
         0.72188E+06
        -0.37512E+06
        -0.54369E+06
        -0.16764E+07
        -0.81777E+06
        -0.25963E+07
        -0.13780E+07
        -0.21962E+07
        -0.71990E+06
        -0.60369E+07
        -0.33521E+07
        -0.23212E+07
        -0.19563E+07
        -0.50221E+06
        -0.10038E+07
         0.68582E+06
         0.14625E+07
        -0.12772E+07
        -0.93443E+06
        -0.48512E+06
        -0.21487E+07
        -0.15063E+07
        -0.87929E+06
        -0.11106E+07
        -0.20457E+07
        -0.18795E+07
        -0.22685E+07
        -0.16793E+07
        -0.96103E+06
        -0.57733E+06
        -0.59664E+06
         0.44679E+06
         0.10476E+07
         0.39484E+06
         0.72898E+06
        -0.37429E+07
        -0.69570E+06
        -0.22834E+07
         0.26553E+06
         0.24639E+07
         0.40013E+07
         0.31870E+07
         0.34401E+07
         0.26358E+07
         0.13370E+07
        -0.90195E+05
        -0.12154E+07
        -0.17814E+07
        -0.33618E+06
        -0.24366E+07
        -0.40772E+07
        -0.36214E+07
        -0.31247E+07
        -0.18729E+07
         0.26438E+06
         0.26844E+06
        -0.45762E+06
        -0.16448E+07
        -0.21404E+07
        -0.13216E+07
        -0.14424E+06
         0.12595E+07
         0.43374E+06
         0.68930E+06
         0.87304E+06
         0.50819E+06
         0.10592E+07
        -0.83676E+06
        -0.14192E+07
         0.16698E+07
        -0.17835E+07
        -0.17372E+07
        -0.30896E+06
        -0.26845E+06
        -0.45181E+07
        -0.15045E+07
        -0.45598E+06
         0.10395E+06
         0.75893E+06
        -0.32492E+06
        -0.49955E+06
        -0.16227E+07
        -0.77804E+06
        -0.25144E+07
        -0.13154E+07
        -0.20956E+07
        -0.66903E+06
        -0.59216E+07
        -0.32497E+07
        -0.22404E+07
        -0.18588E+07
        -0.45122E+06
        -0.96859E+06
         0.71056E+06
         0.14514E+07
        -0.12586E+07
        -0.94215E+06
        -0.51714E+06
        -0.20756E+07
        -0.14182E+07
        -0.80243E+06
        -0.10581E+07
        -0.19750E+07
        -0.18044E+07
        -0.21930E+07
        -0.16371E+07
        -0.94052E+06
        -0.56013E+06
        -0.55368E+06
         0.47946E+06
         0.10495E+07
         0.40317E+06
         0.73128E+06
        -0.36529E+07
        -0.57867E+06
        -0.22537E+07
         0.21368E+06
         0.23564E+07
         0.39357E+07
         0.32943E+07
         0.35503E+07
         0.27237E+07
         0.13892E+07
        -0.75605E+05
        -0.11708E+07
        -0.16941E+07
        -0.29294E+06
        -0.23455E+07
        -0.39469E+07
        -0.35102E+07
        -0.30397E+07
        -0.18360E+07
         0.26010E+06
         0.31748E+06
        -0.38752E+06
        -0.15334E+07
        -0.20052E+07
        -0.12152E+07
        -0.34127E+05
         0.34675E+09
         0.34525E+09
         0.34112E+09
         0.29834E+09
         0.41532E+09
         0.37698E+09
         0.35228E+09
         0.39360E+09
         0.32806E+09
         0.39374E+09
         0.40589E+09
         0.52053E+09
         0.46126E+09
         0.43331E+09
         0.53586E+09
         0.32308E+09
         0.32655E+09
         0.26460E+09
         0.34935E+09
         0.34358E+09
         0.42323E+09
         0.42603E+09
         0.40328E+09
         0.32149E+09
         0.38158E+09
         0.28693E+09
         0.42725E+09
         0.36723E+09
         0.38586E+09
         0.39660E+09
         0.32166E+09
         0.31496E+09
         0.29914E+09
         0.31064E+09
         0.46817E+09
         0.40508E+09
         0.41382E+09
         0.50400E+09
         0.47991E+09
         0.47070E+09
         0.49265E+09
         0.46240E+09
         0.43826E+09
         0.38824E+09
         0.40284E+09
         0.47315E+09
         0.41757E+09
         0.38374E+09
         0.36840E+09
         0.38918E+09
         0.44629E+09
         0.39578E+09
         0.85530E+09
         0.83788E+09
         0.85331E+09
         0.82645E+09
         0.85296E+09
         0.89512E+09
         0.89900E+09
         0.88928E+09
         0.89623E+09
         0.92078E+09
         0.89219E+09
         0.84053E+09
         0.74549E+09
         0.70375E+09
         0.71391E+09
         0.73047E+09
         0.74021E+09
         0.80683E+09
         0.86492E+09
         0.86904E+09
         0.79698E+09
         0.76864E+09
         0.79586E+09
         0.78701E+09
         0.78128E+09
         0.78293E+09
         0.39814E+10
         0.41726E+10
         0.41124E+10
         0.37524E+10
         0.46195E+10
         0.43391E+10
         0.45155E+10
         0.45491E+10
         0.38947E+10
         0.45467E+10
         0.49598E+10
         0.55558E+10
         0.50354E+10
         0.51038E+10
         0.57506E+10
         0.38158E+10
         0.41028E+10
         0.35803E+10
         0.42373E+10
         0.44591E+10
         0.46094E+10
         0.47110E+10
         0.44244E+10
         0.40752E+10
         0.46011E+10
         0.39324E+10
         0.50852E+10
         0.49999E+10
         0.50224E+10
         0.47643E+10
         0.38573E+10
         0.40575E+10
         0.37824E+10
         0.39558E+10
         0.50584E+10
         0.46416E+10
         0.46561E+10
         0.55687E+10
         0.54267E+10
         0.53618E+10
         0.54547E+10
         0.51790E+10
         0.48963E+10
         0.43199E+10
         0.44995E+10
         0.50561E+10
         0.46760E+10
         0.43964E+10
         0.43096E+10
         0.44683E+10
         0.48507E+10
         0.44812E+10
         0.80353E+10
         0.78253E+10
         0.79901E+10
         0.77364E+10
         0.79689E+10
         0.83829E+10
         0.85212E+10
         0.85052E+10
         0.85669E+10
         0.87645E+10
         0.85069E+10
         0.79899E+10
         0.71552E+10
         0.67585E+10
         0.67752E+10
         0.68617E+10
         0.69285E+10
         0.75203E+10
         0.80686E+10
         0.81012E+10
         0.74913E+10
         0.72574E+10
         0.74994E+10
         0.74455E+10
         0.73589E+10
         0.73382E+10
  
SCALARS                      stress_yy  double 1
LOOKUP_TABLE default
         0.15216E+13
         0.15024E+13
         0.15146E+13
         0.15364E+13
        -0.20171E+03
        -0.22618E+03
        -0.21658E+03
        -0.19675E+03
         0.15018E+13
         0.15083E+13
        -0.20339E+03
        -0.19683E+03
         0.14747E+13
         0.14736E+13
        -0.24167E+03
        -0.22724E+03
         0.15332E+13
         0.14751E+13
        -0.17857E+03
        -0.19806E+03
         0.14538E+13
         0.14372E+13
         0.14636E+13
        -0.23953E+03
        -0.20918E+03
        -0.21601E+03
         0.14378E+13
         0.14136E+13
        -0.22979E+03
        -0.19379E+03
         0.15321E+13
         0.15069E+13
         0.15566E+13
        -0.19610E+03
        -0.18230E+03
        -0.17724E+03
         0.15175E+13
         0.14854E+13
        -0.20746E+03
        -0.18931E+03
         0.15048E+13
         0.14800E+13
        -0.17930E+03
        -0.15874E+03
         0.15258E+13
         0.15351E+13
        -0.19649E+03
        -0.21955E+03
         0.14600E+13
        -0.19196E+03
         0.15333E+13
        -0.22556E+03
         0.14308E+13
        -0.20271E+03
         0.14232E+13
        -0.19444E+03
         0.14233E+13
         0.14504E+13
        -0.19811E+03
        -0.19294E+03
         0.15316E+13
         0.15219E+13
        -0.19866E+03
        -0.22458E+03
         0.15377E+13
        -0.19169E+03
         0.15262E+13
        -0.20921E+03
         0.14958E+13
         0.14928E+13
        -0.20138E+03
        -0.21101E+03
         0.14859E+13
        -0.21278E+03
         0.14049E+13
        -0.16811E+03
         0.14007E+13
        -0.16318E+03
         0.14028E+13
        -0.17206E+03
         0.14145E+13
         0.14267E+13
        -0.16393E+03
        -0.17091E+03
         0.14513E+13
        -0.15918E+03
         0.15253E+13
        -0.20874E+03
         0.15138E+13
        -0.21364E+03
         0.15043E+13
         0.14991E+13
        -0.20517E+03
        -0.20756E+03
         0.15055E+13
        -0.18852E+03
         0.15101E+13
        -0.18583E+03
         0.15060E+13
        -0.19894E+03
         0.15045E+13
         0.15087E+13
        -0.19509E+03
        -0.20081E+03
         0.14816E+13
         0.14926E+13
        -0.15147E+03
        -0.14246E+03
         0.14796E+13
        -0.14463E+03
         0.14922E+13
        -0.13868E+03
         0.14797E+13
        -0.13675E+03
         0.14521E+13
        -0.12923E+03
         0.14252E+13
        -0.11480E+03
         0.14091E+13
        -0.10337E+03
         0.14074E+13
        -0.10266E+03
         0.14079E+13
        -0.11132E+03
         0.14254E+13
        -0.11700E+03
         0.14580E+13
        -0.10683E+03
         0.14938E+13
        -0.96298E+02
         0.15147E+13
        -0.96188E+02
         0.15353E+13
        -0.10751E+03
         0.15490E+13
        -0.12259E+03
         0.15485E+13
        -0.13170E+03
         0.15153E+13
        -0.14224E+03
         0.14922E+13
        -0.15238E+03
         0.14843E+13
        -0.13959E+03
         0.14967E+13
        -0.12246E+03
         0.15031E+13
        -0.12208E+03
         0.14923E+13
        -0.13357E+03
         0.14925E+13
        -0.14240E+03
         0.15007E+13
        -0.13514E+03
         0.15113E+13
        -0.13064E+03
        -0.25442E+11
        -0.24526E+11
        -0.24652E+11
        -0.25821E+11
        -0.23598E+11
        -0.24758E+11
        -0.23310E+11
        -0.24079E+11
        -0.25642E+11
        -0.24685E+11
        -0.22456E+11
        -0.22190E+11
        -0.22894E+11
        -0.22942E+11
        -0.22490E+11
        -0.25767E+11
        -0.25555E+11
        -0.26143E+11
        -0.24424E+11
        -0.24750E+11
        -0.24283E+11
        -0.24593E+11
        -0.24015E+11
        -0.24167E+11
        -0.24723E+11
        -0.24684E+11
        -0.23722E+11
        -0.23812E+11
        -0.23072E+11
        -0.24181E+11
        -0.25663E+11
        -0.24513E+11
        -0.25655E+11
        -0.24909E+11
        -0.22004E+11
        -0.22976E+11
        -0.23425E+11
        -0.22897E+11
        -0.22827E+11
        -0.21933E+11
        -0.21264E+11
        -0.22867E+11
        -0.24302E+11
        -0.24113E+11
        -0.23382E+11
        -0.22040E+11
        -0.23189E+11
        -0.24361E+11
        -0.24282E+11
        -0.23377E+11
        -0.22415E+11
        -0.23704E+11
        -0.19574E+11
        -0.20853E+11
        -0.20645E+11
        -0.20938E+11
        -0.20864E+11
        -0.20180E+11
        -0.19463E+11
        -0.19226E+11
        -0.19328E+11
        -0.19255E+11
        -0.18944E+11
        -0.20799E+11
        -0.21466E+11
        -0.21719E+11
        -0.22145E+11
        -0.22464E+11
        -0.22449E+11
        -0.21904E+11
        -0.20007E+11
        -0.20470E+11
        -0.21127E+11
        -0.21120E+11
        -0.21007E+11
        -0.20375E+11
        -0.21301E+11
        -0.21637E+11
         0.73652E+06
        -0.15637E+06
         0.12211E+06
         0.15189E+07
         0.69980E+06
         0.17550E+07
        -0.77249E+06
        -0.18447E+07
         0.12630E+07
        -0.19519E+07
        -0.22653E+07
        -0.11941E+07
        -0.18579E+06
        -0.35398E+07
        -0.22443E+07
         0.31966E+06
         0.95421E+06
         0.10737E+07
        -0.67413E+06
         0.12580E+06
        -0.30479E+06
         0.58903E+06
        -0.86700E+06
        -0.38959E+06
        -0.21869E+07
        -0.27112E+06
        -0.47595E+07
        -0.30230E+07
        -0.16333E+07
        -0.18954E+07
         0.13387E+06
        -0.88681E+05
         0.10896E+07
         0.17805E+07
         0.83952E+05
        -0.40387E+05
         0.10665E+06
        -0.22887E+07
        -0.22438E+07
        -0.15390E+07
        -0.15927E+06
        -0.37161E+06
        -0.24243E+06
        -0.94566E+06
        -0.10163E+07
        -0.14584E+07
        -0.60969E+06
        -0.28043E+05
        -0.52378E+05
         0.43344E+06
         0.93658E+06
         0.19547E+07
        -0.19899E+07
         0.91837E+06
        -0.13296E+07
         0.65177E+06
         0.21238E+07
         0.30951E+07
         0.21956E+07
         0.26733E+07
         0.19595E+07
         0.90390E+06
         0.12047E+07
         0.11725E+07
         0.28530E+06
         0.14747E+07
        -0.54504E+06
        -0.21084E+07
        -0.21827E+07
        -0.23920E+07
        -0.24260E+07
        -0.66601E+06
        -0.48306E+06
        -0.11555E+07
        -0.20502E+07
        -0.14734E+07
         0.24715E+06
         0.14420E+07
         0.64247E+06
        -0.24886E+06
         0.31405E+05
         0.14425E+07
         0.58677E+06
         0.16531E+07
        -0.86091E+06
        -0.19546E+07
         0.11675E+07
        -0.20719E+07
        -0.23744E+07
        -0.13400E+07
        -0.31193E+06
        -0.36547E+07
        -0.23903E+07
         0.22079E+06
         0.85721E+06
         0.10088E+07
        -0.77933E+06
         0.32973E+05
        -0.43065E+06
         0.46680E+06
        -0.99586E+06
        -0.48984E+06
        -0.23126E+07
        -0.35443E+06
        -0.48708E+07
        -0.31142E+07
        -0.17338E+07
        -0.20248E+07
         0.40264E+05
        -0.17666E+06
         0.10084E+07
         0.17053E+07
        -0.43907E+05
        -0.14886E+06
        -0.43691E+04
        -0.24353E+07
        -0.23801E+07
        -0.16724E+07
        -0.30354E+06
        -0.51219E+06
        -0.37647E+06
        -0.10696E+07
        -0.11331E+07
        -0.15877E+07
        -0.72658E+06
        -0.13647E+06
        -0.14979E+06
         0.33403E+06
         0.81835E+06
         0.18486E+07
        -0.22242E+07
         0.68972E+06
        -0.15548E+07
         0.43631E+06
         0.18958E+07
         0.28415E+07
         0.19423E+07
         0.24171E+07
         0.17002E+07
         0.63900E+06
         0.94114E+06
         0.92873E+06
         0.81669E+05
         0.12844E+07
        -0.74428E+06
        -0.23212E+07
        -0.24003E+07
        -0.26191E+07
        -0.26542E+07
        -0.90704E+06
        -0.71076E+06
        -0.13612E+07
        -0.22563E+07
        -0.16840E+07
         0.34308E+05
         0.12253E+07
         0.66475E+06
        -0.23066E+06
         0.50673E+05
         0.14625E+07
         0.61577E+06
         0.16799E+07
        -0.84275E+06
        -0.19318E+07
         0.11831E+07
        -0.20697E+07
        -0.23533E+07
        -0.13119E+07
        -0.28777E+06
        -0.36252E+07
        -0.23556E+07
         0.20109E+06
         0.85189E+06
         0.10266E+07
        -0.80554E+06
         0.15750E+05
        -0.45180E+06
         0.45881E+06
        -0.10804E+07
        -0.56211E+06
        -0.23682E+07
        -0.41255E+06
        -0.48491E+07
        -0.31265E+07
        -0.17752E+07
        -0.21156E+07
         0.40811E+05
        -0.19637E+06
         0.10273E+07
         0.17300E+07
        -0.10482E+05
        -0.12180E+06
         0.20144E+05
        -0.24107E+07
        -0.23590E+07
        -0.16650E+07
        -0.30733E+06
        -0.56324E+06
        -0.44873E+06
        -0.11527E+07
        -0.11533E+07
        -0.15701E+07
        -0.70553E+06
        -0.11140E+06
        -0.12279E+06
         0.36505E+06
         0.85185E+06
         0.18786E+07
        -0.21543E+07
         0.75226E+06
        -0.14856E+07
         0.48969E+06
         0.19353E+07
         0.28810E+07
         0.19928E+07
         0.24678E+07
         0.17513E+07
         0.69201E+06
         0.97239E+06
         0.92751E+06
         0.84970E+05
         0.13194E+07
        -0.72104E+06
        -0.23644E+07
        -0.24473E+07
        -0.26071E+07
        -0.25917E+07
        -0.83449E+06
        -0.64600E+06
        -0.12957E+07
        -0.21829E+07
        -0.16219E+07
         0.84876E+05
         0.12742E+07
         0.65153E+06
        -0.23847E+06
         0.43073E+05
         0.14501E+07
         0.60468E+06
         0.16707E+07
        -0.85039E+06
        -0.19476E+07
         0.11553E+07
        -0.21227E+07
        -0.23654E+07
        -0.13269E+07
        -0.29776E+06
        -0.36380E+07
        -0.23745E+07
         0.12248E+06
         0.79454E+06
         0.10151E+07
        -0.89758E+06
        -0.62053E+05
        -0.54741E+06
         0.37435E+06
        -0.12771E+07
        -0.72382E+06
        -0.25169E+07
        -0.54557E+06
        -0.48795E+07
        -0.32005E+07
        -0.18985E+07
        -0.23315E+07
        -0.43757E+04
        -0.27542E+06
         0.10128E+07
         0.17178E+07
        -0.26913E+05
        -0.13291E+06
         0.11219E+05
        -0.24382E+07
        -0.23930E+07
        -0.17257E+07
        -0.38919E+06
        -0.72241E+06
        -0.64437E+06
        -0.13483E+07
        -0.12501E+07
        -0.16223E+07
        -0.74324E+06
        -0.13114E+06
        -0.13912E+06
         0.34652E+06
         0.83400E+06
         0.18670E+07
        -0.21870E+07
         0.72966E+06
        -0.15214E+07
         0.45861E+06
         0.19143E+07
         0.28570E+07
         0.19525E+07
         0.24242E+07
         0.17089E+07
         0.64071E+06
         0.89120E+06
         0.79631E+06
        -0.38456E+05
         0.12608E+07
        -0.78678E+06
        -0.25454E+07
        -0.26393E+07
        -0.26969E+07
        -0.26344E+07
        -0.87508E+06
        -0.67708E+06
        -0.13324E+07
        -0.22212E+07
        -0.16477E+07
         0.65411E+05
         0.12549E+07
         0.62733E+06
        -0.25435E+06
         0.29861E+05
         0.14372E+07
         0.59198E+06
         0.16582E+07
        -0.86224E+06
        -0.19726E+07
         0.11220E+07
        -0.21778E+07
        -0.23782E+07
        -0.13362E+07
        -0.30891E+06
        -0.36521E+07
        -0.23840E+07
         0.69387E+05
         0.74902E+06
         0.10046E+07
        -0.95834E+06
        -0.11780E+06
        -0.60913E+06
         0.31367E+06
        -0.13980E+07
        -0.82382E+06
        -0.26247E+07
        -0.63020E+06
        -0.49060E+07
        -0.32540E+07
        -0.19838E+07
        -0.24753E+07
        -0.51525E+05
        -0.33256E+06
         0.98676E+06
         0.17007E+07
        -0.43890E+05
        -0.14707E+06
        -0.21687E+04
        -0.24589E+07
        -0.24214E+07
        -0.17717E+07
        -0.44704E+06
        -0.82939E+06
        -0.77272E+06
        -0.14729E+07
        -0.13142E+07
        -0.16568E+07
        -0.77672E+06
        -0.16311E+06
        -0.16775E+06
         0.31896E+06
         0.80616E+06
         0.18482E+07
        -0.22163E+07
         0.70993E+06
        -0.15519E+07
         0.43442E+06
         0.19044E+07
         0.28500E+07
         0.19354E+07
         0.23954E+07
         0.16729E+07
         0.60895E+06
         0.84176E+06
         0.70550E+06
        -0.12260E+06
         0.12155E+07
        -0.83321E+06
        -0.26628E+07
        -0.27742E+07
        -0.27612E+07
        -0.26539E+07
        -0.91195E+06
        -0.71822E+06
        -0.13745E+07
        -0.22706E+07
        -0.16897E+07
         0.39578E+05
         0.12356E+07
         0.56845E+06
        -0.28482E+06
         0.16786E+05
         0.14473E+07
         0.60675E+06
         0.16767E+07
        -0.87042E+06
        -0.20152E+07
         0.10755E+07
        -0.22512E+07
        -0.23698E+07
        -0.13034E+07
        -0.29620E+06
        -0.36463E+07
        -0.23440E+07
         0.79304E+05
         0.73810E+06
         0.10228E+07
        -0.94648E+06
        -0.10891E+06
        -0.59180E+06
         0.33492E+06
        -0.13954E+07
        -0.82545E+06
        -0.26721E+07
        -0.64100E+06
        -0.49123E+07
        -0.32605E+07
        -0.19799E+07
        -0.24814E+07
        -0.10796E+06
        -0.36232E+06
         0.94465E+06
         0.16965E+07
        -0.29142E+05
        -0.14584E+06
        -0.47033E+04
        -0.24339E+07
        -0.24000E+07
        -0.17472E+07
        -0.41926E+06
        -0.81238E+06
        -0.75913E+06
        -0.14814E+07
        -0.13229E+07
        -0.16627E+07
        -0.80577E+06
        -0.22807E+06
        -0.23838E+06
         0.28137E+06
         0.79700E+06
         0.18571E+07
        -0.21588E+07
         0.76915E+06
        -0.15038E+07
         0.46677E+06
         0.19383E+07
         0.28963E+07
         0.19878E+07
         0.24458E+07
         0.17304E+07
         0.68513E+06
         0.90836E+06
         0.74558E+06
        -0.78175E+05
         0.12617E+07
        -0.78848E+06
        -0.26272E+07
        -0.27487E+07
        -0.27357E+07
        -0.26231E+07
        -0.89053E+06
        -0.72302E+06
        -0.14038E+07
        -0.22901E+07
        -0.16797E+07
         0.68598E+05
         0.12772E+07
         0.47868E+06
        -0.33869E+06
        -0.14536E+05
         0.14393E+07
         0.59418E+06
         0.16751E+07
        -0.90610E+06
        -0.20967E+07
         0.99702E+06
        -0.23582E+07
        -0.23968E+07
        -0.13158E+07
        -0.31656E+06
        -0.36824E+07
        -0.23538E+07
         0.63493E+05
         0.70050E+06
         0.10198E+07
        -0.95752E+06
        -0.12127E+06
        -0.60083E+06
         0.32889E+06
        -0.14050E+07
        -0.83727E+06
        -0.27383E+07
        -0.66143E+06
        -0.49574E+07
        -0.32883E+07
        -0.19898E+07
        -0.24994E+07
        -0.18715E+06
        -0.41149E+06
         0.88164E+06
         0.16735E+07
        -0.49042E+05
        -0.16870E+06
        -0.30929E+05
        -0.24556E+07
        -0.24207E+07
        -0.17581E+07
        -0.42451E+06
        -0.81460E+06
        -0.76049E+06
        -0.15009E+07
        -0.13586E+07
        -0.17115E+07
        -0.87257E+06
        -0.32613E+06
        -0.33930E+06
         0.21548E+06
         0.75988E+06
         0.18443E+07
        -0.21828E+07
         0.75041E+06
        -0.15184E+07
         0.45044E+06
         0.19146E+07
         0.28681E+07
         0.19645E+07
         0.24259E+07
         0.17101E+07
         0.67003E+06
         0.89632E+06
         0.73085E+06
        -0.80759E+05
         0.12580E+07
        -0.79829E+06
        -0.26329E+07
        -0.27605E+07
        -0.27764E+07
        -0.26836E+07
        -0.95704E+06
        -0.79799E+06
        -0.14963E+07
        -0.23714E+07
        -0.17224E+07
         0.45714E+05
         0.12594E+07
         0.45259E+06
        -0.35859E+06
        -0.27463E+05
         0.14286E+07
         0.58072E+06
         0.16629E+07
        -0.92407E+06
        -0.21258E+07
         0.97371E+06
        -0.23921E+07
        -0.24164E+07
        -0.13332E+07
        -0.33660E+06
        -0.37018E+07
        -0.23697E+07
         0.49268E+05
         0.68495E+06
         0.10116E+07
        -0.96770E+06
        -0.13076E+06
        -0.61477E+06
         0.31485E+06
        -0.14177E+07
        -0.84622E+06
        -0.27635E+07
        -0.67253E+06
        -0.49767E+07
        -0.33033E+07
        -0.20065E+07
        -0.25166E+07
        -0.21266E+06
        -0.43046E+06
         0.85974E+06
         0.16606E+07
        -0.65850E+05
        -0.18121E+06
        -0.46978E+05
        -0.24828E+07
        -0.24446E+07
        -0.17814E+07
        -0.44901E+06
        -0.83361E+06
        -0.77284E+06
        -0.15185E+07
        -0.13802E+07
        -0.17344E+07
        -0.89495E+06
        -0.35039E+06
        -0.36420E+06
         0.19286E+06
         0.73693E+06
         0.18283E+07
        -0.22156E+07
         0.71797E+06
        -0.15406E+07
         0.42788E+06
         0.18872E+07
         0.28443E+07
         0.19400E+07
         0.23920E+07
         0.16650E+07
         0.62269E+06
         0.85345E+06
         0.71134E+06
        -0.96179E+05
         0.12250E+07
        -0.83282E+06
        -0.26659E+07
        -0.28036E+07
        -0.28176E+07
        -0.27181E+07
        -0.98483E+06
        -0.82092E+06
        -0.15272E+07
        -0.24123E+07
        -0.17602E+07
         0.13980E+05
         0.12280E+07
         0.46937E+06
        -0.34491E+06
        -0.17706E+05
         0.14315E+07
         0.59434E+06
         0.16660E+07
        -0.91149E+06
        -0.21070E+07
         0.98829E+06
        -0.23748E+07
        -0.24045E+07
        -0.13154E+07
        -0.32360E+06
        -0.36799E+07
        -0.23427E+07
         0.68147E+05
         0.69876E+06
         0.10201E+07
        -0.95002E+06
        -0.11674E+06
        -0.59707E+06
         0.33185E+06
        -0.13993E+07
        -0.82932E+06
        -0.27498E+07
        -0.65772E+06
        -0.49494E+07
        -0.32869E+07
        -0.19948E+07
        -0.25021E+07
        -0.19695E+06
        -0.41834E+06
         0.86712E+06
         0.16649E+07
        -0.46698E+05
        -0.16738E+06
        -0.34710E+05
        -0.24644E+07
        -0.24303E+07
        -0.17680E+07
        -0.43278E+06
        -0.81550E+06
        -0.75455E+06
        -0.15026E+07
        -0.13671E+07
        -0.17201E+07
        -0.88106E+06
        -0.33329E+06
        -0.34753E+06
         0.20612E+06
         0.74670E+06
         0.18322E+07
        -0.21665E+07
         0.76610E+06
        -0.15120E+07
         0.43969E+06
         0.19110E+07
         0.28818E+07
         0.19818E+07
         0.24220E+07
         0.16763E+07
         0.64025E+06
         0.88507E+06
         0.75613E+06
        -0.56908E+05
         0.12504E+07
        -0.80881E+06
        -0.26383E+07
        -0.27759E+07
        -0.27830E+07
        -0.26852E+07
        -0.94604E+06
        -0.78107E+06
        -0.14916E+07
        -0.23827E+07
        -0.17334E+07
         0.40776E+05
         0.12571E+07
         0.46522E+06
        -0.34594E+06
        -0.20371E+05
         0.14242E+07
         0.59117E+06
         0.16592E+07
        -0.91354E+06
        -0.21157E+07
         0.97655E+06
        -0.23894E+07
        -0.24134E+07
        -0.13259E+07
        -0.32661E+06
        -0.36891E+07
        -0.23593E+07
         0.59417E+05
         0.68849E+06
         0.10114E+07
        -0.95850E+06
        -0.12396E+06
        -0.60450E+06
         0.32287E+06
        -0.14059E+07
        -0.83509E+06
        -0.27590E+07
        -0.66160E+06
        -0.49557E+07
        -0.32891E+07
        -0.20001E+07
        -0.25106E+07
        -0.20455E+06
        -0.42360E+06
         0.85415E+06
         0.16553E+07
        -0.52824E+05
        -0.17315E+06
        -0.38531E+05
        -0.24880E+07
        -0.24440E+07
        -0.17798E+07
        -0.44485E+06
        -0.82276E+06
        -0.76511E+06
        -0.15080E+07
        -0.13726E+07
        -0.17276E+07
        -0.89170E+06
        -0.34432E+06
        -0.35721E+06
         0.19749E+06
         0.73771E+06
         0.18230E+07
        -0.21806E+07
         0.75479E+06
        -0.15352E+07
         0.42013E+06
         0.19082E+07
         0.28681E+07
         0.19499E+07
         0.23864E+07
         0.16553E+07
         0.60875E+06
         0.85070E+06
         0.73890E+06
        -0.77177E+05
         0.12392E+07
        -0.81923E+06
        -0.26482E+07
        -0.27778E+07
        -0.27901E+07
        -0.26951E+07
        -0.97223E+06
        -0.81370E+06
        -0.15167E+07
        -0.23955E+07
        -0.17394E+07
         0.26661E+05
         0.12371E+07
         0.45332E+06
        -0.35603E+06
        -0.27817E+05
         0.14199E+07
         0.58159E+06
         0.16547E+07
        -0.92086E+06
        -0.21280E+07
         0.96586E+06
        -0.24039E+07
        -0.24234E+07
        -0.13399E+07
        -0.33568E+06
        -0.36960E+07
        -0.23764E+07
         0.47179E+05
         0.68023E+06
         0.10064E+07
        -0.96880E+06
        -0.12923E+06
        -0.61394E+06
         0.31375E+06
        -0.14158E+07
        -0.84430E+06
        -0.27680E+07
        -0.67002E+06
        -0.49603E+07
        -0.32933E+07
        -0.20060E+07
        -0.25171E+07
        -0.21571E+06
        -0.43275E+06
         0.84577E+06
         0.16535E+07
        -0.67646E+05
        -0.18301E+06
        -0.47216E+05
        -0.25109E+07
        -0.24593E+07
        -0.17901E+07
        -0.45189E+06
        -0.82892E+06
        -0.77476E+06
        -0.15177E+07
        -0.13819E+07
        -0.17375E+07
        -0.90167E+06
        -0.35383E+06
        -0.36647E+06
         0.18997E+06
         0.72917E+06
         0.18189E+07
        -0.22090E+07
         0.73103E+06
        -0.15530E+07
         0.41418E+06
         0.19004E+07
         0.28403E+07
         0.19098E+07
         0.23543E+07
         0.16335E+07
         0.58608E+06
         0.83665E+06
         0.72188E+06
        -0.10152E+06
         0.12226E+07
        -0.83660E+06
        -0.26685E+07
        -0.27916E+07
        -0.28060E+07
        -0.27147E+07
        -0.99382E+06
        -0.83850E+06
        -0.15424E+07
        -0.24141E+07
        -0.17566E+07
         0.50377E+04
         0.12144E+07
         0.46134E+06
        -0.35165E+06
        -0.24291E+05
         0.14253E+07
         0.59064E+06
         0.16630E+07
        -0.91267E+06
        -0.21153E+07
         0.97240E+06
        -0.23980E+07
        -0.24122E+07
        -0.13276E+07
        -0.33167E+06
        -0.36758E+07
        -0.23514E+07
         0.57831E+05
         0.68540E+06
         0.10149E+07
        -0.95835E+06
        -0.11789E+06
        -0.59989E+06
         0.32894E+06
        -0.14035E+07
        -0.83378E+06
        -0.27629E+07
        -0.66020E+06
        -0.49428E+07
        -0.32830E+07
        -0.19928E+07
        -0.25011E+07
        -0.20319E+06
        -0.42424E+06
         0.85516E+06
         0.16642E+07
        -0.55812E+05
        -0.17424E+06
        -0.42142E+05
        -0.24963E+07
        -0.24450E+07
        -0.17705E+07
        -0.43374E+06
        -0.81511E+06
        -0.76006E+06
        -0.15082E+07
        -0.13742E+07
        -0.17297E+07
        -0.89338E+06
        -0.34343E+06
        -0.35542E+06
         0.20132E+06
         0.73940E+06
         0.18297E+07
        -0.21731E+07
         0.76980E+06
        -0.15166E+07
         0.43207E+06
         0.18945E+07
         0.28423E+07
         0.19388E+07
         0.23864E+07
         0.16550E+07
         0.61879E+06
         0.86772E+06
         0.73653E+06
        -0.75264E+05
         0.12492E+07
        -0.81232E+06
        -0.26500E+07
        -0.27794E+07
        -0.27903E+07
        -0.26998E+07
        -0.97046E+06
        -0.81106E+06
        -0.15160E+07
        -0.23912E+07
        -0.17368E+07
         0.34101E+05
         0.12484E+07
         0.45589E+06
        -0.35971E+06
        -0.31516E+05
         0.14171E+07
         0.58086E+06
         0.16536E+07
        -0.92192E+06
        -0.21266E+07
         0.96375E+06
        -0.24153E+07
        -0.24260E+07
        -0.13450E+07
        -0.35010E+06
        -0.36879E+07
        -0.23638E+07
         0.47981E+05
         0.67489E+06
         0.10056E+07
        -0.97087E+06
        -0.12651E+06
        -0.61661E+06
         0.31252E+06
        -0.14204E+07
        -0.84448E+06
        -0.27788E+07
        -0.66744E+06
        -0.49594E+07
        -0.32973E+07
        -0.20058E+07
        -0.25119E+07
        -0.21356E+06
        -0.43283E+06
         0.83994E+06
         0.16555E+07
        -0.69967E+05
        -0.18573E+06
        -0.56369E+05
        -0.25212E+07
        -0.24690E+07
        -0.17905E+07
        -0.45664E+06
        -0.83593E+06
        -0.77644E+06
        -0.15274E+07
        -0.13908E+07
        -0.17441E+07
        -0.90742E+06
        -0.35845E+06
        -0.36742E+06
         0.19281E+06
         0.72801E+06
         0.18192E+07
        -0.22011E+07
         0.74547E+06
        -0.15446E+07
         0.40014E+06
         0.18571E+07
         0.28069E+07
         0.19172E+07
         0.23586E+07
         0.16181E+07
         0.58238E+06
         0.82338E+06
         0.69262E+06
        -0.10437E+06
         0.12190E+07
        -0.83826E+06
        -0.26798E+07
        -0.28257E+07
        -0.28317E+07
        -0.27205E+07
        -0.99898E+06
        -0.84061E+06
        -0.15312E+07
        -0.24017E+07
        -0.17582E+07
         0.48457E+04
         0.12193E+07
         0.45506E+06
        -0.36228E+06
        -0.33770E+05
         0.14143E+07
         0.57931E+06
         0.16506E+07
        -0.92342E+06
        -0.21286E+07
         0.96397E+06
        -0.24181E+07
        -0.24290E+07
        -0.13473E+07
        -0.35299E+06
        -0.36856E+07
        -0.23638E+07
         0.46242E+05
         0.67473E+06
         0.10038E+07
        -0.97249E+06
        -0.12656E+06
        -0.62052E+06
         0.30993E+06
        -0.14242E+07
        -0.84620E+06
        -0.27826E+07
        -0.66867E+06
        -0.49560E+07
        -0.32997E+07
        -0.20103E+07
        -0.25150E+07
        -0.21881E+06
        -0.43576E+06
         0.83240E+06
         0.16537E+07
        -0.73271E+05
        -0.18953E+06
        -0.60697E+05
        -0.25335E+07
        -0.24831E+07
        -0.17986E+07
        -0.45946E+06
        -0.83766E+06
        -0.77877E+06
        -0.15311E+07
        -0.13943E+07
        -0.17477E+07
        -0.91225E+06
        -0.36425E+06
        -0.37198E+06
         0.19135E+06
         0.72589E+06
         0.18167E+07
        -0.22017E+07
         0.74591E+06
        -0.15523E+07
         0.38782E+06
         0.18563E+07
         0.28063E+07
         0.19085E+07
         0.23354E+07
         0.15915E+07
         0.56777E+06
         0.82193E+06
         0.68820E+06
        -0.11168E+06
         0.12072E+07
        -0.85179E+06
        -0.26895E+07
        -0.28323E+07
        -0.28373E+07
        -0.27264E+07
        -0.10093E+07
        -0.85373E+06
        -0.15396E+07
        -0.24027E+07
        -0.17607E+07
        -0.80678E+04
         0.12077E+07
         0.48003E+06
        -0.33636E+06
        -0.12417E+05
         0.14291E+07
         0.60678E+06
         0.16704E+07
        -0.89657E+06
        -0.21004E+07
         0.98146E+06
        -0.23977E+07
        -0.24006E+07
        -0.13089E+07
        -0.31973E+06
        -0.36518E+07
        -0.23261E+07
         0.69069E+05
         0.69382E+06
         0.10194E+07
        -0.94901E+06
        -0.10404E+06
        -0.58885E+06
         0.34006E+06
        -0.13938E+07
        -0.82384E+06
        -0.27582E+07
        -0.64830E+06
        -0.49214E+07
        -0.32715E+07
        -0.19831E+07
        -0.24846E+07
        -0.19412E+06
        -0.41330E+06
         0.84813E+06
         0.16680E+07
        -0.41601E+05
        -0.16366E+06
        -0.33599E+05
        -0.25100E+07
        -0.24540E+07
        -0.17666E+07
        -0.42891E+06
        -0.80655E+06
        -0.75132E+06
        -0.15005E+07
        -0.13637E+07
        -0.17159E+07
        -0.88481E+06
        -0.33806E+06
        -0.34984E+06
         0.21151E+06
         0.74722E+06
         0.18355E+07
        -0.21365E+07
         0.81074E+06
        -0.14978E+07
         0.42739E+06
         0.19045E+07
         0.28677E+07
         0.19599E+07
         0.23745E+07
         0.16353E+07
         0.61569E+06
         0.86515E+06
         0.73874E+06
        -0.71554E+05
         0.12518E+07
        -0.80092E+06
        -0.26367E+07
        -0.27730E+07
        -0.27732E+07
        -0.26713E+07
        -0.95156E+06
        -0.80470E+06
        -0.15031E+07
        -0.23625E+07
        -0.17124E+07
         0.44280E+05
         0.12607E+07
         0.46983E+06
        -0.34358E+06
        -0.19133E+05
         0.14191E+07
         0.59462E+06
         0.16607E+07
        -0.90482E+06
        -0.21146E+07
         0.96922E+06
        -0.24186E+07
        -0.24141E+07
        -0.13223E+07
        -0.32785E+06
        -0.36648E+07
        -0.23435E+07
         0.56339E+05
         0.68068E+06
         0.10119E+07
        -0.96541E+06
        -0.11477E+06
        -0.60018E+06
         0.32508E+06
        -0.14043E+07
        -0.83683E+06
        -0.27765E+07
        -0.65906E+06
        -0.49363E+07
        -0.32814E+07
        -0.19869E+07
        -0.24926E+07
        -0.20155E+06
        -0.42317E+06
         0.83693E+06
         0.16574E+07
        -0.59835E+05
        -0.17408E+06
        -0.40564E+05
        -0.25381E+07
        -0.24738E+07
        -0.17754E+07
        -0.44345E+06
        -0.82267E+06
        -0.77019E+06
        -0.15149E+07
        -0.13783E+07
        -0.17295E+07
        -0.89655E+06
        -0.34641E+06
        -0.35986E+06
         0.19853E+06
         0.73358E+06
         0.18247E+07
        -0.21778E+07
         0.77569E+06
        -0.15300E+07
         0.41051E+06
         0.18986E+07
         0.28519E+07
         0.19251E+07
         0.23327E+07
         0.15944E+07
         0.57943E+06
         0.82240E+06
         0.68969E+06
        -0.10620E+06
         0.12345E+07
        -0.80897E+06
        -0.26420E+07
        -0.27901E+07
        -0.28024E+07
        -0.26930E+07
        -0.97721E+06
        -0.82841E+06
        -0.15297E+07
        -0.23910E+07
        -0.17301E+07
         0.27735E+05
         0.12332E+07
         0.45266E+06
        -0.36226E+06
        -0.37420E+05
         0.14059E+07
         0.57543E+06
         0.16427E+07
        -0.91869E+06
        -0.21312E+07
         0.95178E+06
        -0.24539E+07
        -0.24304E+07
        -0.13440E+07
        -0.34585E+06
        -0.36780E+07
        -0.23654E+07
         0.40673E+05
         0.66096E+06
         0.10030E+07
        -0.97893E+06
        -0.11954E+06
        -0.61408E+06
         0.30756E+06
        -0.14170E+07
        -0.84793E+06
        -0.28071E+07
        -0.66960E+06
        -0.49704E+07
        -0.32974E+07
        -0.19547E+07
        -0.24712E+07
        -0.21539E+06
        -0.43735E+06
         0.82580E+06
         0.16502E+07
        -0.80362E+05
        -0.19116E+06
        -0.57227E+05
        -0.25793E+07
        -0.24932E+07
        -0.17458E+07
        -0.44500E+06
        -0.84015E+06
        -0.79539E+06
        -0.15305E+07
        -0.13966E+07
        -0.17512E+07
        -0.91670E+06
        -0.36146E+06
        -0.37148E+06
         0.18819E+06
         0.72147E+06
         0.18114E+07
        -0.22054E+07
         0.75016E+06
        -0.15520E+07
         0.39151E+06
         0.18720E+07
         0.28089E+07
         0.18760E+07
         0.22859E+07
         0.15533E+07
         0.56993E+06
         0.74780E+06
         0.57230E+06
        -0.15489E+06
         0.12074E+07
        -0.83312E+06
        -0.26638E+07
        -0.28172E+07
        -0.28331E+07
        -0.27286E+07
        -0.10173E+07
        -0.85558E+06
        -0.15551E+07
        -0.24201E+07
        -0.17512E+07
        -0.50308E+04
         0.11965E+07
         0.47645E+06
        -0.33842E+06
        -0.14230E+05
         0.14240E+07
         0.60465E+06
         0.16642E+07
        -0.89507E+06
        -0.21034E+07
         0.96372E+06
        -0.24617E+07
        -0.24049E+07
        -0.13153E+07
        -0.32119E+06
        -0.36461E+07
        -0.23317E+07
         0.63750E+05
         0.67382E+06
         0.10177E+07
        -0.95171E+06
        -0.83162E+05
        -0.58780E+06
         0.33388E+06
        -0.13925E+07
        -0.82383E+06
        -0.28029E+07
        -0.64754E+06
        -0.49761E+07
        -0.32799E+07
        -0.18517E+07
        -0.23753E+07
        -0.19423E+06
        -0.41454E+06
         0.84111E+06
         0.16691E+07
        -0.46429E+05
        -0.16231E+06
        -0.31640E+05
        -0.25779E+07
        -0.24597E+07
        -0.16341E+07
        -0.38601E+06
        -0.80863E+06
        -0.77943E+06
        -0.15043E+07
        -0.13668E+07
        -0.17159E+07
        -0.88807E+06
        -0.33746E+06
        -0.34720E+06
         0.21548E+06
         0.74990E+06
         0.18337E+07
        -0.21383E+07
         0.81602E+06
        -0.14848E+07
         0.43866E+06
         0.19021E+07
         0.28438E+07
         0.19242E+07
         0.23348E+07
         0.16068E+07
         0.67430E+06
         0.72357E+06
         0.47782E+06
        -0.15135E+06
         0.12443E+07
        -0.80208E+06
        -0.26379E+07
        -0.27853E+07
        -0.27794E+07
        -0.26627E+07
        -0.95561E+06
        -0.80238E+06
        -0.15002E+07
        -0.23583E+07
        -0.16936E+07
         0.41707E+05
         0.12456E+07
         0.38856E+06
        -0.42533E+06
        -0.98212E+05
         0.13484E+07
         0.49866E+06
         0.15672E+07
        -0.97961E+06
        -0.22077E+07
         0.87099E+06
        -0.25917E+07
        -0.25083E+07
        -0.14508E+07
        -0.44719E+06
        -0.37588E+07
        -0.24709E+07
        -0.22293E+05
         0.58274E+06
         0.95305E+06
        -0.10451E+07
        -0.15590E+06
        -0.70611E+06
         0.21833E+06
        -0.15066E+07
        -0.90733E+06
        -0.29215E+07
        -0.71610E+06
        -0.51110E+07
        -0.33679E+07
        -0.18943E+07
        -0.24416E+07
        -0.27797E+06
        -0.49398E+06
         0.75986E+06
         0.15879E+07
        -0.17098E+06
        -0.26924E+06
        -0.14532E+06
        -0.27376E+07
        -0.25848E+07
        -0.17071E+07
        -0.50257E+06
        -0.93370E+06
        -0.90526E+06
        -0.16153E+07
        -0.14823E+07
        -0.18493E+07
        -0.10015E+07
        -0.43835E+06
        -0.44394E+06
         0.10915E+06
         0.62285E+06
         0.17249E+07
        -0.23720E+07
         0.58905E+06
        -0.17210E+07
         0.19839E+06
         0.16625E+07
         0.26133E+07
         0.16899E+07
         0.20832E+07
         0.13705E+07
         0.45926E+06
         0.42391E+06
         0.15173E+06
        -0.38235E+06
         0.10526E+07
        -0.10029E+07
        -0.28468E+07
        -0.30013E+07
        -0.30208E+07
        -0.29107E+07
        -0.11931E+07
        -0.10229E+07
        -0.17113E+07
        -0.25744E+07
        -0.19153E+07
        -0.17125E+06
         0.10342E+07
         0.43914E+06
        -0.41916E+06
        -0.82651E+05
         0.13764E+07
         0.53356E+06
         0.15982E+07
        -0.96734E+06
        -0.21462E+07
         0.93078E+06
        -0.25023E+07
        -0.24812E+07
        -0.14481E+07
        -0.47932E+06
        -0.36844E+07
        -0.24093E+07
         0.45008E+05
         0.64085E+06
         0.98855E+06
        -0.99542E+06
        -0.11172E+06
        -0.65319E+06
         0.25794E+06
        -0.14248E+07
        -0.84421E+06
        -0.28225E+07
        -0.66365E+06
        -0.49960E+07
        -0.32679E+07
        -0.18082E+07
        -0.23446E+07
        -0.22552E+06
        -0.45790E+06
         0.77974E+06
         0.15760E+07
        -0.15206E+06
        -0.27756E+06
        -0.17760E+06
        -0.26649E+07
        -0.24968E+07
        -0.16296E+07
        -0.45046E+06
        -0.86250E+06
        -0.83019E+06
        -0.15408E+07
        -0.14411E+07
        -0.18291E+07
        -0.98491E+06
        -0.39502E+06
        -0.41126E+06
         0.11139E+06
         0.63102E+06
         0.17270E+07
        -0.22820E+07
         0.70592E+06
        -0.16916E+07
         0.14654E+06
         0.15549E+07
         0.25478E+07
         0.17973E+07
         0.21937E+07
         0.14583E+07
         0.51139E+06
         0.43841E+06
         0.19628E+06
        -0.29499E+06
         0.10957E+07
        -0.91175E+06
        -0.27166E+07
        -0.28906E+07
        -0.29359E+07
        -0.28740E+07
        -0.11974E+07
        -0.97405E+06
        -0.16413E+07
        -0.24633E+07
        -0.17800E+07
        -0.64652E+05
         0.11447E+07
         0.34599E+09
         0.34453E+09
         0.34048E+09
         0.29872E+09
         0.41534E+09
         0.37744E+09
         0.35220E+09
         0.39293E+09
         0.32743E+09
         0.39308E+09
         0.40537E+09
         0.51943E+09
         0.46106E+09
         0.43398E+09
         0.53499E+09
         0.32353E+09
         0.32693E+09
         0.26475E+09
         0.34883E+09
         0.34380E+09
         0.42416E+09
         0.42702E+09
         0.40431E+09
         0.32182E+09
         0.38098E+09
         0.28693E+09
         0.42801E+09
         0.36722E+09
         0.38610E+09
         0.39620E+09
         0.32186E+09
         0.31530E+09
         0.29919E+09
         0.31073E+09
         0.46920E+09
         0.40566E+09
         0.41413E+09
         0.50344E+09
         0.47891E+09
         0.46994E+09
         0.49323E+09
         0.46346E+09
         0.43919E+09
         0.38886E+09
         0.40302E+09
         0.47232E+09
         0.41719E+09
         0.38388E+09
         0.36765E+09
         0.38837E+09
         0.44650E+09
         0.39667E+09
         0.85665E+09
         0.83915E+09
         0.85387E+09
         0.82639E+09
         0.85217E+09
         0.89374E+09
         0.89752E+09
         0.88794E+09
         0.89498E+09
         0.91992E+09
         0.89269E+09
         0.84189E+09
         0.74688E+09
         0.70512E+09
         0.71533E+09
         0.73169E+09
         0.74083E+09
         0.80693E+09
         0.86389E+09
         0.86759E+09
         0.79571E+09
         0.76740E+09
         0.79494E+09
         0.78723E+09
         0.78242E+09
         0.78410E+09
         0.39812E+10
         0.41725E+10
         0.41123E+10
         0.37525E+10
         0.46195E+10
         0.43391E+10
         0.45155E+10
         0.45489E+10
         0.38946E+10
         0.45466E+10
         0.49598E+10
         0.55554E+10
         0.50353E+10
         0.51039E+10
         0.57503E+10
         0.38159E+10
         0.41028E+10
         0.35803E+10
         0.42372E+10
         0.44591E+10
         0.46097E+10
         0.47113E+10
         0.44247E+10
         0.40752E+10
         0.46010E+10
         0.39324E+10
         0.50853E+10
         0.49999E+10
         0.50224E+10
         0.47642E+10
         0.38573E+10
         0.40575E+10
         0.37824E+10
         0.39559E+10
         0.50586E+10
         0.46417E+10
         0.46562E+10
         0.55685E+10
         0.54265E+10
         0.53616E+10
         0.54549E+10
         0.51793E+10
         0.48966E+10
         0.43201E+10
         0.44996E+10
         0.50558E+10
         0.46759E+10
         0.43964E+10
         0.43095E+10
         0.44682E+10
         0.48507E+10
         0.44813E+10
         0.80362E+10
         0.78261E+10
         0.79905E+10
         0.77363E+10
         0.79683E+10
         0.83819E+10
         0.85201E+10
         0.85043E+10
         0.85661E+10
         0.87639E+10
         0.85072E+10
         0.79908E+10
         0.71561E+10
         0.67594E+10
         0.67762E+10
         0.68626E+10
         0.69290E+10
         0.75204E+10
         0.80679E+10
         0.81002E+10
         0.74904E+10
         0.72566E+10
         0.74988E+10
         0.74457E+10
         0.73596E+10
         0.73390E+10
  
SCALARS                      stress_zz  double 1
LOOKUP_TABLE default
         0.15222E+13
         0.15031E+13
         0.15152E+13
         0.15370E+13
        -0.47065E+03
        -0.52776E+03
        -0.50535E+03
        -0.45909E+03
         0.15024E+13
         0.15089E+13
        -0.47459E+03
        -0.45928E+03
         0.14753E+13
         0.14743E+13
        -0.56391E+03
        -0.53022E+03
         0.15338E+13
         0.14758E+13
        -0.41667E+03
        -0.46215E+03
         0.14544E+13
         0.14378E+13
         0.14642E+13
        -0.55890E+03
        -0.48809E+03
        -0.50401E+03
         0.14384E+13
         0.14142E+13
        -0.53618E+03
        -0.45218E+03
         0.15328E+13
         0.15075E+13
         0.15572E+13
        -0.45756E+03
        -0.42537E+03
        -0.41357E+03
         0.15182E+13
         0.14860E+13
        -0.48407E+03
        -0.44172E+03
         0.15054E+13
         0.14806E+13
        -0.41838E+03
        -0.37038E+03
         0.15264E+13
         0.15357E+13
        -0.45849E+03
        -0.51229E+03
         0.14606E+13
        -0.44790E+03
         0.15339E+13
        -0.52630E+03
         0.14314E+13
        -0.47300E+03
         0.14238E+13
        -0.45370E+03
         0.14239E+13
         0.14510E+13
        -0.46227E+03
        -0.45020E+03
         0.15322E+13
         0.15225E+13
        -0.46354E+03
        -0.52402E+03
         0.15383E+13
        -0.44728E+03
         0.15268E+13
        -0.48815E+03
         0.14964E+13
         0.14934E+13
        -0.46990E+03
        -0.49236E+03
         0.14865E+13
        -0.49650E+03
         0.14055E+13
        -0.39227E+03
         0.14013E+13
        -0.38075E+03
         0.14034E+13
        -0.40147E+03
         0.14152E+13
         0.14274E+13
        -0.38251E+03
        -0.39879E+03
         0.14519E+13
        -0.37142E+03
         0.15259E+13
        -0.48706E+03
         0.15144E+13
        -0.49850E+03
         0.15049E+13
         0.14997E+13
        -0.47872E+03
        -0.48431E+03
         0.15062E+13
        -0.43989E+03
         0.15107E+13
        -0.43361E+03
         0.15066E+13
        -0.46419E+03
         0.15051E+13
         0.15093E+13
        -0.45521E+03
        -0.46856E+03
         0.14823E+13
         0.14932E+13
        -0.35342E+03
        -0.33241E+03
         0.14802E+13
        -0.33747E+03
         0.14928E+13
        -0.32358E+03
         0.14804E+13
        -0.31907E+03
         0.14527E+13
        -0.30153E+03
         0.14258E+13
        -0.26787E+03
         0.14097E+13
        -0.24120E+03
         0.14081E+13
        -0.23953E+03
         0.14086E+13
        -0.25976E+03
         0.14260E+13
        -0.27300E+03
         0.14586E+13
        -0.24927E+03
         0.14944E+13
        -0.22469E+03
         0.15153E+13
        -0.22444E+03
         0.15360E+13
        -0.25087E+03
         0.15496E+13
        -0.28604E+03
         0.15491E+13
        -0.30730E+03
         0.15160E+13
        -0.33188E+03
         0.14929E+13
        -0.35556E+03
         0.14849E+13
        -0.32572E+03
         0.14973E+13
        -0.28574E+03
         0.15038E+13
        -0.28486E+03
         0.14929E+13
        -0.31167E+03
         0.14931E+13
        -0.33226E+03
         0.15013E+13
        -0.31532E+03
         0.15119E+13
        -0.30484E+03
        -0.25013E+11
        -0.24096E+11
        -0.24223E+11
        -0.25393E+11
        -0.23167E+11
        -0.24329E+11
        -0.22879E+11
        -0.23649E+11
        -0.25213E+11
        -0.24256E+11
        -0.22024E+11
        -0.21758E+11
        -0.22463E+11
        -0.22511E+11
        -0.22058E+11
        -0.25339E+11
        -0.25126E+11
        -0.25715E+11
        -0.23994E+11
        -0.24321E+11
        -0.23853E+11
        -0.24164E+11
        -0.23585E+11
        -0.23737E+11
        -0.24294E+11
        -0.24254E+11
        -0.23292E+11
        -0.23381E+11
        -0.22641E+11
        -0.23750E+11
        -0.25234E+11
        -0.24083E+11
        -0.25226E+11
        -0.24479E+11
        -0.21571E+11
        -0.22545E+11
        -0.22994E+11
        -0.22465E+11
        -0.22396E+11
        -0.21501E+11
        -0.20831E+11
        -0.22435E+11
        -0.23872E+11
        -0.23683E+11
        -0.22951E+11
        -0.21608E+11
        -0.22758E+11
        -0.23931E+11
        -0.23852E+11
        -0.22946E+11
        -0.21983E+11
        -0.23273E+11
        -0.19140E+11
        -0.20421E+11
        -0.20212E+11
        -0.20506E+11
        -0.20432E+11
        -0.19748E+11
        -0.19030E+11
        -0.18792E+11
        -0.18895E+11
        -0.18822E+11
        -0.18510E+11
        -0.20366E+11
        -0.21034E+11
        -0.21288E+11
        -0.21714E+11
        -0.22033E+11
        -0.22019E+11
        -0.21473E+11
        -0.19574E+11
        -0.20038E+11
        -0.20695E+11
        -0.20688E+11
        -0.20574E+11
        -0.19942E+11
        -0.20870E+11
        -0.21205E+11
         0.31566E+07
         0.19103E+07
         0.22407E+07
         0.34684E+07
         0.25616E+07
         0.36162E+07
        -0.16280E+06
        -0.21603E+06
         0.38668E+07
        -0.40829E+06
        -0.17208E+07
         0.11679E+07
         0.17135E+07
        -0.38093E+07
        -0.15331E+06
         0.17007E+07
         0.24747E+07
         0.31287E+07
         0.87652E+06
         0.90907E+06
         0.87785E+06
         0.18802E+07
         0.10893E+06
         0.13264E+06
        -0.11614E+07
         0.39470E+04
        -0.56610E+07
        -0.68766E+07
        -0.30174E+07
        -0.80355E+06
         0.15797E+07
         0.55314E+06
         0.30362E+07
         0.43801E+07
         0.12217E+07
         0.11263E+07
         0.16294E+07
        -0.48328E+06
        -0.29310E+06
         0.37851E+06
         0.12998E+07
         0.73007E+06
         0.95890E+06
         0.18455E+06
         0.31613E+06
         0.59860E+06
         0.11732E+07
         0.14991E+07
         0.21142E+07
         0.28377E+07
         0.27611E+07
         0.35565E+07
        -0.57791E+06
         0.25308E+07
         0.56977E+06
         0.29757E+07
         0.49209E+07
         0.62642E+07
         0.53714E+07
         0.57667E+07
         0.49583E+07
         0.36707E+07
         0.32500E+07
         0.27630E+07
         0.17381E+07
         0.29844E+07
         0.86186E+06
        -0.64671E+06
        -0.38816E+06
        -0.28917E+06
         0.25340E+06
         0.23315E+07
         0.23924E+07
         0.16443E+07
         0.55823E+06
         0.55139E+06
         0.18878E+07
         0.31270E+07
         0.30373E+07
         0.17759E+07
         0.21064E+07
         0.33361E+07
         0.24202E+07
         0.34770E+07
        -0.33271E+06
        -0.35328E+06
         0.37293E+07
        -0.55837E+06
        -0.18963E+07
         0.10017E+07
         0.15645E+07
        -0.39695E+07
        -0.31745E+06
         0.15650E+07
         0.23015E+07
         0.29745E+07
         0.71247E+06
         0.70318E+06
         0.73047E+06
         0.17354E+07
        -0.44538E+05
        -0.47981E+05
        -0.13367E+07
        -0.19188E+06
        -0.58145E+07
        -0.70906E+07
        -0.32317E+07
        -0.98385E+06
         0.14448E+07
         0.38521E+06
         0.29016E+07
         0.42408E+07
         0.10684E+07
         0.98198E+06
         0.14901E+07
        -0.65250E+06
        -0.45625E+06
         0.21569E+06
         0.11329E+07
         0.56497E+06
         0.80184E+06
         0.33262E+05
         0.17033E+06
         0.44565E+06
         0.10239E+07
         0.13544E+07
         0.19771E+07
         0.27045E+07
         0.26186E+07
         0.34188E+07
        -0.82430E+06
         0.22908E+07
         0.33399E+06
         0.27499E+07
         0.46826E+07
         0.59997E+07
         0.51068E+07
         0.54978E+07
         0.46860E+07
         0.33933E+07
         0.29736E+07
         0.25073E+07
         0.15226E+07
         0.27826E+07
         0.65152E+06
        -0.87053E+06
        -0.61648E+06
        -0.52675E+06
         0.14306E+05
         0.20790E+07
         0.21529E+07
         0.14274E+07
         0.34157E+06
         0.32930E+06
         0.16637E+07
         0.28988E+07
         0.30653E+07
         0.18024E+07
         0.21351E+07
         0.33713E+07
         0.24573E+07
         0.35147E+07
        -0.29507E+06
        -0.32191E+06
         0.37518E+07
        -0.55109E+06
        -0.18607E+07
         0.10335E+07
         0.15929E+07
        -0.39331E+07
        -0.27693E+06
         0.15377E+07
         0.22925E+07
         0.30133E+07
         0.67226E+06
         0.66330E+06
         0.70611E+06
         0.17260E+07
        -0.14520E+06
        -0.17833E+06
        -0.14099E+07
        -0.32914E+06
        -0.57835E+07
        -0.71204E+07
        -0.33125E+07
        -0.11094E+07
         0.14452E+07
         0.34697E+06
         0.29381E+07
         0.42860E+07
         0.11084E+07
         0.10183E+07
         0.15210E+07
        -0.62291E+06
        -0.42931E+06
         0.22509E+06
         0.11288E+07
         0.50502E+06
         0.71726E+06
        -0.68021E+05
         0.14533E+06
         0.46668E+06
         0.10510E+07
         0.13871E+07
         0.20145E+07
         0.27457E+07
         0.26591E+07
         0.34581E+07
        -0.75104E+06
         0.23564E+07
         0.40664E+06
         0.28059E+07
         0.47240E+07
         0.60407E+07
         0.51593E+07
         0.55507E+07
         0.47397E+07
         0.34487E+07
         0.30063E+07
         0.25061E+07
         0.15261E+07
         0.28197E+07
         0.67606E+06
        -0.91581E+06
        -0.66558E+06
        -0.51404E+06
         0.79923E+05
         0.21550E+07
         0.22211E+07
         0.14965E+07
         0.41876E+06
         0.39427E+06
         0.17165E+07
         0.29498E+07
         0.30484E+07
         0.17911E+07
         0.21239E+07
         0.33502E+07
         0.24441E+07
         0.35030E+07
        -0.30745E+06
        -0.33959E+06
         0.37119E+07
        -0.61482E+06
        -0.18788E+07
         0.10163E+07
         0.15810E+07
        -0.39543E+07
        -0.29716E+06
         0.14299E+07
         0.21907E+07
         0.29839E+07
         0.52902E+06
         0.48940E+06
         0.59429E+06
         0.16259E+07
        -0.37943E+06
        -0.46984E+06
        -0.16182E+07
        -0.64170E+06
        -0.58249E+07
        -0.72936E+07
        -0.35771E+07
        -0.14122E+07
         0.13798E+07
         0.19566E+06
         0.29175E+07
         0.42630E+07
         0.10887E+07
         0.10038E+07
         0.15098E+07
        -0.65391E+06
        -0.46889E+06
         0.15139E+06
         0.10343E+07
         0.31809E+06
         0.48789E+06
        -0.30674E+06
         0.24665E+05
         0.40508E+06
         0.10030E+07
         0.13602E+07
         0.19910E+07
         0.27206E+07
         0.26377E+07
         0.34433E+07
        -0.78556E+06
         0.23327E+07
         0.36933E+06
         0.27733E+07
         0.47020E+07
         0.60156E+07
         0.51170E+07
         0.55047E+07
         0.46952E+07
         0.33949E+07
         0.29211E+07
         0.23686E+07
         0.13955E+07
         0.27575E+07
         0.60666E+06
        -0.11061E+07
        -0.86690E+06
        -0.60787E+06
         0.35145E+05
         0.21124E+07
         0.21884E+07
         0.14579E+07
         0.37844E+06
         0.36677E+06
         0.16957E+07
         0.29292E+07
         0.30175E+07
         0.17681E+07
         0.21045E+07
         0.33285E+07
         0.24288E+07
         0.34866E+07
        -0.32808E+06
        -0.36907E+06
         0.36642E+07
        -0.68123E+06
        -0.18981E+07
         0.10056E+07
         0.15677E+07
        -0.39773E+07
        -0.30673E+06
         0.13570E+07
         0.21104E+07
         0.29564E+07
         0.43486E+06
         0.36361E+06
         0.52231E+06
         0.15540E+07
        -0.52333E+06
        -0.65050E+06
        -0.17671E+07
        -0.84196E+06
        -0.58610E+07
        -0.74184E+07
        -0.37570E+07
        -0.16129E+07
         0.13115E+07
         0.85767E+05
         0.28770E+07
         0.42311E+07
         0.10683E+07
         0.98519E+06
         0.14931E+07
        -0.67689E+06
        -0.50157E+06
         0.95627E+05
         0.96773E+06
         0.19245E+06
         0.33745E+06
        -0.45840E+06
        -0.54862E+05
         0.36444E+06
         0.96041E+06
         0.13171E+07
         0.19503E+07
         0.26834E+07
         0.26042E+07
         0.34190E+07
        -0.81662E+06
         0.23120E+07
         0.33756E+06
         0.27480E+07
         0.46918E+07
         0.60082E+07
         0.50990E+07
         0.54744E+07
         0.46574E+07
         0.33616E+07
         0.28693E+07
         0.22735E+07
         0.13064E+07
         0.27095E+07
         0.55767E+06
        -0.12294E+07
        -0.10082E+07
        -0.67493E+06
         0.14769E+05
         0.20738E+07
         0.21452E+07
         0.14135E+07
         0.32657E+06
         0.32220E+06
         0.16682E+07
         0.29086E+07
         0.29428E+07
         0.17238E+07
         0.20853E+07
         0.33466E+07
         0.24480E+07
         0.35130E+07
        -0.34176E+06
        -0.42086E+06
         0.35974E+07
        -0.77122E+06
        -0.18830E+07
         0.10428E+07
         0.15826E+07
        -0.39733E+07
        -0.26028E+06
         0.13703E+07
         0.20918E+07
         0.29962E+07
         0.45448E+06
         0.38059E+06
         0.54317E+06
         0.15793E+07
        -0.52012E+06
        -0.65413E+06
        -0.18286E+07
        -0.87015E+06
        -0.58690E+07
        -0.74333E+07
        -0.37380E+07
        -0.16190E+07
         0.12300E+07
         0.27817E+05
         0.28090E+07
         0.42230E+07
         0.10859E+07
         0.98714E+06
         0.14901E+07
        -0.64689E+06
        -0.47414E+06
         0.12617E+06
         0.10003E+07
         0.21237E+06
         0.35354E+06
        -0.46801E+06
        -0.65055E+05
         0.35770E+06
         0.92357E+06
         0.12303E+07
         0.18506E+07
         0.26327E+07
         0.25932E+07
         0.34309E+07
        -0.75640E+06
         0.23741E+07
         0.38813E+06
         0.27819E+07
         0.47272E+07
         0.60563E+07
         0.51535E+07
         0.55270E+07
         0.47178E+07
         0.34413E+07
         0.29390E+07
         0.23156E+07
         0.13534E+07
         0.27586E+07
         0.60491E+06
        -0.11917E+07
        -0.98103E+06
        -0.64797E+06
         0.47161E+05
         0.20961E+07
         0.21402E+07
         0.13827E+07
         0.30613E+06
         0.33236E+06
         0.16983E+07
         0.29519E+07
         0.28291E+07
         0.16454E+07
         0.20391E+07
         0.33334E+07
         0.24328E+07
         0.35117E+07
        -0.40878E+06
        -0.52217E+06
         0.34850E+07
        -0.90440E+06
        -0.19248E+07
         0.10285E+07
         0.15586E+07
        -0.40263E+07
        -0.27010E+06
         0.13485E+07
         0.20260E+07
         0.29863E+07
         0.43823E+06
         0.35050E+06
         0.53308E+06
         0.15722E+07
        -0.53146E+06
        -0.67604E+06
        -0.19172E+07
        -0.92092E+06
        -0.59308E+07
        -0.74975E+07
        -0.37498E+07
        -0.16421E+07
         0.11158E+07
        -0.67341E+05
         0.27050E+07
         0.41806E+07
         0.10620E+07
         0.95696E+06
         0.14572E+07
        -0.67102E+06
        -0.49759E+06
         0.11335E+06
         0.99472E+06
         0.20972E+06
         0.35209E+06
        -0.49115E+06
        -0.10907E+06
         0.30022E+06
         0.83866E+06
         0.10997E+07
         0.17083E+07
         0.25440E+07
         0.25484E+07
         0.34145E+07
        -0.78173E+06
         0.23544E+07
         0.37303E+06
         0.27648E+07
         0.47024E+07
         0.60268E+07
         0.51290E+07
         0.55060E+07
         0.46965E+07
         0.34254E+07
         0.29263E+07
         0.23002E+07
         0.13507E+07
         0.27547E+07
         0.59457E+06
        -0.11975E+07
        -0.99297E+06
        -0.69043E+06
        -0.16183E+05
         0.20264E+07
         0.20614E+07
         0.12852E+07
         0.22064E+06
         0.28700E+06
         0.16739E+07
         0.29328E+07
         0.27960E+07
         0.16164E+07
         0.20202E+07
         0.33156E+07
         0.24166E+07
         0.34959E+07
        -0.44179E+06
        -0.55697E+06
         0.34518E+07
        -0.94373E+06
        -0.19544E+07
         0.10086E+07
         0.15349E+07
        -0.40566E+07
        -0.28690E+06
         0.13289E+07
         0.19995E+07
         0.29645E+07
         0.42335E+06
         0.32672E+06
         0.51722E+06
         0.15557E+07
        -0.54639E+06
        -0.69281E+06
        -0.19465E+07
        -0.94991E+06
        -0.59568E+07
        -0.75319E+07
        -0.37757E+07
        -0.16640E+07
         0.10787E+07
        -0.10519E+06
         0.26716E+07
         0.41567E+07
         0.10419E+07
         0.94062E+06
         0.14372E+07
        -0.70150E+06
        -0.52478E+06
         0.85541E+05
         0.96680E+06
         0.18738E+06
         0.33774E+06
        -0.51184E+06
        -0.13538E+06
         0.27333E+06
         0.81059E+06
         0.10673E+07
         0.16729E+07
         0.25133E+07
         0.25208E+07
         0.33939E+07
        -0.81646E+06
         0.23204E+07
         0.34995E+06
         0.27411E+07
         0.46738E+07
         0.60017E+07
         0.51032E+07
         0.54702E+07
         0.46491E+07
         0.33757E+07
         0.28813E+07
         0.22799E+07
         0.13344E+07
         0.27198E+07
         0.55813E+06
        -0.12320E+07
        -0.10378E+07
        -0.73326E+06
        -0.52287E+05
         0.19973E+07
         0.20374E+07
         0.12526E+07
         0.17759E+06
         0.24687E+06
         0.16402E+07
         0.28994E+07
         0.28170E+07
         0.16361E+07
         0.20348E+07
         0.33211E+07
         0.24343E+07
         0.35010E+07
        -0.41598E+06
        -0.53099E+06
         0.34730E+07
        -0.91744E+06
        -0.19330E+07
         0.10287E+07
         0.15501E+07
        -0.40302E+07
        -0.25510E+06
         0.13545E+07
         0.20250E+07
         0.29816E+07
         0.45204E+06
         0.35519E+06
         0.53853E+06
         0.15759E+07
        -0.52446E+06
        -0.66297E+06
        -0.19199E+07
        -0.91839E+06
        -0.59181E+07
        -0.74930E+07
        -0.37391E+07
        -0.16411E+07
         0.11007E+07
        -0.83796E+05
         0.26886E+07
         0.41645E+07
         0.10648E+07
         0.95939E+06
         0.14528E+07
        -0.67910E+06
        -0.50591E+06
         0.10241E+06
         0.98605E+06
         0.20860E+06
         0.35933E+06
        -0.49164E+06
        -0.11831E+06
         0.29051E+06
         0.82885E+06
         0.10899E+07
         0.16960E+07
         0.25307E+07
         0.25326E+07
         0.33992E+07
        -0.76505E+06
         0.23709E+07
         0.38001E+06
         0.27535E+07
         0.46988E+07
         0.60407E+07
         0.51466E+07
         0.55014E+07
         0.46611E+07
         0.33940E+07
         0.29144E+07
         0.23269E+07
         0.13759E+07
         0.27467E+07
         0.58350E+06
        -0.12028E+07
        -0.10083E+07
        -0.69685E+06
        -0.17725E+05
         0.20379E+07
         0.20794E+07
         0.12902E+07
         0.20879E+06
         0.27462E+06
         0.16680E+07
         0.29296E+07
         0.28116E+07
         0.16344E+07
         0.20311E+07
         0.33093E+07
         0.24310E+07
         0.34926E+07
        -0.41832E+06
        -0.54003E+06
         0.34564E+07
        -0.93211E+06
        -0.19454E+07
         0.10166E+07
         0.15466E+07
        -0.40466E+07
        -0.27277E+06
         0.13424E+07
         0.20080E+07
         0.29584E+07
         0.43979E+06
         0.33640E+06
         0.53032E+06
         0.15653E+07
        -0.53217E+06
        -0.67395E+06
        -0.19263E+07
        -0.93049E+06
        -0.59260E+07
        -0.74974E+07
        -0.37397E+07
        -0.16508E+07
         0.10892E+07
        -0.95525E+05
         0.26706E+07
         0.41468E+07
         0.10574E+07
         0.95204E+06
         0.14481E+07
        -0.70541E+06
        -0.52085E+06
         0.88576E+05
         0.97252E+06
         0.20005E+06
         0.34708E+06
        -0.49750E+06
        -0.12446E+06
         0.28194E+06
         0.81578E+06
         0.10751E+07
         0.16819E+07
         0.25187E+07
         0.25218E+07
         0.33875E+07
        -0.78010E+06
         0.23590E+07
         0.35587E+06
         0.27330E+07
         0.46959E+07
         0.60262E+07
         0.51131E+07
         0.54638E+07
         0.46390E+07
         0.33609E+07
         0.28784E+07
         0.23090E+07
         0.13545E+07
         0.27349E+07
         0.57252E+06
        -0.12130E+07
        -0.10099E+07
        -0.70403E+06
        -0.28097E+05
         0.20104E+07
         0.20451E+07
         0.12638E+07
         0.19527E+06
         0.26798E+06
         0.16529E+07
         0.29083E+07
         0.27964E+07
         0.16196E+07
         0.20202E+07
         0.33025E+07
         0.24196E+07
         0.34873E+07
        -0.43064E+06
        -0.55360E+06
         0.34414E+07
        -0.94673E+06
        -0.19594E+07
         0.10005E+07
         0.15358E+07
        -0.40597E+07
        -0.29085E+06
         0.13255E+07
         0.19945E+07
         0.29441E+07
         0.42471E+06
         0.32188E+06
         0.51975E+06
         0.15546E+07
        -0.54391E+06
        -0.69111E+06
        -0.19325E+07
        -0.95317E+06
        -0.59315E+07
        -0.75064E+07
        -0.37416E+07
        -0.16576E+07
         0.10727E+07
        -0.11465E+06
         0.26604E+07
         0.41435E+07
         0.10396E+07
         0.93921E+06
         0.14373E+07
        -0.73085E+06
        -0.53763E+06
         0.76540E+05
         0.96483E+06
         0.19279E+06
         0.33590E+06
        -0.50859E+06
        -0.13540E+06
         0.27039E+06
         0.80359E+06
         0.10623E+07
         0.16685E+07
         0.25083E+07
         0.25115E+07
         0.33824E+07
        -0.81009E+06
         0.23341E+07
         0.33749E+06
         0.27268E+07
         0.46878E+07
         0.59971E+07
         0.50710E+07
         0.54299E+07
         0.46161E+07
         0.33371E+07
         0.28636E+07
         0.22912E+07
         0.13287E+07
         0.27173E+07
         0.55421E+06
        -0.12341E+07
        -0.10239E+07
        -0.72052E+06
        -0.48498E+05
         0.19877E+07
         0.20191E+07
         0.12367E+07
         0.17577E+06
         0.24949E+06
         0.16298E+07
         0.28840E+07
         0.28064E+07
         0.16258E+07
         0.20257E+07
         0.33127E+07
         0.24316E+07
         0.34996E+07
        -0.41337E+06
        -0.53542E+06
         0.34510E+07
        -0.93517E+06
        -0.19391E+07
         0.10143E+07
         0.15405E+07
        -0.40357E+07
        -0.26136E+06
         0.13399E+07
         0.20048E+07
         0.29612E+07
         0.44208E+06
         0.34452E+06
         0.53677E+06
         0.15727E+07
        -0.52907E+06
        -0.67274E+06
        -0.19185E+07
        -0.93322E+06
        -0.59065E+07
        -0.74816E+07
        -0.37018E+07
        -0.16327E+07
         0.10901E+07
        -0.10013E+06
         0.26810E+07
         0.41630E+07
         0.10538E+07
         0.95123E+06
         0.14439E+07
        -0.71281E+06
        -0.51888E+06
         0.10106E+06
         0.98628E+06
         0.20896E+06
         0.35327E+06
        -0.49622E+06
        -0.12505E+06
         0.27995E+06
         0.81469E+06
         0.10759E+07
         0.16837E+07
         0.25231E+07
         0.25239E+07
         0.33968E+07
        -0.77253E+06
         0.23748E+07
         0.37571E+06
         0.27456E+07
         0.46816E+07
         0.59991E+07
         0.51011E+07
         0.54634E+07
         0.46387E+07
         0.33713E+07
         0.28961E+07
         0.23067E+07
         0.13565E+07
         0.27456E+07
         0.57985E+06
        -0.12144E+07
        -0.10107E+07
        -0.70388E+06
        -0.32849E+05
         0.20122E+07
         0.20480E+07
         0.12646E+07
         0.19979E+06
         0.26989E+06
         0.16600E+07
         0.29194E+07
         0.27994E+07
         0.16139E+07
         0.20152E+07
         0.32993E+07
         0.24200E+07
         0.34876E+07
        -0.42945E+06
        -0.54766E+06
         0.34389E+07
        -0.95330E+06
        -0.19593E+07
         0.99433E+06
         0.15187E+07
        -0.40561E+07
        -0.27415E+06
         0.13263E+07
         0.19875E+07
         0.29365E+07
         0.42352E+06
         0.32249E+06
         0.51765E+06
         0.15533E+07
        -0.54918E+06
        -0.69257E+06
        -0.19346E+07
        -0.95313E+06
        -0.59286E+07
        -0.75143E+07
        -0.37190E+07
        -0.16456E+07
         0.10747E+07
        -0.11822E+06
         0.26590E+07
         0.41470E+07
         0.10368E+07
         0.93626E+06
         0.14261E+07
        -0.74055E+06
        -0.54620E+06
         0.77127E+05
         0.96022E+06
         0.18450E+06
         0.33420E+06
        -0.51888E+06
        -0.14511E+06
         0.26313E+06
         0.79730E+06
         0.10558E+07
         0.16664E+07
         0.25113E+07
         0.25101E+07
         0.33834E+07
        -0.80216E+06
         0.23492E+07
         0.34663E+06
         0.27121E+07
         0.46426E+07
         0.59620E+07
         0.50783E+07
         0.54341E+07
         0.46001E+07
         0.33331E+07
         0.28496E+07
         0.22607E+07
         0.13257E+07
         0.27136E+07
         0.55249E+06
        -0.12456E+07
        -0.10589E+07
        -0.74692E+06
        -0.54481E+05
         0.19822E+07
         0.20170E+07
         0.12486E+07
         0.18879E+06
         0.24704E+06
         0.16289E+07
         0.28885E+07
         0.27982E+07
         0.16100E+07
         0.20121E+07
         0.32952E+07
         0.24187E+07
         0.34843E+07
        -0.43058E+06
        -0.54820E+06
         0.34395E+07
        -0.95303E+06
        -0.19621E+07
         0.99162E+06
         0.15153E+07
        -0.40566E+07
        -0.27300E+06
         0.13238E+07
         0.19884E+07
         0.29297E+07
         0.42200E+06
         0.31965E+06
         0.51358E+06
         0.15503E+07
        -0.55360E+06
        -0.69623E+06
        -0.19334E+07
        -0.95897E+06
        -0.59232E+07
        -0.75190E+07
        -0.37172E+07
        -0.16477E+07
         0.10667E+07
        -0.12547E+06
         0.26503E+07
         0.41436E+07
         0.10328E+07
         0.93151E+06
         0.14208E+07
        -0.75372E+06
        -0.56152E+06
         0.67761E+05
         0.95742E+06
         0.18245E+06
         0.33160E+06
        -0.52266E+06
        -0.14880E+06
         0.25915E+06
         0.79169E+06
         0.10480E+07
         0.16596E+07
         0.25090E+07
         0.25076E+07
         0.33803E+07
        -0.80303E+06
         0.23497E+07
         0.33873E+06
         0.26992E+07
         0.46418E+07
         0.59613E+07
         0.50690E+07
         0.54095E+07
         0.45721E+07
         0.33177E+07
         0.28480E+07
         0.22562E+07
         0.13180E+07
         0.27011E+07
         0.53823E+06
        -0.12556E+07
        -0.10654E+07
        -0.75258E+06
        -0.60641E+05
         0.19714E+07
         0.20033E+07
         0.12398E+07
         0.18772E+06
         0.24401E+06
         0.16150E+07
         0.28759E+07
         0.28296E+07
         0.16475E+07
         0.20438E+07
         0.33216E+07
         0.24539E+07
         0.35125E+07
        -0.37786E+06
        -0.51040E+06
         0.34648E+07
        -0.92299E+06
        -0.19140E+07
         0.10352E+07
         0.15544E+07
        -0.40140E+07
        -0.22917E+06
         0.13548E+07
         0.20230E+07
         0.29634E+07
         0.45969E+06
         0.36753E+06
         0.55130E+06
         0.15861E+07
        -0.51730E+06
        -0.65651E+06
        -0.18920E+07
        -0.91442E+06
        -0.58745E+07
        -0.74521E+07
        -0.36472E+07
        -0.16025E+07
         0.11015E+07
        -0.84307E+05
         0.26820E+07
         0.41697E+07
         0.10707E+07
         0.96637E+06
         0.14550E+07
        -0.72546E+06
        -0.52503E+06
         0.10740E+06
         0.99322E+06
         0.21892E+06
         0.36393E+06
        -0.48447E+06
        -0.10997E+06
         0.29695E+06
         0.82726E+06
         0.10826E+07
         0.16904E+07
         0.25357E+07
         0.25334E+07
         0.34052E+07
        -0.73467E+06
         0.24177E+07
         0.39594E+06
         0.27407E+07
         0.46922E+07
         0.60251E+07
         0.51225E+07
         0.54503E+07
         0.46181E+07
         0.33678E+07
         0.28932E+07
         0.23092E+07
         0.13604E+07
         0.27484E+07
         0.59195E+06
        -0.11998E+07
        -0.10027E+07
        -0.68525E+06
        -0.28035E+04
         0.20318E+07
         0.20550E+07
         0.12784E+07
         0.23002E+06
         0.29450E+06
         0.16697E+07
         0.29312E+07
         0.28166E+07
         0.16368E+07
         0.20341E+07
         0.33051E+07
         0.24392E+07
         0.35000E+07
        -0.39198E+06
        -0.52637E+06
         0.34476E+07
        -0.94580E+06
        -0.19338E+07
         0.10198E+07
         0.15448E+07
        -0.40356E+07
        -0.24766E+06
         0.13372E+07
         0.20012E+07
         0.29430E+07
         0.43511E+06
         0.34071E+06
         0.53851E+06
         0.15684E+07
        -0.52967E+06
        -0.68045E+06
        -0.19115E+07
        -0.94249E+06
        -0.58942E+07
        -0.74744E+07
        -0.36439E+07
        -0.16114E+07
         0.10903E+07
        -0.10480E+06
         0.26669E+07
         0.41503E+07
         0.10489E+07
         0.95280E+06
         0.14464E+07
        -0.75688E+06
        -0.54716E+06
         0.97130E+05
         0.97685E+06
         0.19998E+06
         0.34194E+06
        -0.50134E+06
        -0.12743E+06
         0.28113E+06
         0.81280E+06
         0.10714E+07
         0.16759E+07
         0.25178E+07
         0.25169E+07
         0.33913E+07
        -0.77837E+06
         0.23809E+07
         0.36235E+06
         0.27230E+07
         0.46861E+07
         0.60085E+07
         0.50859E+07
         0.54062E+07
         0.45752E+07
         0.33297E+07
         0.28484E+07
         0.22579E+07
         0.13237E+07
         0.27301E+07
         0.58348E+06
        -0.12052E+07
        -0.10202E+07
        -0.71565E+06
        -0.25482E+05
         0.20049E+07
         0.20301E+07
         0.12503E+07
         0.20002E+06
         0.27545E+06
         0.16519E+07
         0.29020E+07
         0.27947E+07
         0.16095E+07
         0.20073E+07
         0.32831E+07
         0.24157E+07
         0.34762E+07
        -0.41667E+06
        -0.54543E+06
         0.34230E+07
        -0.98694E+06
        -0.19580E+07
         0.99496E+06
         0.15236E+07
        -0.40577E+07
        -0.27116E+06
         0.13157E+07
         0.19680E+07
         0.29197E+07
         0.41501E+06
         0.32727E+06
         0.52272E+06
         0.15477E+07
        -0.54463E+06
        -0.70096E+06
        -0.19488E+07
        -0.97005E+06
        -0.59407E+07
        -0.75106E+07
        -0.35637E+07
        -0.15790E+07
         0.10700E+07
        -0.13354E+06
         0.26520E+07
         0.41369E+07
         0.10243E+07
         0.93034E+06
         0.14256E+07
        -0.80346E+06
        -0.56893E+06
         0.13373E+06
         0.97551E+06
         0.17946E+06
         0.31253E+06
        -0.51960E+06
        -0.14966E+06
         0.25580E+06
         0.78760E+06
         0.10512E+07
         0.16591E+07
         0.25035E+07
         0.25023E+07
         0.33743E+07
        -0.80753E+06
         0.23541E+07
         0.33949E+06
         0.27031E+07
         0.46584E+07
         0.59635E+07
         0.50344E+07
         0.53569E+07
         0.45321E+07
         0.33197E+07
         0.27701E+07
         0.21349E+07
         0.12722E+07
         0.27014E+07
         0.55800E+06
        -0.12278E+07
        -0.10483E+07
        -0.74753E+06
        -0.62729E+05
         0.19628E+07
         0.20016E+07
         0.12236E+07
         0.16943E+06
         0.25279E+06
         0.16171E+07
         0.28630E+07
         0.28246E+07
         0.16439E+07
         0.20418E+07
         0.33151E+07
         0.24531E+07
         0.35066E+07
        -0.37032E+06
        -0.50820E+06
         0.34403E+07
        -0.99304E+06
        -0.19146E+07
         0.10275E+07
         0.15526E+07
        -0.40174E+07
        -0.23197E+06
         0.13470E+07
         0.19917E+07
         0.29511E+07
         0.45848E+06
         0.40690E+06
         0.55410E+06
         0.15790E+07
        -0.51543E+06
        -0.65812E+06
        -0.19363E+07
        -0.92147E+06
        -0.59480E+07
        -0.74688E+07
        -0.33321E+07
        -0.14420E+07
         0.10997E+07
        -0.91673E+05
         0.26830E+07
         0.41716E+07
         0.10649E+07
         0.96919E+06
         0.14579E+07
        -0.80069E+06
        -0.52721E+06
         0.27025E+06
         0.10442E+07
         0.21638E+06
         0.33138E+06
        -0.48682E+06
        -0.11169E+06
         0.29781E+06
         0.82469E+06
         0.10829E+07
         0.16929E+07
         0.25399E+07
         0.25367E+07
         0.34037E+07
        -0.73717E+06
         0.24232E+07
         0.41007E+06
         0.27525E+07
         0.46898E+07
         0.59997E+07
         0.50846E+07
         0.54080E+07
         0.45883E+07
         0.34289E+07
         0.27447E+07
         0.20359E+07
         0.12759E+07
         0.27406E+07
         0.59079E+06
        -0.12004E+07
        -0.10143E+07
        -0.69117E+06
         0.64010E+04
         0.20274E+07
         0.20576E+07
         0.12815E+07
         0.23445E+06
         0.31311E+06
         0.16659E+07
         0.29143E+07
         0.27134E+07
         0.15175E+07
         0.19179E+07
         0.31859E+07
         0.23204E+07
         0.33738E+07
        -0.52866E+06
        -0.63832E+06
         0.33084E+07
        -0.11548E+07
        -0.20797E+07
         0.87302E+06
         0.14040E+07
        -0.41768E+07
        -0.38805E+06
         0.12296E+07
         0.18345E+07
         0.27976E+07
         0.31382E+06
         0.23983E+06
         0.41570E+06
         0.14420E+07
        -0.65113E+06
        -0.80906E+06
        -0.20986E+07
        -0.10844E+07
        -0.61344E+07
        -0.76731E+07
        -0.34122E+07
        -0.15333E+07
         0.97951E+06
        -0.24517E+06
         0.25463E+07
         0.40229E+07
         0.91576E+06
         0.82684E+06
         0.13151E+07
        -0.98426E+06
        -0.67582E+06
         0.18173E+06
         0.90983E+06
         0.69650E+05
         0.18397E+06
        -0.62178E+06
        -0.25532E+06
         0.14022E+06
         0.68035E+06
         0.94877E+06
         0.15560E+07
         0.23964E+07
         0.23833E+07
         0.32617E+07
        -0.98309E+06
         0.21849E+07
         0.16274E+06
         0.25007E+07
         0.44394E+07
         0.57592E+07
         0.48396E+07
         0.51438E+07
         0.43401E+07
         0.32035E+07
         0.24306E+07
         0.16941E+07
         0.10315E+07
         0.25372E+07
         0.37877E+06
        -0.14200E+07
        -0.12408E+07
        -0.94349E+06
        -0.25345E+06
         0.17786E+07
         0.18257E+07
         0.10589E+07
         0.71525E+04
         0.79216E+05
         0.14417E+07
         0.26915E+07
         0.27772E+07
         0.15263E+07
         0.19411E+07
         0.32350E+07
         0.23649E+07
         0.34174E+07
        -0.50362E+06
        -0.55846E+06
         0.33941E+07
        -0.10370E+07
        -0.20338E+07
         0.87597E+06
         0.13660E+07
        -0.40781E+07
        -0.31725E+06
         0.13212E+07
         0.19371E+07
         0.28777E+07
         0.39234E+06
         0.33740E+06
         0.47838E+06
         0.14890E+07
        -0.55363E+06
        -0.69583E+06
        -0.19512E+07
        -0.96481E+06
        -0.59747E+07
        -0.74390E+07
        -0.32183E+07
        -0.13951E+07
         0.10540E+07
        -0.17784E+06
         0.25852E+07
         0.40010E+07
         0.93841E+06
         0.81607E+06
         0.12747E+07
        -0.89893E+06
        -0.56872E+06
         0.27641E+06
         0.97055E+06
         0.15310E+06
         0.27215E+06
        -0.52995E+06
        -0.20310E+06
         0.16439E+06
         0.70206E+06
         0.10062E+07
         0.16017E+07
         0.23989E+07
         0.23932E+07
         0.32646E+07
        -0.88868E+06
         0.23076E+07
         0.19368E+06
         0.24464E+07
         0.43269E+07
         0.56908E+07
         0.49515E+07
         0.52595E+07
         0.44322E+07
         0.32580E+07
         0.24457E+07
         0.17409E+07
         0.11240E+07
         0.25831E+07
         0.47507E+06
        -0.12828E+07
        -0.11241E+07
        -0.85447E+06
        -0.21492E+06
         0.17741E+07
         0.18772E+07
         0.11328E+07
         0.12393E+06
         0.22132E+06
         0.15534E+07
         0.28073E+07
         0.43493E+09
         0.48346E+09
         0.48363E+09
         0.46926E+09
         0.51798E+09
         0.50712E+09
         0.56166E+09
         0.49378E+09
         0.45448E+09
         0.49606E+09
         0.59538E+09
         0.59183E+09
         0.54256E+09
         0.57935E+09
         0.60501E+09
         0.43346E+09
         0.51048E+09
         0.48977E+09
         0.51155E+09
         0.57889E+09
         0.49704E+09
         0.50489E+09
         0.47996E+09
         0.51215E+09
         0.52304E+09
         0.53339E+09
         0.57250E+09
         0.65215E+09
         0.62253E+09
         0.53863E+09
         0.44753E+09
         0.51581E+09
         0.47363E+09
         0.50053E+09
         0.55858E+09
         0.53009E+09
         0.51576E+09
         0.58170E+09
         0.57208E+09
         0.56868E+09
         0.56936E+09
         0.54185E+09
         0.51385E+09
         0.47300E+09
         0.49974E+09
         0.55746E+09
         0.52689E+09
         0.50111E+09
         0.50401E+09
         0.51297E+09
         0.53669E+09
         0.51104E+09
         0.90133E+09
         0.88202E+09
         0.89603E+09
         0.86784E+09
         0.89307E+09
         0.93443E+09
         0.93990E+09
         0.93403E+09
         0.94237E+09
         0.96567E+09
         0.93712E+09
         0.88383E+09
         0.79111E+09
         0.74888E+09
         0.75607E+09
         0.77090E+09
         0.77956E+09
         0.84618E+09
         0.90793E+09
         0.91103E+09
         0.83946E+09
         0.81156E+09
         0.83820E+09
         0.83055E+09
         0.82390E+09
         0.82594E+09
         0.42954E+10
         0.45082E+10
         0.44484E+10
         0.40900E+10
         0.49458E+10
         0.46737E+10
         0.48617E+10
         0.48741E+10
         0.42254E+10
         0.48728E+10
         0.53074E+10
         0.58605E+10
         0.53489E+10
         0.54468E+10
         0.60531E+10
         0.41407E+10
         0.44442E+10
         0.39205E+10
         0.45773E+10
         0.48063E+10
         0.49127E+10
         0.50203E+10
         0.47302E+10
         0.44170E+10
         0.49402E+10
         0.42762E+10
         0.54280E+10
         0.53522E+10
         0.53733E+10
         0.51045E+10
         0.41877E+10
         0.44000E+10
         0.41205E+10
         0.42967E+10
         0.53792E+10
         0.49768E+10
         0.49824E+10
         0.58812E+10
         0.57513E+10
         0.56897E+10
         0.57651E+10
         0.54911E+10
         0.52031E+10
         0.46330E+10
         0.48222E+10
         0.53726E+10
         0.50058E+10
         0.47277E+10
         0.46455E+10
         0.48021E+10
         0.51706E+10
         0.48121E+10
         0.82872E+10
         0.80701E+10
         0.82313E+10
         0.79730E+10
         0.82018E+10
         0.86137E+10
         0.87587E+10
         0.87566E+10
         0.88230E+10
         0.90162E+10
         0.87566E+10
         0.82321E+10
         0.74046E+10
         0.70057E+10
         0.70119E+10
         0.70922E+10
         0.71557E+10
         0.77488E+10
         0.83132E+10
         0.83426E+10
         0.77336E+10
         0.75012E+10
         0.77410E+10
         0.76897E+10
         0.75981E+10
         0.75785E+10
  
SCALARS                      stress_yz  double 1
LOOKUP_TABLE default
         0.38985E+06
        -0.12968E+06
        -0.33692E+06
        -0.17328E+06
        -0.10402E+02
        -0.28671E+01
        -0.12891E+02
        -0.98328E+01
        -0.12629E+07
         0.83061E+06
        -0.19185E+02
        -0.16890E+02
        -0.11079E+07
        -0.56336E+05
         0.13730E+02
        -0.88028E+00
         0.38086E+06
         0.14197E+07
         0.20200E+00
         0.20669E+01
        -0.73673E+06
        -0.27733E+07
        -0.28828E+07
         0.31474E+02
         0.54354E+02
         0.45433E+02
        -0.27335E+06
        -0.28117E+07
         0.22640E+02
         0.43921E+02
         0.43526E+06
         0.37942E+06
        -0.32224E+06
         0.11737E+02
         0.11981E+02
        -0.24874E+00
         0.12936E+07
         0.12467E+07
         0.21598E+02
         0.16804E+02
         0.12717E+07
         0.80950E+06
         0.16322E+02
         0.14917E+02
         0.11532E+07
         0.39759E+06
        -0.54145E+00
         0.83750E+01
         0.10710E+07
         0.39432E+01
         0.10553E+06
        -0.31937E+00
         0.63099E+05
         0.15253E+02
        -0.41819E+06
         0.88728E+01
        -0.13639E+07
         0.24217E+06
         0.24071E+00
        -0.48856E+00
         0.52784E+06
         0.19260E+07
        -0.32797E+01
        -0.12268E+02
         0.31873E+06
        -0.66201E+01
         0.13684E+07
        -0.80648E+01
        -0.11114E+07
        -0.58872E+06
        -0.99666E+00
         0.13159E+02
        -0.20585E+07
         0.28896E+02
        -0.35691E+07
         0.27979E+02
        -0.36020E+07
         0.21239E+02
        -0.29671E+07
         0.17802E+02
        -0.43516E+07
        -0.33398E+07
         0.11420E+02
        -0.25320E+01
        -0.46707E+06
        -0.28331E+00
         0.18022E+07
        -0.17748E+02
         0.42596E+07
        -0.31070E+02
         0.59525E+07
         0.36898E+07
        -0.46082E+02
        -0.37299E+02
         0.25950E+07
        -0.28954E+02
         0.23284E+07
        -0.29622E+02
         0.22659E+07
        -0.31850E+02
         0.37705E+07
         0.31334E+07
        -0.29619E+02
        -0.14192E+02
        -0.25295E+07
         0.95745E+06
         0.10414E+02
        -0.12942E+02
        -0.62186E+07
         0.34646E+02
        -0.89020E+07
         0.50679E+02
        -0.10899E+08
         0.62589E+02
        -0.12783E+08
         0.62084E+02
        -0.15050E+08
         0.49131E+02
        -0.15385E+08
         0.38021E+02
        -0.14486E+08
         0.35363E+02
        -0.12890E+08
         0.33645E+02
        -0.94006E+07
         0.21502E+02
        -0.63482E+07
         0.70990E+01
        -0.31845E+07
         0.45872E+01
         0.22906E+06
         0.68948E+01
         0.30383E+07
         0.35611E+01
         0.54504E+07
        -0.10769E+02
         0.84350E+07
        -0.30398E+02
         0.94917E+07
        -0.47467E+02
         0.10383E+08
        -0.62229E+02
         0.13265E+08
        -0.62175E+02
         0.13739E+08
        -0.54276E+02
         0.12696E+08
        -0.52898E+02
         0.10326E+08
        -0.53227E+02
         0.70205E+07
        -0.42090E+02
         0.49725E+07
        -0.24890E+02
         0.35757E+07
        -0.19245E+02
         0.28915E+07
         0.14973E+07
         0.13069E+07
         0.40528E+06
         0.13404E+07
         0.14237E+07
         0.15030E+06
         0.23085E+07
         0.19778E+07
         0.29042E+07
        -0.15198E+07
        -0.64850E+07
        -0.44282E+07
        -0.51358E+06
        -0.65496E+07
        -0.76566E+06
         0.67849E+06
        -0.43660E+06
        -0.57082E+06
         0.43136E+06
        -0.39623E+06
        -0.32663E+06
         0.10980E+07
        -0.92536E+05
         0.19828E+07
        -0.29314E+06
        -0.15191E+05
        -0.26558E+06
        -0.32245E+06
         0.15550E+07
        -0.74743E+06
         0.81159E+06
        -0.54356E+06
         0.13247E+06
        -0.21913E+06
        -0.11870E+07
        -0.26611E+07
        -0.57542E+07
        -0.52580E+07
        -0.44455E+07
        -0.41876E+07
        -0.10392E+07
         0.84947E+06
         0.23303E+07
         0.38518E+07
         0.62956E+07
         0.41287E+07
         0.29592E+07
         0.31574E+07
         0.33558E+07
         0.39380E+07
         0.17986E+07
        -0.33952E+07
         0.40776E+07
        -0.11045E+08
        -0.15256E+08
        -0.19448E+08
        -0.23103E+08
        -0.23241E+08
        -0.21046E+08
        -0.20025E+08
        -0.18926E+08
        -0.12231E+08
        -0.53625E+07
        -0.23587E+07
        -0.10397E+07
         0.15918E+07
         0.62912E+07
         0.11562E+08
         0.15094E+08
         0.18293E+08
         0.20967E+08
         0.19742E+08
         0.18663E+08
         0.17364E+08
         0.12082E+08
         0.70527E+07
         0.61908E+07
        -0.17159E+09
        -0.17405E+09
        -0.17015E+09
        -0.57642E+08
        -0.12560E+09
        -0.79626E+08
        -0.13670E+09
        -0.16470E+09
        -0.16706E+09
        -0.16369E+09
         0.16964E+09
         0.18895E+09
         0.14411E+09
         0.39345E+08
         0.17844E+09
         0.87591E+08
        -0.50386E+08
         0.71051E+08
         0.16559E+09
         0.57406E+08
         0.49363E+08
         0.37166E+08
        -0.22079E+08
         0.65615E+08
        -0.16591E+09
         0.95878E+08
         0.89135E+07
         0.44726E+08
        -0.68565E+08
        -0.15335E+09
         0.10939E+09
         0.52354E+08
         0.10651E+09
         0.10614E+09
        -0.14296E+08
         0.70120E+08
         0.10534E+09
         0.16348E+09
         0.18352E+09
         0.17281E+09
         0.91915E+08
        -0.24854E+08
        -0.50883E+08
        -0.80463E+08
        -0.11504E+09
        -0.17599E+09
        -0.15126E+09
        -0.11630E+09
        -0.17501E+09
        -0.17689E+09
        -0.11620E+09
        -0.12349E+08
         0.37571E+08
        -0.52605E+08
         0.11761E+09
         0.15299E+09
         0.18636E+09
         0.20970E+09
         0.21322E+09
         0.20708E+09
         0.20314E+09
         0.18901E+09
         0.12088E+09
         0.40337E+08
         0.19097E+08
         0.17133E+08
        -0.72868E+07
        -0.58085E+08
        -0.11252E+09
        -0.14461E+09
        -0.19493E+09
        -0.21099E+09
        -0.20373E+09
        -0.20187E+09
        -0.18987E+09
        -0.13646E+09
        -0.69076E+08
        -0.65909E+08
        -0.17158E+09
        -0.17404E+09
        -0.17014E+09
        -0.57986E+08
        -0.12567E+09
        -0.79731E+08
        -0.13648E+09
        -0.16483E+09
        -0.16709E+09
        -0.16385E+09
         0.16975E+09
         0.18894E+09
         0.14409E+09
         0.39433E+08
         0.17850E+09
         0.87531E+08
        -0.50709E+08
         0.70944E+08
         0.16561E+09
         0.57207E+08
         0.49481E+08
         0.37204E+08
        -0.22085E+08
         0.65585E+08
        -0.16599E+09
         0.95704E+08
         0.90158E+07
         0.44976E+08
        -0.67802E+08
        -0.15343E+09
         0.10931E+09
         0.52256E+08
         0.10692E+09
         0.10622E+09
        -0.14155E+08
         0.70184E+08
         0.10536E+09
         0.16350E+09
         0.18354E+09
         0.17279E+09
         0.91930E+08
        -0.24776E+08
        -0.50930E+08
        -0.80506E+08
        -0.11506E+09
        -0.17600E+09
        -0.15128E+09
        -0.11624E+09
        -0.17501E+09
        -0.17688E+09
        -0.11621E+09
        -0.12179E+08
         0.37549E+08
        -0.52620E+08
         0.11763E+09
         0.15299E+09
         0.18637E+09
         0.20970E+09
         0.21321E+09
         0.20706E+09
         0.20315E+09
         0.18901E+09
         0.12087E+09
         0.40355E+08
         0.19098E+08
         0.17169E+08
        -0.72267E+07
        -0.58103E+08
        -0.11255E+09
        -0.14461E+09
        -0.19494E+09
        -0.21099E+09
        -0.20374E+09
        -0.20188E+09
        -0.18988E+09
        -0.13645E+09
        -0.69035E+08
        -0.65854E+08
        -0.17156E+09
        -0.17404E+09
        -0.17013E+09
        -0.58333E+08
        -0.12574E+09
        -0.79838E+08
        -0.13626E+09
        -0.16496E+09
        -0.16712E+09
        -0.16401E+09
         0.16985E+09
         0.18893E+09
         0.14407E+09
         0.39515E+08
         0.17856E+09
         0.87470E+08
        -0.51034E+08
         0.70837E+08
         0.16563E+09
         0.56999E+08
         0.49600E+08
         0.37241E+08
        -0.22095E+08
         0.65548E+08
        -0.16607E+09
         0.95505E+08
         0.91253E+07
         0.45242E+08
        -0.67008E+08
        -0.15349E+09
         0.10923E+09
         0.52134E+08
         0.10733E+09
         0.10630E+09
        -0.14015E+08
         0.70249E+08
         0.10537E+09
         0.16352E+09
         0.18356E+09
         0.17277E+09
         0.91948E+08
        -0.24690E+08
        -0.50973E+08
        -0.80556E+08
        -0.11509E+09
        -0.17601E+09
        -0.15129E+09
        -0.11618E+09
        -0.17501E+09
        -0.17687E+09
        -0.11622E+09
        -0.12010E+08
         0.37526E+08
        -0.52634E+08
         0.11765E+09
         0.15299E+09
         0.18637E+09
         0.20969E+09
         0.21320E+09
         0.20705E+09
         0.20315E+09
         0.18901E+09
         0.12086E+09
         0.40373E+08
         0.19098E+08
         0.17204E+08
        -0.71663E+07
        -0.58122E+08
        -0.11258E+09
        -0.14462E+09
        -0.19495E+09
        -0.21099E+09
        -0.20374E+09
        -0.20188E+09
        -0.18989E+09
        -0.13643E+09
        -0.68994E+08
        -0.65799E+08
        -0.17155E+09
        -0.17403E+09
        -0.17013E+09
        -0.58681E+08
        -0.12580E+09
        -0.79945E+08
        -0.13604E+09
        -0.16509E+09
        -0.16715E+09
        -0.16418E+09
         0.16995E+09
         0.18892E+09
         0.14406E+09
         0.39603E+08
         0.17862E+09
         0.87404E+08
        -0.51358E+08
         0.70726E+08
         0.16565E+09
         0.56777E+08
         0.49720E+08
         0.37274E+08
        -0.22113E+08
         0.65489E+08
        -0.16614E+09
         0.95244E+08
         0.92388E+07
         0.45594E+08
        -0.66121E+08
        -0.15356E+09
         0.10914E+09
         0.51959E+08
         0.10774E+09
         0.10638E+09
        -0.13875E+08
         0.70313E+08
         0.10539E+09
         0.16354E+09
         0.18357E+09
         0.17275E+09
         0.91972E+08
        -0.24584E+08
        -0.51004E+08
        -0.80627E+08
        -0.11514E+09
        -0.17602E+09
        -0.15131E+09
        -0.11611E+09
        -0.17501E+09
        -0.17686E+09
        -0.11623E+09
        -0.11841E+08
         0.37503E+08
        -0.52648E+08
         0.11767E+09
         0.15299E+09
         0.18638E+09
         0.20968E+09
         0.21319E+09
         0.20704E+09
         0.20316E+09
         0.18901E+09
         0.12086E+09
         0.40395E+08
         0.19100E+08
         0.17240E+08
        -0.71053E+07
        -0.58141E+08
        -0.11261E+09
        -0.14463E+09
        -0.19495E+09
        -0.21099E+09
        -0.20375E+09
        -0.20188E+09
        -0.18991E+09
        -0.13642E+09
        -0.68954E+08
        -0.65744E+08
        -0.17154E+09
        -0.17403E+09
        -0.17012E+09
        -0.59026E+08
        -0.12587E+09
        -0.80052E+08
        -0.13582E+09
        -0.16521E+09
        -0.16719E+09
        -0.16434E+09
         0.17005E+09
         0.18891E+09
         0.14404E+09
         0.39693E+08
         0.17868E+09
         0.87334E+08
        -0.51684E+08
         0.70616E+08
         0.16568E+09
         0.56537E+08
         0.49841E+08
         0.37302E+08
        -0.22141E+08
         0.65407E+08
        -0.16619E+09
         0.94915E+08
         0.93656E+07
         0.46025E+08
        -0.65137E+08
        -0.15361E+09
         0.10903E+09
         0.51724E+08
         0.10815E+09
         0.10646E+09
        -0.13734E+08
         0.70377E+08
         0.10541E+09
         0.16356E+09
         0.18359E+09
         0.17273E+09
         0.92005E+08
        -0.24456E+08
        -0.51024E+08
        -0.80719E+08
        -0.11520E+09
        -0.17603E+09
        -0.15132E+09
        -0.11605E+09
        -0.17501E+09
        -0.17684E+09
        -0.11624E+09
        -0.11670E+08
         0.37480E+08
        -0.52663E+08
         0.11770E+09
         0.15299E+09
         0.18638E+09
         0.20968E+09
         0.21318E+09
         0.20703E+09
         0.20316E+09
         0.18901E+09
         0.12086E+09
         0.40421E+08
         0.19102E+08
         0.17274E+08
        -0.70441E+07
        -0.58161E+08
        -0.11264E+09
        -0.14464E+09
        -0.19496E+09
        -0.21098E+09
        -0.20376E+09
        -0.20189E+09
        -0.18992E+09
        -0.13640E+09
        -0.68913E+08
        -0.65689E+08
        -0.17153E+09
        -0.17402E+09
        -0.17012E+09
        -0.59375E+08
        -0.12594E+09
        -0.80158E+08
        -0.13559E+09
        -0.16534E+09
        -0.16722E+09
        -0.16450E+09
         0.17015E+09
         0.18890E+09
         0.14403E+09
         0.39787E+08
         0.17874E+09
         0.87264E+08
        -0.52016E+08
         0.70507E+08
         0.16570E+09
         0.56285E+08
         0.49961E+08
         0.37329E+08
        -0.22173E+08
         0.65316E+08
        -0.16624E+09
         0.94565E+08
         0.95022E+07
         0.46501E+08
        -0.64113E+08
        -0.15366E+09
         0.10892E+09
         0.51466E+08
         0.10857E+09
         0.10655E+09
        -0.13592E+08
         0.70443E+08
         0.10543E+09
         0.16358E+09
         0.18361E+09
         0.17272E+09
         0.92040E+08
        -0.24321E+08
        -0.51039E+08
        -0.80818E+08
        -0.11527E+09
        -0.17605E+09
        -0.15134E+09
        -0.11600E+09
        -0.17501E+09
        -0.17683E+09
        -0.11625E+09
        -0.11498E+08
         0.37457E+08
        -0.52677E+08
         0.11772E+09
         0.15299E+09
         0.18639E+09
         0.20967E+09
         0.21317E+09
         0.20701E+09
         0.20316E+09
         0.18901E+09
         0.12085E+09
         0.40448E+08
         0.19105E+08
         0.17308E+08
        -0.69830E+07
        -0.58181E+08
        -0.11268E+09
        -0.14465E+09
        -0.19497E+09
        -0.21098E+09
        -0.20376E+09
        -0.20189E+09
        -0.18993E+09
        -0.13638E+09
        -0.68873E+08
        -0.65633E+08
        -0.17151E+09
        -0.17401E+09
        -0.17012E+09
        -0.59733E+08
        -0.12600E+09
        -0.80265E+08
        -0.13534E+09
        -0.16546E+09
        -0.16726E+09
        -0.16465E+09
         0.17024E+09
         0.18889E+09
         0.14402E+09
         0.39905E+08
         0.17880E+09
         0.87198E+08
        -0.52361E+08
         0.70398E+08
         0.16573E+09
         0.56030E+08
         0.50082E+08
         0.37356E+08
        -0.22204E+08
         0.65225E+08
        -0.16630E+09
         0.94212E+08
         0.96633E+07
         0.47008E+08
        -0.63079E+08
        -0.15370E+09
         0.10881E+09
         0.51197E+08
         0.10899E+09
         0.10665E+09
        -0.13450E+08
         0.70510E+08
         0.10545E+09
         0.16360E+09
         0.18362E+09
         0.17270E+09
         0.92077E+08
        -0.24183E+08
        -0.51052E+08
        -0.80916E+08
        -0.11534E+09
        -0.17606E+09
        -0.15137E+09
        -0.11597E+09
        -0.17502E+09
        -0.17682E+09
        -0.11625E+09
        -0.11323E+08
         0.37434E+08
        -0.52691E+08
         0.11774E+09
         0.15299E+09
         0.18639E+09
         0.20966E+09
         0.21316E+09
         0.20700E+09
         0.20317E+09
         0.18901E+09
         0.12085E+09
         0.40476E+08
         0.19109E+08
         0.17343E+08
        -0.69218E+07
        -0.58202E+08
        -0.11271E+09
        -0.14467E+09
        -0.19497E+09
        -0.21098E+09
        -0.20377E+09
        -0.20189E+09
        -0.18994E+09
        -0.13637E+09
        -0.68832E+08
        -0.65578E+08
        -0.17150E+09
        -0.17400E+09
        -0.17012E+09
        -0.60097E+08
        -0.12607E+09
        -0.80373E+08
        -0.13508E+09
        -0.16558E+09
        -0.16729E+09
        -0.16480E+09
         0.17034E+09
         0.18888E+09
         0.14400E+09
         0.40028E+08
         0.17886E+09
         0.87134E+08
        -0.52712E+08
         0.70286E+08
         0.16575E+09
         0.55769E+08
         0.50202E+08
         0.37384E+08
        -0.22235E+08
         0.65138E+08
        -0.16636E+09
         0.93861E+08
         0.98305E+07
         0.47527E+08
        -0.62043E+08
        -0.15373E+09
         0.10871E+09
         0.50921E+08
         0.10943E+09
         0.10676E+09
        -0.13307E+08
         0.70578E+08
         0.10547E+09
         0.16362E+09
         0.18364E+09
         0.17269E+09
         0.92113E+08
        -0.24045E+08
        -0.51065E+08
        -0.81013E+08
        -0.11541E+09
        -0.17608E+09
        -0.15141E+09
        -0.11594E+09
        -0.17503E+09
        -0.17681E+09
        -0.11625E+09
        -0.11148E+08
         0.37411E+08
        -0.52705E+08
         0.11776E+09
         0.15299E+09
         0.18640E+09
         0.20965E+09
         0.21315E+09
         0.20699E+09
         0.20317E+09
         0.18901E+09
         0.12085E+09
         0.40503E+08
         0.19112E+08
         0.17378E+08
        -0.68604E+07
        -0.58222E+08
        -0.11275E+09
        -0.14468E+09
        -0.19498E+09
        -0.21098E+09
        -0.20378E+09
        -0.20190E+09
        -0.18995E+09
        -0.13635E+09
        -0.68791E+08
        -0.65523E+08
        -0.17149E+09
        -0.17399E+09
        -0.17012E+09
        -0.60459E+08
        -0.12614E+09
        -0.80480E+08
        -0.13482E+09
        -0.16570E+09
        -0.16732E+09
        -0.16495E+09
         0.17044E+09
         0.18887E+09
         0.14399E+09
         0.40156E+08
         0.17892E+09
         0.87070E+08
        -0.53063E+08
         0.70174E+08
         0.16577E+09
         0.55508E+08
         0.50323E+08
         0.37412E+08
        -0.22266E+08
         0.65048E+08
        -0.16641E+09
         0.93512E+08
         0.10002E+08
         0.48041E+08
        -0.61015E+08
        -0.15377E+09
         0.10860E+09
         0.50648E+08
         0.10986E+09
         0.10686E+09
        -0.13162E+08
         0.70643E+08
         0.10549E+09
         0.16365E+09
         0.18366E+09
         0.17267E+09
         0.92149E+08
        -0.23908E+08
        -0.51078E+08
        -0.81110E+08
        -0.11547E+09
        -0.17609E+09
        -0.15144E+09
        -0.11592E+09
        -0.17503E+09
        -0.17680E+09
        -0.11626E+09
        -0.10971E+08
         0.37388E+08
        -0.52719E+08
         0.11778E+09
         0.15299E+09
         0.18640E+09
         0.20965E+09
         0.21314E+09
         0.20698E+09
         0.20318E+09
         0.18901E+09
         0.12085E+09
         0.40530E+08
         0.19116E+08
         0.17413E+08
        -0.67993E+07
        -0.58242E+08
        -0.11279E+09
        -0.14469E+09
        -0.19499E+09
        -0.21098E+09
        -0.20378E+09
        -0.20190E+09
        -0.18995E+09
        -0.13633E+09
        -0.68751E+08
        -0.65467E+08
        -0.17148E+09
        -0.17398E+09
        -0.17012E+09
        -0.60817E+08
        -0.12620E+09
        -0.80586E+08
        -0.13456E+09
        -0.16582E+09
        -0.16736E+09
        -0.16509E+09
         0.17053E+09
         0.18886E+09
         0.14398E+09
         0.40279E+08
         0.17897E+09
         0.87006E+08
        -0.53414E+08
         0.70062E+08
         0.16580E+09
         0.55240E+08
         0.50442E+08
         0.37440E+08
        -0.22296E+08
         0.64959E+08
        -0.16647E+09
         0.93163E+08
         0.10168E+08
         0.48550E+08
        -0.59996E+08
        -0.15381E+09
         0.10850E+09
         0.50374E+08
         0.11029E+09
         0.10697E+09
        -0.13019E+08
         0.70711E+08
         0.10551E+09
         0.16367E+09
         0.18368E+09
         0.17265E+09
         0.92185E+08
        -0.23771E+08
        -0.51091E+08
        -0.81206E+08
        -0.11554E+09
        -0.17610E+09
        -0.15148E+09
        -0.11589E+09
        -0.17504E+09
        -0.17678E+09
        -0.11626E+09
        -0.10795E+08
         0.37365E+08
        -0.52733E+08
         0.11780E+09
         0.15299E+09
         0.18641E+09
         0.20964E+09
         0.21313E+09
         0.20696E+09
         0.20318E+09
         0.18900E+09
         0.12085E+09
         0.40557E+08
         0.19120E+08
         0.17449E+08
        -0.67384E+07
        -0.58263E+08
        -0.11282E+09
        -0.14471E+09
        -0.19499E+09
        -0.21097E+09
        -0.20379E+09
        -0.20191E+09
        -0.18996E+09
        -0.13631E+09
        -0.68710E+08
        -0.65412E+08
        -0.17147E+09
        -0.17396E+09
        -0.17012E+09
        -0.61174E+08
        -0.12627E+09
        -0.80691E+08
        -0.13431E+09
        -0.16594E+09
        -0.16739E+09
        -0.16524E+09
         0.17062E+09
         0.18884E+09
         0.14397E+09
         0.40406E+08
         0.17903E+09
         0.86943E+08
        -0.53763E+08
         0.69950E+08
         0.16582E+09
         0.54972E+08
         0.50563E+08
         0.37466E+08
        -0.22327E+08
         0.64871E+08
        -0.16653E+09
         0.92815E+08
         0.10338E+08
         0.49051E+08
        -0.58984E+08
        -0.15385E+09
         0.10839E+09
         0.50100E+08
         0.11073E+09
         0.10708E+09
        -0.12875E+08
         0.70778E+08
         0.10553E+09
         0.16369E+09
         0.18369E+09
         0.17264E+09
         0.92221E+08
        -0.23635E+08
        -0.51104E+08
        -0.81302E+08
        -0.11561E+09
        -0.17612E+09
        -0.15151E+09
        -0.11587E+09
        -0.17505E+09
        -0.17677E+09
        -0.11626E+09
        -0.10618E+08
         0.37342E+08
        -0.52747E+08
         0.11783E+09
         0.15299E+09
         0.18641E+09
         0.20963E+09
         0.21312E+09
         0.20695E+09
         0.20318E+09
         0.18900E+09
         0.12085E+09
         0.40584E+08
         0.19123E+08
         0.17484E+08
        -0.66772E+07
        -0.58283E+08
        -0.11286E+09
        -0.14472E+09
        -0.19500E+09
        -0.21097E+09
        -0.20380E+09
        -0.20191E+09
        -0.18997E+09
        -0.13630E+09
        -0.68670E+08
        -0.65356E+08
        -0.17146E+09
        -0.17395E+09
        -0.17012E+09
        -0.61534E+08
        -0.12633E+09
        -0.80798E+08
        -0.13405E+09
        -0.16606E+09
        -0.16743E+09
        -0.16538E+09
         0.17071E+09
         0.18883E+09
         0.14396E+09
         0.40533E+08
         0.17909E+09
         0.86880E+08
        -0.54112E+08
         0.69836E+08
         0.16584E+09
         0.54703E+08
         0.50683E+08
         0.37493E+08
        -0.22358E+08
         0.64784E+08
        -0.16658E+09
         0.92470E+08
         0.10503E+08
         0.49550E+08
        -0.57981E+08
        -0.15389E+09
         0.10828E+09
         0.49825E+08
         0.11116E+09
         0.10718E+09
        -0.12730E+08
         0.70845E+08
         0.10555E+09
         0.16372E+09
         0.18371E+09
         0.17262E+09
         0.92257E+08
        -0.23500E+08
        -0.51116E+08
        -0.81398E+08
        -0.11568E+09
        -0.17613E+09
        -0.15155E+09
        -0.11585E+09
        -0.17505E+09
        -0.17676E+09
        -0.11627E+09
        -0.10440E+08
         0.37318E+08
        -0.52761E+08
         0.11785E+09
         0.15300E+09
         0.18642E+09
         0.20962E+09
         0.21311E+09
         0.20694E+09
         0.20319E+09
         0.18900E+09
         0.12084E+09
         0.40611E+08
         0.19127E+08
         0.17518E+08
        -0.66158E+07
        -0.58303E+08
        -0.11290E+09
        -0.14473E+09
        -0.19501E+09
        -0.21097E+09
        -0.20380E+09
        -0.20191E+09
        -0.18998E+09
        -0.13628E+09
        -0.68630E+08
        -0.65300E+08
        -0.17145E+09
        -0.17394E+09
        -0.17012E+09
        -0.61894E+08
        -0.12640E+09
        -0.80906E+08
        -0.13380E+09
        -0.16617E+09
        -0.16746E+09
        -0.16552E+09
         0.17079E+09
         0.18882E+09
         0.14395E+09
         0.40656E+08
         0.17915E+09
         0.86817E+08
        -0.54458E+08
         0.69720E+08
         0.16587E+09
         0.54437E+08
         0.50804E+08
         0.37519E+08
        -0.22388E+08
         0.64696E+08
        -0.16664E+09
         0.92120E+08
         0.10673E+08
         0.50043E+08
        -0.56983E+08
        -0.15393E+09
         0.10818E+09
         0.49547E+08
         0.11159E+09
         0.10729E+09
        -0.12585E+08
         0.70912E+08
         0.10557E+09
         0.16374E+09
         0.18373E+09
         0.17261E+09
         0.92293E+08
        -0.23364E+08
        -0.51128E+08
        -0.81494E+08
        -0.11575E+09
        -0.17615E+09
        -0.15158E+09
        -0.11582E+09
        -0.17506E+09
        -0.17675E+09
        -0.11627E+09
        -0.10263E+08
         0.37295E+08
        -0.52774E+08
         0.11787E+09
         0.15300E+09
         0.18642E+09
         0.20962E+09
         0.21310E+09
         0.20693E+09
         0.20319E+09
         0.18900E+09
         0.12084E+09
         0.40638E+08
         0.19130E+08
         0.17554E+08
        -0.65547E+07
        -0.58323E+08
        -0.11293E+09
        -0.14475E+09
        -0.19501E+09
        -0.21097E+09
        -0.20381E+09
        -0.20192E+09
        -0.18999E+09
        -0.13626E+09
        -0.68590E+08
        -0.65245E+08
        -0.17144E+09
        -0.17393E+09
        -0.17012E+09
        -0.62252E+08
        -0.12646E+09
        -0.81013E+08
        -0.13355E+09
        -0.16629E+09
        -0.16749E+09
        -0.16566E+09
         0.17088E+09
         0.18881E+09
         0.14393E+09
         0.40784E+08
         0.17921E+09
         0.86754E+08
        -0.54804E+08
         0.69607E+08
         0.16589E+09
         0.54166E+08
         0.50924E+08
         0.37546E+08
        -0.22419E+08
         0.64609E+08
        -0.16670E+09
         0.91771E+08
         0.10839E+08
         0.50530E+08
        -0.55995E+08
        -0.15396E+09
         0.10807E+09
         0.49271E+08
         0.11203E+09
         0.10739E+09
        -0.12440E+08
         0.70979E+08
         0.10559E+09
         0.16377E+09
         0.18375E+09
         0.17259E+09
         0.92329E+08
        -0.23228E+08
        -0.51141E+08
        -0.81590E+08
        -0.11582E+09
        -0.17616E+09
        -0.15162E+09
        -0.11580E+09
        -0.17507E+09
        -0.17673E+09
        -0.11628E+09
        -0.10086E+08
         0.37272E+08
        -0.52788E+08
         0.11789E+09
         0.15300E+09
         0.18643E+09
         0.20961E+09
         0.21309E+09
         0.20691E+09
         0.20320E+09
         0.18900E+09
         0.12084E+09
         0.40665E+08
         0.19134E+08
         0.17589E+08
        -0.64937E+07
        -0.58343E+08
        -0.11297E+09
        -0.14476E+09
        -0.19502E+09
        -0.21097E+09
        -0.20382E+09
        -0.20192E+09
        -0.19000E+09
        -0.13624E+09
        -0.68550E+08
        -0.65189E+08
        -0.17142E+09
        -0.17392E+09
        -0.17012E+09
        -0.62608E+08
        -0.12653E+09
        -0.81120E+08
        -0.13329E+09
        -0.16640E+09
        -0.16753E+09
        -0.16580E+09
         0.17096E+09
         0.18880E+09
         0.14392E+09
         0.40907E+08
         0.17927E+09
         0.86691E+08
        -0.55151E+08
         0.69494E+08
         0.16591E+09
         0.53894E+08
         0.51044E+08
         0.37572E+08
        -0.22449E+08
         0.64524E+08
        -0.16675E+09
         0.91423E+08
         0.11007E+08
         0.51007E+08
        -0.55015E+08
        -0.15400E+09
         0.10797E+09
         0.48993E+08
         0.11246E+09
         0.10750E+09
        -0.12295E+08
         0.71046E+08
         0.10561E+09
         0.16379E+09
         0.18376E+09
         0.17257E+09
         0.92365E+08
        -0.23093E+08
        -0.51154E+08
        -0.81685E+08
        -0.11589E+09
        -0.17617E+09
        -0.15165E+09
        -0.11578E+09
        -0.17507E+09
        -0.17672E+09
        -0.11628E+09
        -0.99072E+07
         0.37248E+08
        -0.52801E+08
         0.11791E+09
         0.15300E+09
         0.18644E+09
         0.20960E+09
         0.21308E+09
         0.20690E+09
         0.20320E+09
         0.18900E+09
         0.12084E+09
         0.40692E+08
         0.19138E+08
         0.17624E+08
        -0.64327E+07
        -0.58363E+08
        -0.11301E+09
        -0.14477E+09
        -0.19503E+09
        -0.21096E+09
        -0.20382E+09
        -0.20193E+09
        -0.19001E+09
        -0.13623E+09
        -0.68511E+08
        -0.65133E+08
        -0.17141E+09
        -0.17390E+09
        -0.17012E+09
        -0.62962E+08
        -0.12659E+09
        -0.81225E+08
        -0.13304E+09
        -0.16652E+09
        -0.16756E+09
        -0.16594E+09
         0.17104E+09
         0.18879E+09
         0.14391E+09
         0.41035E+08
         0.17933E+09
         0.86629E+08
        -0.55497E+08
         0.69380E+08
         0.16593E+09
         0.53620E+08
         0.51164E+08
         0.37597E+08
        -0.22479E+08
         0.64439E+08
        -0.16681E+09
         0.91073E+08
         0.11171E+08
         0.51480E+08
        -0.54045E+08
        -0.15404E+09
         0.10787E+09
         0.48716E+08
         0.11290E+09
         0.10761E+09
        -0.12149E+08
         0.71112E+08
         0.10563E+09
         0.16382E+09
         0.18378E+09
         0.17256E+09
         0.92401E+08
        -0.22958E+08
        -0.51167E+08
        -0.81781E+08
        -0.11595E+09
        -0.17619E+09
        -0.15169E+09
        -0.11576E+09
        -0.17508E+09
        -0.17671E+09
        -0.11628E+09
        -0.97280E+07
         0.37225E+08
        -0.52815E+08
         0.11793E+09
         0.15300E+09
         0.18644E+09
         0.20960E+09
         0.21307E+09
         0.20689E+09
         0.20321E+09
         0.18899E+09
         0.12084E+09
         0.40719E+08
         0.19141E+08
         0.17658E+08
        -0.63716E+07
        -0.58383E+08
        -0.11304E+09
        -0.14478E+09
        -0.19503E+09
        -0.21096E+09
        -0.20383E+09
        -0.20193E+09
        -0.19002E+09
        -0.13621E+09
        -0.68471E+08
        -0.65077E+08
        -0.17140E+09
        -0.17389E+09
        -0.17012E+09
        -0.63316E+08
        -0.12666E+09
        -0.81332E+08
        -0.13279E+09
        -0.16663E+09
        -0.16760E+09
        -0.16607E+09
         0.17111E+09
         0.18878E+09
         0.14390E+09
         0.41158E+08
         0.17939E+09
         0.86566E+08
        -0.55844E+08
         0.69263E+08
         0.16596E+09
         0.53351E+08
         0.51284E+08
         0.37622E+08
        -0.22509E+08
         0.64353E+08
        -0.16687E+09
         0.90722E+08
         0.11340E+08
         0.51947E+08
        -0.53082E+08
        -0.15408E+09
         0.10776E+09
         0.48437E+08
         0.11333E+09
         0.10771E+09
        -0.12003E+08
         0.71179E+08
         0.10565E+09
         0.16384E+09
         0.18380E+09
         0.17254E+09
         0.92438E+08
        -0.22825E+08
        -0.51181E+08
        -0.81876E+08
        -0.11602E+09
        -0.17620E+09
        -0.15172E+09
        -0.11573E+09
        -0.17509E+09
        -0.17669E+09
        -0.11629E+09
        -0.95497E+07
         0.37201E+08
        -0.52828E+08
         0.11795E+09
         0.15300E+09
         0.18645E+09
         0.20959E+09
         0.21306E+09
         0.20688E+09
         0.20321E+09
         0.18899E+09
         0.12083E+09
         0.40746E+08
         0.19143E+08
         0.17693E+08
        -0.63108E+07
        -0.58403E+08
        -0.11308E+09
        -0.14480E+09
        -0.19504E+09
        -0.21096E+09
        -0.20384E+09
        -0.20193E+09
        -0.19003E+09
        -0.13619E+09
        -0.68432E+08
        -0.65021E+08
        -0.17139E+09
        -0.17388E+09
        -0.17012E+09
        -0.63671E+08
        -0.12672E+09
        -0.81439E+08
        -0.13255E+09
        -0.16675E+09
        -0.16763E+09
        -0.16621E+09
         0.17119E+09
         0.18877E+09
         0.14389E+09
         0.41286E+08
         0.17944E+09
         0.86504E+08
        -0.56195E+08
         0.69146E+08
         0.16598E+09
         0.53093E+08
         0.51403E+08
         0.37646E+08
        -0.22539E+08
         0.64267E+08
        -0.16693E+09
         0.90375E+08
         0.11508E+08
         0.52411E+08
        -0.52126E+08
        -0.15411E+09
         0.10765E+09
         0.48155E+08
         0.11377E+09
         0.10782E+09
        -0.11857E+08
         0.71247E+08
         0.10567E+09
         0.16387E+09
         0.18381E+09
         0.17252E+09
         0.92477E+08
        -0.22691E+08
        -0.51197E+08
        -0.81971E+08
        -0.11609E+09
        -0.17622E+09
        -0.15176E+09
        -0.11571E+09
        -0.17509E+09
        -0.17668E+09
        -0.11629E+09
        -0.93709E+07
         0.37177E+08
        -0.52841E+08
         0.11797E+09
         0.15300E+09
         0.18645E+09
         0.20958E+09
         0.21305E+09
         0.20686E+09
         0.20321E+09
         0.18899E+09
         0.12083E+09
         0.40772E+08
         0.19145E+08
         0.17727E+08
        -0.62501E+07
        -0.58423E+08
        -0.11312E+09
        -0.14481E+09
        -0.19505E+09
        -0.21096E+09
        -0.20384E+09
        -0.20194E+09
        -0.19004E+09
        -0.13617E+09
        -0.68394E+08
        -0.64965E+08
        -0.17138E+09
        -0.17387E+09
        -0.17012E+09
        -0.64025E+08
        -0.12679E+09
        -0.81545E+08
        -0.13230E+09
        -0.16686E+09
        -0.16767E+09
        -0.16636E+09
         0.17126E+09
         0.18876E+09
         0.14388E+09
         0.41415E+08
         0.17950E+09
         0.86441E+08
        -0.56551E+08
         0.69029E+08
         0.16600E+09
         0.52850E+08
         0.51523E+08
         0.37669E+08
        -0.22569E+08
         0.64183E+08
        -0.16699E+09
         0.90025E+08
         0.11683E+08
         0.52870E+08
        -0.51179E+08
        -0.15414E+09
         0.10755E+09
         0.47876E+08
         0.11420E+09
         0.10792E+09
        -0.11709E+08
         0.71313E+08
         0.10569E+09
         0.16390E+09
         0.18383E+09
         0.17250E+09
         0.92517E+08
        -0.22559E+08
        -0.51215E+08
        -0.82066E+08
        -0.11616E+09
        -0.17623E+09
        -0.15179E+09
        -0.11569E+09
        -0.17510E+09
        -0.17667E+09
        -0.11630E+09
        -0.91903E+07
         0.37154E+08
        -0.52854E+08
         0.11800E+09
         0.15300E+09
         0.18646E+09
         0.20957E+09
         0.21304E+09
         0.20685E+09
         0.20322E+09
         0.18899E+09
         0.12084E+09
         0.40798E+08
         0.19144E+08
         0.17762E+08
        -0.61891E+07
        -0.58442E+08
        -0.11315E+09
        -0.14482E+09
        -0.19505E+09
        -0.21096E+09
        -0.20385E+09
        -0.20194E+09
        -0.19005E+09
        -0.13616E+09
        -0.68355E+08
        -0.64909E+08
        -0.17136E+09
        -0.17386E+09
        -0.17012E+09
        -0.64375E+08
        -0.12685E+09
        -0.81650E+08
        -0.13206E+09
        -0.16697E+09
        -0.16771E+09
        -0.16650E+09
         0.17133E+09
         0.18875E+09
         0.14386E+09
         0.41540E+08
         0.17956E+09
         0.86380E+08
        -0.56908E+08
         0.68912E+08
         0.16602E+09
         0.52613E+08
         0.51643E+08
         0.37693E+08
        -0.22598E+08
         0.64104E+08
        -0.16705E+09
         0.89686E+08
         0.11854E+08
         0.53309E+08
        -0.50248E+08
        -0.15417E+09
         0.10745E+09
         0.47602E+08
         0.11463E+09
         0.10803E+09
        -0.11564E+08
         0.71377E+08
         0.10570E+09
         0.16393E+09
         0.18384E+09
         0.17248E+09
         0.92557E+08
        -0.22429E+08
        -0.51236E+08
        -0.82159E+08
        -0.11623E+09
        -0.17624E+09
        -0.15183E+09
        -0.11566E+09
        -0.17511E+09
        -0.17666E+09
        -0.11630E+09
        -0.90101E+07
         0.37130E+08
        -0.52868E+08
         0.11802E+09
         0.15300E+09
         0.18646E+09
         0.20957E+09
         0.21303E+09
         0.20684E+09
         0.20322E+09
         0.18898E+09
         0.12084E+09
         0.40822E+08
         0.19142E+08
         0.17796E+08
        -0.61281E+07
        -0.58462E+08
        -0.11319E+09
        -0.14484E+09
        -0.19506E+09
        -0.21095E+09
        -0.20386E+09
        -0.20194E+09
        -0.19006E+09
        -0.13614E+09
        -0.68317E+08
        -0.64853E+08
        -0.16501E+09
        -0.15611E+09
        -0.15148E+09
        -0.53755E+08
        -0.12059E+09
        -0.74663E+08
        -0.95766E+08
        -0.15902E+09
        -0.15368E+09
        -0.15821E+09
         0.13553E+09
         0.18472E+09
         0.13968E+09
         0.37055E+08
         0.17608E+09
         0.81050E+08
        -0.45820E+08
         0.49453E+08
         0.14158E+09
         0.32753E+08
         0.50554E+08
         0.36698E+08
        -0.22032E+08
         0.50074E+08
        -0.14943E+09
         0.64837E+08
         0.10698E+08
         0.35921E+08
        -0.30917E+08
        -0.13786E+09
         0.98490E+08
         0.35594E+08
         0.94531E+08
         0.84605E+08
        -0.11020E+08
         0.65840E+08
         0.10052E+09
         0.15972E+09
         0.17676E+09
         0.16481E+09
         0.90295E+08
        -0.21726E+08
        -0.50017E+08
        -0.79545E+08
        -0.11115E+09
        -0.17068E+09
        -0.14306E+09
        -0.10768E+09
        -0.15817E+09
        -0.16288E+09
        -0.11201E+09
        -0.82582E+07
         0.36865E+08
        -0.52584E+08
         0.11740E+09
         0.15222E+09
         0.18558E+09
         0.20862E+09
         0.21196E+09
         0.20553E+09
         0.20186E+09
         0.18782E+09
         0.12012E+09
         0.40616E+08
         0.19012E+08
         0.17713E+08
        -0.60379E+07
        -0.58194E+08
        -0.11270E+09
        -0.14420E+09
        -0.19396E+09
        -0.20981E+09
        -0.20270E+09
        -0.20075E+09
        -0.18900E+09
        -0.13533E+09
        -0.67912E+08
        -0.64444E+08
        -0.82620E+08
        -0.52822E+08
        -0.49838E+08
        -0.14932E+08
        -0.53911E+08
        -0.27003E+08
        -0.21978E+08
        -0.72040E+08
        -0.56387E+08
        -0.70414E+08
         0.34442E+08
         0.11089E+09
         0.75884E+08
         0.12098E+08
         0.10839E+09
         0.33523E+08
        -0.11948E+08
         0.10396E+08
         0.41289E+08
         0.66871E+07
         0.29555E+08
         0.20448E+08
        -0.12446E+08
         0.12479E+08
        -0.49801E+08
         0.12526E+08
         0.35353E+07
         0.61223E+07
        -0.63079E+07
        -0.45930E+08
         0.36184E+08
         0.84188E+07
         0.25616E+08
         0.21243E+08
        -0.54611E+07
         0.24734E+08
         0.45190E+08
         0.90223E+08
         0.86996E+08
         0.77142E+08
         0.51805E+08
        -0.12086E+08
        -0.28840E+08
        -0.41431E+08
        -0.51926E+08
        -0.89749E+08
        -0.60360E+08
        -0.42534E+08
        -0.54583E+08
        -0.61309E+08
        -0.55944E+08
        -0.32910E+07
         0.29483E+08
        -0.42870E+08
         0.96678E+08
         0.12650E+09
         0.15585E+09
         0.17649E+09
         0.17681E+09
         0.16541E+09
         0.16033E+09
         0.15134E+09
         0.97224E+08
         0.33438E+08
         0.15222E+08
         0.14245E+08
        -0.49570E+07
        -0.48818E+08
        -0.95279E+08
        -0.12197E+09
        -0.15807E+09
        -0.17247E+09
        -0.16552E+09
        -0.16302E+09
        -0.15473E+09
        -0.11008E+09
        -0.55967E+08
        -0.52918E+08
  
SCALARS                      stress_xz  double 1
LOOKUP_TABLE default
         0.64331E+05
        -0.45371E+06
        -0.14978E+07
         0.10289E+06
        -0.10767E+02
         0.38176E+01
         0.12765E+02
         0.25494E+01
        -0.42145E+07
        -0.28157E+07
         0.38182E+02
         0.34392E+02
         0.17970E+06
        -0.73328E+06
        -0.47091E+01
        -0.22060E+02
        -0.15043E+06
        -0.70370E+06
        -0.15935E+02
        -0.23732E+02
        -0.10313E+07
        -0.17378E+07
        -0.16456E+07
        -0.15847E+02
        -0.73075E+01
         0.12767E+02
        -0.18356E+07
        -0.14906E+07
        -0.29664E+02
        -0.23531E+02
         0.35199E+06
        -0.78193E+06
         0.74824E+05
         0.30201E+01
        -0.11671E+02
        -0.71903E+01
         0.10443E+07
         0.50340E+06
        -0.17328E+02
        -0.18450E+02
         0.20816E+07
         0.29496E+07
        -0.39086E+02
        -0.28824E+02
         0.22270E+07
         0.11860E+07
        -0.42924E+02
        -0.20660E+02
        -0.63935E+06
        -0.12968E+02
         0.15224E+07
        -0.36099E+01
        -0.66696E+06
        -0.25340E+02
         0.49824E+06
        -0.67032E+01
         0.21799E+07
         0.59799E+06
        -0.57423E+01
        -0.13880E+02
        -0.37585E+05
         0.10369E+07
         0.11485E+02
         0.78758E+01
        -0.26928E+06
        -0.11552E+01
        -0.90144E+06
         0.75987E+01
        -0.59310E+07
        -0.40643E+07
         0.47494E+02
         0.34446E+02
        -0.26140E+07
         0.25081E+02
         0.61617E+06
        -0.17350E+02
         0.19282E+07
        -0.34052E+01
         0.40877E+07
        -0.52829E+01
         0.54084E+07
         0.38405E+07
        -0.19361E+02
        -0.22142E+02
         0.33922E+07
        -0.23813E+02
         0.27007E+07
        -0.34285E+02
         0.16819E+07
        -0.21868E+02
         0.26477E+07
         0.19473E+07
        -0.93329E+01
         0.12799E+02
        -0.44514E+06
         0.15013E+02
        -0.12219E+07
         0.63036E+01
        -0.29339E+07
         0.15566E+02
        -0.43370E+07
        -0.29765E+07
         0.35892E+02
         0.37453E+02
        -0.10622E+08
        -0.11762E+08
         0.66320E+02
         0.65357E+02
        -0.10521E+08
         0.56657E+02
        -0.95883E+07
         0.42340E+02
        -0.68791E+07
         0.23268E+02
        -0.49984E+07
         0.24881E+01
        -0.18547E+07
        -0.88619E+01
         0.23896E+07
        -0.70901E+01
         0.57027E+07
        -0.69687E+01
         0.84732E+07
        -0.15715E+02
         0.11397E+08
        -0.29898E+02
         0.13849E+08
        -0.35678E+02
         0.14721E+08
        -0.33663E+02
         0.14021E+08
        -0.36606E+02
         0.12849E+08
        -0.47508E+02
         0.11556E+08
        -0.56022E+02
         0.10192E+08
        -0.52078E+02
         0.81055E+07
        -0.42324E+02
         0.47560E+07
        -0.19981E+02
         0.40773E+06
         0.38154E+01
        -0.26597E+07
         0.92631E+01
        -0.41628E+07
         0.15147E+02
        -0.62608E+07
         0.29644E+02
        -0.82548E+07
         0.48644E+02
        -0.10850E+08
         0.58443E+02
        -0.12465E+08
         0.59776E+02
         0.89543E+06
        -0.46676E+06
        -0.54749E+06
         0.11008E+07
        -0.42735E+07
        -0.33007E+07
        -0.49929E+06
         0.73269E+06
         0.37723E+06
         0.67205E+06
        -0.36995E+06
        -0.16023E+07
        -0.33439E+07
         0.10696E+07
         0.12875E+07
        -0.14650E+07
        -0.12297E+07
         0.56978E+06
         0.88836E+06
         0.95522E+06
         0.52248E+07
         0.55607E+07
         0.50261E+07
         0.15618E+07
        -0.62573E+06
         0.46631E+06
         0.14999E+07
         0.16817E+06
         0.17224E+07
         0.11826E+07
        -0.13081E+07
        -0.25710E+06
         0.61642E+06
         0.19951E+06
        -0.63335E+07
        -0.40303E+07
        -0.36453E+07
         0.25534E+07
         0.14546E+07
         0.31152E+07
         0.64156E+07
         0.59676E+07
         0.58813E+07
         0.43244E+07
         0.31049E+07
         0.24332E+07
        -0.45631E+06
        -0.19031E+07
        -0.55040E+06
        -0.17468E+07
        -0.46718E+07
        -0.39287E+07
        -0.18549E+08
        -0.19442E+08
        -0.17382E+08
        -0.14782E+08
        -0.11007E+08
        -0.56111E+07
         0.33321E+06
         0.40018E+07
         0.60967E+07
         0.10468E+08
         0.17069E+08
         0.20725E+08
         0.18972E+08
         0.18190E+08
         0.19205E+08
         0.19192E+08
         0.17435E+08
         0.15276E+08
         0.77563E+07
        -0.12254E+07
        -0.47061E+07
        -0.52463E+07
        -0.88850E+07
        -0.14200E+08
        -0.18400E+08
        -0.19331E+08
        -0.58265E+08
         0.19235E+08
        -0.38685E+08
        -0.16088E+09
         0.13132E+09
         0.15819E+09
         0.99783E+08
        -0.75067E+08
        -0.53353E+08
        -0.75413E+08
        -0.29864E+08
         0.28042E+08
         0.11876E+09
        -0.17303E+09
        -0.70239E+08
         0.15408E+09
         0.16282E+09
        -0.14404E+09
        -0.50122E+08
        -0.15784E+09
        -0.18064E+09
        -0.18256E+09
        -0.18460E+09
        -0.15721E+09
         0.55856E+08
         0.87870E+08
        -0.17654E+09
         0.63273E+08
        -0.15305E+09
        -0.86252E+08
         0.13718E+09
         0.16128E+09
        -0.13402E+09
        -0.13276E+09
         0.18475E+09
         0.16408E+09
         0.14809E+09
        -0.93895E+08
        -0.20012E+08
        -0.61994E+08
        -0.16490E+09
        -0.18562E+09
        -0.18034E+09
        -0.16507E+09
        -0.14114E+09
        -0.61846E+08
         0.98732E+08
         0.13552E+09
        -0.21449E+08
         0.22110E+08
         0.14368E+09
         0.17927E+09
         0.20704E+09
         0.20422E+09
         0.17612E+09
         0.14622E+09
         0.10297E+09
         0.44473E+08
        -0.11462E+08
        -0.41300E+08
        -0.55694E+08
        -0.96008E+08
        -0.17367E+09
        -0.20743E+09
        -0.20668E+09
        -0.20587E+09
        -0.20828E+09
        -0.20156E+09
        -0.17790E+09
        -0.15538E+09
        -0.82000E+08
         0.20804E+08
         0.50594E+08
         0.53722E+08
         0.90106E+08
         0.15925E+09
         0.19862E+09
         0.19951E+09
        -0.58334E+08
         0.19302E+08
        -0.38738E+08
        -0.16077E+09
         0.13125E+09
         0.15813E+09
         0.10013E+09
        -0.74810E+08
        -0.53325E+08
        -0.75148E+08
        -0.29260E+08
         0.28111E+08
         0.11879E+09
        -0.17298E+09
        -0.70135E+08
         0.15413E+09
         0.16275E+09
        -0.14364E+09
        -0.50070E+08
        -0.15789E+09
        -0.18061E+09
        -0.18255E+09
        -0.18459E+09
        -0.15722E+09
         0.55757E+08
         0.88016E+08
        -0.17654E+09
         0.62084E+08
        -0.15343E+09
        -0.86165E+08
         0.13726E+09
         0.16131E+09
        -0.13368E+09
        -0.13270E+09
         0.18477E+09
         0.16405E+09
         0.14807E+09
        -0.93912E+08
        -0.20162E+08
        -0.62110E+08
        -0.16490E+09
        -0.18564E+09
        -0.18033E+09
        -0.16505E+09
        -0.14111E+09
        -0.61818E+08
         0.98712E+08
         0.13558E+09
        -0.21321E+08
         0.22063E+08
         0.14366E+09
         0.17926E+09
         0.20703E+09
         0.20421E+09
         0.17610E+09
         0.14622E+09
         0.10296E+09
         0.44473E+08
        -0.11479E+08
        -0.41336E+08
        -0.55660E+08
        -0.95996E+08
        -0.17367E+09
        -0.20743E+09
        -0.20668E+09
        -0.20587E+09
        -0.20829E+09
        -0.20156E+09
        -0.17789E+09
        -0.15538E+09
        -0.81982E+08
         0.20815E+08
         0.50562E+08
         0.53704E+08
         0.90068E+08
         0.15925E+09
         0.19862E+09
         0.19952E+09
        -0.58404E+08
         0.19368E+08
        -0.38789E+08
        -0.16066E+09
         0.13118E+09
         0.15806E+09
         0.10047E+09
        -0.74553E+08
        -0.53293E+08
        -0.74882E+08
        -0.28657E+08
         0.28179E+08
         0.11881E+09
        -0.17293E+09
        -0.70032E+08
         0.15417E+09
         0.16267E+09
        -0.14324E+09
        -0.50017E+08
        -0.15795E+09
        -0.18058E+09
        -0.18254E+09
        -0.18459E+09
        -0.15723E+09
         0.55669E+08
         0.88175E+08
        -0.17654E+09
         0.60909E+08
        -0.15381E+09
        -0.86082E+08
         0.13734E+09
         0.16134E+09
        -0.13333E+09
        -0.13265E+09
         0.18479E+09
         0.16402E+09
         0.14806E+09
        -0.93928E+08
        -0.20311E+08
        -0.62227E+08
        -0.16490E+09
        -0.18566E+09
        -0.18032E+09
        -0.16503E+09
        -0.14109E+09
        -0.61789E+08
         0.98693E+08
         0.13563E+09
        -0.21188E+08
         0.22013E+08
         0.14365E+09
         0.17925E+09
         0.20703E+09
         0.20420E+09
         0.17609E+09
         0.14622E+09
         0.10294E+09
         0.44473E+08
        -0.11496E+08
        -0.41371E+08
        -0.55626E+08
        -0.95984E+08
        -0.17367E+09
        -0.20743E+09
        -0.20668E+09
        -0.20586E+09
        -0.20829E+09
        -0.20156E+09
        -0.17788E+09
        -0.15538E+09
        -0.81963E+08
         0.20825E+08
         0.50530E+08
         0.53686E+08
         0.90030E+08
         0.15924E+09
         0.19862E+09
         0.19953E+09
        -0.58473E+08
         0.19437E+08
        -0.38840E+08
        -0.16055E+09
         0.13110E+09
         0.15800E+09
         0.10080E+09
        -0.74297E+08
        -0.53255E+08
        -0.74611E+08
        -0.28055E+08
         0.28250E+08
         0.11884E+09
        -0.17288E+09
        -0.69928E+08
         0.15422E+09
         0.16259E+09
        -0.14284E+09
        -0.49965E+08
        -0.15802E+09
        -0.18054E+09
        -0.18253E+09
        -0.18459E+09
        -0.15726E+09
         0.55611E+08
         0.88370E+08
        -0.17654E+09
         0.59770E+08
        -0.15423E+09
        -0.86008E+08
         0.13743E+09
         0.16140E+09
        -0.13298E+09
        -0.13259E+09
         0.18481E+09
         0.16399E+09
         0.14804E+09
        -0.93943E+08
        -0.20459E+08
        -0.62337E+08
        -0.16490E+09
        -0.18568E+09
        -0.18031E+09
        -0.16500E+09
        -0.14105E+09
        -0.61757E+08
         0.98672E+08
         0.13569E+09
        -0.21055E+08
         0.21963E+08
         0.14363E+09
         0.17925E+09
         0.20703E+09
         0.20420E+09
         0.17607E+09
         0.14622E+09
         0.10293E+09
         0.44473E+08
        -0.11514E+08
        -0.41407E+08
        -0.55591E+08
        -0.95972E+08
        -0.17367E+09
        -0.20742E+09
        -0.20668E+09
        -0.20586E+09
        -0.20829E+09
        -0.20156E+09
        -0.17786E+09
        -0.15538E+09
        -0.81944E+08
         0.20836E+08
         0.50498E+08
         0.53668E+08
         0.89991E+08
         0.15924E+09
         0.19863E+09
         0.19954E+09
        -0.58542E+08
         0.19505E+08
        -0.38891E+08
        -0.16043E+09
         0.13103E+09
         0.15794E+09
         0.10115E+09
        -0.74040E+08
        -0.53211E+08
        -0.74335E+08
        -0.27452E+08
         0.28319E+08
         0.11887E+09
        -0.17284E+09
        -0.69824E+08
         0.15427E+09
         0.16252E+09
        -0.14243E+09
        -0.49907E+08
        -0.15809E+09
        -0.18051E+09
        -0.18253E+09
        -0.18459E+09
        -0.15729E+09
         0.55584E+08
         0.88594E+08
        -0.17653E+09
         0.58668E+08
        -0.15467E+09
        -0.85944E+08
         0.13753E+09
         0.16147E+09
        -0.13263E+09
        -0.13254E+09
         0.18482E+09
         0.16395E+09
         0.14803E+09
        -0.93957E+08
        -0.20604E+08
        -0.62446E+08
        -0.16490E+09
        -0.18571E+09
        -0.18031E+09
        -0.16495E+09
        -0.14099E+09
        -0.61719E+08
         0.98649E+08
         0.13574E+09
        -0.20922E+08
         0.21915E+08
         0.14361E+09
         0.17924E+09
         0.20702E+09
         0.20419E+09
         0.17606E+09
         0.14622E+09
         0.10291E+09
         0.44473E+08
        -0.11531E+08
        -0.41443E+08
        -0.55557E+08
        -0.95960E+08
        -0.17367E+09
        -0.20742E+09
        -0.20668E+09
        -0.20586E+09
        -0.20830E+09
        -0.20156E+09
        -0.17785E+09
        -0.15537E+09
        -0.81925E+08
         0.20846E+08
         0.50466E+08
         0.53650E+08
         0.89953E+08
         0.15924E+09
         0.19863E+09
         0.19954E+09
        -0.58608E+08
         0.19581E+08
        -0.38935E+08
        -0.16032E+09
         0.13096E+09
         0.15788E+09
         0.10149E+09
        -0.73785E+08
        -0.53165E+08
        -0.74063E+08
        -0.26846E+08
         0.28388E+08
         0.11890E+09
        -0.17279E+09
        -0.69721E+08
         0.15433E+09
         0.16244E+09
        -0.14202E+09
        -0.49848E+08
        -0.15816E+09
        -0.18048E+09
        -0.18252E+09
        -0.18459E+09
        -0.15733E+09
         0.55560E+08
         0.88824E+08
        -0.17653E+09
         0.57573E+08
        -0.15513E+09
        -0.85892E+08
         0.13763E+09
         0.16155E+09
        -0.13227E+09
        -0.13247E+09
         0.18484E+09
         0.16392E+09
         0.14801E+09
        -0.93970E+08
        -0.20748E+08
        -0.62552E+08
        -0.16489E+09
        -0.18574E+09
        -0.18031E+09
        -0.16491E+09
        -0.14094E+09
        -0.61682E+08
         0.98622E+08
         0.13578E+09
        -0.20782E+08
         0.21871E+08
         0.14359E+09
         0.17923E+09
         0.20702E+09
         0.20418E+09
         0.17604E+09
         0.14622E+09
         0.10289E+09
         0.44474E+08
        -0.11548E+08
        -0.41478E+08
        -0.55523E+08
        -0.95948E+08
        -0.17366E+09
        -0.20742E+09
        -0.20667E+09
        -0.20585E+09
        -0.20830E+09
        -0.20156E+09
        -0.17783E+09
        -0.15537E+09
        -0.81906E+08
         0.20856E+08
         0.50433E+08
         0.53632E+08
         0.89915E+08
         0.15923E+09
         0.19863E+09
         0.19955E+09
        -0.58669E+08
         0.19675E+08
        -0.38965E+08
        -0.16020E+09
         0.13088E+09
         0.15782E+09
         0.10186E+09
        -0.73535E+08
        -0.53120E+08
        -0.73804E+08
        -0.26233E+08
         0.28456E+08
         0.11892E+09
        -0.17273E+09
        -0.69616E+08
         0.15438E+09
         0.16235E+09
        -0.14161E+09
        -0.49794E+08
        -0.15823E+09
        -0.18045E+09
        -0.18252E+09
        -0.18458E+09
        -0.15736E+09
         0.55523E+08
         0.89027E+08
        -0.17652E+09
         0.56452E+08
        -0.15558E+09
        -0.85849E+08
         0.13773E+09
         0.16163E+09
        -0.13190E+09
        -0.13240E+09
         0.18486E+09
         0.16389E+09
         0.14799E+09
        -0.93981E+08
        -0.20893E+08
        -0.62661E+08
        -0.16489E+09
        -0.18576E+09
        -0.18031E+09
        -0.16487E+09
        -0.14089E+09
        -0.61647E+08
         0.98580E+08
         0.13581E+09
        -0.20625E+08
         0.21843E+08
         0.14358E+09
         0.17922E+09
         0.20702E+09
         0.20417E+09
         0.17603E+09
         0.14622E+09
         0.10288E+09
         0.44474E+08
        -0.11566E+08
        -0.41514E+08
        -0.55489E+08
        -0.95937E+08
        -0.17366E+09
        -0.20741E+09
        -0.20667E+09
        -0.20585E+09
        -0.20831E+09
        -0.20156E+09
        -0.17782E+09
        -0.15536E+09
        -0.81887E+08
         0.20864E+08
         0.50398E+08
         0.53614E+08
         0.89879E+08
         0.15923E+09
         0.19863E+09
         0.19956E+09
        -0.58727E+08
         0.19774E+08
        -0.38989E+08
        -0.16007E+09
         0.13081E+09
         0.15776E+09
         0.10224E+09
        -0.73288E+08
        -0.53076E+08
        -0.73554E+08
        -0.25617E+08
         0.28525E+08
         0.11895E+09
        -0.17267E+09
        -0.69511E+08
         0.15443E+09
         0.16226E+09
        -0.14120E+09
        -0.49736E+08
        -0.15831E+09
        -0.18042E+09
        -0.18251E+09
        -0.18458E+09
        -0.15740E+09
         0.55478E+08
         0.89217E+08
        -0.17652E+09
         0.55325E+08
        -0.15603E+09
        -0.85811E+08
         0.13782E+09
         0.16172E+09
        -0.13152E+09
        -0.13232E+09
         0.18488E+09
         0.16386E+09
         0.14798E+09
        -0.93990E+08
        -0.21037E+08
        -0.62769E+08
        -0.16488E+09
        -0.18579E+09
        -0.18031E+09
        -0.16482E+09
        -0.14083E+09
        -0.61615E+08
         0.98532E+08
         0.13584E+09
        -0.20460E+08
         0.21821E+08
         0.14357E+09
         0.17921E+09
         0.20701E+09
         0.20416E+09
         0.17601E+09
         0.14622E+09
         0.10286E+09
         0.44474E+08
        -0.11583E+08
        -0.41549E+08
        -0.55454E+08
        -0.95926E+08
        -0.17366E+09
        -0.20741E+09
        -0.20667E+09
        -0.20585E+09
        -0.20831E+09
        -0.20156E+09
        -0.17780E+09
        -0.15536E+09
        -0.81868E+08
         0.20872E+08
         0.50363E+08
         0.53595E+08
         0.89843E+08
         0.15923E+09
         0.19863E+09
         0.19956E+09
        -0.58785E+08
         0.19875E+08
        -0.39011E+08
        -0.15995E+09
         0.13074E+09
         0.15769E+09
         0.10261E+09
        -0.73041E+08
        -0.53032E+08
        -0.73307E+08
        -0.25004E+08
         0.28594E+08
         0.11897E+09
        -0.17262E+09
        -0.69405E+08
         0.15448E+09
         0.16218E+09
        -0.14079E+09
        -0.49679E+08
        -0.15839E+09
        -0.18039E+09
        -0.18251E+09
        -0.18458E+09
        -0.15743E+09
         0.55434E+08
         0.89406E+08
        -0.17651E+09
         0.54199E+08
        -0.15647E+09
        -0.85772E+08
         0.13792E+09
         0.16180E+09
        -0.13113E+09
        -0.13225E+09
         0.18489E+09
         0.16383E+09
         0.14796E+09
        -0.93999E+08
        -0.21180E+08
        -0.62876E+08
        -0.16488E+09
        -0.18582E+09
        -0.18031E+09
        -0.16478E+09
        -0.14078E+09
        -0.61583E+08
         0.98486E+08
         0.13586E+09
        -0.20294E+08
         0.21800E+08
         0.14356E+09
         0.17921E+09
         0.20701E+09
         0.20415E+09
         0.17600E+09
         0.14622E+09
         0.10284E+09
         0.44474E+08
        -0.11600E+08
        -0.41584E+08
        -0.55420E+08
        -0.95914E+08
        -0.17365E+09
        -0.20740E+09
        -0.20667E+09
        -0.20584E+09
        -0.20832E+09
        -0.20156E+09
        -0.17779E+09
        -0.15535E+09
        -0.81849E+08
         0.20880E+08
         0.50328E+08
         0.53576E+08
         0.89807E+08
         0.15923E+09
         0.19864E+09
         0.19957E+09
        -0.58843E+08
         0.19977E+08
        -0.39034E+08
        -0.15983E+09
         0.13067E+09
         0.15763E+09
         0.10299E+09
        -0.72794E+08
        -0.52988E+08
        -0.73060E+08
        -0.24390E+08
         0.28662E+08
         0.11900E+09
        -0.17256E+09
        -0.69301E+08
         0.15453E+09
         0.16209E+09
        -0.14039E+09
        -0.49621E+08
        -0.15847E+09
        -0.18036E+09
        -0.18250E+09
        -0.18458E+09
        -0.15747E+09
         0.55390E+08
         0.89595E+08
        -0.17650E+09
         0.53080E+08
        -0.15689E+09
        -0.85733E+08
         0.13802E+09
         0.16188E+09
        -0.13075E+09
        -0.13217E+09
         0.18491E+09
         0.16380E+09
         0.14794E+09
        -0.94008E+08
        -0.21324E+08
        -0.62985E+08
        -0.16487E+09
        -0.18584E+09
        -0.18031E+09
        -0.16474E+09
        -0.14072E+09
        -0.61549E+08
         0.98437E+08
         0.13588E+09
        -0.20130E+08
         0.21777E+08
         0.14355E+09
         0.17920E+09
         0.20701E+09
         0.20414E+09
         0.17598E+09
         0.14622E+09
         0.10283E+09
         0.44474E+08
        -0.11617E+08
        -0.41619E+08
        -0.55386E+08
        -0.95903E+08
        -0.17365E+09
        -0.20740E+09
        -0.20667E+09
        -0.20584E+09
        -0.20832E+09
        -0.20156E+09
        -0.17777E+09
        -0.15535E+09
        -0.81830E+08
         0.20887E+08
         0.50292E+08
         0.53558E+08
         0.89771E+08
         0.15922E+09
         0.19864E+09
         0.19958E+09
        -0.58901E+08
         0.20078E+08
        -0.39059E+08
        -0.15971E+09
         0.13060E+09
         0.15757E+09
         0.10335E+09
        -0.72548E+08
        -0.52944E+08
        -0.72816E+08
        -0.23776E+08
         0.28731E+08
         0.11902E+09
        -0.17250E+09
        -0.69195E+08
         0.15457E+09
         0.16200E+09
        -0.13998E+09
        -0.49568E+08
        -0.15854E+09
        -0.18033E+09
        -0.18249E+09
        -0.18458E+09
        -0.15751E+09
         0.55346E+08
         0.89781E+08
        -0.17650E+09
         0.51960E+08
        -0.15731E+09
        -0.85693E+08
         0.13811E+09
         0.16196E+09
        -0.13037E+09
        -0.13210E+09
         0.18493E+09
         0.16377E+09
         0.14793E+09
        -0.94017E+08
        -0.21467E+08
        -0.63092E+08
        -0.16486E+09
        -0.18587E+09
        -0.18031E+09
        -0.16469E+09
        -0.14067E+09
        -0.61517E+08
         0.98388E+08
         0.13591E+09
        -0.19963E+08
         0.21755E+08
         0.14354E+09
         0.17919E+09
         0.20700E+09
         0.20414E+09
         0.17597E+09
         0.14622E+09
         0.10281E+09
         0.44474E+08
        -0.11634E+08
        -0.41655E+08
        -0.55352E+08
        -0.95892E+08
        -0.17365E+09
        -0.20740E+09
        -0.20667E+09
        -0.20584E+09
        -0.20833E+09
        -0.20156E+09
        -0.17776E+09
        -0.15534E+09
        -0.81812E+08
         0.20895E+08
         0.50256E+08
         0.53539E+08
         0.89735E+08
         0.15922E+09
         0.19864E+09
         0.19959E+09
        -0.58959E+08
         0.20178E+08
        -0.39081E+08
        -0.15958E+09
         0.13053E+09
         0.15751E+09
         0.10372E+09
        -0.72302E+08
        -0.52900E+08
        -0.72572E+08
        -0.23163E+08
         0.28800E+08
         0.11905E+09
        -0.17244E+09
        -0.69091E+08
         0.15462E+09
         0.16191E+09
        -0.13957E+09
        -0.49512E+08
        -0.15862E+09
        -0.18030E+09
        -0.18249E+09
        -0.18457E+09
        -0.15754E+09
         0.55301E+08
         0.89974E+08
        -0.17649E+09
         0.50845E+08
        -0.15771E+09
        -0.85657E+08
         0.13821E+09
         0.16204E+09
        -0.12998E+09
        -0.13202E+09
         0.18494E+09
         0.16374E+09
         0.14791E+09
        -0.94025E+08
        -0.21610E+08
        -0.63201E+08
        -0.16486E+09
        -0.18590E+09
        -0.18031E+09
        -0.16465E+09
        -0.14061E+09
        -0.61486E+08
         0.98342E+08
         0.13593E+09
        -0.19796E+08
         0.21734E+08
         0.14352E+09
         0.17918E+09
         0.20700E+09
         0.20413E+09
         0.17595E+09
         0.14622E+09
         0.10279E+09
         0.44474E+08
        -0.11651E+08
        -0.41690E+08
        -0.55317E+08
        -0.95881E+08
        -0.17365E+09
        -0.20739E+09
        -0.20667E+09
        -0.20583E+09
        -0.20833E+09
        -0.20157E+09
        -0.17774E+09
        -0.15533E+09
        -0.81793E+08
         0.20902E+08
         0.50221E+08
         0.53521E+08
         0.89700E+08
         0.15922E+09
         0.19864E+09
         0.19959E+09
        -0.59018E+08
         0.20280E+08
        -0.39102E+08
        -0.15945E+09
         0.13046E+09
         0.15745E+09
         0.10408E+09
        -0.72056E+08
        -0.52855E+08
        -0.72329E+08
        -0.22552E+08
         0.28869E+08
         0.11907E+09
        -0.17239E+09
        -0.68985E+08
         0.15467E+09
         0.16182E+09
        -0.13916E+09
        -0.49457E+08
        -0.15870E+09
        -0.18027E+09
        -0.18248E+09
        -0.18457E+09
        -0.15758E+09
         0.55256E+08
         0.90161E+08
        -0.17649E+09
         0.49728E+08
        -0.15810E+09
        -0.85619E+08
         0.13830E+09
         0.16212E+09
        -0.12958E+09
        -0.13194E+09
         0.18496E+09
         0.16371E+09
         0.14789E+09
        -0.94033E+08
        -0.21752E+08
        -0.63308E+08
        -0.16485E+09
        -0.18592E+09
        -0.18031E+09
        -0.16461E+09
        -0.14056E+09
        -0.61452E+08
         0.98293E+08
         0.13595E+09
        -0.19627E+08
         0.21711E+08
         0.14351E+09
         0.17917E+09
         0.20700E+09
         0.20412E+09
         0.17594E+09
         0.14622E+09
         0.10278E+09
         0.44474E+08
        -0.11668E+08
        -0.41725E+08
        -0.55283E+08
        -0.95870E+08
        -0.17364E+09
        -0.20739E+09
        -0.20667E+09
        -0.20583E+09
        -0.20834E+09
        -0.20157E+09
        -0.17773E+09
        -0.15533E+09
        -0.81774E+08
         0.20910E+08
         0.50185E+08
         0.53503E+08
         0.89664E+08
         0.15922E+09
         0.19865E+09
         0.19960E+09
        -0.59076E+08
         0.20380E+08
        -0.39124E+08
        -0.15933E+09
         0.13039E+09
         0.15738E+09
         0.10443E+09
        -0.71811E+08
        -0.52810E+08
        -0.72087E+08
        -0.21942E+08
         0.28937E+08
         0.11910E+09
        -0.17233E+09
        -0.68880E+08
         0.15472E+09
         0.16173E+09
        -0.13876E+09
        -0.49406E+08
        -0.15877E+09
        -0.18024E+09
        -0.18248E+09
        -0.18457E+09
        -0.15761E+09
         0.55210E+08
         0.90348E+08
        -0.17648E+09
         0.48617E+08
        -0.15849E+09
        -0.85580E+08
         0.13840E+09
         0.16220E+09
        -0.12919E+09
        -0.13186E+09
         0.18498E+09
         0.16368E+09
         0.14788E+09
        -0.94039E+08
        -0.21894E+08
        -0.63418E+08
        -0.16485E+09
        -0.18595E+09
        -0.18031E+09
        -0.16456E+09
        -0.14050E+09
        -0.61420E+08
         0.98243E+08
         0.13597E+09
        -0.19459E+08
         0.21689E+08
         0.14350E+09
         0.17916E+09
         0.20699E+09
         0.20411E+09
         0.17593E+09
         0.14622E+09
         0.10276E+09
         0.44474E+08
        -0.11685E+08
        -0.41760E+08
        -0.55248E+08
        -0.95859E+08
        -0.17364E+09
        -0.20739E+09
        -0.20667E+09
        -0.20583E+09
        -0.20834E+09
        -0.20157E+09
        -0.17771E+09
        -0.15532E+09
        -0.81755E+08
         0.20917E+08
         0.50150E+08
         0.53485E+08
         0.89628E+08
         0.15922E+09
         0.19865E+09
         0.19961E+09
        -0.59135E+08
         0.20479E+08
        -0.39146E+08
        -0.15920E+09
         0.13032E+09
         0.15732E+09
         0.10479E+09
        -0.71565E+08
        -0.52765E+08
        -0.71847E+08
        -0.21333E+08
         0.29007E+08
         0.11912E+09
        -0.17227E+09
        -0.68775E+08
         0.15477E+09
         0.16164E+09
        -0.13835E+09
        -0.49351E+08
        -0.15885E+09
        -0.18020E+09
        -0.18247E+09
        -0.18457E+09
        -0.15764E+09
         0.55165E+08
         0.90535E+08
        -0.17647E+09
         0.47507E+08
        -0.15886E+09
        -0.85541E+08
         0.13849E+09
         0.16228E+09
        -0.12879E+09
        -0.13179E+09
         0.18500E+09
         0.16364E+09
         0.14786E+09
        -0.94044E+08
        -0.22036E+08
        -0.63526E+08
        -0.16484E+09
        -0.18598E+09
        -0.18031E+09
        -0.16452E+09
        -0.14045E+09
        -0.61388E+08
         0.98196E+08
         0.13599E+09
        -0.19287E+08
         0.21668E+08
         0.14349E+09
         0.17915E+09
         0.20699E+09
         0.20410E+09
         0.17591E+09
         0.14622E+09
         0.10274E+09
         0.44474E+08
        -0.11702E+08
        -0.41794E+08
        -0.55214E+08
        -0.95848E+08
        -0.17364E+09
        -0.20738E+09
        -0.20666E+09
        -0.20582E+09
        -0.20835E+09
        -0.20157E+09
        -0.17770E+09
        -0.15532E+09
        -0.81736E+08
         0.20924E+08
         0.50114E+08
         0.53467E+08
         0.89592E+08
         0.15921E+09
         0.19865E+09
         0.19961E+09
        -0.59194E+08
         0.20582E+08
        -0.39168E+08
        -0.15908E+09
         0.13024E+09
         0.15726E+09
         0.10514E+09
        -0.71320E+08
        -0.52720E+08
        -0.71607E+08
        -0.20723E+08
         0.29075E+08
         0.11915E+09
        -0.17221E+09
        -0.68670E+08
         0.15482E+09
         0.16154E+09
        -0.13795E+09
        -0.49296E+08
        -0.15893E+09
        -0.18017E+09
        -0.18247E+09
        -0.18457E+09
        -0.15768E+09
         0.55117E+08
         0.90723E+08
        -0.17646E+09
         0.46398E+08
        -0.15923E+09
        -0.85501E+08
         0.13858E+09
         0.16236E+09
        -0.12839E+09
        -0.13171E+09
         0.18501E+09
         0.16361E+09
         0.14784E+09
        -0.94049E+08
        -0.22178E+08
        -0.63634E+08
        -0.16483E+09
        -0.18600E+09
        -0.18031E+09
        -0.16448E+09
        -0.14039E+09
        -0.61354E+08
         0.98148E+08
         0.13602E+09
        -0.19117E+08
         0.21644E+08
         0.14347E+09
         0.17914E+09
         0.20699E+09
         0.20409E+09
         0.17590E+09
         0.14622E+09
         0.10273E+09
         0.44474E+08
        -0.11719E+08
        -0.41828E+08
        -0.55180E+08
        -0.95837E+08
        -0.17364E+09
        -0.20738E+09
        -0.20666E+09
        -0.20582E+09
        -0.20835E+09
        -0.20157E+09
        -0.17768E+09
        -0.15531E+09
        -0.81716E+08
         0.20932E+08
         0.50078E+08
         0.53448E+08
         0.89556E+08
         0.15921E+09
         0.19865E+09
         0.19962E+09
        -0.59252E+08
         0.20682E+08
        -0.39190E+08
        -0.15895E+09
         0.13017E+09
         0.15720E+09
         0.10549E+09
        -0.71076E+08
        -0.52673E+08
        -0.71366E+08
        -0.20115E+08
         0.29145E+08
         0.11917E+09
        -0.17216E+09
        -0.68564E+08
         0.15486E+09
         0.16145E+09
        -0.13755E+09
        -0.49242E+08
        -0.15900E+09
        -0.18014E+09
        -0.18246E+09
        -0.18456E+09
        -0.15771E+09
         0.55068E+08
         0.90910E+08
        -0.17646E+09
         0.45279E+08
        -0.15958E+09
        -0.85464E+08
         0.13868E+09
         0.16243E+09
        -0.12799E+09
        -0.13163E+09
         0.18503E+09
         0.16358E+09
         0.14783E+09
        -0.94053E+08
        -0.22321E+08
        -0.63744E+08
        -0.16483E+09
        -0.18603E+09
        -0.18031E+09
        -0.16443E+09
        -0.14034E+09
        -0.61322E+08
         0.98099E+08
         0.13604E+09
        -0.18947E+08
         0.21621E+08
         0.14346E+09
         0.17914E+09
         0.20699E+09
         0.20409E+09
         0.17588E+09
         0.14622E+09
         0.10271E+09
         0.44475E+08
        -0.11735E+08
        -0.41863E+08
        -0.55146E+08
        -0.95827E+08
        -0.17363E+09
        -0.20737E+09
        -0.20666E+09
        -0.20582E+09
        -0.20836E+09
        -0.20157E+09
        -0.17767E+09
        -0.15531E+09
        -0.81697E+08
         0.20939E+08
         0.50043E+08
         0.53430E+08
         0.89521E+08
         0.15921E+09
         0.19865E+09
         0.19963E+09
        -0.59311E+08
         0.20782E+08
        -0.39211E+08
        -0.15882E+09
         0.13010E+09
         0.15713E+09
         0.10584E+09
        -0.70833E+08
        -0.52623E+08
        -0.71119E+08
        -0.19507E+08
         0.29214E+08
         0.11920E+09
        -0.17210E+09
        -0.68458E+08
         0.15491E+09
         0.16136E+09
        -0.13714E+09
        -0.49195E+08
        -0.15907E+09
        -0.18011E+09
        -0.18246E+09
        -0.18456E+09
        -0.15775E+09
         0.55011E+08
         0.91103E+08
        -0.17645E+09
         0.44131E+08
        -0.15993E+09
        -0.85436E+08
         0.13877E+09
         0.16251E+09
        -0.12758E+09
        -0.13155E+09
         0.18505E+09
         0.16355E+09
         0.14781E+09
        -0.94053E+08
        -0.22469E+08
        -0.63854E+08
        -0.16482E+09
        -0.18605E+09
        -0.18031E+09
        -0.16439E+09
        -0.14028E+09
        -0.61288E+08
         0.98052E+08
         0.13606E+09
        -0.18778E+08
         0.21599E+08
         0.14345E+09
         0.17913E+09
         0.20698E+09
         0.20408E+09
         0.17587E+09
         0.14622E+09
         0.10269E+09
         0.44475E+08
        -0.11752E+08
        -0.41898E+08
        -0.55112E+08
        -0.95817E+08
        -0.17363E+09
        -0.20737E+09
        -0.20666E+09
        -0.20581E+09
        -0.20836E+09
        -0.20157E+09
        -0.17765E+09
        -0.15530E+09
        -0.81678E+08
         0.20946E+08
         0.50007E+08
         0.53411E+08
         0.89485E+08
         0.15921E+09
         0.19865E+09
         0.19964E+09
        -0.59370E+08
         0.20882E+08
        -0.39232E+08
        -0.15869E+09
         0.13003E+09
         0.15707E+09
         0.10618E+09
        -0.70589E+08
        -0.52568E+08
        -0.70866E+08
        -0.18902E+08
         0.29283E+08
         0.11922E+09
        -0.17204E+09
        -0.68351E+08
         0.15496E+09
         0.16126E+09
        -0.13673E+09
        -0.49142E+08
        -0.15914E+09
        -0.18008E+09
        -0.18245E+09
        -0.18456E+09
        -0.15778E+09
         0.54945E+08
         0.91288E+08
        -0.17644E+09
         0.42949E+08
        -0.16027E+09
        -0.85410E+08
         0.13887E+09
         0.16259E+09
        -0.12718E+09
        -0.13148E+09
         0.18506E+09
         0.16352E+09
         0.14780E+09
        -0.94050E+08
        -0.22622E+08
        -0.63966E+08
        -0.16481E+09
        -0.18608E+09
        -0.18031E+09
        -0.16435E+09
        -0.14023E+09
        -0.61256E+08
         0.98003E+08
         0.13609E+09
        -0.18606E+08
         0.21577E+08
         0.14344E+09
         0.17912E+09
         0.20698E+09
         0.20407E+09
         0.17585E+09
         0.14622E+09
         0.10268E+09
         0.44475E+08
        -0.11768E+08
        -0.41932E+08
        -0.55079E+08
        -0.95807E+08
        -0.17362E+09
        -0.20737E+09
        -0.20666E+09
        -0.20581E+09
        -0.20837E+09
        -0.20157E+09
        -0.17764E+09
        -0.15529E+09
        -0.81659E+08
         0.20953E+08
         0.49972E+08
         0.53393E+08
         0.89450E+08
         0.15920E+09
         0.19866E+09
         0.19964E+09
        -0.59428E+08
         0.20982E+08
        -0.39253E+08
        -0.15857E+09
         0.12996E+09
         0.15701E+09
         0.10652E+09
        -0.70347E+08
        -0.52511E+08
        -0.70612E+08
        -0.18301E+08
         0.29350E+08
         0.11925E+09
        -0.17198E+09
        -0.68244E+08
         0.15501E+09
         0.16116E+09
        -0.13633E+09
        -0.49087E+08
        -0.15920E+09
        -0.18005E+09
        -0.18245E+09
        -0.18456E+09
        -0.15781E+09
         0.54877E+08
         0.91474E+08
        -0.17643E+09
         0.41763E+08
        -0.16060E+09
        -0.85385E+08
         0.13896E+09
         0.16267E+09
        -0.12677E+09
        -0.13140E+09
         0.18508E+09
         0.16349E+09
         0.14778E+09
        -0.94045E+08
        -0.22776E+08
        -0.64075E+08
        -0.16480E+09
        -0.18610E+09
        -0.18031E+09
        -0.16431E+09
        -0.14017E+09
        -0.61224E+08
         0.97957E+08
         0.13611E+09
        -0.18436E+08
         0.21552E+08
         0.14343E+09
         0.17911E+09
         0.20698E+09
         0.20406E+09
         0.17584E+09
         0.14622E+09
         0.10266E+09
         0.44475E+08
        -0.11785E+08
        -0.41965E+08
        -0.55046E+08
        -0.95796E+08
        -0.17362E+09
        -0.20737E+09
        -0.20666E+09
        -0.20581E+09
        -0.20837E+09
        -0.20157E+09
        -0.17762E+09
        -0.15529E+09
        -0.81640E+08
         0.20961E+08
         0.49937E+08
         0.53375E+08
         0.89415E+08
         0.15920E+09
         0.19866E+09
         0.19965E+09
        -0.57280E+08
         0.18909E+08
        -0.34968E+08
        -0.13160E+09
         0.12338E+09
         0.14333E+09
         0.77564E+08
        -0.66754E+08
        -0.48054E+08
        -0.66835E+08
        -0.14058E+08
         0.28776E+08
         0.11580E+09
        -0.15294E+09
        -0.66809E+08
         0.14555E+09
         0.12892E+09
        -0.97725E+08
        -0.41799E+08
        -0.99501E+08
        -0.17582E+09
        -0.17751E+09
        -0.17982E+09
        -0.12335E+09
         0.49006E+08
         0.66410E+08
        -0.15715E+09
         0.27222E+08
        -0.10053E+09
        -0.76300E+08
         0.12754E+09
         0.12214E+09
        -0.10385E+09
        -0.10275E+09
         0.17839E+09
         0.15070E+09
         0.14052E+09
        -0.91619E+08
        -0.22030E+08
        -0.61325E+08
        -0.16070E+09
        -0.18109E+09
        -0.17590E+09
        -0.15892E+09
        -0.13396E+09
        -0.59259E+08
         0.92265E+08
         0.12682E+09
        -0.16518E+08
         0.19849E+08
         0.13812E+09
         0.16746E+09
         0.20566E+09
         0.20288E+09
         0.17489E+09
         0.14547E+09
         0.10216E+09
         0.44267E+08
        -0.11745E+08
        -0.41727E+08
        -0.54643E+08
        -0.95192E+08
        -0.17257E+09
        -0.20624E+09
        -0.20533E+09
        -0.20449E+09
        -0.20726E+09
        -0.20061E+09
        -0.17680E+09
        -0.15458E+09
        -0.81157E+08
         0.20860E+08
         0.49627E+08
         0.53042E+08
         0.88885E+08
         0.15827E+09
         0.19759E+09
         0.19855E+09
        -0.28695E+08
         0.64183E+07
        -0.11505E+08
        -0.36373E+08
         0.55099E+08
         0.51754E+08
         0.17842E+08
        -0.30185E+08
        -0.17611E+08
        -0.29699E+08
        -0.35204E+07
         0.17280E+08
         0.62910E+08
        -0.49843E+08
        -0.41089E+08
         0.60217E+08
         0.33431E+08
        -0.20539E+08
        -0.12183E+08
        -0.20355E+08
        -0.10260E+09
        -0.98856E+08
        -0.10163E+09
        -0.30741E+08
         0.16308E+08
         0.12842E+08
        -0.51442E+08
         0.45488E+07
        -0.20696E+08
        -0.25397E+08
         0.46887E+08
         0.28918E+08
        -0.28006E+08
        -0.25774E+08
         0.89575E+08
         0.56589E+08
         0.63172E+08
        -0.51777E+08
        -0.10880E+08
        -0.28729E+08
        -0.92184E+08
        -0.10092E+09
        -0.10133E+09
        -0.82745E+08
        -0.62566E+08
        -0.31155E+08
         0.38920E+08
         0.50153E+08
        -0.56680E+07
         0.74677E+07
         0.68963E+08
         0.67718E+08
         0.16461E+09
         0.16532E+09
         0.14401E+09
         0.12089E+09
         0.85779E+08
         0.37439E+08
        -0.98119E+07
        -0.33590E+08
        -0.43381E+08
        -0.76688E+08
        -0.13968E+09
        -0.16978E+09
        -0.16448E+09
        -0.16426E+09
        -0.17126E+09
        -0.16828E+09
        -0.14945E+09
        -0.13075E+09
        -0.66128E+08
         0.17159E+08
         0.40518E+08
         0.43064E+08
         0.72759E+08
         0.12876E+09
         0.16289E+09
         0.16313E+09
  
SCALARS                      stress_xy  double 1
LOOKUP_TABLE default
        -0.79754E+00
        -0.18723E+01
        -0.16051E+02
         0.56667E+00
        -0.18583E-08
         0.18161E-09
         0.27305E-08
         0.41595E-09
        -0.16936E+03
         0.74406E+02
         0.12154E-07
         0.96384E-08
         0.63413E+01
        -0.13158E+01
         0.10728E-08
        -0.32221E-09
         0.18212E+01
         0.31820E+02
         0.53409E-10
         0.81388E-09
        -0.24217E+02
        -0.15369E+03
        -0.15115E+03
         0.82758E-08
         0.65905E-08
        -0.96242E-08
        -0.16001E+02
        -0.13376E+03
         0.11143E-07
         0.17148E-07
        -0.48703E+01
         0.94393E+01
         0.76584E+00
        -0.58815E-09
         0.23202E-08
        -0.29676E-10
        -0.42966E+02
        -0.19981E+02
         0.62097E-08
         0.51441E-08
        -0.84225E+02
        -0.76035E+02
         0.10586E-07
         0.71342E-08
        -0.81660E+02
        -0.14989E+02
        -0.38563E-09
         0.28710E-08
         0.21819E+02
         0.84850E-09
        -0.51071E+01
        -0.19130E-10
         0.13424E+01
         0.64133E-08
         0.66477E+01
         0.98687E-09
         0.94857E+02
        -0.46162E+01
         0.22935E-10
        -0.11252E-09
         0.63066E+00
        -0.63505E+02
         0.62500E-09
         0.16031E-08
         0.27279E+01
        -0.12690E-09
         0.39221E+02
         0.10168E-08
        -0.20979E+03
        -0.76161E+02
         0.78542E-09
        -0.75212E-08
        -0.17131E+03
        -0.12026E-07
         0.70208E+02
         0.80546E-08
         0.22175E+03
         0.12000E-08
         0.38722E+03
         0.15605E-08
         0.75107E+03
         0.40917E+03
         0.36686E-08
        -0.93025E-09
         0.50502E+02
        -0.11194E-09
        -0.15476E+03
        -0.10096E-07
        -0.22788E+03
        -0.11273E-07
        -0.50144E+03
        -0.22866E+03
        -0.71362E-08
         0.79211E-08
         0.36754E+02
         0.72124E-08
         0.90510E+02
         0.30982E-08
         0.21151E+03
         0.82263E-08
         0.52029E+03
         0.29671E+03
         0.17639E-07
         0.88195E-08
        -0.85543E+03
         0.35837E+03
        -0.11460E-07
         0.14035E-07
        -0.20829E+04
        -0.32571E-07
        -0.27161E+04
        -0.35604E-07
        -0.23869E+04
        -0.24164E-07
        -0.20360E+04
        -0.25631E-08
        -0.89020E+03
         0.72243E-08
         0.11731E+04
         0.44729E-08
         0.26361E+04
         0.40890E-08
         0.34853E+04
         0.87731E-08
         0.34170E+04
         0.10667E-07
         0.28006E+04
         0.42025E-08
         0.14915E+04
         0.25622E-08
        -0.10212E+03
         0.41878E-08
        -0.12405E+04
         0.28072E-08
        -0.20004E+04
        -0.10011E-07
        -0.27304E+04
        -0.26267E-07
        -0.24463E+04
        -0.33335E-07
        -0.15715E+04
        -0.20631E-07
        -0.17215E+03
         0.39361E-08
         0.11626E+04
         0.83422E-08
         0.16811E+04
         0.13295E-07
         0.20574E+04
         0.26181E-07
         0.18443E+04
         0.33972E-07
         0.17163E+04
         0.24136E-07
         0.14174E+04
         0.19088E-07
        -0.86523E+02
         0.23355E+02
         0.23911E+02
        -0.14909E+02
         0.19141E+03
         0.15703E+03
         0.25077E+01
        -0.56521E+02
        -0.24933E+02
        -0.65225E+02
        -0.18788E+02
        -0.34723E+03
        -0.49481E+03
         0.18357E+02
         0.28179E+03
        -0.37486E+02
         0.27882E+02
         0.83134E+01
         0.16946E+02
        -0.13769E+02
         0.69181E+02
         0.60695E+02
        -0.18442E+03
         0.48294E+01
         0.41461E+02
         0.45681E+01
         0.76141E+00
         0.14925E+01
         0.18559E+02
        -0.61453E+02
        -0.32674E+02
         0.69728E+01
         0.11197E+02
        -0.88322E+00
        -0.46375E+02
        -0.15986E+03
        -0.32415E+03
         0.49097E+03
         0.25558E+03
         0.46276E+03
         0.89771E+03
         0.20722E+03
        -0.16695E+03
        -0.33674E+03
        -0.39963E+03
        -0.51186E+03
         0.62954E+02
         0.18820E+03
         0.58074E+02
         0.19588E+03
         0.61476E+03
         0.23613E+03
        -0.21042E+04
         0.26490E+04
        -0.64146E+04
        -0.75354E+04
        -0.71529E+04
        -0.43314E+04
         0.25875E+03
         0.28140E+04
         0.40792E+04
         0.66194E+04
         0.69752E+04
         0.37136E+04
         0.14953E+04
         0.63195E+03
        -0.10215E+04
        -0.40346E+04
        -0.67360E+04
        -0.77043E+04
        -0.47408E+04
         0.85847E+03
         0.31044E+04
         0.32717E+04
         0.51552E+04
         0.57327E+04
         0.43360E+04
         0.39988E+04
        -0.31708E+06
         0.95832E+05
        -0.18480E+06
        -0.21883E+06
         0.52514E+06
         0.37839E+06
         0.28148E+06
        -0.39137E+06
        -0.25713E+06
        -0.38795E+06
         0.12953E+06
        -0.17361E+06
        -0.55697E+06
         0.20585E+06
         0.41099E+06
        -0.40652E+06
         0.18736E+06
         0.16982E+06
         0.22006E+06
         0.16170E+06
         0.29055E+06
         0.22058E+06
        -0.13236E+06
         0.23395E+06
         0.26487E+06
        -0.13979E+06
         0.46953E+05
        -0.46954E+05
        -0.18128E+06
        -0.38730E+06
        -0.43389E+06
        -0.17944E+06
         0.34344E+06
         0.31030E+06
         0.85618E+05
        -0.35365E+06
        -0.49674E+06
         0.50134E+06
         0.11876E+06
         0.34493E+06
         0.49523E+06
        -0.15033E+06
        -0.29907E+06
        -0.42774E+06
        -0.51824E+06
        -0.35407E+06
         0.47126E+06
         0.48560E+06
        -0.11091E+06
         0.11991E+06
         0.54026E+06
         0.69182E+05
        -0.25721E+06
         0.35527E+06
        -0.68510E+06
        -0.73991E+06
        -0.63491E+06
        -0.30864E+06
         0.80862E+05
         0.28284E+06
         0.37412E+06
         0.60026E+06
         0.69432E+06
         0.27673E+06
         0.13042E+06
         0.11651E+06
        -0.50159E+05
        -0.38706E+06
        -0.66191E+06
        -0.74328E+06
        -0.52868E+06
         0.14519E+06
         0.34079E+06
         0.35846E+06
         0.56568E+06
         0.71845E+06
         0.45364E+06
         0.43478E+06
        -0.31746E+06
         0.96171E+05
        -0.18508E+06
        -0.22017E+06
         0.52511E+06
         0.37869E+06
         0.28262E+06
        -0.39038E+06
        -0.25717E+06
        -0.38712E+06
         0.12699E+06
        -0.17403E+06
        -0.55705E+06
         0.20614E+06
         0.41053E+06
        -0.40644E+06
         0.18880E+06
         0.16909E+06
         0.21992E+06
         0.16088E+06
         0.29119E+06
         0.22080E+06
        -0.13240E+06
         0.23385E+06
         0.26490E+06
        -0.13977E+06
         0.47495E+05
        -0.46329E+05
        -0.18049E+06
        -0.38728E+06
        -0.43394E+06
        -0.17909E+06
         0.34355E+06
         0.31059E+06
         0.84789E+05
        -0.35389E+06
        -0.49675E+06
         0.50151E+06
         0.11968E+06
         0.34556E+06
         0.49533E+06
        -0.14987E+06
        -0.29933E+06
        -0.42791E+06
        -0.51826E+06
        -0.35392E+06
         0.47120E+06
         0.48553E+06
        -0.11021E+06
         0.11962E+06
         0.54022E+06
         0.68214E+05
        -0.25705E+06
         0.35535E+06
        -0.68517E+06
        -0.73991E+06
        -0.63482E+06
        -0.30863E+06
         0.80981E+05
         0.28307E+06
         0.37390E+06
         0.60018E+06
         0.69429E+06
         0.27685E+06
         0.13042E+06
         0.11675E+06
        -0.49746E+05
        -0.38718E+06
        -0.66202E+06
        -0.74331E+06
        -0.52857E+06
         0.14527E+06
         0.34058E+06
         0.35835E+06
         0.56547E+06
         0.71835E+06
         0.45338E+06
         0.43443E+06
        -0.31784E+06
         0.96504E+05
        -0.18536E+06
        -0.22152E+06
         0.52508E+06
         0.37901E+06
         0.28375E+06
        -0.38939E+06
        -0.25720E+06
        -0.38628E+06
         0.12444E+06
        -0.17445E+06
        -0.55713E+06
         0.20641E+06
         0.41006E+06
        -0.40635E+06
         0.19026E+06
         0.16836E+06
         0.21977E+06
         0.16004E+06
         0.29184E+06
         0.22101E+06
        -0.13245E+06
         0.23374E+06
         0.26495E+06
        -0.13973E+06
         0.48075E+05
        -0.45721E+05
        -0.17959E+06
        -0.38726E+06
        -0.43399E+06
        -0.17867E+06
         0.34364E+06
         0.31088E+06
         0.83955E+05
        -0.35413E+06
        -0.49677E+06
         0.50167E+06
         0.12059E+06
         0.34620E+06
         0.49544E+06
        -0.14937E+06
        -0.29956E+06
        -0.42812E+06
        -0.51829E+06
        -0.35378E+06
         0.47115E+06
         0.48544E+06
        -0.10948E+06
         0.11931E+06
         0.54018E+06
         0.67247E+05
        -0.25689E+06
         0.35543E+06
        -0.68524E+06
        -0.73991E+06
        -0.63474E+06
        -0.30862E+06
         0.81100E+05
         0.28329E+06
         0.37368E+06
         0.60010E+06
         0.69425E+06
         0.27697E+06
         0.13042E+06
         0.11699E+06
        -0.49331E+05
        -0.38730E+06
        -0.66214E+06
        -0.74334E+06
        -0.52847E+06
         0.14534E+06
         0.34038E+06
         0.35823E+06
         0.56526E+06
         0.71825E+06
         0.45311E+06
         0.43408E+06
        -0.31821E+06
         0.96850E+05
        -0.18563E+06
        -0.22287E+06
         0.52504E+06
         0.37932E+06
         0.28487E+06
        -0.38840E+06
        -0.25720E+06
        -0.38541E+06
         0.12190E+06
        -0.17487E+06
        -0.55721E+06
         0.20671E+06
         0.40960E+06
        -0.40625E+06
         0.19172E+06
         0.16763E+06
         0.21963E+06
         0.15916E+06
         0.29250E+06
         0.22119E+06
        -0.13256E+06
         0.23355E+06
         0.26513E+06
        -0.13966E+06
         0.48675E+05
        -0.45216E+05
        -0.17840E+06
        -0.38725E+06
        -0.43402E+06
        -0.17810E+06
         0.34372E+06
         0.31118E+06
         0.83127E+05
        -0.35437E+06
        -0.49678E+06
         0.50183E+06
         0.12149E+06
         0.34681E+06
         0.49558E+06
        -0.14875E+06
        -0.29974E+06
        -0.42841E+06
        -0.51834E+06
        -0.35361E+06
         0.47110E+06
         0.48536E+06
        -0.10875E+06
         0.11900E+06
         0.54014E+06
         0.66281E+05
        -0.25673E+06
         0.35552E+06
        -0.68531E+06
        -0.73991E+06
        -0.63466E+06
        -0.30861E+06
         0.81220E+05
         0.28352E+06
         0.37345E+06
         0.60002E+06
         0.69422E+06
         0.27712E+06
         0.13043E+06
         0.11723E+06
        -0.48912E+05
        -0.38743E+06
        -0.66227E+06
        -0.74338E+06
        -0.52837E+06
         0.14541E+06
         0.34017E+06
         0.35812E+06
         0.56505E+06
         0.71815E+06
         0.45285E+06
         0.43373E+06
        -0.31859E+06
         0.97195E+05
        -0.18591E+06
        -0.22421E+06
         0.52501E+06
         0.37962E+06
         0.28599E+06
        -0.38740E+06
        -0.25717E+06
        -0.38450E+06
         0.11935E+06
        -0.17529E+06
        -0.55729E+06
         0.20701E+06
         0.40913E+06
        -0.40615E+06
         0.19321E+06
         0.16689E+06
         0.21947E+06
         0.15822E+06
         0.29316E+06
         0.22135E+06
        -0.13273E+06
         0.23328E+06
         0.26542E+06
        -0.13952E+06
         0.49345E+05
        -0.44801E+05
        -0.17692E+06
        -0.38724E+06
        -0.43405E+06
        -0.17735E+06
         0.34378E+06
         0.31147E+06
         0.82292E+05
        -0.35461E+06
        -0.49680E+06
         0.50198E+06
         0.12238E+06
         0.34742E+06
         0.49575E+06
        -0.14800E+06
        -0.29986E+06
        -0.42880E+06
        -0.51843E+06
        -0.35342E+06
         0.47105E+06
         0.48529E+06
        -0.10803E+06
         0.11870E+06
         0.54010E+06
         0.65307E+05
        -0.25656E+06
         0.35560E+06
        -0.68538E+06
        -0.73991E+06
        -0.63457E+06
        -0.30860E+06
         0.81339E+05
         0.28374E+06
         0.37323E+06
         0.59994E+06
         0.69420E+06
         0.27729E+06
         0.13045E+06
         0.11746E+06
        -0.48492E+05
        -0.38756E+06
        -0.66243E+06
        -0.74342E+06
        -0.52826E+06
         0.14548E+06
         0.33997E+06
         0.35801E+06
         0.56484E+06
         0.71804E+06
         0.45259E+06
         0.43338E+06
        -0.31895E+06
         0.97574E+05
        -0.18615E+06
        -0.22556E+06
         0.52497E+06
         0.37993E+06
         0.28709E+06
        -0.38640E+06
        -0.25713E+06
        -0.38360E+06
         0.11679E+06
        -0.17571E+06
        -0.55737E+06
         0.20734E+06
         0.40866E+06
        -0.40605E+06
         0.19472E+06
         0.16616E+06
         0.21930E+06
         0.15727E+06
         0.29382E+06
         0.22151E+06
        -0.13292E+06
         0.23299E+06
         0.26571E+06
        -0.13937E+06
         0.50067E+05
        -0.44420E+05
        -0.17529E+06
        -0.38726E+06
        -0.43406E+06
        -0.17651E+06
         0.34383E+06
         0.31177E+06
         0.81452E+05
        -0.35486E+06
        -0.49682E+06
         0.50213E+06
         0.12326E+06
         0.34802E+06
         0.49593E+06
        -0.14721E+06
        -0.29995E+06
        -0.42921E+06
        -0.51854E+06
        -0.35325E+06
         0.47099E+06
         0.48524E+06
        -0.10727E+06
         0.11843E+06
         0.54006E+06
         0.64328E+05
        -0.25640E+06
         0.35568E+06
        -0.68545E+06
        -0.73992E+06
        -0.63449E+06
        -0.30859E+06
         0.81456E+05
         0.28397E+06
         0.37301E+06
         0.59987E+06
         0.69418E+06
         0.27747E+06
         0.13047E+06
         0.11769E+06
        -0.48073E+05
        -0.38770E+06
        -0.66259E+06
        -0.74346E+06
        -0.52816E+06
         0.14555E+06
         0.33975E+06
         0.35789E+06
         0.56463E+06
         0.71794E+06
         0.45233E+06
         0.43303E+06
        -0.31928E+06
         0.98037E+05
        -0.18633E+06
        -0.22694E+06
         0.52494E+06
         0.38024E+06
         0.28818E+06
        -0.38541E+06
        -0.25710E+06
        -0.38274E+06
         0.11420E+06
        -0.17612E+06
        -0.55745E+06
         0.20778E+06
         0.40819E+06
        -0.40597E+06
         0.19627E+06
         0.16542E+06
         0.21916E+06
         0.15632E+06
         0.29448E+06
         0.22166E+06
        -0.13311E+06
         0.23270E+06
         0.26593E+06
        -0.13917E+06
         0.50917E+05
        -0.44030E+05
        -0.17361E+06
        -0.38731E+06
        -0.43407E+06
        -0.17562E+06
         0.34388E+06
         0.31207E+06
         0.80610E+05
        -0.35511E+06
        -0.49685E+06
         0.50228E+06
         0.12415E+06
         0.34863E+06
         0.49612E+06
        -0.14640E+06
        -0.30003E+06
        -0.42963E+06
        -0.51865E+06
        -0.35308E+06
         0.47090E+06
         0.48522E+06
        -0.10643E+06
         0.11823E+06
         0.54002E+06
         0.63335E+05
        -0.25624E+06
         0.35576E+06
        -0.68552E+06
        -0.73992E+06
        -0.63440E+06
        -0.30858E+06
         0.81573E+05
         0.28420E+06
         0.37279E+06
         0.59979E+06
         0.69415E+06
         0.27765E+06
         0.13049E+06
         0.11793E+06
        -0.47652E+05
        -0.38784E+06
        -0.66275E+06
        -0.74350E+06
        -0.52806E+06
         0.14561E+06
         0.33953E+06
         0.35778E+06
         0.56443E+06
         0.71784E+06
         0.45206E+06
         0.43268E+06
        -0.31960E+06
         0.98526E+05
        -0.18647E+06
        -0.22833E+06
         0.52490E+06
         0.38055E+06
         0.28927E+06
        -0.38442E+06
        -0.25707E+06
        -0.38190E+06
         0.11160E+06
        -0.17654E+06
        -0.55753E+06
         0.20824E+06
         0.40771E+06
        -0.40589E+06
         0.19783E+06
         0.16468E+06
         0.21900E+06
         0.15536E+06
         0.29514E+06
         0.22182E+06
        -0.13329E+06
         0.23242E+06
         0.26610E+06
        -0.13895E+06
         0.51800E+05
        -0.43627E+05
        -0.17190E+06
        -0.38737E+06
        -0.43407E+06
        -0.17469E+06
         0.34392E+06
         0.31238E+06
         0.79759E+05
        -0.35538E+06
        -0.49688E+06
         0.50242E+06
         0.12503E+06
         0.34923E+06
         0.49631E+06
        -0.14559E+06
        -0.30011E+06
        -0.43004E+06
        -0.51876E+06
        -0.35292E+06
         0.47079E+06
         0.48521E+06
        -0.10555E+06
         0.11808E+06
         0.53998E+06
         0.62338E+05
        -0.25608E+06
         0.35584E+06
        -0.68559E+06
        -0.73992E+06
        -0.63432E+06
        -0.30857E+06
         0.81691E+05
         0.28442E+06
         0.37256E+06
         0.59972E+06
         0.69413E+06
         0.27784E+06
         0.13051E+06
         0.11816E+06
        -0.47232E+05
        -0.38798E+06
        -0.66291E+06
        -0.74354E+06
        -0.52795E+06
         0.14566E+06
         0.33930E+06
         0.35766E+06
         0.56424E+06
         0.71774E+06
         0.45180E+06
         0.43233E+06
        -0.31992E+06
         0.99020E+05
        -0.18661E+06
        -0.22972E+06
         0.52487E+06
         0.38086E+06
         0.29033E+06
        -0.38343E+06
        -0.25704E+06
        -0.38107E+06
         0.10901E+06
        -0.17695E+06
        -0.55761E+06
         0.20873E+06
         0.40724E+06
        -0.40581E+06
         0.19939E+06
         0.16394E+06
         0.21884E+06
         0.15439E+06
         0.29580E+06
         0.22198E+06
        -0.13347E+06
         0.23214E+06
         0.26628E+06
        -0.13872E+06
         0.52704E+05
        -0.43202E+05
        -0.17016E+06
        -0.38744E+06
        -0.43406E+06
        -0.17377E+06
         0.34394E+06
         0.31269E+06
         0.78904E+05
        -0.35563E+06
        -0.49691E+06
         0.50256E+06
         0.12591E+06
         0.34983E+06
         0.49649E+06
        -0.14478E+06
        -0.30018E+06
        -0.43045E+06
        -0.51887E+06
        -0.35277E+06
         0.47069E+06
         0.48520E+06
        -0.10467E+06
         0.11793E+06
         0.53994E+06
         0.61334E+05
        -0.25592E+06
         0.35592E+06
        -0.68566E+06
        -0.73992E+06
        -0.63424E+06
        -0.30856E+06
         0.81808E+05
         0.28464E+06
         0.37234E+06
         0.59964E+06
         0.69411E+06
         0.27802E+06
         0.13054E+06
         0.11840E+06
        -0.46812E+05
        -0.38812E+06
        -0.66306E+06
        -0.74358E+06
        -0.52785E+06
         0.14571E+06
         0.33908E+06
         0.35754E+06
         0.56404E+06
         0.71763E+06
         0.45154E+06
         0.43198E+06
        -0.32023E+06
         0.99521E+05
        -0.18676E+06
        -0.23110E+06
         0.52483E+06
         0.38116E+06
         0.29140E+06
        -0.38243E+06
        -0.25702E+06
        -0.38024E+06
         0.10641E+06
        -0.17736E+06
        -0.55769E+06
         0.20919E+06
         0.40676E+06
        -0.40573E+06
         0.20096E+06
         0.16321E+06
         0.21868E+06
         0.15342E+06
         0.29646E+06
         0.22214E+06
        -0.13365E+06
         0.23186E+06
         0.26645E+06
        -0.13850E+06
         0.53583E+05
        -0.42758E+05
        -0.16841E+06
        -0.38750E+06
        -0.43406E+06
        -0.17284E+06
         0.34395E+06
         0.31299E+06
         0.78053E+05
        -0.35590E+06
        -0.49695E+06
         0.50270E+06
         0.12679E+06
         0.35044E+06
         0.49668E+06
        -0.14398E+06
        -0.30026E+06
        -0.43085E+06
        -0.51898E+06
        -0.35260E+06
         0.47058E+06
         0.48520E+06
        -0.10380E+06
         0.11777E+06
         0.53990E+06
         0.60333E+05
        -0.25575E+06
         0.35600E+06
        -0.68573E+06
        -0.73992E+06
        -0.63415E+06
        -0.30855E+06
         0.81925E+05
         0.28487E+06
         0.37212E+06
         0.59957E+06
         0.69409E+06
         0.27820E+06
         0.13056E+06
         0.11864E+06
        -0.46394E+05
        -0.38826E+06
        -0.66322E+06
        -0.74362E+06
        -0.52774E+06
         0.14576E+06
         0.33885E+06
         0.35743E+06
         0.56384E+06
         0.71753E+06
         0.45128E+06
         0.43162E+06
        -0.32055E+06
         0.10002E+06
        -0.18691E+06
        -0.23247E+06
         0.52480E+06
         0.38146E+06
         0.29245E+06
        -0.38144E+06
        -0.25699E+06
        -0.37941E+06
         0.10380E+06
        -0.17778E+06
        -0.55777E+06
         0.20967E+06
         0.40628E+06
        -0.40565E+06
         0.20252E+06
         0.16247E+06
         0.21854E+06
         0.15244E+06
         0.29711E+06
         0.22229E+06
        -0.13384E+06
         0.23159E+06
         0.26662E+06
        -0.13827E+06
         0.54477E+05
        -0.42287E+05
        -0.16663E+06
        -0.38755E+06
        -0.43405E+06
        -0.17191E+06
         0.34394E+06
         0.31330E+06
         0.77197E+05
        -0.35615E+06
        -0.49698E+06
         0.50284E+06
         0.12767E+06
         0.35104E+06
         0.49686E+06
        -0.14317E+06
        -0.30034E+06
        -0.43126E+06
        -0.51909E+06
        -0.35245E+06
         0.47047E+06
         0.48520E+06
        -0.10291E+06
         0.11761E+06
         0.53986E+06
         0.59325E+05
        -0.25559E+06
         0.35607E+06
        -0.68580E+06
        -0.73992E+06
        -0.63407E+06
        -0.30854E+06
         0.82040E+05
         0.28509E+06
         0.37189E+06
         0.59949E+06
         0.69407E+06
         0.27837E+06
         0.13059E+06
         0.11887E+06
        -0.45974E+05
        -0.38839E+06
        -0.66338E+06
        -0.74366E+06
        -0.52764E+06
         0.14581E+06
         0.33862E+06
         0.35731E+06
         0.56364E+06
         0.71743E+06
         0.45102E+06
         0.43127E+06
        -0.32086E+06
         0.10051E+06
        -0.18704E+06
        -0.23385E+06
         0.52476E+06
         0.38177E+06
         0.29350E+06
        -0.38044E+06
        -0.25696E+06
        -0.37858E+06
         0.10120E+06
        -0.17820E+06
        -0.55785E+06
         0.21015E+06
         0.40581E+06
        -0.40557E+06
         0.20408E+06
         0.16174E+06
         0.21838E+06
         0.15147E+06
         0.29777E+06
         0.22244E+06
        -0.13402E+06
         0.23131E+06
         0.26678E+06
        -0.13805E+06
         0.55351E+05
        -0.41801E+05
        -0.16483E+06
        -0.38762E+06
        -0.43405E+06
        -0.17098E+06
         0.34392E+06
         0.31361E+06
         0.76337E+05
        -0.35641E+06
        -0.49701E+06
         0.50297E+06
         0.12855E+06
         0.35165E+06
         0.49705E+06
        -0.14238E+06
        -0.30042E+06
        -0.43166E+06
        -0.51920E+06
        -0.35230E+06
         0.47037E+06
         0.48520E+06
        -0.10203E+06
         0.11746E+06
         0.53982E+06
         0.58318E+05
        -0.25543E+06
         0.35615E+06
        -0.68586E+06
        -0.73992E+06
        -0.63398E+06
        -0.30853E+06
         0.82156E+05
         0.28531E+06
         0.37167E+06
         0.59942E+06
         0.69404E+06
         0.27856E+06
         0.13061E+06
         0.11911E+06
        -0.45552E+05
        -0.38853E+06
        -0.66354E+06
        -0.74370E+06
        -0.52753E+06
         0.14587E+06
         0.33839E+06
         0.35719E+06
         0.56344E+06
         0.71732E+06
         0.45076E+06
         0.43092E+06
        -0.32118E+06
         0.10101E+06
        -0.18718E+06
        -0.23523E+06
         0.52473E+06
         0.38207E+06
         0.29453E+06
        -0.37944E+06
        -0.25692E+06
        -0.37775E+06
         0.98600E+05
        -0.17861E+06
        -0.55793E+06
         0.21060E+06
         0.40533E+06
        -0.40549E+06
         0.20563E+06
         0.16099E+06
         0.21823E+06
         0.15049E+06
         0.29843E+06
         0.22259E+06
        -0.13420E+06
         0.23104E+06
         0.26694E+06
        -0.13781E+06
         0.56249E+05
        -0.41289E+05
        -0.16302E+06
        -0.38768E+06
        -0.43404E+06
        -0.17004E+06
         0.34388E+06
         0.31391E+06
         0.75478E+05
        -0.35668E+06
        -0.49705E+06
         0.50311E+06
         0.12942E+06
         0.35225E+06
         0.49723E+06
        -0.14158E+06
        -0.30049E+06
        -0.43207E+06
        -0.51932E+06
        -0.35213E+06
         0.47026E+06
         0.48519E+06
        -0.10113E+06
         0.11730E+06
         0.53978E+06
         0.57310E+05
        -0.25526E+06
         0.35623E+06
        -0.68593E+06
        -0.73992E+06
        -0.63390E+06
        -0.30852E+06
         0.82273E+05
         0.28554E+06
         0.37145E+06
         0.59934E+06
         0.69402E+06
         0.27874E+06
         0.13063E+06
         0.11935E+06
        -0.45132E+05
        -0.38867E+06
        -0.66370E+06
        -0.74374E+06
        -0.52743E+06
         0.14592E+06
         0.33816E+06
         0.35708E+06
         0.56324E+06
         0.71722E+06
         0.45050E+06
         0.43057E+06
        -0.32150E+06
         0.10150E+06
        -0.18732E+06
        -0.23660E+06
         0.52469E+06
         0.38238E+06
         0.29555E+06
        -0.37844E+06
        -0.25689E+06
        -0.37691E+06
         0.96000E+05
        -0.17903E+06
        -0.55801E+06
         0.21108E+06
         0.40485E+06
        -0.40541E+06
         0.20718E+06
         0.16026E+06
         0.21810E+06
         0.14952E+06
         0.29908E+06
         0.22274E+06
        -0.13438E+06
         0.23077E+06
         0.26709E+06
        -0.13758E+06
         0.57124E+05
        -0.40760E+05
        -0.16119E+06
        -0.38773E+06
        -0.43403E+06
        -0.16910E+06
         0.34383E+06
         0.31422E+06
         0.74615E+05
        -0.35693E+06
        -0.49708E+06
         0.50324E+06
         0.13030E+06
         0.35286E+06
         0.49742E+06
        -0.14078E+06
        -0.30057E+06
        -0.43247E+06
        -0.51943E+06
        -0.35198E+06
         0.47015E+06
         0.48519E+06
        -0.10024E+06
         0.11714E+06
         0.53974E+06
         0.56306E+05
        -0.25510E+06
         0.35631E+06
        -0.68600E+06
        -0.73992E+06
        -0.63381E+06
        -0.30851E+06
         0.82390E+05
         0.28575E+06
         0.37122E+06
         0.59927E+06
         0.69400E+06
         0.27891E+06
         0.13066E+06
         0.11958E+06
        -0.44713E+05
        -0.38880E+06
        -0.66386E+06
        -0.74378E+06
        -0.52732E+06
         0.14597E+06
         0.33794E+06
         0.35696E+06
         0.56304E+06
         0.71712E+06
         0.45024E+06
         0.43021E+06
        -0.32182E+06
         0.10199E+06
        -0.18745E+06
        -0.23796E+06
         0.52465E+06
         0.38268E+06
         0.29657E+06
        -0.37744E+06
        -0.25686E+06
        -0.37609E+06
         0.93398E+05
        -0.17945E+06
        -0.55809E+06
         0.21153E+06
         0.40437E+06
        -0.40533E+06
         0.20873E+06
         0.15953E+06
         0.21794E+06
         0.14853E+06
         0.29974E+06
         0.22289E+06
        -0.13456E+06
         0.23051E+06
         0.26724E+06
        -0.13734E+06
         0.58014E+05
        -0.40206E+05
        -0.15934E+06
        -0.38779E+06
        -0.43402E+06
        -0.16816E+06
         0.34376E+06
         0.31452E+06
         0.73755E+05
        -0.35719E+06
        -0.49711E+06
         0.50336E+06
         0.13117E+06
         0.35346E+06
         0.49760E+06
        -0.13998E+06
        -0.30065E+06
        -0.43287E+06
        -0.51954E+06
        -0.35183E+06
         0.47004E+06
         0.48519E+06
        -0.99332E+05
         0.11699E+06
         0.53970E+06
         0.55294E+05
        -0.25493E+06
         0.35638E+06
        -0.68606E+06
        -0.73992E+06
        -0.63373E+06
        -0.30850E+06
         0.82505E+05
         0.28597E+06
         0.37100E+06
         0.59919E+06
         0.69398E+06
         0.27909E+06
         0.13068E+06
         0.11982E+06
        -0.44294E+05
        -0.38894E+06
        -0.66402E+06
        -0.74382E+06
        -0.52722E+06
         0.14601E+06
         0.33771E+06
         0.35685E+06
         0.56285E+06
         0.71701E+06
         0.44998E+06
         0.42986E+06
        -0.32214E+06
         0.10249E+06
        -0.18759E+06
        -0.23931E+06
         0.52461E+06
         0.38298E+06
         0.29757E+06
        -0.37644E+06
        -0.25682E+06
        -0.37525E+06
         0.90792E+05
        -0.17986E+06
        -0.55817E+06
         0.21201E+06
         0.40389E+06
        -0.40525E+06
         0.21029E+06
         0.15881E+06
         0.21779E+06
         0.14755E+06
         0.30039E+06
         0.22303E+06
        -0.13474E+06
         0.23024E+06
         0.26738E+06
        -0.13710E+06
         0.58879E+05
        -0.39631E+05
        -0.15748E+06
        -0.38784E+06
        -0.43401E+06
        -0.16722E+06
         0.34368E+06
         0.31483E+06
         0.72886E+05
        -0.35745E+06
        -0.49714E+06
         0.50349E+06
         0.13204E+06
         0.35406E+06
         0.49779E+06
        -0.13919E+06
        -0.30073E+06
        -0.43327E+06
        -0.51965E+06
        -0.35167E+06
         0.46993E+06
         0.48518E+06
        -0.98432E+05
         0.11683E+06
         0.53966E+06
         0.54278E+05
        -0.25477E+06
         0.35646E+06
        -0.68613E+06
        -0.73992E+06
        -0.63365E+06
        -0.30849E+06
         0.82618E+05
         0.28619E+06
         0.37077E+06
         0.59912E+06
         0.69395E+06
         0.27927E+06
         0.13070E+06
         0.12005E+06
        -0.43874E+05
        -0.38907E+06
        -0.66418E+06
        -0.74386E+06
        -0.52711E+06
         0.14606E+06
         0.33748E+06
         0.35674E+06
         0.56265E+06
         0.71691E+06
         0.44973E+06
         0.42950E+06
        -0.32245E+06
         0.10298E+06
        -0.18773E+06
        -0.24066E+06
         0.52457E+06
         0.38328E+06
         0.29857E+06
        -0.37543E+06
        -0.25678E+06
        -0.37441E+06
         0.88185E+05
        -0.18028E+06
        -0.55825E+06
         0.21246E+06
         0.40341E+06
        -0.40517E+06
         0.21185E+06
         0.15808E+06
         0.21765E+06
         0.14658E+06
         0.30105E+06
         0.22317E+06
        -0.13492E+06
         0.22998E+06
         0.26750E+06
        -0.13685E+06
         0.59768E+05
        -0.39025E+05
        -0.15560E+06
        -0.38789E+06
        -0.43399E+06
        -0.16628E+06
         0.34359E+06
         0.31514E+06
         0.72017E+05
        -0.35771E+06
        -0.49717E+06
         0.50360E+06
         0.13292E+06
         0.35467E+06
         0.49797E+06
        -0.13840E+06
        -0.30081E+06
        -0.43367E+06
        -0.51976E+06
        -0.35151E+06
         0.46983E+06
         0.48518E+06
        -0.97534E+05
         0.11667E+06
         0.53962E+06
         0.53269E+05
        -0.25460E+06
         0.35653E+06
        -0.68620E+06
        -0.73992E+06
        -0.63356E+06
        -0.30848E+06
         0.82730E+05
         0.28641E+06
         0.37055E+06
         0.59905E+06
         0.69393E+06
         0.27945E+06
         0.13072E+06
         0.12029E+06
        -0.43457E+05
        -0.38921E+06
        -0.66434E+06
        -0.74390E+06
        -0.52701E+06
         0.14611E+06
         0.33725E+06
         0.35662E+06
         0.56245E+06
         0.71680E+06
         0.44947E+06
         0.42915E+06
        -0.32277E+06
         0.10347E+06
        -0.18786E+06
        -0.24202E+06
         0.52454E+06
         0.38357E+06
         0.29955E+06
        -0.37443E+06
        -0.25671E+06
        -0.37353E+06
         0.85579E+05
        -0.18070E+06
        -0.55833E+06
         0.21293E+06
         0.40292E+06
        -0.40509E+06
         0.21341E+06
         0.15735E+06
         0.21753E+06
         0.14565E+06
         0.30170E+06
         0.22331E+06
        -0.13510E+06
         0.22971E+06
         0.26759E+06
        -0.13661E+06
         0.60652E+05
        -0.38376E+05
        -0.15371E+06
        -0.38797E+06
        -0.43398E+06
        -0.16532E+06
         0.34347E+06
         0.31544E+06
         0.71149E+05
        -0.35797E+06
        -0.49720E+06
         0.50371E+06
         0.13383E+06
         0.35527E+06
         0.49816E+06
        -0.13761E+06
        -0.30091E+06
        -0.43407E+06
        -0.51987E+06
        -0.35135E+06
         0.46972E+06
         0.48518E+06
        -0.96639E+05
         0.11650E+06
         0.53958E+06
         0.52256E+05
        -0.25443E+06
         0.35661E+06
        -0.68626E+06
        -0.73992E+06
        -0.63348E+06
        -0.30847E+06
         0.82844E+05
         0.28663E+06
         0.37033E+06
         0.59898E+06
         0.69392E+06
         0.27963E+06
         0.13073E+06
         0.12052E+06
        -0.43040E+05
        -0.38934E+06
        -0.66450E+06
        -0.74394E+06
        -0.52690E+06
         0.14616E+06
         0.33702E+06
         0.35650E+06
         0.56225E+06
         0.71670E+06
         0.44922E+06
         0.42879E+06
        -0.32309E+06
         0.10396E+06
        -0.18800E+06
        -0.24336E+06
         0.52449E+06
         0.38387E+06
         0.30053E+06
        -0.37342E+06
        -0.25664E+06
        -0.37262E+06
         0.82977E+05
        -0.18112E+06
        -0.55841E+06
         0.21340E+06
         0.40243E+06
        -0.40501E+06
         0.21500E+06
         0.15661E+06
         0.21738E+06
         0.14475E+06
         0.30235E+06
         0.22344E+06
        -0.13528E+06
         0.22945E+06
         0.26764E+06
        -0.13636E+06
         0.61576E+05
        -0.37675E+05
        -0.15180E+06
        -0.38804E+06
        -0.43396E+06
        -0.16437E+06
         0.34335E+06
         0.31574E+06
         0.70274E+05
        -0.35823E+06
        -0.49723E+06
         0.50381E+06
         0.13476E+06
         0.35589E+06
         0.49836E+06
        -0.13682E+06
        -0.30101E+06
        -0.43446E+06
        -0.51998E+06
        -0.35120E+06
         0.46961E+06
         0.48518E+06
        -0.95728E+05
         0.11635E+06
         0.53954E+06
         0.51234E+05
        -0.25427E+06
         0.35668E+06
        -0.68633E+06
        -0.73992E+06
        -0.63339E+06
        -0.30846E+06
         0.82956E+05
         0.28684E+06
         0.37012E+06
         0.59890E+06
         0.69391E+06
         0.27980E+06
         0.13072E+06
         0.12075E+06
        -0.42621E+05
        -0.38948E+06
        -0.66465E+06
        -0.74398E+06
        -0.52680E+06
         0.14621E+06
         0.33679E+06
         0.35639E+06
         0.56206E+06
         0.71660E+06
         0.44897E+06
         0.42844E+06
        -0.32340E+06
         0.10445E+06
        -0.18813E+06
        -0.24470E+06
         0.52446E+06
         0.38417E+06
         0.30149E+06
        -0.37241E+06
        -0.25655E+06
        -0.37171E+06
         0.80391E+05
        -0.18152E+06
        -0.55849E+06
         0.21385E+06
         0.40194E+06
        -0.40493E+06
         0.21659E+06
         0.15589E+06
         0.21723E+06
         0.14388E+06
         0.30300E+06
         0.22357E+06
        -0.13545E+06
         0.22920E+06
         0.26767E+06
        -0.13612E+06
         0.62476E+05
        -0.36939E+05
        -0.14990E+06
        -0.38811E+06
        -0.43395E+06
        -0.16344E+06
         0.34321E+06
         0.31605E+06
         0.69408E+05
        -0.35848E+06
        -0.49726E+06
         0.50390E+06
         0.13571E+06
         0.35649E+06
         0.49855E+06
        -0.13606E+06
        -0.30113E+06
        -0.43485E+06
        -0.52008E+06
        -0.35104E+06
         0.46951E+06
         0.48517E+06
        -0.94828E+05
         0.11618E+06
         0.53950E+06
         0.50216E+05
        -0.25410E+06
         0.35676E+06
        -0.68639E+06
        -0.73992E+06
        -0.63331E+06
        -0.30845E+06
         0.83068E+05
         0.28705E+06
         0.36990E+06
         0.59883E+06
         0.69390E+06
         0.27997E+06
         0.13071E+06
         0.12098E+06
        -0.42202E+05
        -0.38961E+06
        -0.66481E+06
        -0.74402E+06
        -0.52669E+06
         0.14626E+06
         0.33657E+06
         0.35627E+06
         0.56186E+06
         0.71649E+06
         0.44872E+06
         0.42808E+06
        -0.30196E+06
         0.87650E+05
        -0.15562E+06
        -0.18796E+06
         0.47675E+06
         0.32833E+06
         0.19430E+06
        -0.33915E+06
        -0.22127E+06
        -0.33716E+06
         0.54258E+05
        -0.17446E+06
        -0.52796E+06
         0.17464E+06
         0.38645E+06
        -0.36269E+06
         0.15796E+06
         0.10656E+06
         0.16882E+06
         0.80196E+05
         0.29026E+06
         0.21233E+06
        -0.12900E+06
         0.16184E+06
         0.22128E+06
        -0.94415E+05
         0.51733E+05
        -0.22630E+05
        -0.80291E+05
        -0.32018E+06
        -0.37545E+06
        -0.11050E+06
         0.25884E+06
         0.22487E+06
         0.63972E+05
        -0.31011E+06
        -0.45285E+06
         0.47927E+06
         0.12668E+06
         0.32759E+06
         0.47523E+06
        -0.12854E+06
        -0.28741E+06
        -0.40882E+06
        -0.47826E+06
        -0.32997E+06
         0.42065E+06
         0.42721E+06
        -0.79059E+05
         0.10048E+06
         0.50228E+06
         0.43578E+05
        -0.25088E+06
         0.35305E+06
        -0.67959E+06
        -0.73292E+06
        -0.62765E+06
        -0.30582E+06
         0.82426E+05
         0.28385E+06
         0.36503E+06
         0.59184E+06
         0.68611E+06
         0.27724E+06
         0.12908E+06
         0.11974E+06
        -0.41388E+05
        -0.38622E+06
        -0.65932E+06
        -0.73787E+06
        -0.52099E+06
         0.14487E+06
         0.33282E+06
         0.35222E+06
         0.55582E+06
         0.70858E+06
         0.44398E+06
         0.42335E+06
        -0.78574E+05
         0.11239E+05
        -0.19005E+05
        -0.17988E+05
         0.98547E+05
         0.46341E+05
         0.13006E+05
        -0.72135E+05
        -0.32902E+05
        -0.69371E+05
         0.40242E+04
        -0.63648E+05
        -0.15848E+06
         0.20018E+05
         0.14796E+06
        -0.66876E+05
         0.13239E+05
         0.70688E+04
         0.16677E+05
         0.45142E+04
         0.10061E+06
         0.67078E+05
        -0.41955E+05
         0.12714E+05
         0.26942E+05
        -0.53296E+04
         0.60370E+04
        -0.92433E+03
        -0.43330E+04
        -0.38706E+05
        -0.56206E+05
        -0.80682E+04
         0.23762E+05
         0.18141E+05
         0.16239E+05
        -0.46436E+05
        -0.94714E+05
         0.15517E+06
         0.31436E+05
         0.73596E+05
         0.15861E+06
        -0.40500E+05
        -0.97001E+05
        -0.11369E+06
        -0.10776E+06
        -0.92822E+05
         0.77942E+05
         0.70745E+05
        -0.10258E+05
         0.15185E+05
         0.12804E+06
         0.73920E+04
        -0.16144E+06
         0.23574E+06
        -0.46312E+06
        -0.50867E+06
        -0.44467E+06
        -0.21982E+06
         0.57718E+05
         0.18486E+06
         0.23143E+06
         0.38618E+06
         0.45185E+06
         0.18884E+06
         0.83257E+05
         0.77790E+05
        -0.28223E+05
        -0.27313E+06
        -0.47344E+06
        -0.53035E+06
        -0.34773E+06
         0.98445E+05
         0.22304E+06
         0.23345E+06
         0.37442E+06
         0.47141E+06
         0.30317E+06
         0.28708E+06
  
SCALARS                      strain_xx  double 1
LOOKUP_TABLE default
         0.34425E-04
         0.16451E-02
         0.18382E-01
         0.90784E-04
        -0.63952E-19
        -0.80401E-20
        -0.89896E-19
        -0.35857E-20
         0.14118E+00
         0.64027E-01
        -0.80425E-18
        -0.65252E-18
         0.24322E-03
         0.40413E-02
        -0.12234E-19
        -0.26847E-18
         0.19280E-03
         0.37324E-02
        -0.14008E-18
        -0.31071E-18
         0.76555E-02
         0.20921E-01
         0.19875E-01
        -0.13854E-18
        -0.29459E-19
        -0.89916E-19
         0.23408E-01
         0.14602E-01
        -0.48544E-18
        -0.30546E-18
         0.10532E-02
         0.49317E-02
         0.50028E-04
        -0.50320E-20
        -0.75145E-19
        -0.28522E-19
         0.89910E-02
         0.19526E-02
        -0.16564E-18
        -0.18778E-18
         0.34759E-01
         0.66165E-01
        -0.84282E-18
        -0.45836E-18
         0.41562E-01
         0.12028E-01
        -0.10164E-17
        -0.23548E-18
         0.29825E-02
        -0.92781E-19
         0.19742E-01
        -0.71892E-20
         0.30443E-02
        -0.35425E-18
         0.16702E-02
        -0.24788E-19
         0.31944E-01
         0.25556E-02
        -0.18191E-19
        -0.10628E-18
         0.11996E-04
         0.89401E-02
        -0.72769E-19
        -0.34219E-19
         0.62351E-03
        -0.73626E-21
         0.68196E-02
        -0.31853E-19
         0.27514E+00
         0.12890E+00
        -0.12444E-17
        -0.65457E-18
         0.52610E-01
        -0.34704E-18
         0.24456E-02
        -0.16607E-18
         0.23703E-01
        -0.63968E-20
         0.10688E+00
        -0.15397E-19
         0.19134E+00
         0.99553E-01
        -0.20679E-18
        -0.27048E-18
         0.82211E-01
        -0.31283E-18
         0.61003E-01
        -0.64847E-18
         0.23050E-01
        -0.26381E-18
         0.55751E-01
         0.29986E-01
        -0.48052E-19
        -0.90369E-19
         0.15916E-02
        -0.12434E-18
         0.12108E-01
        -0.21921E-19
         0.69105E-01
        -0.13367E-18
         0.14994E+00
         0.71455E-01
        -0.71068E-18
        -0.77385E-18
         0.84227E+00
         0.10522E+01
        -0.24264E-17
        -0.23565E-17
         0.81760E+00
        -0.17709E-17
         0.69411E+00
        -0.98898E-18
         0.34849E+00
        -0.29867E-18
         0.17279E+00
        -0.34153E-20
         0.22279E-01
        -0.43325E-19
         0.35625E-01
        -0.27732E-19
         0.20216E+00
        -0.26791E-19
         0.44716E+00
        -0.13624E-18
         0.84357E+00
        -0.49312E-18
         0.13319E+01
        -0.70222E-18
         0.16226E+01
        -0.62514E-18
         0.15457E+01
        -0.73922E-18
         0.13597E+01
        -0.12452E-17
         0.11327E+01
        -0.17314E-17
         0.87793E+00
        -0.14962E-17
         0.52179E+00
        -0.98824E-18
         0.17223E+00
        -0.22024E-18
         0.12334E-02
        -0.80307E-20
         0.53627E-01
        -0.47336E-19
         0.13360E+00
        -0.12658E-18
         0.29756E+00
        -0.48479E-18
         0.52049E+00
        -0.13054E-17
         0.90976E+00
        -0.18843E-17
         0.12206E+01
        -0.19712E-17
        -0.14103E-05
        -0.35324E-06
        -0.49157E-06
        -0.22023E-05
        -0.27198E-04
        -0.18040E-04
        -0.36123E-06
        -0.83577E-06
        -0.25468E-06
        -0.74295E-06
        -0.18267E-06
        -0.33401E-05
        -0.15579E-04
        -0.16007E-05
        -0.22212E-05
        -0.38831E-05
        -0.26859E-05
        -0.60655E-06
        -0.12678E-05
        -0.15095E-05
        -0.43311E-04
        -0.50462E-04
        -0.39110E-04
        -0.38276E-05
        -0.64623E-06
        -0.35761E-06
        -0.33888E-05
        -0.42952E-07
        -0.42026E-05
        -0.21976E-05
        -0.30679E-05
        -0.10704E-06
        -0.68077E-06
        -0.66789E-07
        -0.51222E-04
        -0.22806E-04
        -0.19470E-04
        -0.90871E-05
        -0.29290E-05
        -0.12303E-04
        -0.48769E-04
        -0.49488E-04
        -0.54983E-04
        -0.29210E-04
        -0.14068E-04
        -0.75879E-05
        -0.29834E-06
        -0.57863E-05
        -0.48048E-06
        -0.44504E-05
        -0.29026E-04
        -0.23213E-04
        -0.34147E-03
        -0.43120E-03
        -0.33728E-03
        -0.25170E-03
        -0.13857E-03
        -0.33508E-04
        -0.10912E-06
        -0.15305E-04
        -0.35927E-04
        -0.10508E-03
        -0.26951E-03
        -0.48764E-03
        -0.43735E-03
        -0.41233E-03
        -0.47994E-03
        -0.49490E-03
        -0.40801E-03
        -0.29683E-03
        -0.62671E-04
        -0.16458E-05
        -0.26003E-04
        -0.32276E-04
        -0.91494E-04
        -0.21847E-03
        -0.40460E-03
        -0.46233E-03
        -0.26673E-04
        -0.11240E-05
        -0.40737E-05
        -0.34537E-04
        -0.14532E-03
        -0.10613E-03
        -0.90084E-05
        -0.42929E-04
        -0.90635E-05
        -0.38799E-04
        -0.15835E-05
        -0.21077E-04
        -0.22811E-03
        -0.13415E-03
        -0.14392E-03
        -0.10295E-03
        -0.31907E-04
        -0.11446E-04
        -0.51839E-05
        -0.15988E-04
        -0.56284E-03
        -0.51122E-03
        -0.49781E-03
        -0.29123E-04
        -0.93952E-05
        -0.42595E-05
        -0.12527E-03
        -0.22085E-05
        -0.14031E-04
        -0.26092E-04
        -0.60769E-04
        -0.25445E-04
        -0.25563E-04
        -0.19041E-04
        -0.46218E-03
        -0.14079E-03
        -0.18525E-03
        -0.17700E-03
        -0.49616E-05
        -0.41707E-04
        -0.56291E-03
        -0.59564E-03
        -0.56911E-03
        -0.29753E-03
        -0.17645E-03
        -0.60406E-04
        -0.70559E-04
        -0.98340E-04
        -0.17184E-05
        -0.24911E-05
        -0.26173E-03
        -0.20310E-03
        -0.80722E-02
        -0.81976E-02
        -0.66052E-02
        -0.44935E-02
        -0.25015E-02
        -0.53056E-03
        -0.32709E-04
        -0.34346E-03
        -0.59606E-03
        -0.20026E-02
        -0.63184E-02
        -0.87933E-02
        -0.61851E-02
        -0.55986E-02
        -0.67945E-02
        -0.72057E-02
        -0.60024E-02
        -0.53698E-02
        -0.13941E-02
        -0.94176E-04
        -0.46075E-03
        -0.47295E-03
        -0.14948E-02
        -0.44814E-02
        -0.73419E-02
        -0.72958E-02
        -0.26774E-04
        -0.11323E-05
        -0.40891E-05
        -0.34584E-04
        -0.14504E-03
        -0.10593E-03
        -0.91232E-05
        -0.42712E-04
        -0.90834E-05
        -0.38738E-04
        -0.15200E-05
        -0.21180E-04
        -0.22839E-03
        -0.13349E-03
        -0.14377E-03
        -0.10316E-03
        -0.32047E-04
        -0.11383E-04
        -0.51788E-05
        -0.15931E-04
        -0.56274E-03
        -0.51110E-03
        -0.49774E-03
        -0.29126E-04
        -0.94376E-05
        -0.42737E-05
        -0.12534E-03
        -0.21262E-05
        -0.14229E-04
        -0.26125E-04
        -0.60946E-04
        -0.25438E-04
        -0.25351E-04
        -0.19058E-04
        -0.46264E-03
        -0.14066E-03
        -0.18513E-03
        -0.17757E-03
        -0.50571E-05
        -0.41970E-04
        -0.56362E-03
        -0.59633E-03
        -0.56916E-03
        -0.29745E-03
        -0.17632E-03
        -0.60344E-04
        -0.70531E-04
        -0.98405E-04
        -0.16934E-05
        -0.24741E-05
        -0.26139E-03
        -0.20250E-03
        -0.80667E-02
        -0.81934E-02
        -0.66040E-02
        -0.44936E-02
        -0.25000E-02
        -0.53024E-03
        -0.32783E-04
        -0.34389E-03
        -0.59505E-03
        -0.20010E-02
        -0.63164E-02
        -0.87936E-02
        -0.61839E-02
        -0.55980E-02
        -0.67962E-02
        -0.72087E-02
        -0.60045E-02
        -0.53719E-02
        -0.13933E-02
        -0.94262E-04
        -0.46007E-03
        -0.47257E-03
        -0.14926E-02
        -0.44760E-02
        -0.73346E-02
        -0.72893E-02
        -0.26875E-04
        -0.11406E-05
        -0.41045E-05
        -0.34630E-04
        -0.14475E-03
        -0.10574E-03
        -0.92395E-05
        -0.42495E-04
        -0.91021E-05
        -0.38673E-04
        -0.14580E-05
        -0.21282E-04
        -0.22867E-03
        -0.13283E-03
        -0.14361E-03
        -0.10338E-03
        -0.32190E-04
        -0.11319E-04
        -0.51736E-05
        -0.15877E-04
        -0.56264E-03
        -0.51099E-03
        -0.49767E-03
        -0.29129E-04
        -0.94829E-05
        -0.42891E-05
        -0.12541E-03
        -0.20465E-05
        -0.14429E-04
        -0.26158E-04
        -0.61128E-04
        -0.25434E-04
        -0.25138E-04
        -0.19075E-04
        -0.46311E-03
        -0.14054E-03
        -0.18501E-03
        -0.17813E-03
        -0.51535E-05
        -0.42237E-04
        -0.56434E-03
        -0.59703E-03
        -0.56924E-03
        -0.29737E-03
        -0.17620E-03
        -0.60285E-04
        -0.70506E-04
        -0.98470E-04
        -0.16679E-05
        -0.24566E-05
        -0.26106E-03
        -0.20190E-03
        -0.80612E-02
        -0.81891E-02
        -0.66028E-02
        -0.44936E-02
        -0.24985E-02
        -0.52992E-03
        -0.32858E-04
        -0.34431E-03
        -0.59405E-03
        -0.19995E-02
        -0.63145E-02
        -0.87940E-02
        -0.61828E-02
        -0.55974E-02
        -0.67980E-02
        -0.72120E-02
        -0.60067E-02
        -0.53740E-02
        -0.13926E-02
        -0.94347E-04
        -0.45940E-03
        -0.47220E-03
        -0.14904E-02
        -0.44705E-02
        -0.73273E-02
        -0.72828E-02
        -0.26977E-04
        -0.11492E-05
        -0.41196E-05
        -0.34675E-04
        -0.14446E-03
        -0.10554E-03
        -0.93550E-05
        -0.42278E-04
        -0.91186E-05
        -0.38597E-04
        -0.13974E-05
        -0.21388E-04
        -0.22895E-03
        -0.13218E-03
        -0.14346E-03
        -0.10362E-03
        -0.32340E-04
        -0.11256E-04
        -0.51692E-05
        -0.15821E-04
        -0.56258E-03
        -0.51092E-03
        -0.49768E-03
        -0.29132E-04
        -0.95370E-05
        -0.43082E-05
        -0.12547E-03
        -0.19707E-05
        -0.14630E-04
        -0.26189E-04
        -0.61325E-04
        -0.25439E-04
        -0.24925E-04
        -0.19093E-04
        -0.46357E-03
        -0.14041E-03
        -0.18489E-03
        -0.17870E-03
        -0.52505E-05
        -0.42502E-04
        -0.56507E-03
        -0.59778E-03
        -0.56939E-03
        -0.29732E-03
        -0.17606E-03
        -0.60220E-04
        -0.70485E-04
        -0.98538E-04
        -0.16426E-05
        -0.24392E-05
        -0.26072E-03
        -0.20130E-03
        -0.80557E-02
        -0.81849E-02
        -0.66017E-02
        -0.44937E-02
        -0.24969E-02
        -0.52960E-03
        -0.32934E-04
        -0.34474E-03
        -0.59305E-03
        -0.19979E-02
        -0.63126E-02
        -0.87945E-02
        -0.61820E-02
        -0.55968E-02
        -0.67999E-02
        -0.72157E-02
        -0.60090E-02
        -0.53761E-02
        -0.13918E-02
        -0.94434E-04
        -0.45872E-03
        -0.47184E-03
        -0.14882E-02
        -0.44650E-02
        -0.73200E-02
        -0.72763E-02
        -0.27078E-04
        -0.11578E-05
        -0.41349E-05
        -0.34721E-04
        -0.14419E-03
        -0.10535E-03
        -0.94728E-05
        -0.42059E-04
        -0.91326E-05
        -0.38508E-04
        -0.13380E-05
        -0.21491E-04
        -0.22922E-03
        -0.13152E-03
        -0.14331E-03
        -0.10388E-03
        -0.32497E-04
        -0.11192E-04
        -0.51635E-05
        -0.15764E-04
        -0.56255E-03
        -0.51086E-03
        -0.49772E-03
        -0.29136E-04
        -0.95999E-05
        -0.43300E-05
        -0.12553E-03
        -0.18987E-05
        -0.14832E-04
        -0.26217E-04
        -0.61536E-04
        -0.25452E-04
        -0.24712E-04
        -0.19110E-04
        -0.46403E-03
        -0.14029E-03
        -0.18477E-03
        -0.17927E-03
        -0.53480E-05
        -0.42771E-04
        -0.56584E-03
        -0.59858E-03
        -0.56962E-03
        -0.29728E-03
        -0.17592E-03
        -0.60150E-04
        -0.70469E-04
        -0.98612E-04
        -0.16177E-05
        -0.24221E-05
        -0.26040E-03
        -0.20071E-03
        -0.80501E-02
        -0.81807E-02
        -0.66005E-02
        -0.44937E-02
        -0.24954E-02
        -0.52928E-03
        -0.33008E-04
        -0.34517E-03
        -0.59205E-03
        -0.19963E-02
        -0.63106E-02
        -0.87952E-02
        -0.61814E-02
        -0.55964E-02
        -0.68021E-02
        -0.72199E-02
        -0.60117E-02
        -0.53781E-02
        -0.13910E-02
        -0.94519E-04
        -0.45805E-03
        -0.47146E-03
        -0.14861E-02
        -0.44595E-02
        -0.73128E-02
        -0.72698E-02
        -0.27175E-04
        -0.11671E-05
        -0.41484E-05
        -0.34765E-04
        -0.14390E-03
        -0.10515E-03
        -0.95912E-05
        -0.41838E-04
        -0.91462E-05
        -0.38418E-04
        -0.12798E-05
        -0.21595E-04
        -0.22950E-03
        -0.13087E-03
        -0.14315E-03
        -0.10414E-03
        -0.32654E-04
        -0.11128E-04
        -0.51577E-05
        -0.15710E-04
        -0.56254E-03
        -0.51082E-03
        -0.49780E-03
        -0.29141E-04
        -0.96626E-05
        -0.43525E-05
        -0.12557E-03
        -0.18285E-05
        -0.15037E-04
        -0.26251E-04
        -0.61745E-04
        -0.25463E-04
        -0.24498E-04
        -0.19125E-04
        -0.46452E-03
        -0.14017E-03
        -0.18466E-03
        -0.17983E-03
        -0.54466E-05
        -0.43041E-04
        -0.56661E-03
        -0.59941E-03
        -0.56988E-03
        -0.29725E-03
        -0.17579E-03
        -0.60090E-04
        -0.70449E-04
        -0.98683E-04
        -0.15922E-05
        -0.24064E-05
        -0.26008E-03
        -0.20013E-03
        -0.80446E-02
        -0.81765E-02
        -0.65993E-02
        -0.44938E-02
        -0.24938E-02
        -0.52896E-03
        -0.33081E-04
        -0.34559E-03
        -0.59105E-03
        -0.19947E-02
        -0.63085E-02
        -0.87959E-02
        -0.61809E-02
        -0.55961E-02
        -0.68042E-02
        -0.72243E-02
        -0.60144E-02
        -0.53801E-02
        -0.13902E-02
        -0.94596E-04
        -0.45737E-03
        -0.47109E-03
        -0.14839E-02
        -0.44541E-02
        -0.73055E-02
        -0.72634E-02
        -0.27264E-04
        -0.11784E-05
        -0.41590E-05
        -0.34809E-04
        -0.14363E-03
        -0.10496E-03
        -0.97125E-05
        -0.41612E-04
        -0.91606E-05
        -0.38332E-04
        -0.12227E-05
        -0.21700E-04
        -0.22979E-03
        -0.13021E-03
        -0.14299E-03
        -0.10440E-03
        -0.32805E-04
        -0.11064E-04
        -0.51530E-05
        -0.15656E-04
        -0.56252E-03
        -0.51080E-03
        -0.49789E-03
        -0.29148E-04
        -0.97182E-05
        -0.43724E-05
        -0.12563E-03
        -0.17580E-05
        -0.15245E-04
        -0.26290E-04
        -0.61944E-04
        -0.25465E-04
        -0.24280E-04
        -0.19136E-04
        -0.46500E-03
        -0.14007E-03
        -0.18456E-03
        -0.18040E-03
        -0.55468E-05
        -0.43317E-04
        -0.56739E-03
        -0.60024E-03
        -0.57015E-03
        -0.29724E-03
        -0.17568E-03
        -0.60036E-04
        -0.70417E-04
        -0.98749E-04
        -0.15648E-05
        -0.23943E-05
        -0.25980E-03
        -0.19954E-03
        -0.80391E-02
        -0.81723E-02
        -0.65980E-02
        -0.44938E-02
        -0.24923E-02
        -0.52864E-03
        -0.33154E-04
        -0.34601E-03
        -0.59005E-03
        -0.19931E-02
        -0.63065E-02
        -0.87967E-02
        -0.61805E-02
        -0.55957E-02
        -0.68064E-02
        -0.72288E-02
        -0.60171E-02
        -0.53820E-02
        -0.13894E-02
        -0.94660E-04
        -0.45666E-03
        -0.47073E-03
        -0.14818E-02
        -0.44487E-02
        -0.72983E-02
        -0.72569E-02
        -0.27350E-04
        -0.11904E-05
        -0.41680E-05
        -0.34850E-04
        -0.14337E-03
        -0.10477E-03
        -0.98361E-05
        -0.41385E-04
        -0.91755E-05
        -0.38250E-04
        -0.11667E-05
        -0.21805E-04
        -0.23007E-03
        -0.12956E-03
        -0.14283E-03
        -0.10467E-03
        -0.32954E-04
        -0.11000E-04
        -0.51476E-05
        -0.15607E-04
        -0.56251E-03
        -0.51076E-03
        -0.49798E-03
        -0.29153E-04
        -0.97704E-05
        -0.43912E-05
        -0.12568E-03
        -0.16885E-05
        -0.15457E-04
        -0.26332E-04
        -0.62137E-04
        -0.25462E-04
        -0.24061E-04
        -0.19145E-04
        -0.46551E-03
        -0.13998E-03
        -0.18448E-03
        -0.18096E-03
        -0.56478E-05
        -0.43593E-04
        -0.56817E-03
        -0.60110E-03
        -0.57043E-03
        -0.29724E-03
        -0.17557E-03
        -0.59991E-04
        -0.70380E-04
        -0.98811E-04
        -0.15368E-05
        -0.23839E-05
        -0.25952E-03
        -0.19898E-03
        -0.80335E-02
        -0.81681E-02
        -0.65968E-02
        -0.44938E-02
        -0.24908E-02
        -0.52832E-03
        -0.33227E-04
        -0.34644E-03
        -0.58906E-03
        -0.19915E-02
        -0.63044E-02
        -0.87973E-02
        -0.61800E-02
        -0.55953E-02
        -0.68086E-02
        -0.72332E-02
        -0.60199E-02
        -0.53839E-02
        -0.13886E-02
        -0.94720E-04
        -0.45595E-03
        -0.47037E-03
        -0.14797E-02
        -0.44433E-02
        -0.72911E-02
        -0.72504E-02
        -0.27436E-04
        -0.12025E-05
        -0.41768E-05
        -0.34892E-04
        -0.14310E-03
        -0.10457E-03
        -0.99596E-05
        -0.41159E-04
        -0.91907E-05
        -0.38170E-04
        -0.11122E-05
        -0.21910E-04
        -0.23036E-03
        -0.12891E-03
        -0.14267E-03
        -0.10493E-03
        -0.33103E-04
        -0.10936E-04
        -0.51420E-05
        -0.15555E-04
        -0.56249E-03
        -0.51074E-03
        -0.49807E-03
        -0.29162E-04
        -0.98225E-05
        -0.44098E-05
        -0.12574E-03
        -0.16205E-05
        -0.15671E-04
        -0.26374E-04
        -0.62331E-04
        -0.25459E-04
        -0.23843E-04
        -0.19154E-04
        -0.46602E-03
        -0.13988E-03
        -0.18439E-03
        -0.18152E-03
        -0.57502E-05
        -0.43869E-04
        -0.56896E-03
        -0.60194E-03
        -0.57070E-03
        -0.29724E-03
        -0.17547E-03
        -0.59947E-04
        -0.70344E-04
        -0.98873E-04
        -0.15090E-05
        -0.23739E-05
        -0.25926E-03
        -0.19840E-03
        -0.80280E-02
        -0.81640E-02
        -0.65955E-02
        -0.44938E-02
        -0.24892E-02
        -0.52799E-03
        -0.33300E-04
        -0.34686E-03
        -0.58806E-03
        -0.19899E-02
        -0.63023E-02
        -0.87981E-02
        -0.61795E-02
        -0.55949E-02
        -0.68108E-02
        -0.72376E-02
        -0.60226E-02
        -0.53857E-02
        -0.13878E-02
        -0.94782E-04
        -0.45523E-03
        -0.47000E-03
        -0.14775E-02
        -0.44379E-02
        -0.72839E-02
        -0.72440E-02
        -0.27522E-04
        -0.12148E-05
        -0.41857E-05
        -0.34935E-04
        -0.14283E-03
        -0.10438E-03
        -0.10085E-04
        -0.40933E-04
        -0.92059E-05
        -0.38089E-04
        -0.10590E-05
        -0.22015E-04
        -0.23065E-03
        -0.12827E-03
        -0.14251E-03
        -0.10519E-03
        -0.33252E-04
        -0.10873E-04
        -0.51364E-05
        -0.15505E-04
        -0.56248E-03
        -0.51070E-03
        -0.49814E-03
        -0.29169E-04
        -0.98749E-05
        -0.44284E-05
        -0.12580E-03
        -0.15542E-05
        -0.15885E-04
        -0.26415E-04
        -0.62524E-04
        -0.25455E-04
        -0.23627E-04
        -0.19164E-04
        -0.46652E-03
        -0.13979E-03
        -0.18430E-03
        -0.18209E-03
        -0.58536E-05
        -0.44149E-04
        -0.56975E-03
        -0.60279E-03
        -0.57097E-03
        -0.29724E-03
        -0.17537E-03
        -0.59898E-04
        -0.70308E-04
        -0.98937E-04
        -0.14817E-05
        -0.23631E-05
        -0.25899E-03
        -0.19783E-03
        -0.80224E-02
        -0.81598E-02
        -0.65943E-02
        -0.44938E-02
        -0.24877E-02
        -0.52766E-03
        -0.33373E-04
        -0.34727E-03
        -0.58707E-03
        -0.19884E-02
        -0.63003E-02
        -0.87988E-02
        -0.61790E-02
        -0.55946E-02
        -0.68130E-02
        -0.72421E-02
        -0.60253E-02
        -0.53876E-02
        -0.13870E-02
        -0.94840E-04
        -0.45452E-03
        -0.46964E-03
        -0.14754E-02
        -0.44326E-02
        -0.72767E-02
        -0.72375E-02
        -0.27607E-04
        -0.12271E-05
        -0.41950E-05
        -0.34976E-04
        -0.14256E-03
        -0.10419E-03
        -0.10209E-04
        -0.40708E-04
        -0.92210E-05
        -0.38009E-04
        -0.10070E-05
        -0.22122E-04
        -0.23094E-03
        -0.12762E-03
        -0.14235E-03
        -0.10545E-03
        -0.33401E-04
        -0.10810E-04
        -0.51320E-05
        -0.15453E-04
        -0.56246E-03
        -0.51067E-03
        -0.49824E-03
        -0.29178E-04
        -0.99267E-05
        -0.44468E-05
        -0.12586E-03
        -0.14893E-05
        -0.16101E-04
        -0.26456E-04
        -0.62717E-04
        -0.25451E-04
        -0.23411E-04
        -0.19173E-04
        -0.46703E-03
        -0.13969E-03
        -0.18421E-03
        -0.18265E-03
        -0.59581E-05
        -0.44426E-04
        -0.57053E-03
        -0.60363E-03
        -0.57125E-03
        -0.29723E-03
        -0.17526E-03
        -0.59855E-04
        -0.70270E-04
        -0.98999E-04
        -0.14544E-05
        -0.23527E-05
        -0.25873E-03
        -0.19727E-03
        -0.80169E-02
        -0.81556E-02
        -0.65930E-02
        -0.44938E-02
        -0.24861E-02
        -0.52735E-03
        -0.33444E-04
        -0.34769E-03
        -0.58608E-03
        -0.19868E-02
        -0.62983E-02
        -0.87995E-02
        -0.61785E-02
        -0.55942E-02
        -0.68152E-02
        -0.72465E-02
        -0.60281E-02
        -0.53895E-02
        -0.13862E-02
        -0.94897E-04
        -0.45380E-03
        -0.46927E-03
        -0.14733E-02
        -0.44272E-02
        -0.72695E-02
        -0.72311E-02
        -0.27693E-04
        -0.12394E-05
        -0.42036E-05
        -0.35018E-04
        -0.14229E-03
        -0.10400E-03
        -0.10336E-04
        -0.40483E-04
        -0.92359E-05
        -0.37928E-04
        -0.95652E-06
        -0.22228E-04
        -0.23123E-03
        -0.12699E-03
        -0.14219E-03
        -0.10571E-03
        -0.33551E-04
        -0.10747E-04
        -0.51267E-05
        -0.15403E-04
        -0.56244E-03
        -0.51063E-03
        -0.49833E-03
        -0.29186E-04
        -0.99784E-05
        -0.44660E-05
        -0.12592E-03
        -0.14261E-05
        -0.16315E-04
        -0.26499E-04
        -0.62912E-04
        -0.25448E-04
        -0.23195E-04
        -0.19182E-04
        -0.46755E-03
        -0.13960E-03
        -0.18412E-03
        -0.18322E-03
        -0.60639E-05
        -0.44709E-04
        -0.57132E-03
        -0.60447E-03
        -0.57152E-03
        -0.29723E-03
        -0.17516E-03
        -0.59811E-04
        -0.70234E-04
        -0.99064E-04
        -0.14272E-05
        -0.23428E-05
        -0.25845E-03
        -0.19669E-03
        -0.80113E-02
        -0.81515E-02
        -0.65917E-02
        -0.44938E-02
        -0.24846E-02
        -0.52703E-03
        -0.33516E-04
        -0.34811E-03
        -0.58509E-03
        -0.19852E-02
        -0.62962E-02
        -0.88002E-02
        -0.61780E-02
        -0.55938E-02
        -0.68174E-02
        -0.72509E-02
        -0.60308E-02
        -0.53914E-02
        -0.13854E-02
        -0.94955E-04
        -0.45308E-03
        -0.46891E-03
        -0.14712E-02
        -0.44218E-02
        -0.72624E-02
        -0.72246E-02
        -0.27780E-04
        -0.12519E-05
        -0.42123E-05
        -0.35059E-04
        -0.14203E-03
        -0.10381E-03
        -0.10462E-04
        -0.40259E-04
        -0.92504E-05
        -0.37847E-04
        -0.90743E-06
        -0.22334E-04
        -0.23152E-03
        -0.12635E-03
        -0.14203E-03
        -0.10597E-03
        -0.33700E-04
        -0.10684E-04
        -0.51216E-05
        -0.15352E-04
        -0.56242E-03
        -0.51061E-03
        -0.49841E-03
        -0.29195E-04
        -0.10030E-04
        -0.44845E-05
        -0.12597E-03
        -0.13641E-05
        -0.16533E-04
        -0.26540E-04
        -0.63106E-04
        -0.25444E-04
        -0.22980E-04
        -0.19191E-04
        -0.46805E-03
        -0.13951E-03
        -0.18404E-03
        -0.18378E-03
        -0.61708E-05
        -0.44990E-04
        -0.57212E-03
        -0.60531E-03
        -0.57180E-03
        -0.29723E-03
        -0.17506E-03
        -0.59760E-04
        -0.70197E-04
        -0.99127E-04
        -0.14003E-05
        -0.23323E-05
        -0.25818E-03
        -0.19612E-03
        -0.80058E-02
        -0.81474E-02
        -0.65904E-02
        -0.44938E-02
        -0.24830E-02
        -0.52671E-03
        -0.33589E-04
        -0.34852E-03
        -0.58410E-03
        -0.19836E-02
        -0.62941E-02
        -0.88009E-02
        -0.61775E-02
        -0.55935E-02
        -0.68196E-02
        -0.72553E-02
        -0.60335E-02
        -0.53932E-02
        -0.13846E-02
        -0.95013E-04
        -0.45237E-03
        -0.46855E-03
        -0.14691E-02
        -0.44165E-02
        -0.72552E-02
        -0.72182E-02
        -0.27866E-04
        -0.12643E-05
        -0.42210E-05
        -0.35100E-04
        -0.14177E-03
        -0.10361E-03
        -0.10588E-04
        -0.40036E-04
        -0.92652E-05
        -0.37765E-04
        -0.85972E-06
        -0.22440E-04
        -0.23181E-03
        -0.12571E-03
        -0.14187E-03
        -0.10623E-03
        -0.33850E-04
        -0.10622E-04
        -0.51175E-05
        -0.15303E-04
        -0.56240E-03
        -0.51057E-03
        -0.49850E-03
        -0.29204E-04
        -0.10081E-04
        -0.45032E-05
        -0.12603E-03
        -0.13039E-05
        -0.16753E-04
        -0.26580E-04
        -0.63299E-04
        -0.25440E-04
        -0.22766E-04
        -0.19200E-04
        -0.46857E-03
        -0.13942E-03
        -0.18395E-03
        -0.18434E-03
        -0.62786E-05
        -0.45275E-04
        -0.57291E-03
        -0.60614E-03
        -0.57208E-03
        -0.29723E-03
        -0.17496E-03
        -0.59716E-04
        -0.70160E-04
        -0.99189E-04
        -0.13736E-05
        -0.23220E-05
        -0.25791E-03
        -0.19556E-03
        -0.80002E-02
        -0.81432E-02
        -0.65892E-02
        -0.44939E-02
        -0.24815E-02
        -0.52638E-03
        -0.33661E-04
        -0.34893E-03
        -0.58310E-03
        -0.19820E-02
        -0.62921E-02
        -0.88016E-02
        -0.61770E-02
        -0.55931E-02
        -0.68218E-02
        -0.72598E-02
        -0.60363E-02
        -0.53951E-02
        -0.13837E-02
        -0.95068E-04
        -0.45166E-03
        -0.46820E-03
        -0.14670E-02
        -0.44111E-02
        -0.72480E-02
        -0.72118E-02
        -0.27953E-04
        -0.12766E-05
        -0.42297E-05
        -0.35142E-04
        -0.14150E-03
        -0.10342E-03
        -0.10716E-04
        -0.39813E-04
        -0.92800E-05
        -0.37684E-04
        -0.81331E-06
        -0.22549E-04
        -0.23210E-03
        -0.12508E-03
        -0.14170E-03
        -0.10649E-03
        -0.34000E-04
        -0.10560E-04
        -0.51123E-05
        -0.15251E-04
        -0.56239E-03
        -0.51054E-03
        -0.49858E-03
        -0.29212E-04
        -0.10132E-04
        -0.45219E-05
        -0.12609E-03
        -0.12450E-05
        -0.16973E-04
        -0.26621E-04
        -0.63493E-04
        -0.25435E-04
        -0.22553E-04
        -0.19209E-04
        -0.46906E-03
        -0.13933E-03
        -0.18387E-03
        -0.18489E-03
        -0.63875E-05
        -0.45559E-04
        -0.57369E-03
        -0.60698E-03
        -0.57235E-03
        -0.29723E-03
        -0.17486E-03
        -0.59673E-04
        -0.70123E-04
        -0.99253E-04
        -0.13468E-05
        -0.23119E-05
        -0.25764E-03
        -0.19499E-03
        -0.79947E-02
        -0.81391E-02
        -0.65879E-02
        -0.44939E-02
        -0.24800E-02
        -0.52605E-03
        -0.33732E-04
        -0.34933E-03
        -0.58211E-03
        -0.19804E-02
        -0.62901E-02
        -0.88023E-02
        -0.61765E-02
        -0.55927E-02
        -0.68240E-02
        -0.72643E-02
        -0.60390E-02
        -0.53969E-02
        -0.13829E-02
        -0.95123E-04
        -0.45094E-03
        -0.46784E-03
        -0.14649E-02
        -0.44057E-02
        -0.72409E-02
        -0.72053E-02
        -0.28040E-04
        -0.12894E-05
        -0.42385E-05
        -0.35182E-04
        -0.14123E-03
        -0.10323E-03
        -0.10844E-04
        -0.39590E-04
        -0.92948E-05
        -0.37603E-04
        -0.76817E-06
        -0.22656E-04
        -0.23239E-03
        -0.12445E-03
        -0.14154E-03
        -0.10675E-03
        -0.34151E-04
        -0.10499E-04
        -0.51072E-05
        -0.15202E-04
        -0.56236E-03
        -0.51051E-03
        -0.49867E-03
        -0.29221E-04
        -0.10182E-04
        -0.45406E-05
        -0.12614E-03
        -0.11876E-05
        -0.17195E-04
        -0.26661E-04
        -0.63687E-04
        -0.25432E-04
        -0.22341E-04
        -0.19219E-04
        -0.46959E-03
        -0.13924E-03
        -0.18378E-03
        -0.18545E-03
        -0.64979E-05
        -0.45842E-04
        -0.57448E-03
        -0.60782E-03
        -0.57262E-03
        -0.29722E-03
        -0.17476E-03
        -0.59624E-04
        -0.70086E-04
        -0.99315E-04
        -0.13206E-05
        -0.23014E-05
        -0.25737E-03
        -0.19442E-03
        -0.79892E-02
        -0.81350E-02
        -0.65866E-02
        -0.44939E-02
        -0.24784E-02
        -0.52572E-03
        -0.33801E-04
        -0.34973E-03
        -0.58113E-03
        -0.19789E-02
        -0.62880E-02
        -0.88031E-02
        -0.61760E-02
        -0.55923E-02
        -0.68262E-02
        -0.72687E-02
        -0.60418E-02
        -0.53987E-02
        -0.13821E-02
        -0.95179E-04
        -0.45023E-03
        -0.46748E-03
        -0.14628E-02
        -0.44004E-02
        -0.72338E-02
        -0.71989E-02
        -0.28127E-04
        -0.13019E-05
        -0.42473E-05
        -0.35223E-04
        -0.14097E-03
        -0.10304E-03
        -0.10973E-04
        -0.39368E-04
        -0.93089E-05
        -0.37519E-04
        -0.72435E-06
        -0.22765E-04
        -0.23268E-03
        -0.12382E-03
        -0.14137E-03
        -0.10702E-03
        -0.34302E-04
        -0.10437E-04
        -0.51025E-05
        -0.15151E-04
        -0.56235E-03
        -0.51047E-03
        -0.49875E-03
        -0.29231E-04
        -0.10232E-04
        -0.45593E-05
        -0.12619E-03
        -0.11309E-05
        -0.17415E-04
        -0.26701E-04
        -0.63883E-04
        -0.25429E-04
        -0.22131E-04
        -0.19229E-04
        -0.47011E-03
        -0.13914E-03
        -0.18369E-03
        -0.18600E-03
        -0.66103E-05
        -0.46131E-04
        -0.57524E-03
        -0.60865E-03
        -0.57288E-03
        -0.29723E-03
        -0.17465E-03
        -0.59581E-04
        -0.70050E-04
        -0.99380E-04
        -0.12946E-05
        -0.22911E-05
        -0.25710E-03
        -0.19386E-03
        -0.79836E-02
        -0.81309E-02
        -0.65854E-02
        -0.44939E-02
        -0.24769E-02
        -0.52540E-03
        -0.33869E-04
        -0.35013E-03
        -0.58015E-03
        -0.19773E-02
        -0.62860E-02
        -0.88040E-02
        -0.61756E-02
        -0.55920E-02
        -0.68283E-02
        -0.72731E-02
        -0.60445E-02
        -0.54006E-02
        -0.13813E-02
        -0.95234E-04
        -0.44952E-03
        -0.46712E-03
        -0.14607E-02
        -0.43951E-02
        -0.72266E-02
        -0.71925E-02
        -0.28214E-04
        -0.13146E-05
        -0.42558E-05
        -0.35264E-04
        -0.14071E-03
        -0.10285E-03
        -0.11102E-04
        -0.39147E-04
        -0.93217E-05
        -0.37425E-04
        -0.68187E-06
        -0.22873E-04
        -0.23297E-03
        -0.12318E-03
        -0.14120E-03
        -0.10728E-03
        -0.34451E-04
        -0.10376E-04
        -0.50990E-05
        -0.15102E-04
        -0.56233E-03
        -0.51043E-03
        -0.49885E-03
        -0.29238E-04
        -0.10278E-04
        -0.45788E-05
        -0.12622E-03
        -0.10743E-05
        -0.17639E-04
        -0.26744E-04
        -0.64079E-04
        -0.25424E-04
        -0.21920E-04
        -0.19238E-04
        -0.47061E-03
        -0.13906E-03
        -0.18361E-03
        -0.18655E-03
        -0.67270E-05
        -0.46414E-04
        -0.57595E-03
        -0.60940E-03
        -0.57311E-03
        -0.29723E-03
        -0.17455E-03
        -0.59533E-04
        -0.70014E-04
        -0.99445E-04
        -0.12691E-05
        -0.22808E-05
        -0.25684E-03
        -0.19329E-03
        -0.79781E-02
        -0.81268E-02
        -0.65841E-02
        -0.44938E-02
        -0.24754E-02
        -0.52509E-03
        -0.33939E-04
        -0.35054E-03
        -0.57918E-03
        -0.19756E-02
        -0.62839E-02
        -0.88053E-02
        -0.61754E-02
        -0.55916E-02
        -0.68305E-02
        -0.72775E-02
        -0.60472E-02
        -0.54024E-02
        -0.13805E-02
        -0.95290E-04
        -0.44881E-03
        -0.46676E-03
        -0.14587E-02
        -0.43897E-02
        -0.72194E-02
        -0.71861E-02
        -0.28302E-04
        -0.13272E-05
        -0.42643E-05
        -0.35304E-04
        -0.14044E-03
        -0.10265E-03
        -0.11233E-04
        -0.38926E-04
        -0.93332E-05
        -0.37323E-04
        -0.64079E-06
        -0.22981E-04
        -0.23326E-03
        -0.12255E-03
        -0.14102E-03
        -0.10754E-03
        -0.34600E-04
        -0.10315E-04
        -0.50944E-05
        -0.15052E-04
        -0.56232E-03
        -0.51038E-03
        -0.49894E-03
        -0.29248E-04
        -0.10321E-04
        -0.45974E-05
        -0.12623E-03
        -0.10176E-05
        -0.17864E-04
        -0.26785E-04
        -0.64274E-04
        -0.25420E-04
        -0.21711E-04
        -0.19248E-04
        -0.47114E-03
        -0.13897E-03
        -0.18352E-03
        -0.18708E-03
        -0.68478E-05
        -0.46701E-04
        -0.57661E-03
        -0.61010E-03
        -0.57331E-03
        -0.29722E-03
        -0.17445E-03
        -0.59489E-04
        -0.69977E-04
        -0.99509E-04
        -0.12434E-05
        -0.22706E-05
        -0.25656E-03
        -0.19272E-03
        -0.79725E-02
        -0.81227E-02
        -0.65828E-02
        -0.44938E-02
        -0.24738E-02
        -0.52476E-03
        -0.34008E-04
        -0.35094E-03
        -0.57822E-03
        -0.19739E-02
        -0.62817E-02
        -0.88070E-02
        -0.61755E-02
        -0.55913E-02
        -0.68327E-02
        -0.72819E-02
        -0.60500E-02
        -0.54042E-02
        -0.13797E-02
        -0.95344E-04
        -0.44810E-03
        -0.46639E-03
        -0.14566E-02
        -0.43844E-02
        -0.72123E-02
        -0.71797E-02
        -0.28389E-04
        -0.13399E-05
        -0.42731E-05
        -0.35345E-04
        -0.14018E-03
        -0.10247E-03
        -0.11362E-04
        -0.38707E-04
        -0.93440E-05
        -0.37219E-04
        -0.60127E-06
        -0.23088E-04
        -0.23354E-03
        -0.12192E-03
        -0.14085E-03
        -0.10780E-03
        -0.34750E-04
        -0.10254E-04
        -0.50895E-05
        -0.15004E-04
        -0.56229E-03
        -0.51033E-03
        -0.49902E-03
        -0.29257E-04
        -0.10363E-04
        -0.46160E-05
        -0.12624E-03
        -0.96212E-06
        -0.18089E-04
        -0.26826E-04
        -0.64471E-04
        -0.25416E-04
        -0.21504E-04
        -0.19258E-04
        -0.47166E-03
        -0.13888E-03
        -0.18343E-03
        -0.18760E-03
        -0.69710E-05
        -0.46980E-04
        -0.57723E-03
        -0.61076E-03
        -0.57350E-03
        -0.29723E-03
        -0.17435E-03
        -0.59445E-04
        -0.69943E-04
        -0.99577E-04
        -0.12184E-05
        -0.22601E-05
        -0.25631E-03
        -0.19216E-03
        -0.79670E-02
        -0.81186E-02
        -0.65816E-02
        -0.44939E-02
        -0.24723E-02
        -0.52443E-03
        -0.34075E-04
        -0.35132E-03
        -0.57727E-03
        -0.19722E-02
        -0.62795E-02
        -0.88090E-02
        -0.61756E-02
        -0.55910E-02
        -0.68349E-02
        -0.72863E-02
        -0.60527E-02
        -0.54060E-02
        -0.13789E-02
        -0.95404E-04
        -0.44740E-03
        -0.46603E-03
        -0.14545E-02
        -0.43791E-02
        -0.72052E-02
        -0.71733E-02
        -0.28776E-04
        -0.13646E-05
        -0.43285E-05
        -0.35749E-04
        -0.14143E-03
        -0.10338E-03
        -0.11603E-04
        -0.38938E-04
        -0.94512E-05
        -0.37544E-04
        -0.57434E-06
        -0.23437E-04
        -0.23638E-03
        -0.12273E-03
        -0.14238E-03
        -0.10916E-03
        -0.35262E-04
        -0.10303E-04
        -0.51367E-05
        -0.15111E-04
        -0.56821E-03
        -0.51578E-03
        -0.50427E-03
        -0.29571E-04
        -0.10515E-04
        -0.46810E-05
        -0.12771E-03
        -0.92205E-06
        -0.18502E-04
        -0.27159E-04
        -0.65329E-04
        -0.25676E-04
        -0.21537E-04
        -0.19473E-04
        -0.47741E-03
        -0.14031E-03
        -0.18533E-03
        -0.19032E-03
        -0.71661E-05
        -0.47778E-04
        -0.58451E-03
        -0.61835E-03
        -0.58002E-03
        -0.30028E-03
        -0.17609E-03
        -0.60044E-04
        -0.70675E-04
        -0.10073E-03
        -0.12091E-05
        -0.22738E-05
        -0.25888E-03
        -0.19370E-03
        -0.80722E-02
        -0.82248E-02
        -0.66712E-02
        -0.45546E-02
        -0.25049E-02
        -0.53144E-03
        -0.34655E-04
        -0.35667E-03
        -0.58470E-03
        -0.19996E-02
        -0.63684E-02
        -0.89324E-02
        -0.62547E-02
        -0.56595E-02
        -0.69206E-02
        -0.73798E-02
        -0.61300E-02
        -0.54786E-02
        -0.13972E-02
        -0.96835E-04
        -0.45275E-03
        -0.47167E-03
        -0.14717E-02
        -0.44316E-02
        -0.72920E-02
        -0.72599E-02
        -0.65634E-04
        -0.31582E-05
        -0.98421E-05
        -0.81686E-04
        -0.29978E-03
        -0.22294E-03
        -0.26764E-04
        -0.87941E-04
        -0.21409E-04
        -0.84503E-04
        -0.12402E-05
        -0.48269E-04
        -0.49988E-03
        -0.26997E-03
        -0.29632E-03
        -0.24913E-03
        -0.80200E-04
        -0.23424E-04
        -0.11427E-04
        -0.33813E-04
        -0.11966E-02
        -0.11150E-02
        -0.10667E-02
        -0.66769E-04
        -0.24156E-04
        -0.10751E-04
        -0.28592E-03
        -0.20485E-05
        -0.43123E-04
        -0.62290E-04
        -0.14928E-03
        -0.58375E-04
        -0.48988E-04
        -0.44558E-04
        -0.97813E-03
        -0.30284E-03
        -0.40042E-03
        -0.41455E-03
        -0.16148E-04
        -0.10780E-03
        -0.12807E-02
        -0.13727E-02
        -0.12834E-02
        -0.64395E-03
        -0.37549E-03
        -0.12123E-03
        -0.14985E-03
        -0.21899E-03
        -0.26175E-05
        -0.49339E-05
        -0.53687E-03
        -0.41552E-03
        -0.13226E-01
        -0.13413E-01
        -0.10901E-01
        -0.74747E-02
        -0.41091E-02
        -0.87772E-03
        -0.58780E-04
        -0.61372E-03
        -0.10013E-02
        -0.33896E-02
        -0.10810E-01
        -0.15065E-01
        -0.10732E-01
        -0.97492E-02
        -0.11620E-01
        -0.12117E-01
        -0.10007E-01
        -0.88755E-02
        -0.22667E-02
        -0.15777E-03
        -0.74920E-03
        -0.78641E-03
        -0.24392E-02
        -0.73946E-02
        -0.12086E-01
        -0.11945E-01
  
SCALARS                      strain_yy  double 1
LOOKUP_TABLE default
         0.12642E-02
         0.13440E-03
         0.93017E-03
         0.25749E-03
        -0.59694E-19
        -0.45348E-20
        -0.91683E-19
        -0.53338E-19
         0.12677E-01
         0.55715E-02
        -0.20305E-18
        -0.15738E-18
         0.92446E-02
         0.23854E-04
        -0.10400E-18
        -0.42749E-21
         0.12358E-02
         0.15192E-01
        -0.22511E-22
        -0.23567E-20
         0.39067E-02
         0.53279E-01
         0.60994E-01
        -0.54648E-18
        -0.16299E-17
        -0.11387E-17
         0.51907E-03
         0.51958E-01
        -0.28276E-18
        -0.10642E-17
         0.16105E-02
         0.11612E-02
         0.92785E-03
        -0.75994E-19
        -0.79194E-19
        -0.34134E-22
         0.13795E-01
         0.11975E-01
        -0.25734E-18
        -0.15578E-18
         0.12972E-01
         0.49837E-02
        -0.14698E-18
        -0.12275E-18
         0.11145E-01
         0.13517E-02
        -0.16173E-21
        -0.38695E-19
         0.83686E-02
        -0.85778E-20
         0.94858E-04
        -0.56269E-22
         0.27248E-04
        -0.12835E-18
         0.11766E-02
        -0.43432E-19
         0.12504E-01
         0.41910E-03
        -0.31965E-22
        -0.13168E-21
         0.23660E-02
         0.30846E-01
        -0.59340E-20
        -0.83023E-19
         0.87353E-03
        -0.24178E-19
         0.15715E-01
        -0.35882E-19
         0.96622E-02
         0.27045E-02
        -0.54800E-21
        -0.95534E-19
         0.32625E-01
        -0.46065E-18
         0.82057E-01
        -0.43186E-18
         0.82716E-01
        -0.24885E-18
         0.56311E-01
        -0.17483E-18
         0.12387E+00
         0.75287E-01
        -0.71946E-19
        -0.35367E-20
         0.15586E-02
        -0.44281E-22
         0.27166E-01
        -0.17377E-18
         0.14784E+00
        -0.53255E-18
         0.28178E+00
         0.10766E+00
        -0.11715E-17
        -0.76751E-18
         0.54092E-01
        -0.46249E-18
         0.43965E-01
        -0.48406E-18
         0.41218E-01
        -0.55962E-18
         0.11333E+00
         0.79190E-01
        -0.48396E-18
        -0.11111E-18
         0.47762E-01
         0.69727E-02
        -0.59835E-19
        -0.92401E-19
         0.28566E+00
        -0.66221E-18
         0.59831E+00
        -0.14169E-17
         0.87484E+00
        -0.21611E-17
         0.11302E+01
        -0.21264E-17
         0.14669E+01
        -0.13316E-17
         0.14766E+01
        -0.79751E-18
         0.13045E+01
        -0.68990E-18
         0.10349E+01
        -0.62450E-18
         0.57388E+00
        -0.25506E-18
         0.27986E+00
        -0.27802E-19
         0.75929E-01
        -0.11608E-19
         0.41255E-03
        -0.26226E-19
         0.76023E-01
        -0.69959E-20
         0.25199E+00
        -0.63983E-19
         0.60133E+00
        -0.50977E-18
         0.71554E+00
        -0.12430E-17
         0.82083E+00
        -0.21363E-17
         0.13054E+01
        -0.21326E-17
         0.14310E+01
        -0.16252E-17
         0.12428E+01
        -0.15437E-17
         0.80943E+00
        -0.15629E-17
         0.37648E+00
        -0.97733E-18
         0.19109E+00
        -0.34176E-18
         0.10045E+00
        -0.20432E-18
        -0.14706E-04
        -0.36353E-05
        -0.28011E-05
        -0.29854E-06
        -0.26756E-05
        -0.33561E-05
        -0.32736E-07
        -0.82965E-05
        -0.70006E-05
        -0.13875E-04
        -0.30828E-05
        -0.54710E-04
        -0.27320E-04
        -0.36903E-06
        -0.57478E-04
        -0.10606E-05
        -0.81767E-06
        -0.35614E-06
        -0.52344E-06
        -0.30783E-06
        -0.24909E-06
        -0.17410E-06
        -0.18665E-05
        -0.13438E-07
        -0.64887E-05
        -0.14132E-06
        -0.34757E-09
        -0.10712E-06
        -0.14729E-06
        -0.37996E-05
        -0.10016E-05
        -0.10667E-05
        -0.52934E-06
        -0.29446E-07
        -0.61313E-07
        -0.19782E-05
        -0.10376E-04
        -0.46148E-04
        -0.38269E-04
        -0.25054E-04
        -0.20777E-04
        -0.15006E-05
        -0.11470E-05
        -0.84821E-05
        -0.21651E-04
        -0.50799E-04
        -0.24424E-04
        -0.13990E-04
        -0.15811E-04
        -0.16425E-04
        -0.20623E-04
        -0.48653E-05
        -0.11440E-04
        -0.18967E-04
        -0.13618E-03
        -0.26811E-03
        -0.43257E-03
        -0.56804E-03
        -0.53087E-03
        -0.42332E-03
        -0.38760E-03
        -0.34353E-03
        -0.13837E-03
        -0.32645E-04
        -0.67601E-05
        -0.13471E-05
        -0.32972E-05
        -0.53177E-04
        -0.17943E-03
        -0.28978E-03
        -0.34860E-03
        -0.48183E-03
        -0.45758E-03
        -0.40846E-03
        -0.34946E-03
        -0.15817E-03
        -0.59444E-04
        -0.47418E-04
        -0.23134E-03
        -0.92026E-04
        -0.78803E-04
        -0.44335E-05
        -0.13293E-03
        -0.26890E-04
        -0.16908E-04
        -0.20664E-03
        -0.88868E-04
        -0.18279E-03
        -0.51095E-04
        -0.95698E-03
        -0.33589E-03
        -0.69365E-05
        -0.92892E-03
        -0.33270E-04
        -0.30555E-05
        -0.27850E-05
        -0.56579E-04
        -0.21149E-05
        -0.42031E-04
        -0.21188E-04
        -0.71212E-05
        -0.50734E-05
        -0.82891E-04
        -0.50714E-05
        -0.31932E-06
        -0.11035E-05
        -0.28157E-05
        -0.82483E-04
        -0.38643E-04
        -0.26814E-05
        -0.16144E-04
        -0.12171E-04
        -0.27671E-05
        -0.25712E-04
        -0.93731E-04
        -0.53656E-03
        -0.41726E-03
        -0.32407E-03
        -0.17490E-03
        -0.10679E-04
        -0.45307E-04
        -0.70693E-04
        -0.11722E-03
        -0.48913E-03
        -0.16562E-03
        -0.72425E-04
        -0.11440E-03
        -0.15944E-03
        -0.17117E-03
        -0.96368E-06
        -0.26584E-03
        -0.54392E-03
        -0.29454E-02
        -0.49192E-02
        -0.81934E-02
        -0.11797E-01
        -0.11319E-01
        -0.86343E-02
        -0.79301E-02
        -0.77619E-02
        -0.30609E-02
        -0.33251E-03
        -0.52807E-04
        -0.38775E-04
        -0.83164E-05
        -0.59841E-03
        -0.24015E-02
        -0.46511E-02
        -0.78785E-02
        -0.96869E-02
        -0.74711E-02
        -0.66782E-02
        -0.66376E-02
        -0.32908E-02
        -0.88802E-03
        -0.79618E-03
        -0.23162E-03
        -0.92058E-04
        -0.78881E-04
        -0.44988E-05
        -0.13296E-03
        -0.26932E-04
        -0.16951E-04
        -0.20734E-03
        -0.89187E-04
        -0.18416E-03
        -0.51156E-04
        -0.95682E-03
        -0.33606E-03
        -0.69369E-05
        -0.93130E-03
        -0.33274E-04
        -0.31114E-05
        -0.27767E-05
        -0.56656E-04
        -0.20913E-05
        -0.42239E-04
        -0.21228E-04
        -0.71246E-05
        -0.50686E-05
        -0.83644E-04
        -0.50529E-05
        -0.32689E-06
        -0.11159E-05
        -0.27787E-05
        -0.82832E-04
        -0.38657E-04
        -0.26697E-05
        -0.16216E-04
        -0.12211E-04
        -0.27153E-05
        -0.25746E-04
        -0.93723E-04
        -0.53821E-03
        -0.41906E-03
        -0.32482E-03
        -0.17517E-03
        -0.10622E-04
        -0.45400E-04
        -0.70766E-04
        -0.11723E-03
        -0.48913E-03
        -0.16565E-03
        -0.72339E-04
        -0.11410E-03
        -0.15901E-03
        -0.17103E-03
        -0.93471E-06
        -0.26534E-03
        -0.54399E-03
        -0.29465E-02
        -0.49193E-02
        -0.81914E-02
        -0.11789E-01
        -0.11310E-01
        -0.86291E-02
        -0.79268E-02
        -0.77576E-02
        -0.30596E-02
        -0.33282E-03
        -0.52799E-04
        -0.38934E-04
        -0.81814E-05
        -0.59904E-03
        -0.24037E-02
        -0.46532E-02
        -0.78782E-02
        -0.96857E-02
        -0.74700E-02
        -0.66777E-02
        -0.66342E-02
        -0.32861E-02
        -0.88607E-03
        -0.79409E-03
        -0.23192E-03
        -0.92094E-04
        -0.78961E-04
        -0.45653E-05
        -0.13299E-03
        -0.26976E-04
        -0.16993E-04
        -0.20804E-03
        -0.89509E-04
        -0.18553E-03
        -0.51217E-04
        -0.95665E-03
        -0.33623E-03
        -0.69355E-05
        -0.93366E-03
        -0.33279E-04
        -0.31683E-05
        -0.27683E-05
        -0.56734E-04
        -0.20675E-05
        -0.42450E-04
        -0.21268E-04
        -0.71300E-05
        -0.50624E-05
        -0.84392E-04
        -0.50319E-05
        -0.33508E-06
        -0.11291E-05
        -0.27385E-05
        -0.83170E-04
        -0.38669E-04
        -0.26555E-05
        -0.16288E-04
        -0.12251E-04
        -0.26638E-05
        -0.25781E-04
        -0.93710E-04
        -0.53987E-03
        -0.42088E-03
        -0.32558E-03
        -0.17545E-03
        -0.10558E-04
        -0.45488E-04
        -0.70857E-04
        -0.11725E-03
        -0.48916E-03
        -0.16568E-03
        -0.72248E-04
        -0.11380E-03
        -0.15859E-03
        -0.17089E-03
        -0.90631E-06
        -0.26485E-03
        -0.54405E-03
        -0.29476E-02
        -0.49193E-02
        -0.81894E-02
        -0.11781E-01
        -0.11300E-01
        -0.86239E-02
        -0.79235E-02
        -0.77533E-02
        -0.30583E-02
        -0.33315E-03
        -0.52793E-04
        -0.39094E-04
        -0.80469E-05
        -0.59970E-03
        -0.24060E-02
        -0.46554E-02
        -0.78779E-02
        -0.96845E-02
        -0.74689E-02
        -0.66771E-02
        -0.66309E-02
        -0.32814E-02
        -0.88412E-03
        -0.79200E-03
        -0.23221E-03
        -0.92128E-04
        -0.79041E-04
        -0.46325E-05
        -0.13302E-03
        -0.27020E-04
        -0.17038E-04
        -0.20873E-03
        -0.89832E-04
        -0.18688E-03
        -0.51278E-04
        -0.95649E-03
        -0.33641E-03
        -0.69358E-05
        -0.93605E-03
        -0.33284E-04
        -0.32268E-05
        -0.27597E-05
        -0.56818E-04
        -0.20425E-05
        -0.42666E-04
        -0.21304E-04
        -0.71423E-05
        -0.50524E-05
        -0.85117E-04
        -0.50044E-05
        -0.34364E-06
        -0.11468E-05
        -0.26891E-05
        -0.83477E-04
        -0.38674E-04
        -0.26365E-05
        -0.16359E-04
        -0.12290E-04
        -0.26130E-05
        -0.25815E-04
        -0.93698E-04
        -0.54155E-03
        -0.42273E-03
        -0.32639E-03
        -0.17578E-03
        -0.10478E-04
        -0.45560E-04
        -0.70996E-04
        -0.11732E-03
        -0.48921E-03
        -0.16574E-03
        -0.72161E-04
        -0.11349E-03
        -0.15816E-03
        -0.17073E-03
        -0.87840E-06
        -0.26435E-03
        -0.54411E-03
        -0.29487E-02
        -0.49194E-02
        -0.81875E-02
        -0.11773E-01
        -0.11291E-01
        -0.86187E-02
        -0.79201E-02
        -0.77490E-02
        -0.30572E-02
        -0.33354E-03
        -0.52795E-04
        -0.39252E-04
        -0.79125E-05
        -0.60040E-03
        -0.24086E-02
        -0.46579E-02
        -0.78777E-02
        -0.96833E-02
        -0.74679E-02
        -0.66766E-02
        -0.66275E-02
        -0.32768E-02
        -0.88219E-03
        -0.78991E-03
        -0.23249E-03
        -0.92161E-04
        -0.79120E-04
        -0.46999E-05
        -0.13306E-03
        -0.27063E-04
        -0.17080E-04
        -0.20942E-03
        -0.90156E-04
        -0.18822E-03
        -0.51340E-04
        -0.95633E-03
        -0.33658E-03
        -0.69366E-05
        -0.93844E-03
        -0.33290E-04
        -0.32867E-05
        -0.27510E-05
        -0.56904E-04
        -0.20162E-05
        -0.42885E-04
        -0.21336E-04
        -0.71611E-05
        -0.50383E-05
        -0.85819E-04
        -0.49699E-05
        -0.35330E-06
        -0.11685E-05
        -0.26305E-05
        -0.83751E-04
        -0.38674E-04
        -0.26116E-05
        -0.16431E-04
        -0.12330E-04
        -0.25623E-05
        -0.25849E-04
        -0.93690E-04
        -0.54323E-03
        -0.42461E-03
        -0.32725E-03
        -0.17615E-03
        -0.10380E-04
        -0.45614E-04
        -0.71186E-04
        -0.11744E-03
        -0.48933E-03
        -0.16581E-03
        -0.72083E-04
        -0.11320E-03
        -0.15773E-03
        -0.17059E-03
        -0.85077E-06
        -0.26385E-03
        -0.54417E-03
        -0.29497E-02
        -0.49195E-02
        -0.81854E-02
        -0.11765E-01
        -0.11281E-01
        -0.86135E-02
        -0.79168E-02
        -0.77447E-02
        -0.30562E-02
        -0.33401E-03
        -0.52805E-04
        -0.39407E-04
        -0.77788E-05
        -0.60117E-03
        -0.24115E-02
        -0.46608E-02
        -0.78776E-02
        -0.96820E-02
        -0.74669E-02
        -0.66761E-02
        -0.66241E-02
        -0.32721E-02
        -0.88026E-03
        -0.78783E-03
        -0.23276E-03
        -0.92183E-04
        -0.79198E-04
        -0.47686E-05
        -0.13309E-03
        -0.27106E-04
        -0.17118E-04
        -0.21009E-03
        -0.90483E-04
        -0.18953E-03
        -0.51410E-04
        -0.95618E-03
        -0.33676E-03
        -0.69390E-05
        -0.94081E-03
        -0.33298E-04
        -0.33484E-05
        -0.27426E-05
        -0.56992E-04
        -0.19896E-05
        -0.43106E-04
        -0.21366E-04
        -0.71828E-05
        -0.50227E-05
        -0.86506E-04
        -0.49333E-05
        -0.36384E-06
        -0.11928E-05
        -0.25684E-05
        -0.84011E-04
        -0.38670E-04
        -0.25841E-05
        -0.16504E-04
        -0.12372E-04
        -0.25118E-05
        -0.25886E-04
        -0.93688E-04
        -0.54493E-03
        -0.42653E-03
        -0.32815E-03
        -0.17653E-03
        -0.10277E-04
        -0.45662E-04
        -0.71392E-04
        -0.11758E-03
        -0.48949E-03
        -0.16590E-03
        -0.72019E-04
        -0.11292E-03
        -0.15731E-03
        -0.17045E-03
        -0.82359E-06
        -0.26336E-03
        -0.54424E-03
        -0.29508E-02
        -0.49196E-02
        -0.81835E-02
        -0.11757E-01
        -0.11272E-01
        -0.86083E-02
        -0.79136E-02
        -0.77404E-02
        -0.30552E-02
        -0.33450E-03
        -0.52820E-04
        -0.39562E-04
        -0.76465E-05
        -0.60195E-03
        -0.24146E-02
        -0.46637E-02
        -0.78773E-02
        -0.96808E-02
        -0.74659E-02
        -0.66756E-02
        -0.66208E-02
        -0.32674E-02
        -0.87833E-03
        -0.78575E-03
        -0.23301E-03
        -0.92178E-04
        -0.79275E-04
        -0.48395E-05
        -0.13312E-03
        -0.27150E-04
        -0.17147E-04
        -0.21069E-03
        -0.90816E-04
        -0.19079E-03
        -0.51494E-04
        -0.95609E-03
        -0.33698E-03
        -0.69497E-05
        -0.94323E-03
        -0.33310E-04
        -0.34123E-05
        -0.27341E-05
        -0.57080E-04
        -0.19631E-05
        -0.43328E-04
        -0.21398E-04
        -0.72048E-05
        -0.50076E-05
        -0.87180E-04
        -0.48966E-05
        -0.37646E-06
        -0.12190E-05
        -0.25059E-05
        -0.84265E-04
        -0.38663E-04
        -0.25549E-05
        -0.16580E-04
        -0.12416E-04
        -0.24617E-05
        -0.25926E-04
        -0.93693E-04
        -0.54666E-03
        -0.42846E-03
        -0.32904E-03
        -0.17693E-03
        -0.10172E-04
        -0.45707E-04
        -0.71600E-04
        -0.11774E-03
        -0.48969E-03
        -0.16603E-03
        -0.71995E-04
        -0.11268E-03
        -0.15691E-03
        -0.17030E-03
        -0.79652E-06
        -0.26286E-03
        -0.54429E-03
        -0.29519E-02
        -0.49197E-02
        -0.81815E-02
        -0.11749E-01
        -0.11262E-01
        -0.86031E-02
        -0.79103E-02
        -0.77360E-02
        -0.30542E-02
        -0.33500E-03
        -0.52834E-04
        -0.39719E-04
        -0.75151E-05
        -0.60274E-03
        -0.24177E-02
        -0.46665E-02
        -0.78769E-02
        -0.96795E-02
        -0.74651E-02
        -0.66752E-02
        -0.66173E-02
        -0.32628E-02
        -0.87640E-03
        -0.78367E-03
        -0.23326E-03
        -0.92166E-04
        -0.79351E-04
        -0.49120E-05
        -0.13316E-03
        -0.27194E-04
        -0.17170E-04
        -0.21126E-03
        -0.91154E-04
        -0.19202E-03
        -0.51587E-04
        -0.95599E-03
        -0.33720E-03
        -0.69621E-05
        -0.94565E-03
        -0.33322E-04
        -0.34776E-05
        -0.27254E-05
        -0.57169E-04
        -0.19368E-05
        -0.43550E-04
        -0.21430E-04
        -0.72262E-05
        -0.49929E-05
        -0.87850E-04
        -0.48601E-05
        -0.38981E-06
        -0.12461E-05
        -0.24440E-05
        -0.84517E-04
        -0.38655E-04
        -0.25245E-05
        -0.16658E-04
        -0.12462E-04
        -0.24116E-05
        -0.25969E-04
        -0.93708E-04
        -0.54841E-03
        -0.43040E-03
        -0.32995E-03
        -0.17733E-03
        -0.10068E-04
        -0.45751E-04
        -0.71809E-04
        -0.11790E-03
        -0.48991E-03
        -0.16619E-03
        -0.71984E-04
        -0.11246E-03
        -0.15651E-03
        -0.17016E-03
        -0.76993E-06
        -0.26237E-03
        -0.54435E-03
        -0.29529E-02
        -0.49197E-02
        -0.81795E-02
        -0.11741E-01
        -0.11252E-01
        -0.85979E-02
        -0.79070E-02
        -0.77316E-02
        -0.30532E-02
        -0.33549E-03
        -0.52849E-04
        -0.39878E-04
        -0.73846E-05
        -0.60352E-03
        -0.24207E-02
        -0.46693E-02
        -0.78765E-02
        -0.96783E-02
        -0.74644E-02
        -0.66750E-02
        -0.66138E-02
        -0.32581E-02
        -0.87448E-03
        -0.78159E-03
        -0.23349E-03
        -0.92154E-04
        -0.79427E-04
        -0.49851E-05
        -0.13319E-03
        -0.27237E-04
        -0.17194E-04
        -0.21183E-03
        -0.91493E-04
        -0.19325E-03
        -0.51675E-04
        -0.95589E-03
        -0.33742E-03
        -0.69764E-05
        -0.94810E-03
        -0.33335E-04
        -0.35438E-05
        -0.27167E-05
        -0.57256E-04
        -0.19104E-05
        -0.43773E-04
        -0.21462E-04
        -0.72478E-05
        -0.49784E-05
        -0.88521E-04
        -0.48241E-05
        -0.40372E-06
        -0.12732E-05
        -0.23830E-05
        -0.84770E-04
        -0.38646E-04
        -0.24947E-05
        -0.16735E-04
        -0.12507E-04
        -0.23618E-05
        -0.26008E-04
        -0.93718E-04
        -0.55017E-03
        -0.43237E-03
        -0.33084E-03
        -0.17773E-03
        -0.99647E-05
        -0.45796E-04
        -0.72020E-04
        -0.11806E-03
        -0.49013E-03
        -0.16633E-03
        -0.71975E-04
        -0.11225E-03
        -0.15613E-03
        -0.17003E-03
        -0.74366E-06
        -0.26187E-03
        -0.54441E-03
        -0.29539E-02
        -0.49198E-02
        -0.81775E-02
        -0.11733E-01
        -0.11243E-01
        -0.85926E-02
        -0.79038E-02
        -0.77272E-02
        -0.30523E-02
        -0.33598E-03
        -0.52867E-04
        -0.40040E-04
        -0.72556E-05
        -0.60430E-03
        -0.24238E-02
        -0.46721E-02
        -0.78760E-02
        -0.96770E-02
        -0.74637E-02
        -0.66747E-02
        -0.66103E-02
        -0.32534E-02
        -0.87256E-03
        -0.77952E-03
        -0.23373E-03
        -0.92140E-04
        -0.79502E-04
        -0.50582E-05
        -0.13322E-03
        -0.27280E-04
        -0.17217E-04
        -0.21241E-03
        -0.91832E-04
        -0.19449E-03
        -0.51768E-04
        -0.95580E-03
        -0.33766E-03
        -0.69887E-05
        -0.95053E-03
        -0.33348E-04
        -0.36110E-05
        -0.27080E-05
        -0.57343E-04
        -0.18841E-05
        -0.43996E-04
        -0.21493E-04
        -0.72684E-05
        -0.49638E-05
        -0.89193E-04
        -0.47882E-05
        -0.41750E-06
        -0.13003E-05
        -0.23229E-05
        -0.85023E-04
        -0.38637E-04
        -0.24649E-05
        -0.16811E-04
        -0.12552E-04
        -0.23126E-05
        -0.26051E-04
        -0.93733E-04
        -0.55193E-03
        -0.43432E-03
        -0.33174E-03
        -0.17813E-03
        -0.98622E-05
        -0.45842E-04
        -0.72229E-04
        -0.11822E-03
        -0.49035E-03
        -0.16649E-03
        -0.71971E-04
        -0.11203E-03
        -0.15573E-03
        -0.16989E-03
        -0.71795E-06
        -0.26137E-03
        -0.54446E-03
        -0.29549E-02
        -0.49199E-02
        -0.81756E-02
        -0.11725E-01
        -0.11233E-01
        -0.85874E-02
        -0.79005E-02
        -0.77228E-02
        -0.30513E-02
        -0.33646E-03
        -0.52884E-04
        -0.40201E-04
        -0.71281E-05
        -0.60509E-03
        -0.24269E-02
        -0.46749E-02
        -0.78756E-02
        -0.96757E-02
        -0.74630E-02
        -0.66744E-02
        -0.66068E-02
        -0.32487E-02
        -0.87066E-03
        -0.77745E-03
        -0.23396E-03
        -0.92124E-04
        -0.79578E-04
        -0.51319E-05
        -0.13326E-03
        -0.27323E-04
        -0.17242E-04
        -0.21297E-03
        -0.92173E-04
        -0.19572E-03
        -0.51860E-04
        -0.95570E-03
        -0.33788E-03
        -0.70023E-05
        -0.95298E-03
        -0.33361E-04
        -0.36789E-05
        -0.26994E-05
        -0.57431E-04
        -0.18579E-05
        -0.44220E-04
        -0.21524E-04
        -0.72902E-05
        -0.49496E-05
        -0.89867E-04
        -0.47524E-05
        -0.43176E-06
        -0.13272E-05
        -0.22637E-05
        -0.85276E-04
        -0.38629E-04
        -0.24354E-05
        -0.16889E-04
        -0.12598E-04
        -0.22637E-05
        -0.26093E-04
        -0.93748E-04
        -0.55370E-03
        -0.43629E-03
        -0.33263E-03
        -0.17852E-03
        -0.97602E-05
        -0.45886E-04
        -0.72435E-04
        -0.11839E-03
        -0.49058E-03
        -0.16664E-03
        -0.71961E-04
        -0.11182E-03
        -0.15534E-03
        -0.16975E-03
        -0.69262E-06
        -0.26087E-03
        -0.54452E-03
        -0.29559E-02
        -0.49199E-02
        -0.81736E-02
        -0.11717E-01
        -0.11223E-01
        -0.85822E-02
        -0.78973E-02
        -0.77184E-02
        -0.30503E-02
        -0.33695E-03
        -0.52900E-04
        -0.40360E-04
        -0.70012E-05
        -0.60588E-03
        -0.24300E-02
        -0.46777E-02
        -0.78751E-02
        -0.96744E-02
        -0.74623E-02
        -0.66741E-02
        -0.66033E-02
        -0.32441E-02
        -0.86877E-03
        -0.77538E-03
        -0.23420E-03
        -0.92111E-04
        -0.79654E-04
        -0.52067E-05
        -0.13329E-03
        -0.27366E-04
        -0.17265E-04
        -0.21354E-03
        -0.92516E-04
        -0.19696E-03
        -0.51953E-04
        -0.95560E-03
        -0.33810E-03
        -0.70158E-05
        -0.95541E-03
        -0.33374E-04
        -0.37475E-05
        -0.26906E-05
        -0.57518E-04
        -0.18320E-05
        -0.44445E-04
        -0.21554E-04
        -0.73118E-05
        -0.49355E-05
        -0.90542E-04
        -0.47171E-05
        -0.44593E-06
        -0.13544E-05
        -0.22052E-05
        -0.85528E-04
        -0.38620E-04
        -0.24060E-05
        -0.16966E-04
        -0.12644E-04
        -0.22150E-05
        -0.26134E-04
        -0.93758E-04
        -0.55547E-03
        -0.43826E-03
        -0.33353E-03
        -0.17892E-03
        -0.96598E-05
        -0.45930E-04
        -0.72644E-04
        -0.11855E-03
        -0.49081E-03
        -0.16679E-03
        -0.71957E-04
        -0.11161E-03
        -0.15495E-03
        -0.16962E-03
        -0.66778E-06
        -0.26038E-03
        -0.54457E-03
        -0.29569E-02
        -0.49200E-02
        -0.81716E-02
        -0.11709E-01
        -0.11214E-01
        -0.85769E-02
        -0.78940E-02
        -0.77139E-02
        -0.30492E-02
        -0.33744E-03
        -0.52917E-04
        -0.40520E-04
        -0.68749E-05
        -0.60666E-03
        -0.24331E-02
        -0.46805E-02
        -0.78747E-02
        -0.96732E-02
        -0.74616E-02
        -0.66738E-02
        -0.65998E-02
        -0.32394E-02
        -0.86688E-03
        -0.77332E-03
        -0.23443E-03
        -0.92096E-04
        -0.79730E-04
        -0.52823E-05
        -0.13332E-03
        -0.27410E-04
        -0.17289E-04
        -0.21411E-03
        -0.92859E-04
        -0.19820E-03
        -0.52046E-04
        -0.95551E-03
        -0.33834E-03
        -0.70276E-05
        -0.95788E-03
        -0.33387E-04
        -0.38168E-05
        -0.26817E-05
        -0.57606E-04
        -0.18064E-05
        -0.44670E-04
        -0.21585E-04
        -0.73330E-05
        -0.49214E-05
        -0.91218E-04
        -0.46816E-05
        -0.46075E-06
        -0.13815E-05
        -0.21477E-05
        -0.85779E-04
        -0.38611E-04
        -0.23765E-05
        -0.17043E-04
        -0.12690E-04
        -0.21669E-05
        -0.26178E-04
        -0.93771E-04
        -0.55724E-03
        -0.44024E-03
        -0.33443E-03
        -0.17932E-03
        -0.95588E-05
        -0.45974E-04
        -0.72855E-04
        -0.11871E-03
        -0.49100E-03
        -0.16695E-03
        -0.71949E-04
        -0.11140E-03
        -0.15456E-03
        -0.16947E-03
        -0.64345E-06
        -0.25988E-03
        -0.54462E-03
        -0.29579E-02
        -0.49201E-02
        -0.81697E-02
        -0.11701E-01
        -0.11204E-01
        -0.85717E-02
        -0.78908E-02
        -0.77093E-02
        -0.30482E-02
        -0.33792E-03
        -0.52932E-04
        -0.40681E-04
        -0.67502E-05
        -0.60744E-03
        -0.24361E-02
        -0.46833E-02
        -0.78743E-02
        -0.96719E-02
        -0.74609E-02
        -0.66735E-02
        -0.65963E-02
        -0.32347E-02
        -0.86500E-03
        -0.77126E-03
        -0.23467E-03
        -0.92084E-04
        -0.79806E-04
        -0.53584E-05
        -0.13336E-03
        -0.27453E-04
        -0.17315E-04
        -0.21468E-03
        -0.93202E-04
        -0.19944E-03
        -0.52139E-04
        -0.95541E-03
        -0.33856E-03
        -0.70411E-05
        -0.96032E-03
        -0.33399E-04
        -0.38871E-05
        -0.26730E-05
        -0.57693E-04
        -0.17810E-05
        -0.44896E-04
        -0.21615E-04
        -0.73546E-05
        -0.49074E-05
        -0.91898E-04
        -0.46461E-05
        -0.47540E-06
        -0.14085E-05
        -0.20911E-05
        -0.86031E-04
        -0.38601E-04
        -0.23475E-05
        -0.17120E-04
        -0.12736E-04
        -0.21191E-05
        -0.26219E-04
        -0.93781E-04
        -0.55904E-03
        -0.44223E-03
        -0.33532E-03
        -0.17973E-03
        -0.94585E-05
        -0.46018E-04
        -0.73064E-04
        -0.11888E-03
        -0.49123E-03
        -0.16710E-03
        -0.71941E-04
        -0.11118E-03
        -0.15417E-03
        -0.16934E-03
        -0.61972E-06
        -0.25938E-03
        -0.54467E-03
        -0.29589E-02
        -0.49202E-02
        -0.81677E-02
        -0.11692E-01
        -0.11194E-01
        -0.85664E-02
        -0.78875E-02
        -0.77048E-02
        -0.30472E-02
        -0.33841E-03
        -0.52948E-04
        -0.40843E-04
        -0.66271E-05
        -0.60823E-03
        -0.24392E-02
        -0.46861E-02
        -0.78739E-02
        -0.96707E-02
        -0.74602E-02
        -0.66732E-02
        -0.65927E-02
        -0.32301E-02
        -0.86312E-03
        -0.76920E-03
        -0.23490E-03
        -0.92071E-04
        -0.79882E-04
        -0.54348E-05
        -0.13339E-03
        -0.27496E-04
        -0.17339E-04
        -0.21525E-03
        -0.93548E-04
        -0.20068E-03
        -0.52232E-04
        -0.95532E-03
        -0.33878E-03
        -0.70526E-05
        -0.96279E-03
        -0.33412E-04
        -0.39583E-05
        -0.26643E-05
        -0.57780E-04
        -0.17556E-05
        -0.45122E-04
        -0.21645E-04
        -0.73757E-05
        -0.48938E-05
        -0.92581E-04
        -0.46109E-05
        -0.49056E-06
        -0.14352E-05
        -0.20355E-05
        -0.86285E-04
        -0.38592E-04
        -0.23184E-05
        -0.17198E-04
        -0.12782E-04
        -0.20719E-05
        -0.26262E-04
        -0.93794E-04
        -0.56084E-03
        -0.44422E-03
        -0.33622E-03
        -0.18013E-03
        -0.93589E-05
        -0.46063E-04
        -0.73273E-04
        -0.11904E-03
        -0.49146E-03
        -0.16725E-03
        -0.71938E-04
        -0.11097E-03
        -0.15378E-03
        -0.16920E-03
        -0.59629E-06
        -0.25889E-03
        -0.54471E-03
        -0.29599E-02
        -0.49202E-02
        -0.81658E-02
        -0.11684E-01
        -0.11184E-01
        -0.85611E-02
        -0.78843E-02
        -0.77002E-02
        -0.30462E-02
        -0.33890E-03
        -0.52964E-04
        -0.41005E-04
        -0.65049E-05
        -0.60901E-03
        -0.24423E-02
        -0.46889E-02
        -0.78735E-02
        -0.96694E-02
        -0.74595E-02
        -0.66729E-02
        -0.65892E-02
        -0.32254E-02
        -0.86126E-03
        -0.76714E-03
        -0.23513E-03
        -0.92052E-04
        -0.79957E-04
        -0.55115E-05
        -0.13342E-03
        -0.27540E-04
        -0.17363E-04
        -0.21582E-03
        -0.93896E-04
        -0.20193E-03
        -0.52325E-04
        -0.95523E-03
        -0.33902E-03
        -0.70657E-05
        -0.96523E-03
        -0.33425E-04
        -0.40306E-05
        -0.26556E-05
        -0.57868E-04
        -0.17304E-05
        -0.45349E-04
        -0.21674E-04
        -0.73970E-05
        -0.48803E-05
        -0.93265E-04
        -0.45758E-05
        -0.50554E-06
        -0.14619E-05
        -0.19809E-05
        -0.86538E-04
        -0.38583E-04
        -0.22897E-05
        -0.17275E-04
        -0.12829E-04
        -0.20248E-05
        -0.26303E-04
        -0.93806E-04
        -0.56264E-03
        -0.44621E-03
        -0.33710E-03
        -0.18053E-03
        -0.92601E-05
        -0.46109E-04
        -0.73479E-04
        -0.11921E-03
        -0.49168E-03
        -0.16741E-03
        -0.71929E-04
        -0.11076E-03
        -0.15340E-03
        -0.16907E-03
        -0.57329E-06
        -0.25839E-03
        -0.54476E-03
        -0.29609E-02
        -0.49203E-02
        -0.81638E-02
        -0.11676E-01
        -0.11175E-01
        -0.85558E-02
        -0.78811E-02
        -0.76957E-02
        -0.30453E-02
        -0.33939E-03
        -0.52979E-04
        -0.41165E-04
        -0.63836E-05
        -0.60979E-03
        -0.24454E-02
        -0.46917E-02
        -0.78731E-02
        -0.96681E-02
        -0.74589E-02
        -0.66726E-02
        -0.65857E-02
        -0.32208E-02
        -0.85941E-03
        -0.76508E-03
        -0.23536E-03
        -0.92038E-04
        -0.80033E-04
        -0.55891E-05
        -0.13346E-03
        -0.27583E-04
        -0.17388E-04
        -0.21638E-03
        -0.94245E-04
        -0.20317E-03
        -0.52419E-04
        -0.95514E-03
        -0.33925E-03
        -0.70768E-05
        -0.96771E-03
        -0.33438E-04
        -0.41039E-05
        -0.26467E-05
        -0.57956E-04
        -0.17058E-05
        -0.45576E-04
        -0.21702E-04
        -0.74183E-05
        -0.48667E-05
        -0.93951E-04
        -0.45405E-05
        -0.52116E-06
        -0.14886E-05
        -0.19269E-05
        -0.86785E-04
        -0.38573E-04
        -0.22611E-05
        -0.17353E-04
        -0.12876E-04
        -0.19782E-05
        -0.26345E-04
        -0.93815E-04
        -0.56445E-03
        -0.44821E-03
        -0.33798E-03
        -0.18092E-03
        -0.91626E-05
        -0.46155E-04
        -0.73691E-04
        -0.11937E-03
        -0.49191E-03
        -0.16756E-03
        -0.71926E-04
        -0.11055E-03
        -0.15301E-03
        -0.16893E-03
        -0.55094E-06
        -0.25789E-03
        -0.54480E-03
        -0.29618E-02
        -0.49204E-02
        -0.81618E-02
        -0.11668E-01
        -0.11165E-01
        -0.85505E-02
        -0.78778E-02
        -0.76910E-02
        -0.30443E-02
        -0.33989E-03
        -0.52990E-04
        -0.41324E-04
        -0.62641E-05
        -0.61056E-03
        -0.24485E-02
        -0.46945E-02
        -0.78727E-02
        -0.96668E-02
        -0.74582E-02
        -0.66723E-02
        -0.65821E-02
        -0.32162E-02
        -0.85756E-03
        -0.76303E-03
        -0.23559E-03
        -0.92024E-04
        -0.80109E-04
        -0.56676E-05
        -0.13349E-03
        -0.27625E-04
        -0.17413E-04
        -0.21694E-03
        -0.94598E-04
        -0.20442E-03
        -0.52512E-04
        -0.95504E-03
        -0.33947E-03
        -0.70893E-05
        -0.97016E-03
        -0.33451E-04
        -0.41786E-05
        -0.26377E-05
        -0.58043E-04
        -0.16824E-05
        -0.45803E-04
        -0.21729E-04
        -0.74400E-05
        -0.48529E-05
        -0.94640E-04
        -0.45059E-05
        -0.53686E-06
        -0.15153E-05
        -0.18738E-05
        -0.87018E-04
        -0.38563E-04
        -0.22322E-05
        -0.17430E-04
        -0.12923E-04
        -0.19321E-05
        -0.26389E-04
        -0.93829E-04
        -0.56629E-03
        -0.45021E-03
        -0.33881E-03
        -0.18132E-03
        -0.90644E-05
        -0.46203E-04
        -0.73901E-04
        -0.11954E-03
        -0.49214E-03
        -0.16771E-03
        -0.71919E-04
        -0.11034E-03
        -0.15262E-03
        -0.16880E-03
        -0.52900E-06
        -0.25739E-03
        -0.54484E-03
        -0.29628E-02
        -0.49205E-02
        -0.81598E-02
        -0.11660E-01
        -0.11155E-01
        -0.85452E-02
        -0.78745E-02
        -0.76861E-02
        -0.30434E-02
        -0.34039E-03
        -0.52995E-04
        -0.41484E-04
        -0.61459E-05
        -0.61134E-03
        -0.24516E-02
        -0.46973E-02
        -0.78723E-02
        -0.96656E-02
        -0.74575E-02
        -0.66720E-02
        -0.65785E-02
        -0.32115E-02
        -0.85573E-03
        -0.76098E-03
        -0.23582E-03
        -0.92011E-04
        -0.80184E-04
        -0.57466E-05
        -0.13353E-03
        -0.27667E-04
        -0.17437E-04
        -0.21750E-03
        -0.94954E-04
        -0.20568E-03
        -0.52605E-04
        -0.95495E-03
        -0.33970E-03
        -0.71020E-05
        -0.97264E-03
        -0.33463E-04
        -0.42552E-05
        -0.26288E-05
        -0.58131E-04
        -0.16601E-05
        -0.46032E-04
        -0.21756E-04
        -0.74614E-05
        -0.48397E-05
        -0.95332E-04
        -0.44710E-05
        -0.55349E-06
        -0.15419E-05
        -0.18217E-05
        -0.87237E-04
        -0.38552E-04
        -0.22040E-05
        -0.17507E-04
        -0.12970E-04
        -0.18862E-05
        -0.26430E-04
        -0.93840E-04
        -0.56816E-03
        -0.45219E-03
        -0.33963E-03
        -0.18171E-03
        -0.89671E-05
        -0.46253E-04
        -0.74110E-04
        -0.11971E-03
        -0.49237E-03
        -0.16787E-03
        -0.71911E-04
        -0.11013E-03
        -0.15223E-03
        -0.16866E-03
        -0.50735E-06
        -0.25689E-03
        -0.54488E-03
        -0.29637E-02
        -0.49205E-02
        -0.81578E-02
        -0.11652E-01
        -0.11145E-01
        -0.85400E-02
        -0.78712E-02
        -0.76809E-02
        -0.30427E-02
        -0.34089E-03
        -0.52991E-04
        -0.41644E-04
        -0.60281E-05
        -0.61212E-03
        -0.24547E-02
        -0.47001E-02
        -0.78719E-02
        -0.96643E-02
        -0.74568E-02
        -0.66716E-02
        -0.65749E-02
        -0.32069E-02
        -0.85391E-03
        -0.75893E-03
        -0.23605E-03
        -0.91997E-04
        -0.80265E-04
        -0.58257E-05
        -0.13357E-03
        -0.27711E-04
        -0.17464E-04
        -0.21806E-03
        -0.95313E-04
        -0.20693E-03
        -0.52699E-04
        -0.95486E-03
        -0.33993E-03
        -0.71128E-05
        -0.97510E-03
        -0.33477E-04
        -0.43329E-05
        -0.26199E-05
        -0.58221E-04
        -0.16386E-05
        -0.46261E-04
        -0.21782E-04
        -0.74815E-05
        -0.48273E-05
        -0.96027E-04
        -0.44374E-05
        -0.56993E-06
        -0.15677E-05
        -0.17708E-05
        -0.87453E-04
        -0.38544E-04
        -0.21764E-05
        -0.17585E-04
        -0.13018E-04
        -0.18413E-05
        -0.26472E-04
        -0.93846E-04
        -0.57003E-03
        -0.45417E-03
        -0.34041E-03
        -0.18209E-03
        -0.88721E-05
        -0.46307E-04
        -0.74316E-04
        -0.11987E-03
        -0.49259E-03
        -0.16802E-03
        -0.71905E-04
        -0.10992E-03
        -0.15185E-03
        -0.16853E-03
        -0.48631E-06
        -0.25639E-03
        -0.54494E-03
        -0.29647E-02
        -0.49206E-02
        -0.81559E-02
        -0.11644E-01
        -0.11135E-01
        -0.85348E-02
        -0.78678E-02
        -0.76757E-02
        -0.30419E-02
        -0.34138E-03
        -0.52980E-04
        -0.41804E-04
        -0.59116E-05
        -0.61289E-03
        -0.24578E-02
        -0.47029E-02
        -0.78715E-02
        -0.96630E-02
        -0.74561E-02
        -0.66713E-02
        -0.65713E-02
        -0.32023E-02
        -0.85210E-03
        -0.75690E-03
        -0.23880E-03
        -0.93005E-04
        -0.81236E-04
        -0.59644E-05
        -0.13510E-03
        -0.28053E-04
        -0.17688E-04
        -0.22098E-03
        -0.96663E-04
        -0.21038E-03
        -0.53383E-04
        -0.96579E-03
        -0.34392E-03
        -0.72048E-05
        -0.98903E-03
        -0.33849E-04
        -0.44540E-05
        -0.26383E-05
        -0.58935E-04
        -0.16374E-05
        -0.46976E-04
        -0.22045E-04
        -0.75692E-05
        -0.48730E-05
        -0.97759E-04
        -0.44619E-05
        -0.59183E-06
        -0.16054E-05
        -0.17499E-05
        -0.88663E-04
        -0.38957E-04
        -0.21803E-05
        -0.17845E-04
        -0.13203E-04
        -0.18217E-05
        -0.26781E-04
        -0.94843E-04
        -0.57842E-03
        -0.46130E-03
        -0.34509E-03
        -0.18453E-03
        -0.89002E-05
        -0.46897E-04
        -0.75233E-04
        -0.12124E-03
        -0.49812E-03
        -0.16992E-03
        -0.72622E-04
        -0.11087E-03
        -0.15311E-03
        -0.17026E-03
        -0.47105E-06
        -0.25936E-03
        -0.55254E-03
        -0.30063E-02
        -0.49869E-02
        -0.82665E-02
        -0.11803E-01
        -0.11287E-01
        -0.86533E-02
        -0.79791E-02
        -0.77845E-02
        -0.30852E-02
        -0.34645E-03
        -0.53621E-04
        -0.42466E-04
        -0.58734E-05
        -0.62103E-03
        -0.24908E-02
        -0.47670E-02
        -0.79804E-02
        -0.97963E-02
        -0.75531E-02
        -0.67563E-02
        -0.66540E-02
        -0.32399E-02
        -0.86144E-03
        -0.76478E-03
        -0.54413E-03
        -0.21391E-03
        -0.18470E-03
        -0.13766E-04
        -0.28699E-03
        -0.60694E-04
        -0.40612E-04
        -0.50089E-03
        -0.21947E-03
        -0.47503E-03
        -0.11871E-03
        -0.19878E-02
        -0.72731E-03
        -0.15905E-04
        -0.20619E-02
        -0.77213E-04
        -0.10244E-04
        -0.60007E-05
        -0.13124E-03
        -0.36493E-05
        -0.99289E-04
        -0.47709E-04
        -0.15998E-04
        -0.11002E-04
        -0.22525E-03
        -0.10228E-04
        -0.13504E-05
        -0.37110E-05
        -0.40061E-05
        -0.20373E-03
        -0.88902E-04
        -0.49476E-05
        -0.40982E-04
        -0.30269E-04
        -0.36356E-05
        -0.57855E-04
        -0.20490E-03
        -0.12587E-02
        -0.10323E-02
        -0.77722E-03
        -0.40447E-03
        -0.19686E-04
        -0.10396E-03
        -0.16144E-03
        -0.25864E-03
        -0.10060E-02
        -0.36043E-03
        -0.15751E-03
        -0.24274E-03
        -0.33256E-03
        -0.35329E-03
        -0.98139E-06
        -0.42428E-03
        -0.90195E-03
        -0.49131E-02
        -0.81839E-02
        -0.13564E-01
        -0.19505E-01
        -0.19087E-01
        -0.14882E-01
        -0.13677E-01
        -0.13200E-01
        -0.52371E-02
        -0.58437E-03
        -0.91913E-04
        -0.73320E-04
        -0.97345E-05
        -0.10198E-02
        -0.40672E-02
        -0.77234E-02
        -0.12951E-01
        -0.15938E-01
        -0.12503E-01
        -0.11269E-01
        -0.11032E-01
        -0.54048E-02
        -0.14268E-02
        -0.12570E-02
  
SCALARS                      strain_zz  double 1
LOOKUP_TABLE default
         0.23351E+02
         0.23057E+02
         0.23226E+02
         0.23579E+02
        -0.44709E-08
        -0.50134E-08
        -0.48005E-08
        -0.43611E-08
         0.22894E+02
         0.23078E+02
        -0.45083E-08
        -0.43629E-08
         0.22623E+02
         0.22613E+02
        -0.53568E-08
        -0.50368E-08
         0.23529E+02
         0.22621E+02
        -0.39581E-08
        -0.43902E-08
         0.22300E+02
         0.21983E+02
         0.22381E+02
        -0.53092E-08
        -0.46366E-08
        -0.47879E-08
         0.22043E+02
         0.21628E+02
        -0.50935E-08
        -0.42954E-08
         0.23512E+02
         0.23121E+02
         0.23888E+02
        -0.43465E-08
        -0.40408E-08
        -0.39287E-08
         0.23268E+02
         0.22783E+02
        -0.45984E-08
        -0.41961E-08
         0.23047E+02
         0.22643E+02
        -0.39744E-08
        -0.35184E-08
         0.23364E+02
         0.23547E+02
        -0.43554E-08
        -0.48665E-08
         0.22396E+02
        -0.42548E-08
         0.23512E+02
        -0.49996E-08
         0.21957E+02
        -0.44932E-08
         0.21840E+02
        -0.43099E-08
         0.21800E+02
         0.22257E+02
        -0.43913E-08
        -0.42766E-08
         0.23504E+02
         0.23318E+02
        -0.44033E-08
        -0.49779E-08
         0.23598E+02
        -0.42489E-08
         0.23400E+02
        -0.46372E-08
         0.22672E+02
         0.22778E+02
        -0.44637E-08
        -0.46772E-08
         0.22719E+02
        -0.47164E-08
         0.21478E+02
        -0.37263E-08
         0.21390E+02
        -0.36170E-08
         0.21366E+02
        -0.38137E-08
         0.21394E+02
         0.21722E+02
        -0.36336E-08
        -0.37883E-08
         0.22190E+02
        -0.35282E-08
         0.23321E+02
        -0.46268E-08
         0.23062E+02
        -0.47354E-08
         0.22750E+02
         0.22870E+02
        -0.45476E-08
        -0.46006E-08
         0.23050E+02
        -0.41787E-08
         0.23120E+02
        -0.41191E-08
         0.23002E+02
        -0.44096E-08
         0.22827E+02
         0.23004E+02
        -0.43242E-08
        -0.44511E-08
         0.21849E+02
         0.21848E+02
        -0.33573E-08
        -0.31578E-08
         0.21604E+02
        -0.32058E-08
         0.21609E+02
        -0.30738E-08
         0.21487E+02
        -0.30310E-08
         0.20982E+02
        -0.28643E-08
         0.20384E+02
        -0.25446E-08
         0.20114E+02
        -0.22913E-08
         0.20094E+02
        -0.22754E-08
         0.20126E+02
        -0.24675E-08
         0.20459E+02
        -0.25933E-08
         0.20765E+02
        -0.23680E-08
         0.21227E+02
        -0.21345E-08
         0.21700E+02
        -0.21320E-08
         0.22128E+02
        -0.23831E-08
         0.22388E+02
        -0.27173E-08
         0.22286E+02
        -0.29192E-08
         0.22019E+02
        -0.31527E-08
         0.21909E+02
        -0.33776E-08
         0.21473E+02
        -0.30942E-08
         0.21486E+02
        -0.27144E-08
         0.21693E+02
        -0.27060E-08
         0.21796E+02
        -0.29607E-08
         0.22009E+02
        -0.31563E-08
         0.21930E+02
        -0.29953E-08
         0.21873E+02
        -0.28958E-08
        -0.38821E+00
        -0.37416E+00
        -0.37610E+00
        -0.39403E+00
        -0.35989E+00
        -0.37770E+00
        -0.35550E+00
        -0.36730E+00
        -0.39128E+00
        -0.37659E+00
        -0.34238E+00
        -0.33825E+00
        -0.34907E+00
        -0.34984E+00
        -0.34285E+00
        -0.39321E+00
        -0.38995E+00
        -0.39898E+00
        -0.37259E+00
        -0.37760E+00
        -0.37038E+00
        -0.37514E+00
        -0.36628E+00
        -0.36864E+00
        -0.37718E+00
        -0.37658E+00
        -0.36182E+00
        -0.36319E+00
        -0.35183E+00
        -0.36885E+00
        -0.39161E+00
        -0.37395E+00
        -0.39149E+00
        -0.38003E+00
        -0.33539E+00
        -0.35035E+00
        -0.35723E+00
        -0.34909E+00
        -0.34804E+00
        -0.33433E+00
        -0.32402E+00
        -0.34864E+00
        -0.37067E+00
        -0.36778E+00
        -0.35656E+00
        -0.33595E+00
        -0.35362E+00
        -0.37161E+00
        -0.37039E+00
        -0.35651E+00
        -0.34170E+00
        -0.36151E+00
        -0.29779E+00
        -0.31733E+00
        -0.31411E+00
        -0.31857E+00
        -0.31738E+00
        -0.30686E+00
        -0.29592E+00
        -0.29237E+00
        -0.29395E+00
        -0.29281E+00
        -0.28807E+00
        -0.31643E+00
        -0.32675E+00
        -0.33067E+00
        -0.33714E+00
        -0.34197E+00
        -0.34170E+00
        -0.33334E+00
        -0.30438E+00
        -0.31142E+00
        -0.32150E+00
        -0.32144E+00
        -0.31970E+00
        -0.31007E+00
        -0.32420E+00
        -0.32931E+00
         0.28592E-03
         0.10570E-03
         0.99530E-04
         0.69528E-04
         0.29827E-03
         0.16660E-03
         0.18103E-04
         0.23307E-03
         0.13433E-03
         0.20293E-03
         0.24350E-04
         0.97767E-03
         0.57198E-03
         0.80997E-04
         0.10536E-02
         0.14572E-03
         0.54582E-04
         0.39886E-04
         0.62728E-04
         0.22066E-04
         0.60122E-03
         0.54274E-03
         0.49103E-03
         0.28522E-04
         0.67541E-04
         0.67024E-05
         0.43193E-04
        -0.62958E-04
        -0.16952E-04
         0.87482E-04
         0.10785E-03
         0.27519E-04
         0.67570E-04
         0.71116E-04
         0.46643E-03
         0.16839E-03
         0.28664E-03
         0.69066E-03
         0.40328E-03
         0.35625E-03
         0.73969E-03
         0.60061E-03
         0.61185E-03
         0.35608E-03
         0.28379E-03
         0.54219E-03
         0.23806E-03
         0.17738E-03
         0.13096E-03
         0.18571E-03
         0.45542E-03
         0.23714E-03
         0.83078E-02
         0.87573E-02
         0.95370E-02
         0.94349E-02
         0.10746E-01
         0.12398E-01
         0.11410E-01
         0.90416E-02
         0.85781E-02
         0.97970E-02
         0.94056E-02
         0.91450E-02
         0.62426E-02
         0.56606E-02
         0.67943E-02
         0.77729E-02
         0.83764E-02
         0.99944E-02
         0.92544E-02
         0.97936E-02
         0.79457E-02
         0.71542E-02
         0.81191E-02
         0.77589E-02
         0.82363E-02
         0.81168E-02
         0.28473E-03
         0.10411E-03
         0.98009E-04
         0.68188E-04
         0.29615E-03
         0.16469E-03
         0.16475E-04
         0.23174E-03
         0.13299E-03
         0.20226E-03
         0.22342E-04
         0.97526E-03
         0.57037E-03
         0.78348E-04
         0.10535E-02
         0.14422E-03
         0.52902E-04
         0.38370E-04
         0.60887E-04
         0.19984E-04
         0.59928E-03
         0.54067E-03
         0.48887E-03
         0.26570E-04
         0.66165E-04
         0.48392E-05
         0.41352E-04
        -0.65041E-04
        -0.18941E-04
         0.85625E-04
         0.10639E-03
         0.25740E-04
         0.65933E-04
         0.69694E-04
         0.46475E-03
         0.16645E-03
         0.28467E-03
         0.69052E-03
         0.40294E-03
         0.35507E-03
         0.73834E-03
         0.59896E-03
         0.60982E-03
         0.35402E-03
         0.28174E-03
         0.54003E-03
         0.23611E-03
         0.17551E-03
         0.12893E-03
         0.18357E-03
         0.45300E-03
         0.23472E-03
         0.82981E-02
         0.87495E-02
         0.95334E-02
         0.94317E-02
         0.10739E-01
         0.12386E-01
         0.11396E-01
         0.90328E-02
         0.85696E-02
         0.97870E-02
         0.93983E-02
         0.91418E-02
         0.62382E-02
         0.56572E-02
         0.67928E-02
         0.77733E-02
         0.83773E-02
         0.99951E-02
         0.92497E-02
         0.97887E-02
         0.79404E-02
         0.71500E-02
         0.81103E-02
         0.77454E-02
         0.82237E-02
         0.81048E-02
         0.28549E-03
         0.10448E-03
         0.98447E-04
         0.68692E-04
         0.29638E-03
         0.16502E-03
         0.17000E-04
         0.23263E-03
         0.13361E-03
         0.20363E-03
         0.22748E-04
         0.97565E-03
         0.57120E-03
         0.78182E-04
         0.10563E-02
         0.14410E-03
         0.53003E-04
         0.38688E-04
         0.60489E-04
         0.19526E-04
         0.59906E-03
         0.54047E-03
         0.48743E-03
         0.25159E-04
         0.66024E-04
         0.35313E-05
         0.41814E-04
        -0.65372E-04
        -0.19645E-04
         0.84431E-04
         0.10658E-03
         0.25323E-04
         0.66195E-04
         0.70238E-04
         0.46571E-03
         0.16683E-03
         0.28494E-03
         0.69315E-03
         0.40521E-03
         0.35621E-03
         0.73928E-03
         0.59877E-03
         0.60882E-03
         0.35267E-03
         0.28131E-03
         0.54029E-03
         0.23647E-03
         0.17590E-03
         0.12907E-03
         0.18365E-03
         0.45309E-03
         0.23461E-03
         0.82931E-02
         0.87463E-02
         0.95344E-02
         0.94327E-02
         0.10736E-01
         0.12378E-01
         0.11388E-01
         0.90289E-02
         0.85661E-02
         0.97820E-02
         0.93956E-02
         0.91425E-02
         0.62371E-02
         0.56573E-02
         0.67948E-02
         0.77765E-02
         0.83810E-02
         0.99996E-02
         0.92497E-02
         0.97887E-02
         0.79397E-02
         0.71501E-02
         0.81058E-02
         0.77362E-02
         0.82152E-02
         0.80970E-02
         0.28566E-03
         0.10438E-03
         0.98408E-04
         0.68577E-04
         0.29595E-03
         0.16472E-03
         0.17008E-04
         0.23287E-03
         0.13347E-03
         0.20406E-03
         0.22541E-04
         0.97535E-03
         0.57150E-03
         0.77294E-04
         0.10582E-02
         0.14299E-03
         0.52106E-04
         0.38356E-04
         0.58896E-04
         0.17758E-04
         0.59766E-03
         0.53906E-03
         0.48423E-03
         0.22006E-04
         0.64226E-04
         0.55606E-06
         0.41360E-04
        -0.67058E-04
        -0.22137E-04
         0.81017E-04
         0.10598E-03
         0.23722E-04
         0.65823E-04
         0.70055E-04
         0.46584E-03
         0.16655E-03
         0.28466E-03
         0.69495E-03
         0.40660E-03
         0.35629E-03
         0.73903E-03
         0.59685E-03
         0.60587E-03
         0.34954E-03
         0.27964E-03
         0.53943E-03
         0.23587E-03
         0.17554E-03
         0.12845E-03
         0.18288E-03
         0.45230E-03
         0.23379E-03
         0.82866E-02
         0.87418E-02
         0.95337E-02
         0.94323E-02
         0.10732E-01
         0.12369E-01
         0.11377E-01
         0.90234E-02
         0.85611E-02
         0.97753E-02
         0.93912E-02
         0.91413E-02
         0.62343E-02
         0.56560E-02
         0.67956E-02
         0.77781E-02
         0.83830E-02
         0.10003E-01
         0.92480E-02
         0.97870E-02
         0.79375E-02
         0.71487E-02
         0.80997E-02
         0.77256E-02
         0.82057E-02
         0.80881E-02
         0.28564E-03
         0.10414E-03
         0.98267E-04
         0.68454E-04
         0.29551E-03
         0.16436E-03
         0.16929E-04
         0.23295E-03
         0.13322E-03
         0.20442E-03
         0.22323E-04
         0.97514E-03
         0.57176E-03
         0.76384E-04
         0.10603E-02
         0.14233E-03
         0.51448E-04
         0.38043E-04
         0.57877E-04
         0.16461E-04
         0.59685E-03
         0.53804E-03
         0.48232E-03
         0.20046E-04
         0.63134E-04
        -0.13553E-05
         0.40966E-04
        -0.68280E-04
        -0.23816E-04
         0.78828E-04
         0.10535E-03
         0.22558E-04
         0.65231E-04
         0.69778E-04
         0.46598E-03
         0.16622E-03
         0.28432E-03
         0.69687E-03
         0.40813E-03
         0.35666E-03
         0.73923E-03
         0.59582E-03
         0.60407E-03
         0.34765E-03
         0.27855E-03
         0.53891E-03
         0.23537E-03
         0.17498E-03
         0.12763E-03
         0.18196E-03
         0.45138E-03
         0.23284E-03
         0.82801E-02
         0.87373E-02
         0.95332E-02
         0.94320E-02
         0.10728E-01
         0.12361E-01
         0.11368E-01
         0.90182E-02
         0.85563E-02
         0.97689E-02
         0.93874E-02
         0.91411E-02
         0.62325E-02
         0.56550E-02
         0.67968E-02
         0.77813E-02
         0.83864E-02
         0.10007E-01
         0.92468E-02
         0.97853E-02
         0.79351E-02
         0.71471E-02
         0.80934E-02
         0.77148E-02
         0.81961E-02
         0.80792E-02
         0.28503E-03
         0.10363E-03
         0.98127E-04
         0.68770E-04
         0.29551E-03
         0.16454E-03
         0.16919E-04
         0.23270E-03
         0.13275E-03
         0.20445E-03
         0.22506E-04
         0.97562E-03
         0.57242E-03
         0.75817E-04
         0.10632E-02
         0.14276E-03
         0.51462E-04
         0.38370E-04
         0.58183E-04
         0.16557E-04
         0.59735E-03
         0.53839E-03
         0.48247E-03
         0.19997E-04
         0.63091E-04
        -0.16332E-05
         0.40919E-04
        -0.68454E-04
        -0.23568E-04
         0.79033E-04
         0.10455E-03
         0.21936E-04
         0.64335E-04
         0.69754E-04
         0.46665E-03
         0.16617E-03
         0.28417E-03
         0.69955E-03
         0.41050E-03
         0.35823E-03
         0.74084E-03
         0.59681E-03
         0.60460E-03
         0.34769E-03
         0.27844E-03
         0.53892E-03
         0.23496E-03
         0.17388E-03
         0.12609E-03
         0.18088E-03
         0.45077E-03
         0.23239E-03
         0.82750E-02
         0.87341E-02
         0.95338E-02
         0.94327E-02
         0.10725E-01
         0.12353E-01
         0.11359E-01
         0.90142E-02
         0.85529E-02
         0.97642E-02
         0.93855E-02
         0.91429E-02
         0.62327E-02
         0.56555E-02
         0.67996E-02
         0.77870E-02
         0.83927E-02
         0.10012E-01
         0.92463E-02
         0.97845E-02
         0.79334E-02
         0.71458E-02
         0.80875E-02
         0.77049E-02
         0.81874E-02
         0.80713E-02
         0.28386E-03
         0.10269E-03
         0.97658E-04
         0.68743E-04
         0.29507E-03
         0.16438E-03
         0.16348E-04
         0.23174E-03
         0.13173E-03
         0.20386E-03
         0.22052E-04
         0.97544E-03
         0.57260E-03
         0.74540E-04
         0.10653E-02
         0.14276E-03
         0.50958E-04
         0.38224E-04
         0.58073E-04
         0.16197E-04
         0.59742E-03
         0.53829E-03
         0.48243E-03
         0.19754E-04
         0.62699E-04
        -0.21276E-05
         0.40208E-04
        -0.69096E-04
        -0.23616E-04
         0.79027E-04
         0.10334E-03
         0.20914E-04
         0.63041E-04
         0.69360E-04
         0.46675E-03
         0.16573E-03
         0.28364E-03
         0.70150E-03
         0.41221E-03
         0.35922E-03
         0.74194E-03
         0.59750E-03
         0.60489E-03
         0.34757E-03
         0.27789E-03
         0.53827E-03
         0.23394E-03
         0.17225E-03
         0.12407E-03
         0.17934E-03
         0.44973E-03
         0.23157E-03
         0.82686E-02
         0.87297E-02
         0.95334E-02
         0.94325E-02
         0.10722E-01
         0.12345E-01
         0.11349E-01
         0.90090E-02
         0.85483E-02
         0.97580E-02
         0.93822E-02
         0.91439E-02
         0.62323E-02
         0.56553E-02
         0.68015E-02
         0.77922E-02
         0.83983E-02
         0.10016E-01
         0.92441E-02
         0.97822E-02
         0.79308E-02
         0.71436E-02
         0.80807E-02
         0.76941E-02
         0.81779E-02
         0.80624E-02
         0.28375E-03
         0.10233E-03
         0.97515E-04
         0.68664E-04
         0.29463E-03
         0.16403E-03
         0.16128E-04
         0.23162E-03
         0.13167E-03
         0.20448E-03
         0.21746E-04
         0.97516E-03
         0.57278E-03
         0.73553E-04
         0.10673E-02
         0.14278E-03
         0.50880E-04
         0.37964E-04
         0.57979E-04
         0.15901E-04
         0.59741E-03
         0.53806E-03
         0.48233E-03
         0.19565E-04
         0.63020E-04
        -0.24155E-05
         0.39946E-04
        -0.69453E-04
        -0.23800E-04
         0.79036E-04
         0.10307E-03
         0.20488E-04
         0.62529E-04
         0.69165E-04
         0.46694E-03
         0.16547E-03
         0.28330E-03
         0.70338E-03
         0.41387E-03
         0.36002E-03
         0.74273E-03
         0.59794E-03
         0.60501E-03
         0.34750E-03
         0.27759E-03
         0.53808E-03
         0.23369E-03
         0.17188E-03
         0.12339E-03
         0.17855E-03
         0.44894E-03
         0.23071E-03
         0.82620E-02
         0.87251E-02
         0.95328E-02
         0.94323E-02
         0.10718E-01
         0.12336E-01
         0.11339E-01
         0.90037E-02
         0.85433E-02
         0.97513E-02
         0.93785E-02
         0.91448E-02
         0.62316E-02
         0.56545E-02
         0.68030E-02
         0.77968E-02
         0.84034E-02
         0.10020E-01
         0.92423E-02
         0.97806E-02
         0.79290E-02
         0.71425E-02
         0.80744E-02
         0.76835E-02
         0.81682E-02
         0.80534E-02
         0.28435E-03
         0.10257E-03
         0.97775E-04
         0.68845E-04
         0.29462E-03
         0.16394E-03
         0.16522E-04
         0.23231E-03
         0.13229E-03
         0.20596E-03
         0.22020E-04
         0.97545E-03
         0.57350E-03
         0.73286E-04
         0.10701E-02
         0.14338E-03
         0.51370E-04
         0.38075E-04
         0.58392E-04
         0.16111E-04
         0.59791E-03
         0.53835E-03
         0.48274E-03
         0.19881E-04
         0.64027E-04
        -0.21287E-05
         0.40496E-04
        -0.69113E-04
        -0.23372E-04
         0.79601E-04
         0.10352E-03
         0.20684E-04
         0.62575E-04
         0.69308E-04
         0.46771E-03
         0.16565E-03
         0.28343E-03
         0.70601E-03
         0.41618E-03
         0.36141E-03
         0.74418E-03
         0.59897E-03
         0.60563E-03
         0.34798E-03
         0.27789E-03
         0.53850E-03
         0.23404E-03
         0.17222E-03
         0.12344E-03
         0.17837E-03
         0.44871E-03
         0.23017E-03
         0.82568E-02
         0.87218E-02
         0.95330E-02
         0.94326E-02
         0.10714E-01
         0.12328E-01
         0.11330E-01
         0.89994E-02
         0.85393E-02
         0.97456E-02
         0.93759E-02
         0.91467E-02
         0.62317E-02
         0.56547E-02
         0.68054E-02
         0.78025E-02
         0.84097E-02
         0.10025E-01
         0.92416E-02
         0.97800E-02
         0.79282E-02
         0.71424E-02
         0.80693E-02
         0.76738E-02
         0.81595E-02
         0.80453E-02
         0.28460E-03
         0.10255E-03
         0.97813E-04
         0.68834E-04
         0.29434E-03
         0.16368E-03
         0.16623E-04
         0.23253E-03
         0.13244E-03
         0.20690E-03
         0.21913E-04
         0.97529E-03
         0.57398E-03
         0.72483E-04
         0.10721E-02
         0.14349E-03
         0.51397E-04
         0.37804E-04
         0.58326E-04
         0.15864E-04
         0.59800E-03
         0.53820E-03
         0.48273E-03
         0.19757E-04
         0.64633E-04
        -0.22559E-05
         0.40464E-04
        -0.69182E-04
        -0.23306E-04
         0.79762E-04
         0.10356E-03
         0.20531E-04
         0.62235E-04
         0.69179E-04
         0.46806E-03
         0.16551E-03
         0.28329E-03
         0.70796E-03
         0.41802E-03
         0.36240E-03
         0.74517E-03
         0.59959E-03
         0.60578E-03
         0.34811E-03
         0.27786E-03
         0.53855E-03
         0.23398E-03
         0.17209E-03
         0.12302E-03
         0.17781E-03
         0.44814E-03
         0.22942E-03
         0.82505E-02
         0.87175E-02
         0.95324E-02
         0.94323E-02
         0.10711E-01
         0.12320E-01
         0.11320E-01
         0.89940E-02
         0.85347E-02
         0.97391E-02
         0.93724E-02
         0.91476E-02
         0.62309E-02
         0.56543E-02
         0.68073E-02
         0.78076E-02
         0.84155E-02
         0.10030E-01
         0.92402E-02
         0.97783E-02
         0.79263E-02
         0.71414E-02
         0.80635E-02
         0.76637E-02
         0.81502E-02
         0.80365E-02
         0.28472E-03
         0.10237E-03
         0.97767E-04
         0.68877E-04
         0.29396E-03
         0.16347E-03
         0.16621E-04
         0.23269E-03
         0.13262E-03
         0.20785E-03
         0.21789E-04
         0.97507E-03
         0.57434E-03
         0.71723E-04
         0.10741E-02
         0.14355E-03
         0.51464E-04
         0.37618E-04
         0.58229E-04
         0.15657E-04
         0.59806E-03
         0.53805E-03
         0.48268E-03
         0.19567E-04
         0.65241E-04
        -0.24837E-05
         0.40465E-04
        -0.69295E-04
        -0.23250E-04
         0.79957E-04
         0.10354E-03
         0.20302E-04
         0.61983E-04
         0.69203E-04
         0.46828E-03
         0.16529E-03
         0.28308E-03
         0.70993E-03
         0.41985E-03
         0.36339E-03
         0.74625E-03
         0.60023E-03
         0.60594E-03
         0.34816E-03
         0.27777E-03
         0.53857E-03
         0.23394E-03
         0.17198E-03
         0.12262E-03
         0.17728E-03
         0.44761E-03
         0.22876E-03
         0.82440E-02
         0.87130E-02
         0.95318E-02
         0.94323E-02
         0.10707E-01
         0.12311E-01
         0.11310E-01
         0.89887E-02
         0.85301E-02
         0.97327E-02
         0.93691E-02
         0.91485E-02
         0.62300E-02
         0.56539E-02
         0.68091E-02
         0.78125E-02
         0.84211E-02
         0.10034E-01
         0.92386E-02
         0.97768E-02
         0.79244E-02
         0.71403E-02
         0.80576E-02
         0.76534E-02
         0.81408E-02
         0.80276E-02
         0.28518E-03
         0.10244E-03
         0.97915E-04
         0.69109E-04
         0.29389E-03
         0.16347E-03
         0.16929E-04
         0.23327E-03
         0.13310E-03
         0.20914E-03
         0.22058E-04
         0.97527E-03
         0.57491E-03
         0.71434E-04
         0.10768E-02
         0.14400E-03
         0.51790E-04
         0.37728E-04
         0.58510E-04
         0.15812E-04
         0.59850E-03
         0.53829E-03
         0.48300E-03
         0.19760E-04
         0.66100E-04
        -0.23057E-05
         0.40845E-04
        -0.69085E-04
        -0.22784E-04
         0.80547E-04
         0.10393E-03
         0.20426E-04
         0.62071E-04
         0.69472E-04
         0.46894E-03
         0.16539E-03
         0.28309E-03
         0.71251E-03
         0.42217E-03
         0.36490E-03
         0.74773E-03
         0.60119E-03
         0.60650E-03
         0.34853E-03
         0.27797E-03
         0.53889E-03
         0.23420E-03
         0.17221E-03
         0.12257E-03
         0.17707E-03
         0.44737E-03
         0.22835E-03
         0.82385E-02
         0.87095E-02
         0.95321E-02
         0.94327E-02
         0.10704E-01
         0.12302E-01
         0.11301E-01
         0.89843E-02
         0.85262E-02
         0.97271E-02
         0.93665E-02
         0.91499E-02
         0.62299E-02
         0.56541E-02
         0.68116E-02
         0.78179E-02
         0.84270E-02
         0.10039E-01
         0.92376E-02
         0.97759E-02
         0.79235E-02
         0.71401E-02
         0.80523E-02
         0.76437E-02
         0.81322E-02
         0.80196E-02
         0.28540E-03
         0.10229E-03
         0.97873E-04
         0.69082E-04
         0.29350E-03
         0.16317E-03
         0.16888E-04
         0.23345E-03
         0.13331E-03
         0.21004E-03
         0.21866E-04
         0.97500E-03
         0.57514E-03
         0.70585E-04
         0.10789E-02
         0.14410E-03
         0.51816E-04
         0.37443E-04
         0.58372E-04
         0.15534E-04
         0.59844E-03
         0.53803E-03
         0.48282E-03
         0.19542E-04
         0.66590E-04
        -0.25070E-05
         0.40635E-04
        -0.69420E-04
        -0.22875E-04
         0.80666E-04
         0.10393E-03
         0.20207E-04
         0.61689E-04
         0.69361E-04
         0.46915E-03
         0.16516E-03
         0.28278E-03
         0.71444E-03
         0.42388E-03
         0.36575E-03
         0.74857E-03
         0.60158E-03
         0.60656E-03
         0.34844E-03
         0.27777E-03
         0.53880E-03
         0.23409E-03
         0.17201E-03
         0.12212E-03
         0.17652E-03
         0.44676E-03
         0.22758E-03
         0.82320E-02
         0.87051E-02
         0.95314E-02
         0.94322E-02
         0.10700E-01
         0.12294E-01
         0.11291E-01
         0.89790E-02
         0.85214E-02
         0.97204E-02
         0.93627E-02
         0.91505E-02
         0.62290E-02
         0.56534E-02
         0.68133E-02
         0.78227E-02
         0.84321E-02
         0.10043E-01
         0.92361E-02
         0.97743E-02
         0.79216E-02
         0.71392E-02
         0.80465E-02
         0.76334E-02
         0.81227E-02
         0.80107E-02
         0.28571E-03
         0.10225E-03
         0.97919E-04
         0.69158E-04
         0.29326E-03
         0.16298E-03
         0.17005E-04
         0.23378E-03
         0.13368E-03
         0.21118E-03
         0.21874E-04
         0.97498E-03
         0.57560E-03
         0.69991E-04
         0.10812E-02
         0.14434E-03
         0.52042E-04
         0.37327E-04
         0.58434E-04
         0.15443E-04
         0.59859E-03
         0.53798E-03
         0.48288E-03
         0.19497E-04
         0.67296E-04
        -0.25745E-05
         0.40767E-04
        -0.69489E-04
        -0.22777E-04
         0.80920E-04
         0.10401E-03
         0.20103E-04
         0.61456E-04
         0.69385E-04
         0.46957E-03
         0.16504E-03
         0.28263E-03
         0.71661E-03
         0.42575E-03
         0.36679E-03
         0.74971E-03
         0.60229E-03
         0.60684E-03
         0.34859E-03
         0.27778E-03
         0.53893E-03
         0.23413E-03
         0.17196E-03
         0.12180E-03
         0.17610E-03
         0.44634E-03
         0.22696E-03
         0.82260E-02
         0.87010E-02
         0.95310E-02
         0.94321E-02
         0.10696E-01
         0.12285E-01
         0.11281E-01
         0.89738E-02
         0.85167E-02
         0.97141E-02
         0.93597E-02
         0.91516E-02
         0.62284E-02
         0.56530E-02
         0.68151E-02
         0.78278E-02
         0.84379E-02
         0.10048E-01
         0.92348E-02
         0.97729E-02
         0.79200E-02
         0.71384E-02
         0.80409E-02
         0.76233E-02
         0.81135E-02
         0.80020E-02
         0.28644E-03
         0.10270E-03
         0.98385E-04
         0.69570E-04
         0.29349E-03
         0.16318E-03
         0.17687E-04
         0.23462E-03
         0.13435E-03
         0.21272E-03
         0.22465E-04
         0.97561E-03
         0.57665E-03
         0.69939E-04
         0.10841E-02
         0.14500E-03
         0.52640E-04
         0.37597E-04
         0.58952E-04
         0.15841E-04
         0.59933E-03
         0.53848E-03
         0.48347E-03
         0.19922E-04
         0.68498E-04
        -0.21631E-05
         0.41441E-04
        -0.68876E-04
        -0.22006E-04
         0.81760E-04
         0.10462E-03
         0.20505E-04
         0.61668E-04
         0.69724E-04
         0.47054E-03
         0.16545E-03
         0.28301E-03
         0.71935E-03
         0.42833E-03
         0.36850E-03
         0.75140E-03
         0.60353E-03
         0.60760E-03
         0.34932E-03
         0.27836E-03
         0.53964E-03
         0.23471E-03
         0.17247E-03
         0.12194E-03
         0.17604E-03
         0.44628E-03
         0.22668E-03
         0.82210E-02
         0.86979E-02
         0.95316E-02
         0.94329E-02
         0.10693E-01
         0.12278E-01
         0.11272E-01
         0.89695E-02
         0.85132E-02
         0.97087E-02
         0.93573E-02
         0.91536E-02
         0.62286E-02
         0.56535E-02
         0.68180E-02
         0.78339E-02
         0.84447E-02
         0.10053E-01
         0.92344E-02
         0.97726E-02
         0.79194E-02
         0.71383E-02
         0.80359E-02
         0.76140E-02
         0.81053E-02
         0.79943E-02
         0.28659E-03
         0.10257E-03
         0.98351E-04
         0.69510E-04
         0.29306E-03
         0.16288E-03
         0.17669E-04
         0.23475E-03
         0.13450E-03
         0.21357E-03
         0.22281E-04
         0.97541E-03
         0.57704E-03
         0.69086E-04
         0.10861E-02
         0.14505E-03
         0.52620E-04
         0.37353E-04
         0.58744E-04
         0.15518E-04
         0.59935E-03
         0.53823E-03
         0.48342E-03
         0.19659E-04
         0.68953E-04
        -0.24414E-05
         0.41260E-04
        -0.69110E-04
        -0.21890E-04
         0.81930E-04
         0.10466E-03
         0.20262E-04
         0.61367E-04
         0.69578E-04
         0.47071E-03
         0.16522E-03
         0.28283E-03
         0.72126E-03
         0.43012E-03
         0.36952E-03
         0.75235E-03
         0.60401E-03
         0.60761E-03
         0.34928E-03
         0.27819E-03
         0.53959E-03
         0.23464E-03
         0.17238E-03
         0.12153E-03
         0.17541E-03
         0.44565E-03
         0.22591E-03
         0.82143E-02
         0.86933E-02
         0.95308E-02
         0.94327E-02
         0.10690E-01
         0.12269E-01
         0.11262E-01
         0.89640E-02
         0.85084E-02
         0.97020E-02
         0.93536E-02
         0.91541E-02
         0.62275E-02
         0.56530E-02
         0.68199E-02
         0.78390E-02
         0.84503E-02
         0.10058E-01
         0.92328E-02
         0.97710E-02
         0.79176E-02
         0.71372E-02
         0.80298E-02
         0.76038E-02
         0.80960E-02
         0.79854E-02
         0.28661E-03
         0.10223E-03
         0.98112E-04
         0.69388E-04
         0.29253E-03
         0.16243E-03
         0.17541E-04
         0.23484E-03
         0.13457E-03
         0.21418E-03
         0.22049E-04
         0.97507E-03
         0.57726E-03
         0.68224E-04
         0.10881E-02
         0.14505E-03
         0.52476E-04
         0.37081E-04
         0.58588E-04
         0.15325E-04
         0.59934E-03
         0.53793E-03
         0.48332E-03
         0.19434E-04
         0.69192E-04
        -0.27150E-05
         0.40739E-04
        -0.69475E-04
        -0.21011E-04
         0.82606E-04
         0.10459E-03
         0.19934E-04
         0.61069E-04
         0.69496E-04
         0.47085E-03
         0.16488E-03
         0.28247E-03
         0.72297E-03
         0.43192E-03
         0.37117E-03
         0.75349E-03
         0.60445E-03
         0.60751E-03
         0.34925E-03
         0.27796E-03
         0.53943E-03
         0.23443E-03
         0.17218E-03
         0.12109E-03
         0.17483E-03
         0.44504E-03
         0.22511E-03
         0.82078E-02
         0.86888E-02
         0.95302E-02
         0.94324E-02
         0.10686E-01
         0.12260E-01
         0.11251E-01
         0.89583E-02
         0.85035E-02
         0.96955E-02
         0.93495E-02
         0.91536E-02
         0.62264E-02
         0.56524E-02
         0.68216E-02
         0.78438E-02
         0.84557E-02
         0.10062E-01
         0.92311E-02
         0.97692E-02
         0.79158E-02
         0.71361E-02
         0.80237E-02
         0.75934E-02
         0.80865E-02
         0.79763E-02
         0.28733E-03
         0.10265E-03
         0.98610E-04
         0.69865E-04
         0.29279E-03
         0.16267E-03
         0.18160E-04
         0.23566E-03
         0.13515E-03
         0.21524E-03
         0.22589E-04
         0.97555E-03
         0.57817E-03
         0.68145E-04
         0.10909E-02
         0.14572E-03
         0.52957E-04
         0.37330E-04
         0.59175E-04
         0.16032E-04
         0.59998E-03
         0.53835E-03
         0.48383E-03
         0.19892E-04
         0.70042E-04
        -0.22645E-05
         0.40689E-04
        -0.69100E-04
        -0.18630E-04
         0.84566E-04
         0.10514E-03
         0.20343E-04
         0.61275E-04
         0.69929E-04
         0.47186E-03
         0.16534E-03
         0.28283E-03
         0.72538E-03
         0.43459E-03
         0.37413E-03
         0.75555E-03
         0.60562E-03
         0.60805E-03
         0.34990E-03
         0.27852E-03
         0.54018E-03
         0.23502E-03
         0.17264E-03
         0.12127E-03
         0.17490E-03
         0.44512E-03
         0.22489E-03
         0.82028E-02
         0.86858E-02
         0.95309E-02
         0.94332E-02
         0.10683E-01
         0.12252E-01
         0.11242E-01
         0.89543E-02
         0.85001E-02
         0.96906E-02
         0.93461E-02
         0.91540E-02
         0.62263E-02
         0.56528E-02
         0.68241E-02
         0.78494E-02
         0.84620E-02
         0.10067E-01
         0.92309E-02
         0.97689E-02
         0.79152E-02
         0.71364E-02
         0.80190E-02
         0.75844E-02
         0.80782E-02
         0.79687E-02
         0.28618E-03
         0.10111E-03
         0.97202E-04
         0.68558E-04
         0.29080E-03
         0.16085E-03
         0.16625E-04
         0.23428E-03
         0.13390E-03
         0.21424E-03
         0.20747E-04
         0.97338E-03
         0.57665E-03
         0.65560E-04
         0.10910E-02
         0.14451E-03
         0.51450E-04
         0.35820E-04
         0.57566E-04
         0.14361E-04
         0.59829E-03
         0.53644E-03
         0.48209E-03
         0.18259E-04
         0.68742E-04
        -0.38237E-05
         0.38384E-04
        -0.71063E-04
        -0.19330E-04
         0.83684E-04
         0.10385E-03
         0.18708E-04
         0.59637E-04
         0.68398E-04
         0.47030E-03
         0.16347E-03
         0.28086E-03
         0.72521E-03
         0.43465E-03
         0.37403E-03
         0.75472E-03
         0.60418E-03
         0.60626E-03
         0.34829E-03
         0.27668E-03
         0.53820E-03
         0.23325E-03
         0.17098E-03
         0.11935E-03
         0.17268E-03
         0.44262E-03
         0.22246E-03
         0.81931E-02
         0.86782E-02
         0.95269E-02
         0.94295E-02
         0.10675E-01
         0.12240E-01
         0.11229E-01
         0.89455E-02
         0.84921E-02
         0.96804E-02
         0.93385E-02
         0.91511E-02
         0.62227E-02
         0.56496E-02
         0.68230E-02
         0.78513E-02
         0.84645E-02
         0.10068E-01
         0.92258E-02
         0.97640E-02
         0.79103E-02
         0.71324E-02
         0.80099E-02
         0.75709E-02
         0.80659E-02
         0.79569E-02
         0.28734E-03
         0.10122E-03
         0.97570E-04
         0.69225E-04
         0.29118E-03
         0.16125E-03
         0.17022E-04
         0.23567E-03
         0.13532E-03
         0.21693E-03
         0.21320E-04
         0.97344E-03
         0.57663E-03
         0.66212E-04
         0.10943E-02
         0.14593E-03
         0.52801E-04
         0.36532E-04
         0.58563E-04
         0.15241E-04
         0.59936E-03
         0.53707E-03
         0.48352E-03
         0.19478E-04
         0.71253E-04
        -0.26984E-05
         0.40401E-04
        -0.68859E-04
        -0.17311E-04
         0.85641E-04
         0.10494E-03
         0.19386E-04
         0.59935E-04
         0.68227E-04
         0.47109E-03
         0.16329E-03
         0.28025E-03
         0.72878E-03
         0.43821E-03
         0.37637E-03
         0.75656E-03
         0.60590E-03
         0.60773E-03
         0.34973E-03
         0.27743E-03
         0.53871E-03
         0.23365E-03
         0.17178E-03
         0.11968E-03
         0.17231E-03
         0.44237E-03
         0.22192E-03
         0.81885E-02
         0.86760E-02
         0.95271E-02
         0.94288E-02
         0.10670E-01
         0.12231E-01
         0.11221E-01
         0.89424E-02
         0.84891E-02
         0.96743E-02
         0.93358E-02
         0.91543E-02
         0.62242E-02
         0.56502E-02
         0.68265E-02
         0.78585E-02
         0.84720E-02
         0.10074E-01
         0.92252E-02
         0.97627E-02
         0.79097E-02
         0.71327E-02
         0.80060E-02
         0.75632E-02
         0.80587E-02
         0.79502E-02
         0.60357E-02
         0.60956E-02
         0.60458E-02
         0.54961E-02
         0.71749E-02
         0.65843E-02
         0.65057E-02
         0.68088E-02
         0.57837E-02
         0.68099E-02
         0.72490E-02
         0.93359E-02
         0.80733E-02
         0.75297E-02
         0.97035E-02
         0.56677E-02
         0.59935E-02
         0.52258E-02
         0.62519E-02
         0.64938E-02
         0.74920E-02
         0.74838E-02
         0.70978E-02
         0.59447E-02
         0.66842E-02
         0.56728E-02
         0.74314E-02
         0.70951E-02
         0.71532E-02
         0.69262E-02
         0.56851E-02
         0.58901E-02
         0.55226E-02
         0.57713E-02
         0.81311E-02
         0.70256E-02
         0.71534E-02
         0.88974E-02
         0.82991E-02
         0.81132E-02
         0.87242E-02
         0.81347E-02
         0.77436E-02
         0.67699E-02
         0.69756E-02
         0.82458E-02
         0.72056E-02
         0.66630E-02
         0.64551E-02
         0.67565E-02
         0.77411E-02
         0.68617E-02
         0.21699E-01
         0.21867E-01
         0.22993E-01
         0.22435E-01
         0.24061E-01
         0.26264E-01
         0.25319E-01
         0.22878E-01
         0.22546E-01
         0.24139E-01
         0.23377E-01
         0.22405E-01
         0.17988E-01
         0.16739E-01
         0.18105E-01
         0.19423E-01
         0.20184E-01
         0.22828E-01
         0.22865E-01
         0.23436E-01
         0.20447E-01
         0.19236E-01
         0.20550E-01
         0.19972E-01
         0.20366E-01
         0.20265E-01
         0.63311E-01
         0.65962E-01
         0.65019E-01
         0.59404E-01
         0.73144E-01
         0.68580E-01
         0.71130E-01
         0.72057E-01
         0.61697E-01
         0.71998E-01
         0.78007E-01
         0.88848E-01
         0.80100E-01
         0.80360E-01
         0.92148E-01
         0.60543E-01
         0.64795E-01
         0.56710E-01
         0.66903E-01
         0.70239E-01
         0.73581E-01
         0.75038E-01
         0.70542E-01
         0.64361E-01
         0.72588E-01
         0.62123E-01
         0.80075E-01
         0.78533E-01
         0.78912E-01
         0.75115E-01
         0.61120E-01
         0.64079E-01
         0.59861E-01
         0.62522E-01
         0.80246E-01
         0.73302E-01
         0.73724E-01
         0.88723E-01
         0.85982E-01
         0.84840E-01
         0.86978E-01
         0.82464E-01
         0.78093E-01
         0.68698E-01
         0.71331E-01
         0.80332E-01
         0.73951E-01
         0.69535E-01
         0.68095E-01
         0.70612E-01
         0.76962E-01
         0.70875E-01
         0.13825E+00
         0.13565E+00
         0.13966E+00
         0.13559E+00
         0.14115E+00
         0.15020E+00
         0.15111E+00
         0.14729E+00
         0.14745E+00
         0.15237E+00
         0.14787E+00
         0.13950E+00
         0.12190E+00
         0.11480E+00
         0.11681E+00
         0.11961E+00
         0.12156E+00
         0.13317E+00
         0.14028E+00
         0.14164E+00
         0.12944E+00
         0.12466E+00
         0.12978E+00
         0.12830E+00
         0.12766E+00
         0.12704E+00
  
SCALARS                      strain_yz  double 1
LOOKUP_TABLE default
        -0.14280E+00
         0.46246E-01
         0.12212E+00
         0.64784E-01
        -0.34585E-09
        -0.95324E-10
        -0.42862E-09
        -0.32692E-09
         0.44679E+00
        -0.29771E+00
        -0.63787E-09
        -0.56156E-09
         0.37965E+00
         0.19281E-01
         0.45649E-09
        -0.29268E-10
        -0.14176E+00
        -0.48661E+00
         0.67161E-11
         0.68719E-10
         0.24490E+00
         0.89692E+00
         0.96889E+00
         0.10464E-08
         0.18072E-08
         0.15106E-08
         0.88705E-01
         0.87810E+00
         0.75272E-09
         0.14603E-08
        -0.16177E+00
        -0.13613E+00
         0.12384E+00
         0.39023E-09
         0.39836E-09
        -0.82703E-11
        -0.47072E+00
        -0.43370E+00
         0.71809E-09
         0.55870E-09
        -0.45405E+00
        -0.27871E+00
         0.54269E-09
         0.49595E-09
        -0.42392E+00
        -0.14830E+00
        -0.18002E-10
         0.27845E-09
        -0.35927E+00
         0.13110E-09
        -0.39254E-01
        -0.10618E-10
        -0.20285E-01
         0.50713E-09
         0.13292E+00
         0.29501E-09
         0.43270E+00
        -0.80138E-01
         0.80032E-11
        -0.16244E-10
        -0.19604E+00
        -0.70459E+00
        -0.10904E-09
        -0.40787E-09
        -0.11937E+00
        -0.22011E-09
        -0.50395E+00
        -0.26814E-09
         0.38751E+00
         0.20585E+00
        -0.33137E-10
         0.43753E-09
         0.71429E+00
         0.96075E-09
         0.10992E+01
         0.93024E-09
         0.11009E+01
         0.70615E-09
         0.90724E+00
         0.59188E-09
         0.13443E+01
         0.10583E+01
         0.37969E-09
        -0.84183E-10
         0.15416E+00
        -0.94197E-11
        -0.66097E+00
        -0.59008E-09
        -0.15315E+01
        -0.10330E-08
        -0.20954E+01
        -0.13015E+01
        -0.15321E-08
        -0.12401E-08
        -0.92716E+00
        -0.96267E-09
        -0.83723E+00
        -0.98487E-09
        -0.80801E+00
        -0.10589E-08
        -0.13323E+01
        -0.11196E+01
        -0.98476E-09
        -0.47185E-09
         0.83919E+00
        -0.32005E+00
         0.34626E-09
        -0.43029E-09
         0.20350E+01
         0.11519E-08
         0.29394E+01
         0.16850E-08
         0.35459E+01
         0.20810E-08
         0.39741E+01
         0.20642E-08
         0.44459E+01
         0.16335E-08
         0.44263E+01
         0.12641E-08
         0.41583E+01
         0.11758E-08
         0.37082E+01
         0.11186E-08
         0.27888E+01
         0.71490E-09
         0.19592E+01
         0.23603E-09
         0.10321E+01
         0.15251E-09
        -0.77150E-01
         0.22924E-09
        -0.10599E+01
         0.11840E-09
        -0.19433E+01
        -0.35806E-09
        -0.29914E+01
        -0.10107E-08
        -0.32499E+01
        -0.15782E-08
        -0.34803E+01
        -0.20690E-08
        -0.43260E+01
        -0.20672E-08
        -0.45218E+01
        -0.18046E-08
        -0.42415E+01
        -0.17587E-08
        -0.34420E+01
        -0.17697E-08
        -0.23653E+01
        -0.13994E-08
        -0.16782E+01
        -0.82753E-09
        -0.12121E+01
        -0.63985E-09
        -0.57824E-02
        -0.28699E-02
        -0.25198E-02
        -0.82449E-03
        -0.24578E-02
        -0.27587E-02
        -0.27171E-03
        -0.43318E-02
        -0.39912E-02
        -0.56083E-02
         0.26327E-02
         0.11085E-01
         0.78434E-02
         0.91167E-03
         0.11368E-01
         0.15539E-02
        -0.13638E-02
         0.90109E-03
         0.10888E-02
        -0.83548E-03
         0.75087E-03
         0.62813E-03
        -0.20544E-02
         0.17436E-03
        -0.38356E-02
         0.56602E-03
         0.28019E-04
         0.49197E-03
         0.57610E-03
        -0.29321E-02
         0.15097E-02
        -0.15545E-02
         0.10975E-02
        -0.25848E-03
         0.37098E-03
         0.21109E-02
         0.48384E-02
         0.10194E-01
         0.92819E-02
         0.74983E-02
         0.68205E-02
         0.18381E-02
        -0.16114E-02
        -0.43803E-02
        -0.69886E-02
        -0.10679E-01
        -0.74202E-02
        -0.56282E-02
        -0.59824E-02
        -0.60870E-02
        -0.68088E-02
        -0.33149E-02
         0.50472E-02
        -0.65115E-02
         0.17442E-01
         0.24485E-01
         0.31097E-01
         0.35595E-01
         0.34375E-01
         0.30686E-01
         0.29367E-01
         0.27644E-01
         0.17537E-01
         0.85418E-02
         0.38914E-02
         0.17379E-02
        -0.27209E-02
        -0.10933E-01
        -0.20082E-01
        -0.25497E-01
        -0.27878E-01
        -0.32799E-01
        -0.31997E-01
        -0.30231E-01
        -0.27957E-01
        -0.18790E-01
        -0.11536E-01
        -0.10309E-01
        -0.21529E-01
        -0.13579E-01
        -0.12566E-01
        -0.29805E-02
        -0.16320E-01
        -0.73401E-02
        -0.58207E-02
        -0.20347E-01
        -0.13344E-01
        -0.19137E-01
         0.10118E-01
         0.43780E-01
         0.25940E-01
         0.37281E-02
         0.43132E-01
         0.81647E-02
        -0.24744E-02
         0.23623E-02
         0.10647E-01
         0.20586E-02
         0.91759E-02
         0.65149E-02
        -0.37770E-02
         0.31884E-02
        -0.12888E-01
         0.31878E-02
         0.79989E-03
         0.14870E-02
        -0.23753E-02
        -0.12856E-01
         0.87993E-02
         0.23179E-02
         0.56876E-02
         0.49384E-02
        -0.23544E-02
         0.71776E-02
         0.13704E-01
         0.32784E-01
         0.28913E-01
         0.25480E-01
         0.18717E-01
        -0.46251E-02
        -0.95267E-02
        -0.11901E-01
        -0.15325E-01
        -0.31302E-01
        -0.18216E-01
        -0.12046E-01
        -0.15140E-01
        -0.17873E-01
        -0.18518E-01
        -0.13895E-02
         0.23032E-01
        -0.32942E-01
         0.76640E-01
         0.99048E-01
         0.12779E+00
         0.15327E+00
         0.15017E+00
         0.13124E+00
         0.12579E+00
         0.12441E+00
         0.78132E-01
         0.25753E-01
         0.10271E-01
         0.88021E-02
        -0.40753E-02
        -0.34561E-01
        -0.69225E-01
        -0.96297E-01
        -0.12535E+00
        -0.13898E+00
        -0.12211E+00
        -0.11547E+00
        -0.11509E+00
        -0.81046E-01
        -0.42096E-01
        -0.39861E-01
        -0.21542E-01
        -0.13581E-01
        -0.12572E-01
        -0.30024E-02
        -0.16321E-01
        -0.73459E-02
        -0.58280E-02
        -0.20382E-01
        -0.13368E-01
        -0.19209E-01
         0.10124E-01
         0.43776E-01
         0.25946E-01
         0.37282E-02
         0.43187E-01
         0.81652E-02
        -0.24969E-02
         0.23588E-02
         0.10655E-01
         0.20471E-02
         0.91985E-02
         0.65212E-02
        -0.37779E-02
         0.31869E-02
        -0.12946E-01
         0.31820E-02
         0.80932E-03
         0.14954E-02
        -0.23596E-02
        -0.12883E-01
         0.88009E-02
         0.23129E-02
         0.57002E-02
         0.49465E-02
        -0.23323E-02
         0.71823E-02
         0.13703E-01
         0.32834E-01
         0.28975E-01
         0.25510E-01
         0.18731E-01
        -0.46127E-02
        -0.95365E-02
        -0.11907E-01
        -0.15325E-01
        -0.31303E-01
        -0.18218E-01
        -0.12039E-01
        -0.15120E-01
        -0.17849E-01
        -0.18510E-01
        -0.13685E-02
         0.23010E-01
        -0.32944E-01
         0.76655E-01
         0.99049E-01
         0.12777E+00
         0.15322E+00
         0.15011E+00
         0.13120E+00
         0.12576E+00
         0.12437E+00
         0.78116E-01
         0.25765E-01
         0.10270E-01
         0.88202E-02
        -0.40421E-02
        -0.34579E-01
        -0.69256E-01
        -0.96319E-01
        -0.12535E+00
        -0.13897E+00
        -0.12210E+00
        -0.11547E+00
        -0.11506E+00
        -0.80989E-01
        -0.42050E-01
        -0.39809E-01
        -0.21556E-01
        -0.13584E-01
        -0.12578E-01
        -0.30245E-02
        -0.16323E-01
        -0.73519E-02
        -0.58353E-02
        -0.20416E-01
        -0.13392E-01
        -0.19280E-01
         0.10130E-01
         0.43772E-01
         0.25953E-01
         0.37278E-02
         0.43242E-01
         0.81657E-02
        -0.25196E-02
         0.23552E-02
         0.10662E-01
         0.20354E-02
         0.92215E-02
         0.65273E-02
        -0.37794E-02
         0.31849E-02
        -0.13004E-01
         0.31754E-02
         0.81939E-03
         0.15042E-02
        -0.23425E-02
        -0.12909E-01
         0.88022E-02
         0.23067E-02
         0.57128E-02
         0.49545E-02
        -0.23101E-02
         0.71872E-02
         0.13702E-01
         0.32885E-01
         0.29037E-01
         0.25540E-01
         0.18747E-01
        -0.45990E-02
        -0.95457E-02
        -0.11915E-01
        -0.15327E-01
        -0.31303E-01
        -0.18220E-01
        -0.12032E-01
        -0.15100E-01
        -0.17825E-01
        -0.18503E-01
        -0.13475E-02
         0.22989E-01
        -0.32945E-01
         0.76669E-01
         0.99050E-01
         0.12776E+00
         0.15317E+00
         0.15005E+00
         0.13116E+00
         0.12573E+00
         0.12434E+00
         0.78100E-01
         0.25778E-01
         0.10269E-01
         0.88383E-02
        -0.40087E-02
        -0.34598E-01
        -0.69288E-01
        -0.96342E-01
        -0.12535E+00
        -0.13896E+00
        -0.12209E+00
        -0.11546E+00
        -0.11503E+00
        -0.80931E-01
        -0.42004E-01
        -0.39757E-01
        -0.21569E-01
        -0.13587E-01
        -0.12585E-01
        -0.30467E-02
        -0.16325E-01
        -0.73578E-02
        -0.58430E-02
        -0.20450E-01
        -0.13416E-01
        -0.19350E-01
         0.10137E-01
         0.43768E-01
         0.25960E-01
         0.37279E-02
         0.43297E-01
         0.81664E-02
        -0.25428E-02
         0.23515E-02
         0.10670E-01
         0.20230E-02
         0.92449E-02
         0.65328E-02
        -0.37826E-02
         0.31818E-02
        -0.13059E-01
         0.31667E-02
         0.82980E-03
         0.15159E-02
        -0.23213E-02
        -0.12933E-01
         0.88029E-02
         0.22984E-02
         0.57254E-02
         0.49625E-02
        -0.22879E-02
         0.71919E-02
         0.13701E-01
         0.32936E-01
         0.29101E-01
         0.25572E-01
         0.18764E-01
        -0.45815E-02
        -0.95532E-02
        -0.11926E-01
        -0.15332E-01
        -0.31305E-01
        -0.18223E-01
        -0.12024E-01
        -0.15080E-01
        -0.17801E-01
        -0.18494E-01
        -0.13266E-02
         0.22968E-01
        -0.32947E-01
         0.76683E-01
         0.99051E-01
         0.12774E+00
         0.15312E+00
         0.14999E+00
         0.13112E+00
         0.12571E+00
         0.12430E+00
         0.78085E-01
         0.25793E-01
         0.10269E-01
         0.88561E-02
        -0.39751E-02
        -0.34618E-01
        -0.69326E-01
        -0.96368E-01
        -0.12535E+00
        -0.13895E+00
        -0.12209E+00
        -0.11546E+00
        -0.11501E+00
        -0.80874E-01
        -0.41958E-01
        -0.39704E-01
        -0.21582E-01
        -0.13589E-01
        -0.12591E-01
        -0.30688E-02
        -0.16327E-01
        -0.73637E-02
        -0.58502E-02
        -0.20484E-01
        -0.13440E-01
        -0.19419E-01
         0.10143E-01
         0.43765E-01
         0.25966E-01
         0.37281E-02
         0.43352E-01
         0.81671E-02
        -0.25663E-02
         0.23478E-02
         0.10678E-01
         0.20100E-02
         0.92686E-02
         0.65376E-02
        -0.37876E-02
         0.31773E-02
        -0.13113E-01
         0.31557E-02
         0.84138E-03
         0.15302E-02
        -0.22958E-02
        -0.12954E-01
         0.88029E-02
         0.22876E-02
         0.57379E-02
         0.49705E-02
        -0.22656E-02
         0.71966E-02
         0.13701E-01
         0.32987E-01
         0.29166E-01
         0.25605E-01
         0.18784E-01
        -0.45600E-02
        -0.95590E-02
        -0.11942E-01
        -0.15339E-01
        -0.31309E-01
        -0.18227E-01
        -0.12018E-01
        -0.15060E-01
        -0.17777E-01
        -0.18486E-01
        -0.13056E-02
         0.22946E-01
        -0.32949E-01
         0.76697E-01
         0.99051E-01
         0.12773E+00
         0.15306E+00
         0.14992E+00
         0.13108E+00
         0.12568E+00
         0.12427E+00
         0.78072E-01
         0.25811E-01
         0.10270E-01
         0.88736E-02
        -0.39413E-02
        -0.34640E-01
        -0.69368E-01
        -0.96397E-01
        -0.12535E+00
        -0.13895E+00
        -0.12208E+00
        -0.11545E+00
        -0.11498E+00
        -0.80817E-01
        -0.41912E-01
        -0.39652E-01
        -0.21595E-01
        -0.13591E-01
        -0.12597E-01
        -0.30911E-02
        -0.16329E-01
        -0.73695E-02
        -0.58566E-02
        -0.20516E-01
        -0.13465E-01
        -0.19487E-01
         0.10150E-01
         0.43761E-01
         0.25973E-01
         0.37288E-02
         0.43407E-01
         0.81681E-02
        -0.25903E-02
         0.23442E-02
         0.10686E-01
         0.19967E-02
         0.92924E-02
         0.65423E-02
        -0.37933E-02
         0.31724E-02
        -0.13166E-01
         0.31441E-02
         0.85384E-03
         0.15460E-02
        -0.22686E-02
        -0.12974E-01
         0.88024E-02
         0.22755E-02
         0.57507E-02
         0.49790E-02
        -0.22432E-02
         0.72018E-02
         0.13701E-01
         0.33038E-01
         0.29232E-01
         0.25640E-01
         0.18804E-01
        -0.45373E-02
        -0.95639E-02
        -0.11960E-01
        -0.15349E-01
        -0.31314E-01
        -0.18231E-01
        -0.12012E-01
        -0.15041E-01
        -0.17754E-01
        -0.18479E-01
        -0.12846E-02
         0.22924E-01
        -0.32951E-01
         0.76711E-01
         0.99052E-01
         0.12771E+00
         0.15301E+00
         0.14986E+00
         0.13104E+00
         0.12566E+00
         0.12424E+00
         0.78060E-01
         0.25830E-01
         0.10272E-01
         0.88911E-02
        -0.39077E-02
        -0.34662E-01
        -0.69412E-01
        -0.96427E-01
        -0.12535E+00
        -0.13894E+00
        -0.12207E+00
        -0.11545E+00
        -0.11495E+00
        -0.80759E-01
        -0.41866E-01
        -0.39600E-01
        -0.21607E-01
        -0.13590E-01
        -0.12603E-01
        -0.31140E-02
        -0.16331E-01
        -0.73756E-02
        -0.58617E-02
        -0.20546E-01
        -0.13489E-01
        -0.19551E-01
         0.10158E-01
         0.43759E-01
         0.25982E-01
         0.37316E-02
         0.43463E-01
         0.81695E-02
        -0.26148E-02
         0.23406E-02
         0.10695E-01
         0.19833E-02
         0.93163E-02
         0.65471E-02
        -0.37991E-02
         0.31677E-02
        -0.13217E-01
         0.31324E-02
         0.86852E-03
         0.15629E-02
        -0.22408E-02
        -0.12994E-01
         0.88017E-02
         0.22626E-02
         0.57639E-02
         0.49878E-02
        -0.22207E-02
         0.72073E-02
         0.13701E-01
         0.33091E-01
         0.29298E-01
         0.25675E-01
         0.18826E-01
        -0.45141E-02
        -0.95687E-02
        -0.11977E-01
        -0.15359E-01
        -0.31320E-01
        -0.18239E-01
        -0.12010E-01
        -0.15026E-01
        -0.17731E-01
        -0.18471E-01
        -0.12633E-02
         0.22903E-01
        -0.32953E-01
         0.76725E-01
         0.99053E-01
         0.12770E+00
         0.15296E+00
         0.14980E+00
         0.13100E+00
         0.12563E+00
         0.12420E+00
         0.78047E-01
         0.25850E-01
         0.10273E-01
         0.89086E-02
        -0.38739E-02
        -0.34685E-01
        -0.69456E-01
        -0.96456E-01
        -0.12534E+00
        -0.13893E+00
        -0.12206E+00
        -0.11545E+00
        -0.11492E+00
        -0.80702E-01
        -0.41820E-01
        -0.39547E-01
        -0.21618E-01
        -0.13589E-01
        -0.12609E-01
        -0.31373E-02
        -0.16333E-01
        -0.73815E-02
        -0.58656E-02
        -0.20574E-01
        -0.13514E-01
        -0.19614E-01
         0.10167E-01
         0.43757E-01
         0.25990E-01
         0.37350E-02
         0.43519E-01
         0.81711E-02
        -0.26397E-02
         0.23369E-02
         0.10703E-01
         0.19700E-02
         0.93402E-02
         0.65520E-02
        -0.38048E-02
         0.31630E-02
        -0.13267E-01
         0.31207E-02
         0.88378E-03
         0.15802E-02
        -0.22130E-02
        -0.13013E-01
         0.88007E-02
         0.22491E-02
         0.57773E-02
         0.49970E-02
        -0.21980E-02
         0.72133E-02
         0.13702E-01
         0.33144E-01
         0.29364E-01
         0.25710E-01
         0.18847E-01
        -0.44909E-02
        -0.95733E-02
        -0.11994E-01
        -0.15369E-01
        -0.31327E-01
        -0.18247E-01
        -0.12010E-01
        -0.15011E-01
        -0.17709E-01
        -0.18463E-01
        -0.12420E-02
         0.22881E-01
        -0.32955E-01
         0.76738E-01
         0.99054E-01
         0.12768E+00
         0.15291E+00
         0.14973E+00
         0.13096E+00
         0.12560E+00
         0.12417E+00
         0.78035E-01
         0.25868E-01
         0.10275E-01
         0.89265E-02
        -0.38402E-02
        -0.34707E-01
        -0.69500E-01
        -0.96485E-01
        -0.12534E+00
        -0.13892E+00
        -0.12206E+00
        -0.11544E+00
        -0.11489E+00
        -0.80644E-01
        -0.41775E-01
        -0.39495E-01
        -0.21629E-01
        -0.13589E-01
        -0.12615E-01
        -0.31605E-02
        -0.16335E-01
        -0.73874E-02
        -0.58696E-02
        -0.20601E-01
        -0.13540E-01
        -0.19677E-01
         0.10176E-01
         0.43755E-01
         0.25999E-01
         0.37388E-02
         0.43575E-01
         0.81727E-02
        -0.26648E-02
         0.23332E-02
         0.10711E-01
         0.19566E-02
         0.93641E-02
         0.65570E-02
        -0.38104E-02
         0.31584E-02
        -0.13318E-01
         0.31091E-02
         0.89942E-03
         0.15972E-02
        -0.21852E-02
        -0.13033E-01
         0.87997E-02
         0.22358E-02
         0.57907E-02
         0.50060E-02
        -0.21752E-02
         0.72188E-02
         0.13703E-01
         0.33197E-01
         0.29431E-01
         0.25745E-01
         0.18868E-01
        -0.44678E-02
        -0.95780E-02
        -0.12012E-01
        -0.15380E-01
        -0.31335E-01
        -0.18255E-01
        -0.12009E-01
        -0.14997E-01
        -0.17687E-01
        -0.18456E-01
        -0.12206E-02
         0.22860E-01
        -0.32957E-01
         0.76752E-01
         0.99055E-01
         0.12767E+00
         0.15286E+00
         0.14967E+00
         0.13092E+00
         0.12558E+00
         0.12413E+00
         0.78022E-01
         0.25887E-01
         0.10276E-01
         0.89445E-02
        -0.38065E-02
        -0.34730E-01
        -0.69544E-01
        -0.96514E-01
        -0.12534E+00
        -0.13891E+00
        -0.12205E+00
        -0.11544E+00
        -0.11486E+00
        -0.80586E-01
        -0.41729E-01
        -0.39443E-01
        -0.21640E-01
        -0.13587E-01
        -0.12621E-01
        -0.31836E-02
        -0.16337E-01
        -0.73931E-02
        -0.58735E-02
        -0.20629E-01
        -0.13565E-01
        -0.19740E-01
         0.10185E-01
         0.43752E-01
         0.26008E-01
         0.37421E-02
         0.43631E-01
         0.81742E-02
        -0.26899E-02
         0.23294E-02
         0.10719E-01
         0.19430E-02
         0.93879E-02
         0.65617E-02
        -0.38159E-02
         0.31538E-02
        -0.13369E-01
         0.30975E-02
         0.91463E-03
         0.16142E-02
        -0.21575E-02
        -0.13052E-01
         0.87987E-02
         0.22224E-02
         0.58039E-02
         0.50151E-02
        -0.21524E-02
         0.72247E-02
         0.13704E-01
         0.33250E-01
         0.29498E-01
         0.25780E-01
         0.18889E-01
        -0.44448E-02
        -0.95827E-02
        -0.12029E-01
        -0.15390E-01
        -0.31342E-01
        -0.18264E-01
        -0.12008E-01
        -0.14983E-01
        -0.17664E-01
        -0.18448E-01
        -0.11994E-02
         0.22838E-01
        -0.32958E-01
         0.76765E-01
         0.99055E-01
         0.12765E+00
         0.15281E+00
         0.14960E+00
         0.13088E+00
         0.12555E+00
         0.12410E+00
         0.78010E-01
         0.25906E-01
         0.10278E-01
         0.89625E-02
        -0.37729E-02
        -0.34753E-01
        -0.69588E-01
        -0.96543E-01
        -0.12533E+00
        -0.13890E+00
        -0.12205E+00
        -0.11544E+00
        -0.11483E+00
        -0.80528E-01
        -0.41684E-01
        -0.39390E-01
        -0.21651E-01
        -0.13586E-01
        -0.12627E-01
        -0.32067E-02
        -0.16339E-01
        -0.73990E-02
        -0.58779E-02
        -0.20657E-01
        -0.13590E-01
        -0.19803E-01
         0.10194E-01
         0.43750E-01
         0.26016E-01
         0.37457E-02
         0.43687E-01
         0.81758E-02
        -0.27151E-02
         0.23257E-02
         0.10727E-01
         0.19294E-02
         0.94117E-02
         0.65664E-02
        -0.38216E-02
         0.31492E-02
        -0.13419E-01
         0.30859E-02
         0.93012E-03
         0.16308E-02
        -0.21298E-02
        -0.13072E-01
         0.87978E-02
         0.22091E-02
         0.58173E-02
         0.50242E-02
        -0.21295E-02
         0.72305E-02
         0.13705E-01
         0.33303E-01
         0.29564E-01
         0.25815E-01
         0.18910E-01
        -0.44217E-02
        -0.95874E-02
        -0.12047E-01
        -0.15401E-01
        -0.31349E-01
        -0.18272E-01
        -0.12008E-01
        -0.14968E-01
        -0.17642E-01
        -0.18441E-01
        -0.11780E-02
         0.22816E-01
        -0.32960E-01
         0.76778E-01
         0.99056E-01
         0.12764E+00
         0.15275E+00
         0.14954E+00
         0.13084E+00
         0.12553E+00
         0.12406E+00
         0.77997E-01
         0.25925E-01
         0.10280E-01
         0.89803E-02
        -0.37391E-02
        -0.34775E-01
        -0.69632E-01
        -0.96571E-01
        -0.12533E+00
        -0.13889E+00
        -0.12204E+00
        -0.11544E+00
        -0.11480E+00
        -0.80471E-01
        -0.41638E-01
        -0.39338E-01
        -0.21662E-01
        -0.13585E-01
        -0.12633E-01
        -0.32300E-02
        -0.16342E-01
        -0.74049E-02
        -0.58818E-02
        -0.20684E-01
        -0.13615E-01
        -0.19865E-01
         0.10203E-01
         0.43748E-01
         0.26025E-01
         0.37493E-02
         0.43742E-01
         0.81774E-02
        -0.27403E-02
         0.23219E-02
         0.10736E-01
         0.19160E-02
         0.94356E-02
         0.65710E-02
        -0.38272E-02
         0.31448E-02
        -0.13469E-01
         0.30744E-02
         0.94526E-03
         0.16474E-02
        -0.21021E-02
        -0.13091E-01
         0.87967E-02
         0.21957E-02
         0.58305E-02
         0.50334E-02
        -0.21065E-02
         0.72363E-02
         0.13706E-01
         0.33356E-01
         0.29631E-01
         0.25850E-01
         0.18931E-01
        -0.43989E-02
        -0.95920E-02
        -0.12064E-01
        -0.15411E-01
        -0.31356E-01
        -0.18280E-01
        -0.12007E-01
        -0.14954E-01
        -0.17620E-01
        -0.18434E-01
        -0.11567E-02
         0.22795E-01
        -0.32961E-01
         0.76791E-01
         0.99057E-01
         0.12762E+00
         0.15270E+00
         0.14948E+00
         0.13080E+00
         0.12550E+00
         0.12402E+00
         0.77984E-01
         0.25943E-01
         0.10281E-01
         0.89981E-02
        -0.37053E-02
        -0.34798E-01
        -0.69676E-01
        -0.96600E-01
        -0.12533E+00
        -0.13888E+00
        -0.12203E+00
        -0.11543E+00
        -0.11477E+00
        -0.80413E-01
        -0.41593E-01
        -0.39286E-01
        -0.21672E-01
        -0.13584E-01
        -0.12639E-01
        -0.32534E-02
        -0.16344E-01
        -0.74108E-02
        -0.58858E-02
        -0.20712E-01
        -0.13640E-01
        -0.19927E-01
         0.10212E-01
         0.43746E-01
         0.26034E-01
         0.37525E-02
         0.43799E-01
         0.81790E-02
        -0.27655E-02
         0.23181E-02
         0.10744E-01
         0.19025E-02
         0.94595E-02
         0.65757E-02
        -0.38328E-02
         0.31403E-02
        -0.13519E-01
         0.30628E-02
         0.96083E-03
         0.16638E-02
        -0.20745E-02
        -0.13110E-01
         0.87957E-02
         0.21822E-02
         0.58437E-02
         0.50425E-02
        -0.20835E-02
         0.72422E-02
         0.13707E-01
         0.33409E-01
         0.29698E-01
         0.25885E-01
         0.18952E-01
        -0.43758E-02
        -0.95966E-02
        -0.12081E-01
        -0.15422E-01
        -0.31362E-01
        -0.18289E-01
        -0.12007E-01
        -0.14940E-01
        -0.17598E-01
        -0.18426E-01
        -0.11354E-02
         0.22773E-01
        -0.32963E-01
         0.76804E-01
         0.99058E-01
         0.12760E+00
         0.15265E+00
         0.14941E+00
         0.13076E+00
         0.12548E+00
         0.12399E+00
         0.77971E-01
         0.25962E-01
         0.10283E-01
         0.90159E-02
        -0.36715E-02
        -0.34820E-01
        -0.69720E-01
        -0.96629E-01
        -0.12532E+00
        -0.13887E+00
        -0.12203E+00
        -0.11543E+00
        -0.11474E+00
        -0.80355E-01
        -0.41548E-01
        -0.39233E-01
        -0.21683E-01
        -0.13583E-01
        -0.12645E-01
        -0.32767E-02
        -0.16346E-01
        -0.74166E-02
        -0.58903E-02
        -0.20739E-01
        -0.13666E-01
        -0.19990E-01
         0.10221E-01
         0.43744E-01
         0.26043E-01
         0.37561E-02
         0.43855E-01
         0.81805E-02
        -0.27908E-02
         0.23143E-02
         0.10752E-01
         0.18891E-02
         0.94834E-02
         0.65803E-02
        -0.38384E-02
         0.31358E-02
        -0.13570E-01
         0.30512E-02
         0.97600E-03
         0.16800E-02
        -0.20470E-02
        -0.13129E-01
         0.87946E-02
         0.21688E-02
         0.58570E-02
         0.50517E-02
        -0.20604E-02
         0.72480E-02
         0.13707E-01
         0.33463E-01
         0.29765E-01
         0.25919E-01
         0.18974E-01
        -0.43528E-02
        -0.96012E-02
        -0.12099E-01
        -0.15433E-01
        -0.31370E-01
        -0.18298E-01
        -0.12006E-01
        -0.14926E-01
        -0.17576E-01
        -0.18419E-01
        -0.11143E-02
         0.22751E-01
        -0.32965E-01
         0.76817E-01
         0.99058E-01
         0.12759E+00
         0.15260E+00
         0.14935E+00
         0.13072E+00
         0.12545E+00
         0.12395E+00
         0.77958E-01
         0.25981E-01
         0.10284E-01
         0.90339E-02
        -0.36379E-02
        -0.34842E-01
        -0.69765E-01
        -0.96658E-01
        -0.12532E+00
        -0.13886E+00
        -0.12202E+00
        -0.11543E+00
        -0.11471E+00
        -0.80298E-01
        -0.41503E-01
        -0.39181E-01
        -0.21694E-01
        -0.13582E-01
        -0.12651E-01
        -0.33000E-02
        -0.16348E-01
        -0.74224E-02
        -0.58943E-02
        -0.20767E-01
        -0.13691E-01
        -0.20052E-01
         0.10230E-01
         0.43742E-01
         0.26051E-01
         0.37592E-02
         0.43911E-01
         0.81821E-02
        -0.28163E-02
         0.23106E-02
         0.10760E-01
         0.18756E-02
         0.95073E-02
         0.65849E-02
        -0.38439E-02
         0.31314E-02
        -0.13620E-01
         0.30396E-02
         0.99143E-03
         0.16959E-02
        -0.20196E-02
        -0.13149E-01
         0.87935E-02
         0.21554E-02
         0.58703E-02
         0.50608E-02
        -0.20373E-02
         0.72539E-02
         0.13708E-01
         0.33517E-01
         0.29832E-01
         0.25953E-01
         0.18995E-01
        -0.43299E-02
        -0.96059E-02
        -0.12116E-01
        -0.15443E-01
        -0.31377E-01
        -0.18306E-01
        -0.12006E-01
        -0.14911E-01
        -0.17553E-01
        -0.18411E-01
        -0.10930E-02
         0.22729E-01
        -0.32966E-01
         0.76829E-01
         0.99059E-01
         0.12757E+00
         0.15254E+00
         0.14928E+00
         0.13068E+00
         0.12542E+00
         0.12391E+00
         0.77946E-01
         0.26000E-01
         0.10286E-01
         0.90517E-02
        -0.36042E-02
        -0.34865E-01
        -0.69809E-01
        -0.96687E-01
        -0.12532E+00
        -0.13886E+00
        -0.12202E+00
        -0.11543E+00
        -0.11468E+00
        -0.80240E-01
        -0.41458E-01
        -0.39129E-01
        -0.21704E-01
        -0.13581E-01
        -0.12657E-01
        -0.33232E-02
        -0.16350E-01
        -0.74283E-02
        -0.58984E-02
        -0.20794E-01
        -0.13716E-01
        -0.20114E-01
         0.10239E-01
         0.43739E-01
         0.26060E-01
         0.37626E-02
         0.43967E-01
         0.81836E-02
        -0.28419E-02
         0.23068E-02
         0.10768E-01
         0.18621E-02
         0.95312E-02
         0.65893E-02
        -0.38495E-02
         0.31271E-02
        -0.13670E-01
         0.30280E-02
         0.10065E-02
         0.17116E-02
        -0.19923E-02
        -0.13168E-01
         0.87925E-02
         0.21420E-02
         0.58834E-02
         0.50701E-02
        -0.20140E-02
         0.72596E-02
         0.13709E-01
         0.33571E-01
         0.29898E-01
         0.25987E-01
         0.19016E-01
        -0.43069E-02
        -0.96107E-02
        -0.12133E-01
        -0.15454E-01
        -0.31384E-01
        -0.18314E-01
        -0.12005E-01
        -0.14897E-01
        -0.17531E-01
        -0.18404E-01
        -0.10717E-02
         0.22707E-01
        -0.32967E-01
         0.76842E-01
         0.99060E-01
         0.12756E+00
         0.15249E+00
         0.14922E+00
         0.13064E+00
         0.12540E+00
         0.12388E+00
         0.77933E-01
         0.26019E-01
         0.10287E-01
         0.90694E-02
        -0.35704E-02
        -0.34887E-01
        -0.69853E-01
        -0.96716E-01
        -0.12531E+00
        -0.13885E+00
        -0.12201E+00
        -0.11542E+00
        -0.11464E+00
        -0.80183E-01
        -0.41414E-01
        -0.39076E-01
        -0.21715E-01
        -0.13580E-01
        -0.12663E-01
        -0.33465E-02
        -0.16352E-01
        -0.74341E-02
        -0.59027E-02
        -0.20821E-01
        -0.13742E-01
        -0.20176E-01
         0.10249E-01
         0.43737E-01
         0.26069E-01
         0.37656E-02
         0.44023E-01
         0.81852E-02
        -0.28676E-02
         0.23029E-02
         0.10776E-01
         0.18488E-02
         0.95550E-02
         0.65935E-02
        -0.38550E-02
         0.31228E-02
        -0.13720E-01
         0.30163E-02
         0.10219E-02
         0.17271E-02
        -0.19650E-02
        -0.13187E-01
         0.87913E-02
         0.21285E-02
         0.58966E-02
         0.50793E-02
        -0.19907E-02
         0.72654E-02
         0.13710E-01
         0.33625E-01
         0.29965E-01
         0.26021E-01
         0.19037E-01
        -0.42842E-02
        -0.96154E-02
        -0.12151E-01
        -0.15465E-01
        -0.31391E-01
        -0.18323E-01
        -0.12005E-01
        -0.14883E-01
        -0.17509E-01
        -0.18396E-01
        -0.10506E-02
         0.22685E-01
        -0.32969E-01
         0.76854E-01
         0.99061E-01
         0.12754E+00
         0.15244E+00
         0.14915E+00
         0.13060E+00
         0.12537E+00
         0.12384E+00
         0.77921E-01
         0.26037E-01
         0.10288E-01
         0.90869E-02
        -0.35368E-02
        -0.34909E-01
        -0.69897E-01
        -0.96744E-01
        -0.12531E+00
        -0.13884E+00
        -0.12201E+00
        -0.11542E+00
        -0.11461E+00
        -0.80125E-01
        -0.41369E-01
        -0.39024E-01
        -0.21726E-01
        -0.13579E-01
        -0.12669E-01
        -0.33699E-02
        -0.16354E-01
        -0.74398E-02
        -0.59069E-02
        -0.20848E-01
        -0.13767E-01
        -0.20238E-01
         0.10258E-01
         0.43735E-01
         0.26077E-01
         0.37689E-02
         0.44079E-01
         0.81868E-02
        -0.28936E-02
         0.22990E-02
         0.10784E-01
         0.18361E-02
         0.95787E-02
         0.65977E-02
        -0.38606E-02
         0.31184E-02
        -0.13771E-01
         0.30048E-02
         0.10372E-02
         0.17425E-02
        -0.19377E-02
        -0.13204E-01
         0.87902E-02
         0.21149E-02
         0.59097E-02
         0.50886E-02
        -0.19674E-02
         0.72714E-02
         0.13711E-01
         0.33680E-01
         0.30032E-01
         0.26053E-01
         0.19057E-01
        -0.42612E-02
        -0.96204E-02
        -0.12168E-01
        -0.15476E-01
        -0.31399E-01
        -0.18331E-01
        -0.12004E-01
        -0.14869E-01
        -0.17487E-01
        -0.18389E-01
        -0.10295E-02
         0.22664E-01
        -0.32970E-01
         0.76867E-01
         0.99061E-01
         0.12753E+00
         0.15239E+00
         0.14909E+00
         0.13056E+00
         0.12535E+00
         0.12380E+00
         0.77910E-01
         0.26057E-01
         0.10289E-01
         0.91044E-02
        -0.35033E-02
        -0.34931E-01
        -0.69941E-01
        -0.96773E-01
        -0.12531E+00
        -0.13883E+00
        -0.12200E+00
        -0.11542E+00
        -0.11458E+00
        -0.80068E-01
        -0.41325E-01
        -0.38972E-01
        -0.21736E-01
        -0.13578E-01
        -0.12675E-01
        -0.33933E-02
        -0.16356E-01
        -0.74455E-02
        -0.59109E-02
        -0.20875E-01
        -0.13793E-01
        -0.20300E-01
         0.10267E-01
         0.43733E-01
         0.26086E-01
         0.37723E-02
         0.44135E-01
         0.81883E-02
        -0.29200E-02
         0.22951E-02
         0.10793E-01
         0.18239E-02
         0.96026E-02
         0.66017E-02
        -0.38662E-02
         0.31141E-02
        -0.13821E-01
         0.29931E-02
         0.10531E-02
         0.17578E-02
        -0.19106E-02
        -0.13221E-01
         0.87890E-02
         0.21015E-02
         0.59228E-02
         0.50978E-02
        -0.19439E-02
         0.72771E-02
         0.13712E-01
         0.33735E-01
         0.30098E-01
         0.26085E-01
         0.19078E-01
        -0.42382E-02
        -0.96256E-02
        -0.12185E-01
        -0.15487E-01
        -0.31406E-01
        -0.18339E-01
        -0.12003E-01
        -0.14855E-01
        -0.17465E-01
        -0.18381E-01
        -0.10082E-02
         0.22642E-01
        -0.32971E-01
         0.76879E-01
         0.99062E-01
         0.12751E+00
         0.15233E+00
         0.14902E+00
         0.13052E+00
         0.12532E+00
         0.12376E+00
         0.77900E-01
         0.26076E-01
         0.10288E-01
         0.91220E-02
        -0.34696E-02
        -0.34953E-01
        -0.69985E-01
        -0.96802E-01
        -0.12530E+00
        -0.13882E+00
        -0.12199E+00
        -0.11542E+00
        -0.11455E+00
        -0.80010E-01
        -0.41281E-01
        -0.38919E-01
        -0.21747E-01
        -0.13577E-01
        -0.12682E-01
        -0.34166E-02
        -0.16358E-01
        -0.74513E-02
        -0.59155E-02
        -0.20902E-01
        -0.13819E-01
        -0.20362E-01
         0.10276E-01
         0.43731E-01
         0.26095E-01
         0.37752E-02
         0.44191E-01
         0.81900E-02
        -0.29465E-02
         0.22912E-02
         0.10801E-01
         0.18120E-02
         0.96265E-02
         0.66057E-02
        -0.38714E-02
         0.31101E-02
        -0.13871E-01
         0.29819E-02
         0.10686E-02
         0.17724E-02
        -0.18837E-02
        -0.13237E-01
         0.87880E-02
         0.20883E-02
         0.59359E-02
         0.51072E-02
        -0.19206E-02
         0.72828E-02
         0.13712E-01
         0.33790E-01
         0.30164E-01
         0.26115E-01
         0.19098E-01
        -0.42157E-02
        -0.96312E-02
        -0.12202E-01
        -0.15497E-01
        -0.31413E-01
        -0.18348E-01
        -0.12003E-01
        -0.14841E-01
        -0.17443E-01
        -0.18374E-01
        -0.98709E-03
         0.22619E-01
        -0.32973E-01
         0.76892E-01
         0.99063E-01
         0.12750E+00
         0.15228E+00
         0.14896E+00
         0.13048E+00
         0.12529E+00
         0.12372E+00
         0.77891E-01
         0.26095E-01
         0.10287E-01
         0.91394E-02
        -0.34359E-02
        -0.34975E-01
        -0.70029E-01
        -0.96830E-01
        -0.12530E+00
        -0.13881E+00
        -0.12199E+00
        -0.11541E+00
        -0.11452E+00
        -0.79953E-01
        -0.41238E-01
        -0.38867E-01
        -0.21852E-01
        -0.13638E-01
        -0.12746E-01
        -0.34539E-02
        -0.16433E-01
        -0.74892E-02
        -0.59469E-02
        -0.21018E-01
        -0.13904E-01
        -0.20508E-01
         0.10330E-01
         0.43919E-01
         0.26215E-01
         0.37948E-02
         0.44441E-01
         0.82278E-02
        -0.29844E-02
         0.22973E-02
         0.10856E-01
         0.18094E-02
         0.96895E-02
         0.66378E-02
        -0.38897E-02
         0.31217E-02
        -0.13980E-01
         0.29873E-02
         0.10876E-02
         0.17915E-02
        -0.18703E-02
        -0.13314E-01
         0.88268E-02
         0.20881E-02
         0.59742E-02
         0.51386E-02
        -0.19079E-02
         0.73169E-02
         0.13769E-01
         0.33992E-01
         0.30360E-01
         0.26260E-01
         0.19200E-01
        -0.42171E-02
        -0.96809E-02
        -0.12264E-01
        -0.15568E-01
        -0.31548E-01
        -0.18430E-01
        -0.12050E-01
        -0.14889E-01
        -0.17496E-01
        -0.18446E-01
        -0.97041E-03
         0.22699E-01
        -0.33128E-01
         0.77254E-01
         0.99510E-01
         0.12807E+00
         0.15295E+00
         0.14961E+00
         0.13108E+00
         0.12588E+00
         0.12429E+00
         0.78258E-01
         0.26229E-01
         0.10329E-01
         0.91945E-02
        -0.34183E-02
        -0.35138E-01
        -0.70359E-01
        -0.97279E-01
        -0.12588E+00
        -0.13944E+00
        -0.12252E+00
        -0.11591E+00
        -0.11500E+00
        -0.80253E-01
        -0.41378E-01
        -0.38988E-01
        -0.32669E-01
        -0.20475E-01
        -0.19029E-01
        -0.52000E-02
        -0.23686E-01
        -0.10901E-01
        -0.89137E-02
        -0.31298E-01
        -0.20754E-01
        -0.30480E-01
         0.15222E-01
         0.62163E-01
         0.37661E-01
         0.55695E-02
         0.63275E-01
         0.12313E-01
        -0.44815E-02
         0.34348E-02
         0.16036E-01
         0.26724E-02
         0.13930E-01
         0.96539E-02
        -0.55946E-02
         0.46448E-02
        -0.20987E-01
         0.44802E-02
         0.16229E-02
         0.26911E-02
        -0.27959E-02
        -0.19951E-01
         0.13211E-01
         0.31149E-02
         0.89714E-02
         0.77066E-02
        -0.26627E-02
         0.10635E-01
         0.20012E-01
         0.49470E-01
         0.44824E-01
         0.38901E-01
         0.28051E-01
        -0.61933E-02
        -0.14243E-01
        -0.17778E-01
        -0.22493E-01
        -0.44292E-01
        -0.26541E-01
        -0.17558E-01
        -0.21803E-01
        -0.25509E-01
        -0.26263E-01
        -0.13857E-02
         0.28447E-01
        -0.41493E-01
         0.96762E-01
         0.12497E+00
         0.16071E+00
         0.19236E+00
         0.19028E+00
         0.16819E+00
         0.16124E+00
         0.15824E+00
         0.99758E-01
         0.33373E-01
         0.13281E-01
         0.11878E-01
        -0.43258E-02
        -0.44247E-01
        -0.88329E-01
        -0.12145E+00
        -0.15710E+00
        -0.17421E+00
        -0.15467E+00
        -0.14697E+00
        -0.14527E+00
        -0.10172E+00
        -0.52264E-01
        -0.49062E-01
  
SCALARS                      strain_xz  double 1
LOOKUP_TABLE default
        -0.23565E-01
         0.16180E+00
         0.54288E+00
        -0.38468E-01
        -0.35797E-09
         0.12693E-09
         0.42442E-09
         0.84764E-10
         0.14910E+01
         0.10092E+01
         0.12695E-08
         0.11435E-08
        -0.61580E-01
         0.25097E+00
        -0.15657E-09
        -0.73345E-09
         0.55994E-01
         0.24120E+00
        -0.52980E-09
        -0.78905E-09
         0.34283E+00
         0.56203E+00
         0.55308E+00
        -0.52688E-09
        -0.24296E-09
         0.42447E-09
         0.59568E+00
         0.46550E+00
        -0.98626E-09
        -0.78236E-09
        -0.13082E+00
         0.28055E+00
        -0.28755E-01
         0.10041E-09
        -0.38804E-09
        -0.23906E-09
        -0.38002E+00
        -0.17513E+00
        -0.57612E-09
        -0.61341E-09
        -0.74323E+00
        -0.10155E+01
        -0.12995E-08
        -0.95836E-09
        -0.81864E+00
        -0.44240E+00
        -0.14271E-08
        -0.68691E-09
         0.21448E+00
        -0.43118E-09
        -0.56630E+00
        -0.12002E-09
         0.21442E+00
        -0.84252E-09
        -0.15837E+00
        -0.22287E-09
        -0.69160E+00
        -0.19789E+00
        -0.19092E-09
        -0.46148E-09
         0.13959E-01
        -0.37932E+00
         0.38185E-09
         0.26186E-09
         0.10085E+00
        -0.38410E-10
         0.33198E+00
         0.25264E-09
         0.20679E+01
         0.14211E+01
         0.15791E-08
         0.11453E-08
         0.90706E+00
         0.83390E-09
        -0.18976E+00
        -0.57685E-09
        -0.58933E+00
        -0.11322E-09
        -0.12499E+01
        -0.17565E-09
        -0.16708E+01
        -0.12169E+01
        -0.64371E-09
        -0.73619E-09
        -0.11196E+01
        -0.79174E-09
        -0.99048E+00
        -0.11399E-08
        -0.60471E+00
        -0.72706E-09
        -0.93206E+00
        -0.68686E+00
        -0.31030E-09
         0.42554E-09
         0.15904E+00
         0.49914E-09
         0.43935E+00
         0.20958E-09
         0.10462E+01
         0.51755E-09
         0.15325E+01
         0.10635E+01
         0.11933E-08
         0.12452E-08
         0.35241E+01
         0.39317E+01
         0.22050E-08
         0.21730E-08
         0.34427E+01
         0.18837E-08
         0.31660E+01
         0.14077E-08
         0.22380E+01
         0.77361E-09
         0.15539E+01
         0.82725E-10
         0.54790E+00
        -0.29464E-09
        -0.68752E+00
        -0.23573E-09
        -0.16370E+01
        -0.23170E-09
        -0.24375E+01
        -0.52249E-09
        -0.33812E+01
        -0.99404E-09
        -0.42742E+01
        -0.11862E-08
        -0.47712E+01
        -0.11192E-08
        -0.47223E+01
        -0.12171E-08
        -0.44826E+01
        -0.15796E-08
        -0.41201E+01
        -0.18626E-08
        -0.36145E+01
        -0.17315E-08
        -0.27752E+01
        -0.14072E-08
        -0.15942E+01
        -0.66432E-09
        -0.13297E+00
         0.12685E-09
         0.87536E+00
         0.30798E-09
         0.13907E+01
         0.50362E-09
         0.20869E+01
         0.98561E-09
         0.27811E+01
         0.16173E-08
         0.36617E+01
         0.19431E-08
         0.42253E+01
         0.19874E-08
        -0.17907E-02
         0.89461E-03
         0.10556E-02
        -0.22393E-02
         0.78360E-02
         0.63960E-02
         0.90259E-03
        -0.13749E-02
        -0.76125E-03
        -0.12978E-02
         0.64085E-03
         0.27390E-02
         0.59230E-02
        -0.18987E-02
        -0.22348E-02
         0.29732E-02
         0.24717E-02
        -0.11760E-02
        -0.16945E-02
        -0.18501E-02
        -0.99012E-02
        -0.10694E-01
        -0.94040E-02
        -0.29428E-02
         0.12105E-02
        -0.90039E-03
        -0.27666E-02
        -0.31153E-03
        -0.30773E-02
        -0.22299E-02
         0.26422E-02
         0.49245E-03
        -0.12446E-02
        -0.38928E-03
         0.10723E-01
         0.71673E-02
         0.66279E-02
        -0.45235E-02
        -0.25678E-02
        -0.52546E-02
        -0.10449E-01
        -0.10556E-01
        -0.11156E-01
        -0.81286E-02
        -0.56335E-02
        -0.41273E-02
         0.82009E-03
         0.36195E-02
         0.10429E-02
         0.31685E-02
         0.80776E-02
         0.72408E-02
         0.27574E-01
         0.31047E-01
         0.27449E-01
         0.23724E-01
         0.17600E-01
         0.86452E-02
        -0.49283E-03
        -0.58347E-02
        -0.89409E-02
        -0.15289E-01
        -0.24475E-01
        -0.33013E-01
        -0.31300E-01
        -0.30405E-01
        -0.32827E-01
        -0.33353E-01
        -0.30283E-01
        -0.25805E-01
        -0.11821E-01
         0.19169E-02
         0.76277E-02
         0.84980E-02
         0.14305E-01
         0.22083E-01
         0.30097E-01
         0.32191E-01
        -0.73102E-02
         0.15007E-02
        -0.28570E-02
        -0.83189E-02
         0.17063E-01
         0.14582E-01
         0.42486E-02
        -0.92741E-02
        -0.42615E-02
        -0.88169E-02
        -0.17813E-02
         0.64972E-02
         0.21377E-01
        -0.16395E-01
        -0.16977E-01
         0.14362E-01
         0.79958E-02
        -0.47891E-02
        -0.32229E-02
        -0.56600E-02
        -0.33578E-01
        -0.32002E-01
        -0.31579E-01
        -0.76391E-02
         0.43388E-02
         0.29215E-02
        -0.15843E-01
         0.21037E-02
        -0.53023E-02
        -0.72305E-02
         0.11035E-01
         0.71404E-02
        -0.71569E-02
        -0.61768E-02
         0.30428E-01
         0.16796E-01
         0.19265E-01
        -0.18829E-01
        -0.31528E-02
        -0.91410E-02
        -0.33579E-01
        -0.34542E-01
        -0.33764E-01
        -0.24415E-01
        -0.18802E-01
        -0.11000E-01
         0.11890E-01
         0.14037E-01
        -0.18555E-02
         0.22341E-02
         0.22898E-01
         0.20172E-01
         0.12692E+00
         0.12788E+00
         0.11477E+00
         0.94666E-01
         0.70609E-01
         0.32505E-01
        -0.80727E-02
        -0.26175E-01
        -0.34486E-01
        -0.63192E-01
        -0.11226E+00
        -0.13244E+00
        -0.11115E+00
        -0.10577E+00
        -0.11648E+00
        -0.11993E+00
        -0.10944E+00
        -0.10347E+00
        -0.52731E-01
         0.13703E-01
         0.30324E-01
         0.30730E-01
         0.54619E-01
         0.94578E-01
         0.12104E+00
         0.12067E+00
        -0.73241E-02
         0.15063E-02
        -0.28624E-02
        -0.83245E-02
         0.17046E-01
         0.14569E-01
         0.42756E-02
        -0.92507E-02
        -0.42662E-02
        -0.88100E-02
        -0.17452E-02
         0.65130E-02
         0.21390E-01
        -0.16355E-01
        -0.16968E-01
         0.14377E-01
         0.80134E-02
        -0.47759E-02
        -0.32213E-02
        -0.56500E-02
        -0.33575E-01
        -0.31998E-01
        -0.31577E-01
        -0.76395E-02
         0.43486E-02
         0.29264E-02
        -0.15848E-01
         0.20641E-02
        -0.53396E-02
        -0.72351E-02
         0.11051E-01
         0.71395E-02
        -0.71271E-02
        -0.61796E-02
         0.30444E-01
         0.16788E-01
         0.19259E-01
        -0.18859E-01
        -0.31830E-02
        -0.91697E-02
        -0.33600E-01
        -0.34562E-01
        -0.33766E-01
        -0.24411E-01
        -0.18795E-01
        -0.10995E-01
         0.11888E-01
         0.14042E-01
        -0.18420E-02
         0.22265E-02
         0.22883E-01
         0.20142E-01
         0.12687E+00
         0.12785E+00
         0.11476E+00
         0.94667E-01
         0.70588E-01
         0.32495E-01
        -0.80819E-02
        -0.26191E-01
        -0.34457E-01
        -0.63167E-01
        -0.11224E+00
        -0.13244E+00
        -0.11114E+00
        -0.10576E+00
        -0.11650E+00
        -0.11995E+00
        -0.10946E+00
        -0.10349E+00
        -0.52717E-01
         0.13710E-01
         0.30302E-01
         0.30717E-01
         0.54578E-01
         0.94521E-01
         0.12098E+00
         0.12061E+00
        -0.73379E-02
         0.15118E-02
        -0.28678E-02
        -0.83300E-02
         0.17030E-01
         0.14555E-01
         0.43028E-02
        -0.92272E-02
        -0.42705E-02
        -0.88025E-02
        -0.17092E-02
         0.65288E-02
         0.21402E-01
        -0.16314E-01
        -0.16959E-01
         0.14393E-01
         0.80313E-02
        -0.47625E-02
        -0.32197E-02
        -0.56404E-02
        -0.33572E-01
        -0.31994E-01
        -0.31575E-01
        -0.76399E-02
         0.43590E-02
         0.29316E-02
        -0.15852E-01
         0.20251E-02
        -0.53771E-02
        -0.72396E-02
         0.11067E-01
         0.71389E-02
        -0.70971E-02
        -0.61824E-02
         0.30459E-01
         0.16781E-01
         0.19253E-01
        -0.18890E-01
        -0.32132E-02
        -0.91988E-02
        -0.33621E-01
        -0.34583E-01
        -0.33768E-01
        -0.24408E-01
        -0.18789E-01
        -0.10989E-01
         0.11885E-01
         0.14046E-01
        -0.18281E-02
         0.22186E-02
         0.22869E-01
         0.20113E-01
         0.12683E+00
         0.12782E+00
         0.11475E+00
         0.94667E-01
         0.70566E-01
         0.32485E-01
        -0.80911E-02
        -0.26207E-01
        -0.34428E-01
        -0.63142E-01
        -0.11222E+00
        -0.13244E+00
        -0.11113E+00
        -0.10576E+00
        -0.11651E+00
        -0.11998E+00
        -0.10948E+00
        -0.10351E+00
        -0.52702E-01
         0.13716E-01
         0.30280E-01
         0.30705E-01
         0.54538E-01
         0.94463E-01
         0.12092E+00
         0.12056E+00
        -0.73518E-02
         0.15174E-02
        -0.28730E-02
        -0.83355E-02
         0.17013E-01
         0.14542E-01
         0.43296E-02
        -0.92036E-02
        -0.42744E-02
        -0.87938E-02
        -0.16733E-02
         0.65449E-02
         0.21416E-01
        -0.16274E-01
        -0.16950E-01
         0.14409E-01
         0.80499E-02
        -0.47490E-02
        -0.32183E-02
        -0.56304E-02
        -0.33570E-01
        -0.31992E-01
        -0.31575E-01
        -0.76403E-02
         0.43714E-02
         0.29381E-02
        -0.15856E-01
         0.19872E-02
        -0.54145E-02
        -0.72439E-02
         0.11085E-01
         0.71396E-02
        -0.70670E-02
        -0.61852E-02
         0.30474E-01
         0.16773E-01
         0.19246E-01
        -0.18920E-01
        -0.32433E-02
        -0.92276E-02
        -0.33643E-01
        -0.34605E-01
        -0.33773E-01
        -0.24406E-01
        -0.18781E-01
        -0.10983E-01
         0.11884E-01
         0.14051E-01
        -0.18142E-02
         0.22107E-02
         0.22854E-01
         0.20083E-01
         0.12679E+00
         0.12779E+00
         0.11474E+00
         0.94668E-01
         0.70545E-01
         0.32476E-01
        -0.81005E-02
        -0.26224E-01
        -0.34399E-01
        -0.63117E-01
        -0.11220E+00
        -0.13245E+00
        -0.11113E+00
        -0.10575E+00
        -0.11653E+00
        -0.12001E+00
        -0.10950E+00
        -0.10353E+00
        -0.52687E-01
         0.13722E-01
         0.30258E-01
         0.30693E-01
         0.54498E-01
         0.94405E-01
         0.12086E+00
         0.12050E+00
        -0.73655E-02
         0.15231E-02
        -0.28784E-02
        -0.83409E-02
         0.16996E-01
         0.14529E-01
         0.43567E-02
        -0.91798E-02
        -0.42777E-02
        -0.87838E-02
        -0.16374E-02
         0.65607E-02
         0.21429E-01
        -0.16233E-01
        -0.16941E-01
         0.14427E-01
         0.80694E-02
        -0.47356E-02
        -0.32166E-02
        -0.56202E-02
        -0.33569E-01
        -0.31990E-01
        -0.31577E-01
        -0.76408E-02
         0.43858E-02
         0.29456E-02
        -0.15859E-01
         0.19506E-02
        -0.54517E-02
        -0.72479E-02
         0.11104E-01
         0.71414E-02
        -0.70368E-02
        -0.61879E-02
         0.30490E-01
         0.16766E-01
         0.19240E-01
        -0.18950E-01
        -0.32732E-02
        -0.92568E-02
        -0.33666E-01
        -0.34628E-01
        -0.33779E-01
        -0.24405E-01
        -0.18774E-01
        -0.10977E-01
         0.11882E-01
         0.14056E-01
        -0.18004E-02
         0.22029E-02
         0.22840E-01
         0.20053E-01
         0.12674E+00
         0.12775E+00
         0.11473E+00
         0.94668E-01
         0.70523E-01
         0.32466E-01
        -0.81096E-02
        -0.26240E-01
        -0.34370E-01
        -0.63092E-01
        -0.11219E+00
        -0.13245E+00
        -0.11112E+00
        -0.10575E+00
        -0.11655E+00
        -0.12005E+00
        -0.10952E+00
        -0.10355E+00
        -0.52672E-01
         0.13729E-01
         0.30236E-01
         0.30681E-01
         0.54458E-01
         0.94348E-01
         0.12080E+00
         0.12045E+00
        -0.73787E-02
         0.15292E-02
        -0.28831E-02
        -0.83462E-02
         0.16980E-01
         0.14515E-01
         0.43839E-02
        -0.91556E-02
        -0.42809E-02
        -0.87734E-02
        -0.16014E-02
         0.65766E-02
         0.21441E-01
        -0.16193E-01
        -0.16932E-01
         0.14445E-01
         0.80889E-02
        -0.47220E-02
        -0.32147E-02
        -0.56106E-02
        -0.33569E-01
        -0.31989E-01
        -0.31579E-01
        -0.76414E-02
         0.44001E-02
         0.29532E-02
        -0.15862E-01
         0.19142E-02
        -0.54892E-02
        -0.72525E-02
         0.11123E-01
         0.71429E-02
        -0.70062E-02
        -0.61904E-02
         0.30505E-01
         0.16759E-01
         0.19235E-01
        -0.18979E-01
        -0.33033E-02
        -0.92860E-02
        -0.33689E-01
        -0.34651E-01
        -0.33787E-01
        -0.24403E-01
        -0.18767E-01
        -0.10972E-01
         0.11881E-01
         0.14061E-01
        -0.17861E-02
         0.21958E-02
         0.22826E-01
         0.20024E-01
         0.12670E+00
         0.12772E+00
         0.11472E+00
         0.94669E-01
         0.70501E-01
         0.32456E-01
        -0.81186E-02
        -0.26256E-01
        -0.34341E-01
        -0.63067E-01
        -0.11217E+00
        -0.13246E+00
        -0.11112E+00
        -0.10574E+00
        -0.11657E+00
        -0.12008E+00
        -0.10955E+00
        -0.10357E+00
        -0.52658E-01
         0.13734E-01
         0.30213E-01
         0.30669E-01
         0.54419E-01
         0.94290E-01
         0.12074E+00
         0.12040E+00
        -0.73908E-02
         0.15366E-02
        -0.28867E-02
        -0.83515E-02
         0.16964E-01
         0.14502E-01
         0.44115E-02
        -0.91309E-02
        -0.42842E-02
        -0.87637E-02
        -0.15652E-02
         0.65925E-02
         0.21455E-01
        -0.16153E-01
        -0.16922E-01
         0.14463E-01
         0.81076E-02
        -0.47084E-02
        -0.32133E-02
        -0.56011E-02
        -0.33568E-01
        -0.31988E-01
        -0.31582E-01
        -0.76423E-02
         0.44128E-02
         0.29600E-02
        -0.15866E-01
         0.18769E-02
        -0.55270E-02
        -0.72579E-02
         0.11141E-01
         0.71432E-02
        -0.69750E-02
        -0.61922E-02
         0.30521E-01
         0.16753E-01
         0.19230E-01
        -0.19009E-01
        -0.33335E-02
        -0.93157E-02
        -0.33712E-01
        -0.34676E-01
        -0.33795E-01
        -0.24403E-01
        -0.18761E-01
        -0.10967E-01
         0.11878E-01
         0.14066E-01
        -0.17707E-02
         0.21903E-02
         0.22814E-01
         0.19995E-01
         0.12666E+00
         0.12769E+00
         0.11471E+00
         0.94669E-01
         0.70479E-01
         0.32446E-01
        -0.81276E-02
        -0.26272E-01
        -0.34312E-01
        -0.63042E-01
        -0.11215E+00
        -0.13246E+00
        -0.11111E+00
        -0.10574E+00
        -0.11659E+00
        -0.12012E+00
        -0.10957E+00
        -0.10359E+00
        -0.52643E-01
         0.13739E-01
         0.30190E-01
         0.30657E-01
         0.54380E-01
         0.94233E-01
         0.12068E+00
         0.12034E+00
        -0.74024E-02
         0.15444E-02
        -0.28899E-02
        -0.83565E-02
         0.16948E-01
         0.14489E-01
         0.44395E-02
        -0.91059E-02
        -0.42877E-02
        -0.87543E-02
        -0.15290E-02
         0.66084E-02
         0.21468E-01
        -0.16112E-01
        -0.16913E-01
         0.14482E-01
         0.81260E-02
        -0.46947E-02
        -0.32116E-02
        -0.55922E-02
        -0.33568E-01
        -0.31987E-01
        -0.31585E-01
        -0.76431E-02
         0.44246E-02
         0.29663E-02
        -0.15869E-01
         0.18394E-02
        -0.55654E-02
        -0.72637E-02
         0.11158E-01
         0.71428E-02
        -0.69435E-02
        -0.61936E-02
         0.30538E-01
         0.16747E-01
         0.19225E-01
        -0.19039E-01
        -0.33637E-02
        -0.93453E-02
        -0.33735E-01
        -0.34700E-01
        -0.33803E-01
        -0.24403E-01
        -0.18755E-01
        -0.10963E-01
         0.11875E-01
         0.14070E-01
        -0.17548E-02
         0.21855E-02
         0.22802E-01
         0.19967E-01
         0.12661E+00
         0.12766E+00
         0.11470E+00
         0.94669E-01
         0.70458E-01
         0.32437E-01
        -0.81366E-02
        -0.26288E-01
        -0.34283E-01
        -0.63017E-01
        -0.11213E+00
        -0.13247E+00
        -0.11111E+00
        -0.10574E+00
        -0.11660E+00
        -0.12016E+00
        -0.10960E+00
        -0.10361E+00
        -0.52627E-01
         0.13743E-01
         0.30166E-01
         0.30646E-01
         0.54341E-01
         0.94177E-01
         0.12062E+00
         0.12029E+00
        -0.74140E-02
         0.15522E-02
        -0.28929E-02
        -0.83615E-02
         0.16932E-01
         0.14475E-01
         0.44673E-02
        -0.90810E-02
        -0.42913E-02
        -0.87451E-02
        -0.14928E-02
         0.66243E-02
         0.21482E-01
        -0.16072E-01
        -0.16904E-01
         0.14500E-01
         0.81443E-02
        -0.46811E-02
        -0.32099E-02
        -0.55829E-02
        -0.33567E-01
        -0.31986E-01
        -0.31588E-01
        -0.76441E-02
         0.44364E-02
         0.29726E-02
        -0.15873E-01
         0.18020E-02
        -0.56037E-02
        -0.72695E-02
         0.11175E-01
         0.71423E-02
        -0.69119E-02
        -0.61951E-02
         0.30555E-01
         0.16741E-01
         0.19220E-01
        -0.19068E-01
        -0.33941E-02
        -0.93748E-02
        -0.33759E-01
        -0.34725E-01
        -0.33812E-01
        -0.24403E-01
        -0.18750E-01
        -0.10958E-01
         0.11872E-01
         0.14075E-01
        -0.17388E-02
         0.21809E-02
         0.22790E-01
         0.19938E-01
         0.12657E+00
         0.12762E+00
         0.11469E+00
         0.94670E-01
         0.70436E-01
         0.32427E-01
        -0.81455E-02
        -0.26304E-01
        -0.34254E-01
        -0.62992E-01
        -0.11211E+00
        -0.13247E+00
        -0.11110E+00
        -0.10573E+00
        -0.11662E+00
        -0.12019E+00
        -0.10962E+00
        -0.10362E+00
        -0.52612E-01
         0.13748E-01
         0.30143E-01
         0.30634E-01
         0.54302E-01
         0.94120E-01
         0.12056E+00
         0.12024E+00
        -0.74256E-02
         0.15602E-02
        -0.28960E-02
        -0.83666E-02
         0.16916E-01
         0.14462E-01
         0.44953E-02
        -0.90561E-02
        -0.42948E-02
        -0.87358E-02
        -0.14567E-02
         0.66402E-02
         0.21495E-01
        -0.16031E-01
        -0.16894E-01
         0.14518E-01
         0.81626E-02
        -0.46677E-02
        -0.32081E-02
        -0.55739E-02
        -0.33567E-01
        -0.31985E-01
        -0.31590E-01
        -0.76452E-02
         0.44482E-02
         0.29788E-02
        -0.15876E-01
         0.17648E-02
        -0.56419E-02
        -0.72752E-02
         0.11193E-01
         0.71418E-02
        -0.68805E-02
        -0.61967E-02
         0.30571E-01
         0.16736E-01
         0.19216E-01
        -0.19098E-01
        -0.34245E-02
        -0.94047E-02
        -0.33782E-01
        -0.34749E-01
        -0.33820E-01
        -0.24403E-01
        -0.18744E-01
        -0.10954E-01
         0.11869E-01
         0.14079E-01
        -0.17230E-02
         0.21760E-02
         0.22778E-01
         0.19909E-01
         0.12653E+00
         0.12759E+00
         0.11468E+00
         0.94670E-01
         0.70414E-01
         0.32417E-01
        -0.81544E-02
        -0.26320E-01
        -0.34225E-01
        -0.62968E-01
        -0.11210E+00
        -0.13248E+00
        -0.11110E+00
        -0.10573E+00
        -0.11664E+00
        -0.12023E+00
        -0.10965E+00
        -0.10364E+00
        -0.52596E-01
         0.13752E-01
         0.30119E-01
         0.30622E-01
         0.54264E-01
         0.94063E-01
         0.12051E+00
         0.12018E+00
        -0.74372E-02
         0.15680E-02
        -0.28992E-02
        -0.83715E-02
         0.16900E-01
         0.14449E-01
         0.45230E-02
        -0.90311E-02
        -0.42983E-02
        -0.87266E-02
        -0.14205E-02
         0.66562E-02
         0.21509E-01
        -0.15991E-01
        -0.16885E-01
         0.14536E-01
         0.81809E-02
        -0.46542E-02
        -0.32067E-02
        -0.55646E-02
        -0.33566E-01
        -0.31984E-01
        -0.31593E-01
        -0.76463E-02
         0.44598E-02
         0.29850E-02
        -0.15880E-01
         0.17275E-02
        -0.56800E-02
        -0.72808E-02
         0.11210E-01
         0.71413E-02
        -0.68490E-02
        -0.61982E-02
         0.30588E-01
         0.16730E-01
         0.19211E-01
        -0.19128E-01
        -0.34549E-02
        -0.94342E-02
        -0.33805E-01
        -0.34773E-01
        -0.33828E-01
        -0.24402E-01
        -0.18739E-01
        -0.10950E-01
         0.11866E-01
         0.14084E-01
        -0.17071E-02
         0.21711E-02
         0.22767E-01
         0.19881E-01
         0.12648E+00
         0.12756E+00
         0.11466E+00
         0.94669E-01
         0.70392E-01
         0.32407E-01
        -0.81631E-02
        -0.26336E-01
        -0.34196E-01
        -0.62943E-01
        -0.11208E+00
        -0.13248E+00
        -0.11109E+00
        -0.10573E+00
        -0.11666E+00
        -0.12027E+00
        -0.10967E+00
        -0.10366E+00
        -0.52581E-01
         0.13756E-01
         0.30095E-01
         0.30610E-01
         0.54225E-01
         0.94006E-01
         0.12045E+00
         0.12013E+00
        -0.74487E-02
         0.15759E-02
        -0.29022E-02
        -0.83765E-02
         0.16885E-01
         0.14435E-01
         0.45509E-02
        -0.90061E-02
        -0.43018E-02
        -0.87174E-02
        -0.13844E-02
         0.66723E-02
         0.21522E-01
        -0.15951E-01
        -0.16875E-01
         0.14554E-01
         0.81992E-02
        -0.46406E-02
        -0.32051E-02
        -0.55556E-02
        -0.33566E-01
        -0.31983E-01
        -0.31596E-01
        -0.76474E-02
         0.44715E-02
         0.29915E-02
        -0.15884E-01
         0.16905E-02
        -0.57178E-02
        -0.72867E-02
         0.11227E-01
         0.71408E-02
        -0.68174E-02
        -0.61997E-02
         0.30605E-01
         0.16724E-01
         0.19207E-01
        -0.19157E-01
        -0.34854E-02
        -0.94642E-02
        -0.33829E-01
        -0.34797E-01
        -0.33836E-01
        -0.24402E-01
        -0.18733E-01
        -0.10946E-01
         0.11862E-01
         0.14089E-01
        -0.16911E-02
         0.21666E-02
         0.22755E-01
         0.19852E-01
         0.12644E+00
         0.12753E+00
         0.11465E+00
         0.94669E-01
         0.70370E-01
         0.32397E-01
        -0.81719E-02
        -0.26352E-01
        -0.34167E-01
        -0.62918E-01
        -0.11206E+00
        -0.13249E+00
        -0.11109E+00
        -0.10572E+00
        -0.11668E+00
        -0.12030E+00
        -0.10970E+00
        -0.10368E+00
        -0.52566E-01
         0.13760E-01
         0.30071E-01
         0.30598E-01
         0.54186E-01
         0.93950E-01
         0.12039E+00
         0.12008E+00
        -0.74603E-02
         0.15838E-02
        -0.29052E-02
        -0.83815E-02
         0.16869E-01
         0.14422E-01
         0.45787E-02
        -0.89812E-02
        -0.43052E-02
        -0.87079E-02
        -0.13484E-02
         0.66881E-02
         0.21536E-01
        -0.15911E-01
        -0.16865E-01
         0.14571E-01
         0.82175E-02
        -0.46270E-02
        -0.32035E-02
        -0.55464E-02
        -0.33565E-01
        -0.31982E-01
        -0.31598E-01
        -0.76485E-02
         0.44829E-02
         0.29977E-02
        -0.15888E-01
         0.16533E-02
        -0.57558E-02
        -0.72923E-02
         0.11245E-01
         0.71402E-02
        -0.67857E-02
        -0.62012E-02
         0.30621E-01
         0.16719E-01
         0.19202E-01
        -0.19186E-01
        -0.35160E-02
        -0.94939E-02
        -0.33852E-01
        -0.34822E-01
        -0.33844E-01
        -0.24403E-01
        -0.18728E-01
        -0.10941E-01
         0.11859E-01
         0.14093E-01
        -0.16750E-02
         0.21617E-02
         0.22742E-01
         0.19823E-01
         0.12640E+00
         0.12749E+00
         0.11464E+00
         0.94670E-01
         0.70349E-01
         0.32387E-01
        -0.81808E-02
        -0.26367E-01
        -0.34138E-01
        -0.62892E-01
        -0.11204E+00
        -0.13249E+00
        -0.11109E+00
        -0.10572E+00
        -0.11670E+00
        -0.12034E+00
        -0.10972E+00
        -0.10369E+00
        -0.52550E-01
         0.13764E-01
         0.30048E-01
         0.30586E-01
         0.54148E-01
         0.93893E-01
         0.12033E+00
         0.12002E+00
        -0.74720E-02
         0.15916E-02
        -0.29082E-02
        -0.83864E-02
         0.16853E-01
         0.14408E-01
         0.46062E-02
        -0.89562E-02
        -0.43086E-02
        -0.86985E-02
        -0.13125E-02
         0.67040E-02
         0.21549E-01
        -0.15871E-01
        -0.16856E-01
         0.14589E-01
         0.82357E-02
        -0.46134E-02
        -0.32022E-02
        -0.55374E-02
        -0.33565E-01
        -0.31981E-01
        -0.31601E-01
        -0.76496E-02
         0.44944E-02
         0.30039E-02
        -0.15891E-01
         0.16164E-02
        -0.57939E-02
        -0.72979E-02
         0.11262E-01
         0.71397E-02
        -0.67541E-02
        -0.62026E-02
         0.30638E-01
         0.16714E-01
         0.19198E-01
        -0.19216E-01
        -0.35466E-02
        -0.95239E-02
        -0.33876E-01
        -0.34846E-01
        -0.33852E-01
        -0.24403E-01
        -0.18723E-01
        -0.10937E-01
         0.11856E-01
         0.14097E-01
        -0.16590E-02
         0.21569E-02
         0.22731E-01
         0.19794E-01
         0.12635E+00
         0.12746E+00
         0.11463E+00
         0.94670E-01
         0.70327E-01
         0.32377E-01
        -0.81897E-02
        -0.26383E-01
        -0.34109E-01
        -0.62867E-01
        -0.11202E+00
        -0.13250E+00
        -0.11108E+00
        -0.10572E+00
        -0.11672E+00
        -0.12037E+00
        -0.10975E+00
        -0.10371E+00
        -0.52535E-01
         0.13768E-01
         0.30024E-01
         0.30575E-01
         0.54109E-01
         0.93836E-01
         0.12027E+00
         0.11997E+00
        -0.74836E-02
         0.15994E-02
        -0.29112E-02
        -0.83913E-02
         0.16837E-01
         0.14395E-01
         0.46339E-02
        -0.89312E-02
        -0.43121E-02
        -0.86893E-02
        -0.12766E-02
         0.67203E-02
         0.21562E-01
        -0.15831E-01
        -0.16846E-01
         0.14607E-01
         0.82540E-02
        -0.45999E-02
        -0.32006E-02
        -0.55281E-02
        -0.33564E-01
        -0.31980E-01
        -0.31604E-01
        -0.76507E-02
         0.45058E-02
         0.30101E-02
        -0.15895E-01
         0.15795E-02
        -0.58319E-02
        -0.73034E-02
         0.11279E-01
         0.71391E-02
        -0.67224E-02
        -0.62041E-02
         0.30654E-01
         0.16708E-01
         0.19193E-01
        -0.19245E-01
        -0.35772E-02
        -0.95537E-02
        -0.33899E-01
        -0.34870E-01
        -0.33860E-01
        -0.24402E-01
        -0.18717E-01
        -0.10933E-01
         0.11853E-01
         0.14102E-01
        -0.16427E-02
         0.21522E-02
         0.22719E-01
         0.19765E-01
         0.12631E+00
         0.12743E+00
         0.11462E+00
         0.94670E-01
         0.70306E-01
         0.32367E-01
        -0.81982E-02
        -0.26398E-01
        -0.34080E-01
        -0.62842E-01
        -0.11200E+00
        -0.13250E+00
        -0.11108E+00
        -0.10571E+00
        -0.11674E+00
        -0.12041E+00
        -0.10977E+00
        -0.10373E+00
        -0.52520E-01
         0.13772E-01
         0.30000E-01
         0.30563E-01
         0.54071E-01
         0.93779E-01
         0.12021E+00
         0.11992E+00
        -0.74952E-02
         0.16073E-02
        -0.29142E-02
        -0.83962E-02
         0.16821E-01
         0.14382E-01
         0.46615E-02
        -0.89062E-02
        -0.43155E-02
        -0.86799E-02
        -0.12407E-02
         0.67362E-02
         0.21576E-01
        -0.15791E-01
        -0.16836E-01
         0.14625E-01
         0.82722E-02
        -0.45866E-02
        -0.31990E-02
        -0.55191E-02
        -0.33564E-01
        -0.31979E-01
        -0.31607E-01
        -0.76519E-02
         0.45169E-02
         0.30164E-02
        -0.15898E-01
         0.15426E-02
        -0.58698E-02
        -0.73089E-02
         0.11296E-01
         0.71386E-02
        -0.66908E-02
        -0.62056E-02
         0.30671E-01
         0.16703E-01
         0.19189E-01
        -0.19273E-01
        -0.36080E-02
        -0.95834E-02
        -0.33922E-01
        -0.34894E-01
        -0.33868E-01
        -0.24402E-01
        -0.18712E-01
        -0.10929E-01
         0.11850E-01
         0.14106E-01
        -0.16266E-02
         0.21474E-02
         0.22707E-01
         0.19737E-01
         0.12626E+00
         0.12740E+00
         0.11461E+00
         0.94670E-01
         0.70284E-01
         0.32357E-01
        -0.82067E-02
        -0.26413E-01
        -0.34052E-01
        -0.62817E-01
        -0.11199E+00
        -0.13251E+00
        -0.11107E+00
        -0.10571E+00
        -0.11675E+00
        -0.12045E+00
        -0.10980E+00
        -0.10375E+00
        -0.52504E-01
         0.13776E-01
         0.29977E-01
         0.30552E-01
         0.54032E-01
         0.93723E-01
         0.12015E+00
         0.11986E+00
        -0.75069E-02
         0.16151E-02
        -0.29172E-02
        -0.84011E-02
         0.16806E-01
         0.14368E-01
         0.46891E-02
        -0.88812E-02
        -0.43188E-02
        -0.86702E-02
        -0.12047E-02
         0.67523E-02
         0.21589E-01
        -0.15751E-01
        -0.16826E-01
         0.14643E-01
         0.82904E-02
        -0.45732E-02
        -0.31975E-02
        -0.55099E-02
        -0.33563E-01
        -0.31978E-01
        -0.31609E-01
        -0.76532E-02
         0.45279E-02
         0.30226E-02
        -0.15901E-01
         0.15054E-02
        -0.59074E-02
        -0.73144E-02
         0.11314E-01
         0.71381E-02
        -0.66592E-02
        -0.62072E-02
         0.30688E-01
         0.16697E-01
         0.19184E-01
        -0.19302E-01
        -0.36391E-02
        -0.96135E-02
        -0.33944E-01
        -0.34917E-01
        -0.33876E-01
        -0.24402E-01
        -0.18706E-01
        -0.10925E-01
         0.11847E-01
         0.14111E-01
        -0.16106E-02
         0.21425E-02
         0.22695E-01
         0.19708E-01
         0.12622E+00
         0.12737E+00
         0.11460E+00
         0.94670E-01
         0.70262E-01
         0.32348E-01
        -0.82150E-02
        -0.26428E-01
        -0.34023E-01
        -0.62792E-01
        -0.11197E+00
        -0.13252E+00
        -0.11107E+00
        -0.10570E+00
        -0.11677E+00
        -0.12048E+00
        -0.10982E+00
        -0.10376E+00
        -0.52489E-01
         0.13780E-01
         0.29953E-01
         0.30540E-01
         0.53993E-01
         0.93666E-01
         0.12009E+00
         0.11981E+00
        -0.75185E-02
         0.16229E-02
        -0.29202E-02
        -0.84059E-02
         0.16790E-01
         0.14355E-01
         0.47166E-02
        -0.88563E-02
        -0.43218E-02
        -0.86593E-02
        -0.11689E-02
         0.67684E-02
         0.21603E-01
        -0.15711E-01
        -0.16816E-01
         0.14661E-01
         0.83085E-02
        -0.45597E-02
        -0.31964E-02
        -0.55010E-02
        -0.33563E-01
        -0.31977E-01
        -0.31612E-01
        -0.76542E-02
         0.45382E-02
         0.30290E-02
        -0.15903E-01
         0.14672E-02
        -0.59452E-02
        -0.73203E-02
         0.11331E-01
         0.71375E-02
        -0.66274E-02
        -0.62088E-02
         0.30705E-01
         0.16692E-01
         0.19180E-01
        -0.19330E-01
        -0.36710E-02
        -0.96430E-02
        -0.33965E-01
        -0.34939E-01
        -0.33883E-01
        -0.24402E-01
        -0.18701E-01
        -0.10921E-01
         0.11844E-01
         0.14116E-01
        -0.15946E-02
         0.21377E-02
         0.22684E-01
         0.19679E-01
         0.12618E+00
         0.12733E+00
         0.11459E+00
         0.94670E-01
         0.70240E-01
         0.32338E-01
        -0.82235E-02
        -0.26444E-01
        -0.33995E-01
        -0.62766E-01
        -0.11195E+00
        -0.13253E+00
        -0.11107E+00
        -0.10570E+00
        -0.11679E+00
        -0.12052E+00
        -0.10985E+00
        -0.10378E+00
        -0.52474E-01
         0.13784E-01
         0.29929E-01
         0.30528E-01
         0.53955E-01
         0.93609E-01
         0.12003E+00
         0.11976E+00
        -0.75301E-02
         0.16307E-02
        -0.29231E-02
        -0.84107E-02
         0.16774E-01
         0.14342E-01
         0.47442E-02
        -0.88312E-02
        -0.43244E-02
        -0.86475E-02
        -0.11331E-02
         0.67844E-02
         0.21616E-01
        -0.15670E-01
        -0.16806E-01
         0.14679E-01
         0.83264E-02
        -0.45462E-02
        -0.31950E-02
        -0.54919E-02
        -0.33562E-01
        -0.31975E-01
        -0.31615E-01
        -0.76554E-02
         0.45476E-02
         0.30352E-02
        -0.15904E-01
         0.14279E-02
        -0.59830E-02
        -0.73259E-02
         0.11348E-01
         0.71369E-02
        -0.65957E-02
        -0.62103E-02
         0.30722E-01
         0.16686E-01
         0.19175E-01
        -0.19358E-01
        -0.37038E-02
        -0.96727E-02
        -0.33985E-01
        -0.34959E-01
        -0.33889E-01
        -0.24402E-01
        -0.18695E-01
        -0.10917E-01
         0.11841E-01
         0.14120E-01
        -0.15784E-02
         0.21330E-02
         0.22671E-01
         0.19650E-01
         0.12613E+00
         0.12730E+00
         0.11458E+00
         0.94670E-01
         0.70219E-01
         0.32328E-01
        -0.82318E-02
        -0.26459E-01
        -0.33967E-01
        -0.62740E-01
        -0.11193E+00
        -0.13254E+00
        -0.11107E+00
        -0.10570E+00
        -0.11681E+00
        -0.12056E+00
        -0.10987E+00
        -0.10380E+00
        -0.52458E-01
         0.13788E-01
         0.29906E-01
         0.30516E-01
         0.53916E-01
         0.93553E-01
         0.11997E+00
         0.11971E+00
        -0.75418E-02
         0.16385E-02
        -0.29261E-02
        -0.84156E-02
         0.16759E-01
         0.14329E-01
         0.47715E-02
        -0.88063E-02
        -0.43269E-02
        -0.86355E-02
        -0.10976E-02
         0.68001E-02
         0.21629E-01
        -0.15630E-01
        -0.16795E-01
         0.14697E-01
         0.83444E-02
        -0.45329E-02
        -0.31934E-02
        -0.54830E-02
        -0.33561E-01
        -0.31974E-01
        -0.31618E-01
        -0.76566E-02
         0.45568E-02
         0.30413E-02
        -0.15904E-01
         0.13885E-02
        -0.60205E-02
        -0.73315E-02
         0.11366E-01
         0.71363E-02
        -0.65642E-02
        -0.62119E-02
         0.30739E-01
         0.16681E-01
         0.19171E-01
        -0.19385E-01
        -0.37370E-02
        -0.97015E-02
        -0.34003E-01
        -0.34978E-01
        -0.33894E-01
        -0.24402E-01
        -0.18690E-01
        -0.10913E-01
         0.11838E-01
         0.14125E-01
        -0.15624E-02
         0.21280E-02
         0.22660E-01
         0.19622E-01
         0.12609E+00
         0.12727E+00
         0.11457E+00
         0.94670E-01
         0.70197E-01
         0.32318E-01
        -0.82400E-02
        -0.26473E-01
        -0.33939E-01
        -0.62712E-01
        -0.11191E+00
        -0.13255E+00
        -0.11107E+00
        -0.10570E+00
        -0.11683E+00
        -0.12059E+00
        -0.10990E+00
        -0.10382E+00
        -0.52443E-01
         0.13793E-01
         0.29882E-01
         0.30504E-01
         0.53878E-01
         0.93497E-01
         0.11992E+00
         0.11965E+00
        -0.75857E-02
         0.16519E-02
        -0.29421E-02
        -0.84559E-02
         0.16814E-01
         0.14377E-01
         0.48166E-02
        -0.88229E-02
        -0.43476E-02
        -0.86635E-02
        -0.10715E-02
         0.68417E-02
         0.21733E-01
        -0.15662E-01
        -0.16862E-01
         0.14776E-01
         0.83974E-02
        -0.45397E-02
        -0.32049E-02
        -0.54967E-02
        -0.33699E-01
        -0.32107E-01
        -0.31749E-01
        -0.76900E-02
         0.45850E-02
         0.30597E-02
        -0.15977E-01
         0.13577E-02
        -0.60817E-02
        -0.73685E-02
         0.11431E-01
         0.71657E-02
        -0.65633E-02
        -0.62405E-02
         0.30886E-01
         0.16748E-01
         0.19247E-01
        -0.19498E-01
        -0.37840E-02
        -0.97710E-02
        -0.34171E-01
        -0.35151E-01
        -0.34046E-01
        -0.24501E-01
        -0.18762E-01
        -0.10953E-01
         0.11886E-01
         0.14191E-01
        -0.15549E-02
         0.21321E-02
         0.22746E-01
         0.19678E-01
         0.12663E+00
         0.12782E+00
         0.11508E+00
         0.95099E-01
         0.70500E-01
         0.32456E-01
        -0.82901E-02
        -0.26612E-01
        -0.34076E-01
        -0.62993E-01
        -0.11243E+00
        -0.13318E+00
        -0.11156E+00
        -0.10614E+00
        -0.11734E+00
        -0.12113E+00
        -0.11038E+00
        -0.10429E+00
        -0.52670E-01
         0.13864E-01
         0.29997E-01
         0.30626E-01
         0.54083E-01
         0.93860E-01
         0.12039E+00
         0.12012E+00
        -0.11346E-01
         0.24879E-02
        -0.43926E-02
        -0.12667E-01
         0.24208E-01
         0.20893E-01
         0.72361E-02
        -0.13114E-01
        -0.64822E-02
        -0.12855E-01
        -0.15559E-02
         0.96869E-02
         0.31222E-01
        -0.22946E-01
        -0.23987E-01
         0.22117E-01
         0.12540E-01
        -0.67861E-02
        -0.47316E-02
        -0.81347E-02
        -0.48359E-01
        -0.46671E-01
        -0.45683E-01
        -0.11442E-01
         0.68728E-02
         0.45932E-02
        -0.23615E-01
         0.19994E-02
        -0.91731E-02
        -0.11032E-01
         0.17118E-01
         0.10700E-01
        -0.98086E-02
        -0.93504E-02
         0.43674E-01
         0.24331E-01
         0.27975E-01
        -0.28390E-01
        -0.56060E-02
        -0.14487E-01
        -0.49915E-01
        -0.51716E-01
        -0.50043E-01
        -0.35507E-01
        -0.27102E-01
        -0.15375E-01
         0.17114E-01
         0.20704E-01
        -0.22641E-02
         0.31071E-02
         0.32375E-01
         0.28513E-01
         0.15883E+00
         0.16001E+00
         0.14413E+00
         0.11944E+00
         0.88454E-01
         0.40807E-01
        -0.10560E-01
        -0.34155E-01
        -0.43628E-01
        -0.80188E-01
        -0.14332E+00
        -0.16945E+00
        -0.14351E+00
        -0.13696E+00
        -0.14945E+00
        -0.15252E+00
        -0.13855E+00
        -0.13019E+00
        -0.65720E-01
         0.17333E-01
         0.37861E-01
         0.38826E-01
         0.68311E-01
         0.11897E+00
         0.15211E+00
         0.15124E+00
  
SCALARS                      strain_xy  double 1
LOOKUP_TABLE default
         0.20862E-03
         0.47021E-03
         0.41351E-02
        -0.15289E-03
        -0.61786E-19
         0.60382E-20
         0.90785E-19
         0.13829E-19
         0.42306E-01
        -0.18887E-01
         0.40411E-18
         0.32046E-18
        -0.14995E-02
         0.31048E-03
         0.35669E-19
        -0.10713E-19
        -0.48812E-03
        -0.75302E-02
         0.17757E-20
         0.27060E-19
         0.54688E-02
         0.33386E-01
         0.34818E-01
         0.27515E-18
         0.21912E-18
        -0.31999E-18
         0.34857E-02
         0.27544E-01
         0.37049E-18
         0.57015E-18
         0.13024E-02
        -0.23931E-02
        -0.21545E-03
        -0.19555E-19
         0.77143E-19
        -0.98669E-21
         0.11137E-01
         0.48355E-02
         0.20646E-18
         0.17103E-18
         0.21235E-01
         0.18159E-01
         0.35196E-18
         0.23720E-18
         0.21522E-01
         0.40322E-02
        -0.12821E-19
         0.95456E-19
        -0.49959E-02
         0.28211E-19
         0.13685E-02
        -0.63603E-21
        -0.28801E-03
         0.21323E-18
        -0.14018E-02
         0.32811E-19
        -0.19986E-01
         0.10349E-02
         0.76254E-21
        -0.37409E-20
        -0.16847E-03
         0.16606E-01
         0.20780E-19
         0.53301E-19
        -0.73801E-03
        -0.42191E-20
        -0.10352E-01
         0.33808E-19
         0.51560E-01
         0.18671E-01
         0.26114E-19
        -0.25007E-18
         0.41429E-01
        -0.39983E-18
        -0.14166E-01
         0.26780E-18
        -0.44279E-01
         0.39898E-19
        -0.77577E-01
         0.51883E-19
        -0.15395E+00
        -0.86574E-01
         0.12197E-18
        -0.30929E-19
        -0.11320E-01
        -0.37219E-20
         0.40708E-01
        -0.33568E-18
         0.58375E-01
        -0.37482E-18
         0.12534E+00
         0.56817E-01
        -0.23726E-18
         0.26336E-18
        -0.92787E-02
         0.23980E-18
        -0.23072E-01
         0.10301E-18
        -0.53370E-01
         0.27351E-18
        -0.13036E+00
        -0.75223E-01
         0.58646E-18
         0.29323E-18
         0.20057E+00
        -0.85655E-01
        -0.38103E-18
         0.46662E-18
         0.48327E+00
        -0.10829E-17
         0.64443E+00
        -0.11838E-17
         0.55215E+00
        -0.80341E-18
         0.44190E+00
        -0.85218E-19
         0.18078E+00
         0.24019E-18
        -0.22936E+00
         0.14872E-18
        -0.51353E+00
         0.13595E-18
        -0.68027E+00
         0.29169E-18
        -0.69578E+00
         0.35465E-18
        -0.61052E+00
         0.13973E-18
        -0.35100E+00
         0.85187E-19
         0.25252E-01
         0.13924E-18
         0.32151E+00
         0.93333E-19
         0.53426E+00
        -0.33284E-18
         0.72658E+00
        -0.87334E-18
         0.61103E+00
        -0.11083E-17
         0.37599E+00
        -0.68594E-18
         0.40126E-01
         0.13087E-18
        -0.27702E+00
         0.27736E-18
        -0.40747E+00
         0.44203E-18
        -0.49077E+00
         0.87046E-18
        -0.44267E+00
         0.11295E-17
        -0.41695E+00
         0.80247E-18
        -0.35016E+00
         0.63464E-18
        -0.45542E-05
         0.11332E-05
         0.11734E-05
        -0.81084E-06
         0.85305E-05
         0.77811E-05
         0.10874E-06
        -0.26333E-05
        -0.13352E-05
        -0.32106E-05
        -0.75042E-06
        -0.13518E-04
        -0.20631E-04
         0.76857E-06
         0.11299E-04
        -0.20294E-05
         0.14819E-05
         0.46477E-06
         0.81463E-06
        -0.68168E-06
         0.32845E-05
         0.29640E-05
        -0.85440E-05
         0.22679E-06
         0.20477E-05
         0.22481E-06
         0.34320E-07
         0.67831E-07
         0.78677E-06
        -0.28896E-05
        -0.17530E-05
         0.33790E-06
         0.60030E-06
        -0.44347E-07
        -0.17722E-05
        -0.67168E-05
        -0.14214E-04
         0.20478E-04
         0.10587E-04
         0.17557E-04
         0.31832E-04
         0.86176E-05
        -0.79415E-05
        -0.15741E-04
        -0.17453E-04
        -0.19633E-04
         0.26994E-05
         0.89973E-05
         0.27563E-05
         0.85497E-05
         0.24467E-04
         0.10627E-04
        -0.62502E-04
         0.90434E-04
        -0.21431E-03
        -0.25977E-03
        -0.24483E-03
        -0.13796E-03
         0.76111E-05
         0.80492E-04
         0.11801E-03
         0.19000E-03
         0.19312E-03
         0.12617E-03
         0.54374E-04
         0.23568E-04
        -0.39780E-04
        -0.16223E-03
        -0.27057E-03
        -0.29328E-03
        -0.14781E-03
         0.28160E-04
         0.10908E-03
         0.11482E-03
         0.17881E-03
         0.18589E-03
         0.15508E-03
         0.14806E-03
        -0.78552E-04
         0.10170E-04
        -0.17917E-04
        -0.12374E-04
         0.13899E-03
         0.53420E-04
         0.12342E-04
        -0.94185E-04
        -0.28381E-04
        -0.84216E-04
         0.89948E-05
        -0.14202E-03
        -0.27681E-03
         0.30505E-04
         0.36564E-03
        -0.58526E-04
         0.98738E-05
         0.56461E-05
         0.17126E-04
         0.58148E-05
         0.15381E-03
         0.10407E-03
        -0.59540E-04
         0.12155E-04
         0.27907E-04
        -0.46477E-05
         0.63245E-05
        -0.15611E-05
        -0.62854E-05
        -0.46391E-04
        -0.48459E-04
        -0.82600E-05
         0.20315E-04
         0.15224E-04
         0.35761E-04
        -0.60167E-04
        -0.13177E-03
         0.30817E-03
         0.45500E-04
         0.11626E-03
         0.31377E-03
        -0.79755E-04
        -0.16058E-03
        -0.14503E-03
        -0.14382E-03
        -0.17189E-03
         0.10810E-03
         0.84394E-04
        -0.14021E-04
         0.19929E-04
         0.21166E-03
         0.13990E-04
        -0.14649E-02
         0.21116E-02
        -0.44107E-02
        -0.47015E-02
        -0.45272E-02
        -0.25018E-02
         0.60847E-03
         0.17221E-02
         0.21741E-02
         0.39426E-02
         0.43977E-02
         0.17099E-02
         0.57151E-03
         0.46592E-03
        -0.23771E-03
        -0.20765E-02
        -0.37967E-02
        -0.49975E-02
        -0.33141E-02
         0.95513E-03
         0.18553E-02
         0.17772E-02
         0.31499E-02
         0.38403E-02
         0.25534E-02
         0.24102E-02
        -0.78749E-04
         0.10210E-04
        -0.17960E-04
        -0.12473E-04
         0.13887E-03
         0.53413E-04
         0.12436E-04
        -0.94105E-04
        -0.28463E-04
        -0.84464E-04
         0.88180E-05
        -0.14236E-03
        -0.27704E-03
         0.30430E-04
         0.36591E-03
        -0.58589E-04
         0.99855E-05
         0.56221E-05
         0.17129E-04
         0.57722E-05
         0.15417E-03
         0.10416E-03
        -0.59550E-04
         0.12150E-04
         0.28096E-04
        -0.46470E-05
         0.64010E-05
        -0.15403E-05
        -0.62878E-05
        -0.46519E-04
        -0.48538E-04
        -0.82409E-05
         0.20275E-04
         0.15255E-04
         0.35443E-04
        -0.60179E-04
        -0.13172E-03
         0.30914E-03
         0.46035E-04
         0.11676E-03
         0.31421E-03
        -0.79586E-04
        -0.16075E-03
        -0.14508E-03
        -0.14377E-03
        -0.17180E-03
         0.10809E-03
         0.84371E-04
        -0.13900E-04
         0.19835E-04
         0.21144E-03
         0.13758E-04
        -0.14630E-02
         0.21112E-02
        -0.44112E-02
        -0.47016E-02
        -0.45253E-02
        -0.25002E-02
         0.60890E-03
         0.17226E-02
         0.21718E-02
         0.39400E-02
         0.43961E-02
         0.17108E-02
         0.57141E-03
         0.46685E-03
        -0.23580E-03
        -0.20781E-02
        -0.37991E-02
        -0.49997E-02
        -0.33131E-02
         0.95550E-03
         0.18538E-02
         0.17764E-02
         0.31468E-02
         0.38352E-02
         0.25493E-02
         0.24059E-02
        -0.78948E-04
         0.10249E-04
        -0.18003E-04
        -0.12574E-04
         0.13875E-03
         0.53408E-04
         0.12530E-04
        -0.94024E-04
        -0.28543E-04
        -0.84704E-04
         0.86414E-05
        -0.14269E-03
        -0.27728E-03
         0.30352E-04
         0.36618E-03
        -0.58656E-04
         0.10099E-04
         0.55978E-05
         0.17132E-04
         0.57295E-05
         0.15455E-03
         0.10425E-03
        -0.59569E-04
         0.12143E-04
         0.28289E-04
        -0.46457E-05
         0.64825E-05
        -0.15201E-05
        -0.62861E-05
        -0.46643E-04
        -0.48618E-04
        -0.82184E-05
         0.20235E-04
         0.15287E-04
         0.35123E-04
        -0.60194E-04
        -0.13167E-03
         0.31011E-03
         0.46572E-04
         0.11727E-03
         0.31466E-03
        -0.79396E-04
        -0.16092E-03
        -0.14516E-03
        -0.14374E-03
        -0.17172E-03
         0.10808E-03
         0.84347E-04
        -0.13777E-04
         0.19738E-04
         0.21122E-03
         0.13527E-04
        -0.14612E-02
         0.21108E-02
        -0.44116E-02
        -0.47017E-02
        -0.45234E-02
        -0.24986E-02
         0.60935E-03
         0.17232E-02
         0.21695E-02
         0.39373E-02
         0.43945E-02
         0.17116E-02
         0.57132E-03
         0.46779E-03
        -0.23389E-03
        -0.20797E-02
        -0.38016E-02
        -0.50018E-02
        -0.33122E-02
         0.95588E-03
         0.18524E-02
         0.17757E-02
         0.31437E-02
         0.38301E-02
         0.25452E-02
         0.24017E-02
        -0.79147E-04
         0.10289E-04
        -0.18045E-04
        -0.12674E-04
         0.13863E-03
         0.53402E-04
         0.12625E-04
        -0.93940E-04
        -0.28621E-04
        -0.84929E-04
         0.84650E-05
        -0.14303E-03
        -0.27752E-03
         0.30278E-04
         0.36645E-03
        -0.58728E-04
         0.10215E-04
         0.55733E-05
         0.17138E-04
         0.56845E-05
         0.15493E-03
         0.10433E-03
        -0.59620E-04
         0.12132E-04
         0.28491E-04
        -0.46433E-05
         0.65664E-05
        -0.15033E-05
        -0.62724E-05
        -0.46756E-04
        -0.48700E-04
        -0.81896E-05
         0.20193E-04
         0.15318E-04
         0.34804E-04
        -0.60206E-04
        -0.13162E-03
         0.31109E-03
         0.47112E-04
         0.11778E-03
         0.31516E-03
        -0.79144E-04
        -0.16106E-03
        -0.14529E-03
        -0.14372E-03
        -0.17164E-03
         0.10808E-03
         0.84325E-04
        -0.13654E-04
         0.19641E-04
         0.21098E-03
         0.13298E-04
        -0.14593E-02
         0.21103E-02
        -0.44120E-02
        -0.47017E-02
        -0.45214E-02
        -0.24970E-02
         0.60979E-03
         0.17237E-02
         0.21673E-02
         0.39346E-02
         0.43930E-02
         0.17127E-02
         0.57129E-03
         0.46871E-03
        -0.23196E-03
        -0.20814E-02
        -0.38044E-02
        -0.50041E-02
        -0.33112E-02
         0.95626E-03
         0.18509E-02
         0.17749E-02
         0.31406E-02
         0.38250E-02
         0.25412E-02
         0.23974E-02
        -0.79344E-04
         0.10330E-04
        -0.18087E-04
        -0.12774E-04
         0.13851E-03
         0.53395E-04
         0.12720E-04
        -0.93853E-04
        -0.28694E-04
        -0.85136E-04
         0.82881E-05
        -0.14336E-03
        -0.27776E-03
         0.30204E-04
         0.36672E-03
        -0.58806E-04
         0.10335E-04
         0.55488E-05
         0.17141E-04
         0.56376E-05
         0.15532E-03
         0.10440E-03
        -0.59701E-04
         0.12116E-04
         0.28703E-04
        -0.46389E-05
         0.66595E-05
        -0.14895E-05
        -0.62463E-05
        -0.46859E-04
        -0.48784E-04
        -0.81529E-05
         0.20151E-04
         0.15350E-04
         0.34482E-04
        -0.60218E-04
        -0.13157E-03
         0.31206E-03
         0.47653E-04
         0.11831E-03
         0.31571E-03
        -0.78826E-04
        -0.16119E-03
        -0.14547E-03
        -0.14374E-03
        -0.17156E-03
         0.10810E-03
         0.84311E-04
        -0.13532E-04
         0.19546E-04
         0.21076E-03
         0.13067E-04
        -0.14574E-02
         0.21099E-02
        -0.44124E-02
        -0.47018E-02
        -0.45195E-02
        -0.24954E-02
         0.61022E-03
         0.17243E-02
         0.21650E-02
         0.39320E-02
         0.43916E-02
         0.17140E-02
         0.57132E-03
         0.46962E-03
        -0.23003E-03
        -0.20834E-02
        -0.38075E-02
        -0.50066E-02
        -0.33102E-02
         0.95663E-03
         0.18494E-02
         0.17741E-02
         0.31375E-02
         0.38199E-02
         0.25371E-02
         0.23932E-02
        -0.79532E-04
         0.10373E-04
        -0.18126E-04
        -0.12876E-04
         0.13839E-03
         0.53388E-04
         0.12813E-04
        -0.93753E-04
        -0.28768E-04
        -0.85331E-04
         0.81114E-05
        -0.14370E-03
        -0.27800E-03
         0.30134E-04
         0.36698E-03
        -0.58888E-04
         0.10457E-04
         0.55244E-05
         0.17145E-04
         0.55906E-05
         0.15572E-03
         0.10447E-03
        -0.59796E-04
         0.12098E-04
         0.28912E-04
        -0.46338E-05
         0.67593E-05
        -0.14769E-05
        -0.62146E-05
        -0.46962E-04
        -0.48864E-04
        -0.81117E-05
         0.20108E-04
         0.15382E-04
         0.34158E-04
        -0.60238E-04
        -0.13153E-03
         0.31304E-03
         0.48199E-04
         0.11884E-03
         0.31627E-03
        -0.78487E-04
        -0.16131E-03
        -0.14568E-03
        -0.14377E-03
        -0.17150E-03
         0.10811E-03
         0.84303E-04
        -0.13409E-04
         0.19456E-04
         0.21054E-03
         0.12838E-04
        -0.14555E-02
         0.21095E-02
        -0.44128E-02
        -0.47018E-02
        -0.45175E-02
        -0.24938E-02
         0.61063E-03
         0.17248E-02
         0.21627E-02
         0.39293E-02
         0.43902E-02
         0.17153E-02
         0.57138E-03
         0.47052E-03
        -0.22810E-03
        -0.20854E-02
        -0.38108E-02
        -0.50091E-02
        -0.33093E-02
         0.95696E-03
         0.18479E-02
         0.17734E-02
         0.31344E-02
         0.38149E-02
         0.25331E-02
         0.23890E-02
        -0.79706E-04
         0.10422E-04
        -0.18158E-04
        -0.12979E-04
         0.13828E-03
         0.53384E-04
         0.12905E-04
        -0.93634E-04
        -0.28843E-04
        -0.85518E-04
         0.79347E-05
        -0.14404E-03
        -0.27827E-03
         0.30082E-04
         0.36725E-03
        -0.58972E-04
         0.10580E-04
         0.55000E-05
         0.17150E-04
         0.55439E-05
         0.15612E-03
         0.10455E-03
        -0.59893E-04
         0.12081E-04
         0.29107E-04
        -0.46271E-05
         0.68770E-05
        -0.14639E-05
        -0.61808E-05
        -0.47067E-04
        -0.48938E-04
        -0.80659E-05
         0.20064E-04
         0.15414E-04
         0.33833E-04
        -0.60261E-04
        -0.13150E-03
         0.31403E-03
         0.48750E-04
         0.11939E-03
         0.31684E-03
        -0.78140E-04
        -0.16143E-03
        -0.14588E-03
        -0.14382E-03
        -0.17146E-03
         0.10813E-03
         0.84318E-04
        -0.13279E-04
         0.19383E-04
         0.21034E-03
         0.12607E-04
        -0.14537E-02
         0.21091E-02
        -0.44132E-02
        -0.47019E-02
        -0.45156E-02
        -0.24922E-02
         0.61105E-03
         0.17253E-02
         0.21604E-02
         0.39267E-02
         0.43888E-02
         0.17166E-02
         0.57144E-03
         0.47144E-03
        -0.22617E-03
        -0.20874E-02
        -0.38141E-02
        -0.50115E-02
        -0.33082E-02
         0.95722E-03
         0.18464E-02
         0.17726E-02
         0.31313E-02
         0.38099E-02
         0.25291E-02
         0.23847E-02
        -0.79872E-04
         0.10474E-04
        -0.18186E-04
        -0.13084E-04
         0.13817E-03
         0.53377E-04
         0.12996E-04
        -0.93504E-04
        -0.28920E-04
        -0.85702E-04
         0.77579E-05
        -0.14438E-03
        -0.27853E-03
         0.30033E-04
         0.36752E-03
        -0.59057E-04
         0.10705E-04
         0.54753E-05
         0.17155E-04
         0.54979E-05
         0.15652E-03
         0.10462E-03
        -0.59987E-04
         0.12065E-04
         0.29297E-04
        -0.46197E-05
         0.69994E-05
        -0.14505E-05
        -0.61463E-05
        -0.47175E-04
        -0.49009E-04
        -0.80174E-05
         0.20020E-04
         0.15446E-04
         0.33506E-04
        -0.60292E-04
        -0.13148E-03
         0.31502E-03
         0.49304E-04
         0.11993E-03
         0.31742E-03
        -0.77794E-04
        -0.16155E-03
        -0.14610E-03
        -0.14387E-03
        -0.17144E-03
         0.10815E-03
         0.84337E-04
        -0.13147E-04
         0.19316E-04
         0.21015E-03
         0.12377E-04
        -0.14518E-02
         0.21086E-02
        -0.44136E-02
        -0.47019E-02
        -0.45137E-02
        -0.24905E-02
         0.61146E-03
         0.17259E-02
         0.21582E-02
         0.39240E-02
         0.43874E-02
         0.17180E-02
         0.57150E-03
         0.47237E-03
        -0.22423E-03
        -0.20894E-02
        -0.38174E-02
        -0.50139E-02
        -0.33072E-02
         0.95746E-03
         0.18448E-02
         0.17719E-02
         0.31283E-02
         0.38048E-02
         0.25250E-02
         0.23805E-02
        -0.80038E-04
         0.10527E-04
        -0.18214E-04
        -0.13189E-04
         0.13805E-03
         0.53369E-04
         0.13086E-04
        -0.93375E-04
        -0.28998E-04
        -0.85886E-04
         0.75811E-05
        -0.14472E-03
        -0.27880E-03
         0.29989E-04
         0.36779E-03
        -0.59142E-04
         0.10831E-04
         0.54507E-05
         0.17158E-04
         0.54513E-05
         0.15691E-03
         0.10470E-03
        -0.60082E-04
         0.12049E-04
         0.29487E-04
        -0.46123E-05
         0.71249E-05
        -0.14364E-05
        -0.61109E-05
        -0.47283E-04
        -0.49080E-04
        -0.79694E-05
         0.19975E-04
         0.15478E-04
         0.33176E-04
        -0.60316E-04
        -0.13146E-03
         0.31602E-03
         0.49862E-04
         0.12047E-03
         0.31799E-03
        -0.77448E-04
        -0.16167E-03
        -0.14631E-03
        -0.14393E-03
        -0.17141E-03
         0.10817E-03
         0.84359E-04
        -0.13015E-04
         0.19252E-04
         0.20996E-03
         0.12147E-04
        -0.14499E-02
         0.21082E-02
        -0.44139E-02
        -0.47020E-02
        -0.45117E-02
        -0.24889E-02
         0.61187E-03
         0.17264E-02
         0.21559E-02
         0.39213E-02
         0.43859E-02
         0.17193E-02
         0.57157E-03
         0.47331E-03
        -0.22230E-03
        -0.20913E-02
        -0.38207E-02
        -0.50162E-02
        -0.33061E-02
         0.95771E-03
         0.18433E-02
         0.17712E-02
         0.31252E-02
         0.37998E-02
         0.25210E-02
         0.23763E-02
        -0.80203E-04
         0.10580E-04
        -0.18242E-04
        -0.13293E-04
         0.13794E-03
         0.53362E-04
         0.13177E-04
        -0.93244E-04
        -0.29076E-04
        -0.86069E-04
         0.74042E-05
        -0.14506E-03
        -0.27907E-03
         0.29940E-04
         0.36805E-03
        -0.59227E-04
         0.10958E-04
         0.54263E-05
         0.17162E-04
         0.54050E-05
         0.15731E-03
         0.10477E-03
        -0.60172E-04
         0.12033E-04
         0.29678E-04
        -0.46048E-05
         0.72471E-05
        -0.14216E-05
        -0.60745E-05
        -0.47391E-04
        -0.49150E-04
        -0.79210E-05
         0.19930E-04
         0.15510E-04
         0.32846E-04
        -0.60347E-04
        -0.13143E-03
         0.31702E-03
         0.50422E-04
         0.12102E-03
         0.31857E-03
        -0.77103E-04
        -0.16178E-03
        -0.14652E-03
        -0.14399E-03
        -0.17138E-03
         0.10819E-03
         0.84383E-04
        -0.12884E-04
         0.19183E-04
         0.20976E-03
         0.11918E-04
        -0.14481E-02
         0.21078E-02
        -0.44142E-02
        -0.47020E-02
        -0.45098E-02
        -0.24873E-02
         0.61227E-03
         0.17269E-02
         0.21536E-02
         0.39186E-02
         0.43845E-02
         0.17206E-02
         0.57164E-03
         0.47424E-03
        -0.22037E-03
        -0.20934E-02
        -0.38240E-02
        -0.50186E-02
        -0.33050E-02
         0.95794E-03
         0.18418E-02
         0.17705E-02
         0.31222E-02
         0.37948E-02
         0.25171E-02
         0.23721E-02
        -0.80368E-04
         0.10632E-04
        -0.18271E-04
        -0.13397E-04
         0.13783E-03
         0.53356E-04
         0.13268E-04
        -0.93111E-04
        -0.29153E-04
        -0.86251E-04
         0.72267E-05
        -0.14540E-03
        -0.27934E-03
         0.29894E-04
         0.36832E-03
        -0.59312E-04
         0.11085E-04
         0.54020E-05
         0.17168E-04
         0.53582E-05
         0.15771E-03
         0.10484E-03
        -0.60268E-04
         0.12017E-04
         0.29868E-04
        -0.45971E-05
         0.73716E-05
        -0.14060E-05
        -0.60371E-05
        -0.47498E-04
        -0.49221E-04
        -0.78730E-05
         0.19884E-04
         0.15541E-04
         0.32515E-04
        -0.60374E-04
        -0.13141E-03
         0.31802E-03
         0.50985E-04
         0.12156E-03
         0.31915E-03
        -0.76757E-04
        -0.16190E-03
        -0.14673E-03
        -0.14404E-03
        -0.17136E-03
         0.10821E-03
         0.84404E-04
        -0.12753E-04
         0.19117E-04
         0.20957E-03
         0.11689E-04
        -0.14462E-02
         0.21073E-02
        -0.44146E-02
        -0.47021E-02
        -0.45078E-02
        -0.24857E-02
         0.61266E-03
         0.17274E-02
         0.21514E-02
         0.39160E-02
         0.43831E-02
         0.17219E-02
         0.57170E-03
         0.47517E-03
        -0.21844E-03
        -0.20954E-02
        -0.38273E-02
        -0.50210E-02
        -0.33040E-02
         0.95816E-03
         0.18402E-02
         0.17697E-02
         0.31191E-02
         0.37897E-02
         0.25131E-02
         0.23679E-02
        -0.80534E-04
         0.10685E-04
        -0.18299E-04
        -0.13503E-04
         0.13772E-03
         0.53349E-04
         0.13359E-04
        -0.92979E-04
        -0.29231E-04
        -0.86431E-04
         0.70494E-05
        -0.14574E-03
        -0.27960E-03
         0.29848E-04
         0.36858E-03
        -0.59397E-04
         0.11213E-04
         0.53774E-05
         0.17172E-04
         0.53121E-05
         0.15811E-03
         0.10491E-03
        -0.60363E-04
         0.12002E-04
         0.30058E-04
        -0.45898E-05
         0.74933E-05
        -0.13898E-05
        -0.59983E-05
        -0.47607E-04
        -0.49291E-04
        -0.78248E-05
         0.19838E-04
         0.15574E-04
         0.32181E-04
        -0.60402E-04
        -0.13139E-03
         0.31902E-03
         0.51552E-04
         0.12211E-03
         0.31972E-03
        -0.76414E-04
        -0.16202E-03
        -0.14694E-03
        -0.14410E-03
        -0.17134E-03
         0.10823E-03
         0.84430E-04
        -0.12621E-04
         0.19053E-04
         0.20937E-03
         0.11461E-04
        -0.14443E-02
         0.21069E-02
        -0.44149E-02
        -0.47021E-02
        -0.45059E-02
        -0.24841E-02
         0.61305E-03
         0.17279E-02
         0.21491E-02
         0.39133E-02
         0.43816E-02
         0.17232E-02
         0.57177E-03
         0.47609E-03
        -0.21649E-03
        -0.20973E-02
        -0.38306E-02
        -0.50233E-02
        -0.33029E-02
         0.95839E-03
         0.18387E-02
         0.17690E-02
         0.31161E-02
         0.37847E-02
         0.25091E-02
         0.23637E-02
        -0.80700E-04
         0.10738E-04
        -0.18326E-04
        -0.13609E-04
         0.13761E-03
         0.53341E-04
         0.13449E-04
        -0.92844E-04
        -0.29308E-04
        -0.86609E-04
         0.68722E-05
        -0.14608E-03
        -0.27988E-03
         0.29798E-04
         0.36885E-03
        -0.59481E-04
         0.11341E-04
         0.53528E-05
         0.17177E-04
         0.52662E-05
         0.15850E-03
         0.10498E-03
        -0.60455E-04
         0.11987E-04
         0.30247E-04
        -0.45820E-05
         0.76185E-05
        -0.13728E-05
        -0.59589E-05
        -0.47713E-04
        -0.49361E-04
        -0.77760E-05
         0.19790E-04
         0.15606E-04
         0.31847E-04
        -0.60433E-04
        -0.13137E-03
         0.32001E-03
         0.52122E-04
         0.12266E-03
         0.32031E-03
        -0.76066E-04
        -0.16214E-03
        -0.14716E-03
        -0.14416E-03
        -0.17130E-03
         0.10826E-03
         0.84452E-04
        -0.12489E-04
         0.18987E-04
         0.20917E-03
         0.11234E-04
        -0.14424E-02
         0.21065E-02
        -0.44152E-02
        -0.47021E-02
        -0.45040E-02
        -0.24825E-02
         0.61346E-03
         0.17284E-02
         0.21468E-02
         0.39105E-02
         0.43802E-02
         0.17245E-02
         0.57183E-03
         0.47702E-03
        -0.21455E-03
        -0.20993E-02
        -0.38339E-02
        -0.50257E-02
        -0.33019E-02
         0.95862E-03
         0.18371E-02
         0.17683E-02
         0.31130E-02
         0.37797E-02
         0.25051E-02
         0.23595E-02
        -0.80866E-04
         0.10790E-04
        -0.18354E-04
        -0.13714E-04
         0.13750E-03
         0.53334E-04
         0.13540E-04
        -0.92708E-04
        -0.29386E-04
        -0.86786E-04
         0.66951E-05
        -0.14642E-03
        -0.28015E-03
         0.29751E-04
         0.36910E-03
        -0.59565E-04
         0.11471E-04
         0.53284E-05
         0.17183E-04
         0.52206E-05
         0.15890E-03
         0.10505E-03
        -0.60550E-04
         0.11971E-04
         0.30437E-04
        -0.45741E-05
         0.77405E-05
        -0.13552E-05
        -0.59188E-05
        -0.47820E-04
        -0.49431E-04
        -0.77278E-05
         0.19743E-04
         0.15638E-04
         0.31511E-04
        -0.60460E-04
        -0.13134E-03
         0.32102E-03
         0.52693E-04
         0.12321E-03
         0.32088E-03
        -0.75718E-04
        -0.16225E-03
        -0.14737E-03
        -0.14422E-03
        -0.17127E-03
         0.10828E-03
         0.84473E-04
        -0.12358E-04
         0.18921E-04
         0.20899E-03
         0.11009E-04
        -0.14405E-02
         0.21060E-02
        -0.44155E-02
        -0.47022E-02
        -0.45020E-02
        -0.24809E-02
         0.61385E-03
         0.17289E-02
         0.21446E-02
         0.39078E-02
         0.43787E-02
         0.17259E-02
         0.57189E-03
         0.47796E-03
        -0.21262E-03
        -0.21013E-02
        -0.38372E-02
        -0.50281E-02
        -0.33008E-02
         0.95884E-03
         0.18356E-02
         0.17676E-02
         0.31099E-02
         0.37747E-02
         0.25012E-02
         0.23553E-02
        -0.81032E-04
         0.10842E-04
        -0.18381E-04
        -0.13820E-04
         0.13739E-03
         0.53325E-04
         0.13631E-04
        -0.92572E-04
        -0.29464E-04
        -0.86963E-04
         0.65177E-05
        -0.14677E-03
        -0.28041E-03
         0.29700E-04
         0.36936E-03
        -0.59650E-04
         0.11601E-04
         0.53042E-05
         0.17187E-04
         0.51745E-05
         0.15930E-03
         0.10512E-03
        -0.60641E-04
         0.11956E-04
         0.30627E-04
        -0.45662E-05
         0.78646E-05
        -0.13367E-05
        -0.58779E-05
        -0.47927E-04
        -0.49501E-04
        -0.76792E-05
         0.19694E-04
         0.15670E-04
         0.31174E-04
        -0.60491E-04
        -0.13132E-03
         0.32202E-03
         0.53268E-04
         0.12376E-03
         0.32146E-03
        -0.75371E-04
        -0.16237E-03
        -0.14758E-03
        -0.14427E-03
        -0.17125E-03
         0.10830E-03
         0.84499E-04
        -0.12225E-04
         0.18855E-04
         0.20879E-03
         0.10783E-04
        -0.14386E-02
         0.21056E-02
        -0.44158E-02
        -0.47022E-02
        -0.45001E-02
        -0.24792E-02
         0.61422E-03
         0.17293E-02
         0.21423E-02
         0.39051E-02
         0.43773E-02
         0.17272E-02
         0.57196E-03
         0.47889E-03
        -0.21069E-03
        -0.21033E-02
        -0.38405E-02
        -0.50305E-02
        -0.32998E-02
         0.95905E-03
         0.18341E-02
         0.17669E-02
         0.31069E-02
         0.37697E-02
         0.24973E-02
         0.23511E-02
        -0.81198E-04
         0.10894E-04
        -0.18409E-04
        -0.13925E-04
         0.13727E-03
         0.53319E-04
         0.13722E-04
        -0.92435E-04
        -0.29542E-04
        -0.87139E-04
         0.63399E-05
        -0.14711E-03
        -0.28069E-03
         0.29653E-04
         0.36962E-03
        -0.59735E-04
         0.11732E-04
         0.52801E-05
         0.17191E-04
         0.51289E-05
         0.15970E-03
         0.10519E-03
        -0.60734E-04
         0.11942E-04
         0.30817E-04
        -0.45582E-05
         0.79856E-05
        -0.13176E-05
        -0.58361E-05
        -0.48033E-04
        -0.49570E-04
        -0.76310E-05
         0.19646E-04
         0.15702E-04
         0.30835E-04
        -0.60518E-04
        -0.13130E-03
         0.32302E-03
         0.53846E-04
         0.12431E-03
         0.32204E-03
        -0.75023E-04
        -0.16249E-03
        -0.14778E-03
        -0.14434E-03
        -0.17122E-03
         0.10832E-03
         0.84520E-04
        -0.12094E-04
         0.18789E-04
         0.20860E-03
         0.10557E-04
        -0.14368E-02
         0.21051E-02
        -0.44161E-02
        -0.47023E-02
        -0.44982E-02
        -0.24776E-02
         0.61458E-03
         0.17298E-02
         0.21401E-02
         0.39024E-02
         0.43759E-02
         0.17285E-02
         0.57201E-03
         0.47980E-03
        -0.20875E-03
        -0.21053E-02
        -0.38438E-02
        -0.50328E-02
        -0.32987E-02
         0.95927E-03
         0.18325E-02
         0.17662E-02
         0.31038E-02
         0.37647E-02
         0.24933E-02
         0.23469E-02
        -0.81363E-04
         0.10947E-04
        -0.18437E-04
        -0.14031E-04
         0.13717E-03
         0.53311E-04
         0.13813E-04
        -0.92296E-04
        -0.29620E-04
        -0.87309E-04
         0.61619E-05
        -0.14746E-03
        -0.28095E-03
         0.29601E-04
         0.36987E-03
        -0.59820E-04
         0.11865E-04
         0.52558E-05
         0.17196E-04
         0.50837E-05
         0.16009E-03
         0.10525E-03
        -0.60827E-04
         0.11927E-04
         0.31005E-04
        -0.45499E-05
         0.81096E-05
        -0.12975E-05
        -0.57929E-05
        -0.48138E-04
        -0.49640E-04
        -0.75826E-05
         0.19597E-04
         0.15735E-04
         0.30495E-04
        -0.60546E-04
        -0.13127E-03
         0.32402E-03
         0.54432E-04
         0.12487E-03
         0.32261E-03
        -0.74678E-04
        -0.16261E-03
        -0.14800E-03
        -0.14439E-03
        -0.17120E-03
         0.10834E-03
         0.84546E-04
        -0.11963E-04
         0.18723E-04
         0.20840E-03
         0.10335E-04
        -0.14349E-02
         0.21047E-02
        -0.44164E-02
        -0.47023E-02
        -0.44962E-02
        -0.24760E-02
         0.61493E-03
         0.17303E-02
         0.21378E-02
         0.38996E-02
         0.43745E-02
         0.17298E-02
         0.57206E-03
         0.48071E-03
        -0.20682E-03
        -0.21073E-02
        -0.38471E-02
        -0.50352E-02
        -0.32977E-02
         0.95949E-03
         0.18310E-02
         0.17654E-02
         0.31008E-02
         0.37597E-02
         0.24894E-02
         0.23427E-02
        -0.81530E-04
         0.10999E-04
        -0.18464E-04
        -0.14137E-04
         0.13705E-03
         0.53303E-04
         0.13904E-04
        -0.92156E-04
        -0.29695E-04
        -0.87468E-04
         0.59838E-05
        -0.14780E-03
        -0.28122E-03
         0.29551E-04
         0.37012E-03
        -0.59905E-04
         0.11998E-04
         0.52315E-05
         0.17204E-04
         0.50406E-05
         0.16049E-03
         0.10532E-03
        -0.60922E-04
         0.11912E-04
         0.31189E-04
        -0.45422E-05
         0.82318E-05
        -0.12759E-05
        -0.57492E-05
        -0.48241E-04
        -0.49710E-04
        -0.75334E-05
         0.19547E-04
         0.15768E-04
         0.30154E-04
        -0.60577E-04
        -0.13125E-03
         0.32502E-03
         0.55032E-04
         0.12540E-03
         0.32316E-03
        -0.74323E-04
        -0.16272E-03
        -0.14821E-03
        -0.14445E-03
        -0.17117E-03
         0.10836E-03
         0.84569E-04
        -0.11833E-04
         0.18657E-04
         0.20822E-03
         0.10112E-04
        -0.14330E-02
         0.21042E-02
        -0.44167E-02
        -0.47023E-02
        -0.44943E-02
        -0.24744E-02
         0.61530E-03
         0.17307E-02
         0.21356E-02
         0.38968E-02
         0.43732E-02
         0.17312E-02
         0.57207E-03
         0.48163E-03
        -0.20489E-03
        -0.21093E-02
        -0.38504E-02
        -0.50375E-02
        -0.32966E-02
         0.95970E-03
         0.18295E-02
         0.17647E-02
         0.30977E-02
         0.37547E-02
         0.24855E-02
         0.23385E-02
        -0.81695E-04
         0.11050E-04
        -0.18491E-04
        -0.14244E-04
         0.13694E-03
         0.53293E-04
         0.13995E-04
        -0.92014E-04
        -0.29770E-04
        -0.87616E-04
         0.58059E-05
        -0.14814E-03
        -0.28149E-03
         0.29501E-04
         0.37036E-03
        -0.59988E-04
         0.12134E-04
         0.52072E-05
         0.17209E-04
         0.49988E-05
         0.16089E-03
         0.10537E-03
        -0.61015E-04
         0.11897E-04
         0.31368E-04
        -0.45337E-05
         0.83587E-05
        -0.12526E-05
        -0.57046E-05
        -0.48339E-04
        -0.49779E-04
        -0.74849E-05
         0.19496E-04
         0.15800E-04
         0.29810E-04
        -0.60605E-04
        -0.13123E-03
         0.32602E-03
         0.55646E-04
         0.12594E-03
         0.32369E-03
        -0.73965E-04
        -0.16284E-03
        -0.14842E-03
        -0.14451E-03
        -0.17115E-03
         0.10838E-03
         0.84592E-04
        -0.11702E-04
         0.18592E-04
         0.20802E-03
         0.98882E-05
        -0.14311E-02
         0.21038E-02
        -0.44170E-02
        -0.47023E-02
        -0.44923E-02
        -0.24728E-02
         0.61565E-03
         0.17312E-02
         0.21334E-02
         0.38938E-02
         0.43719E-02
         0.17327E-02
         0.57205E-03
         0.48254E-03
        -0.20295E-03
        -0.21113E-02
        -0.38537E-02
        -0.50398E-02
        -0.32956E-02
         0.95991E-03
         0.18279E-02
         0.17640E-02
         0.30946E-02
         0.37497E-02
         0.24817E-02
         0.23343E-02
        -0.81862E-04
         0.11103E-04
        -0.18520E-04
        -0.14350E-04
         0.13684E-03
         0.53287E-04
         0.14086E-04
        -0.91872E-04
        -0.29843E-04
        -0.87760E-04
         0.56290E-05
        -0.14848E-03
        -0.28176E-03
         0.29448E-04
         0.37060E-03
        -0.60074E-04
         0.12271E-04
         0.51831E-05
         0.17214E-04
         0.49583E-05
         0.16128E-03
         0.10543E-03
        -0.61101E-04
         0.11884E-04
         0.31545E-04
        -0.45258E-05
         0.84821E-05
        -0.12281E-05
        -0.56597E-05
        -0.48435E-04
        -0.49849E-04
        -0.74374E-05
         0.19446E-04
         0.15833E-04
         0.29470E-04
        -0.60633E-04
        -0.13120E-03
         0.32701E-03
         0.56267E-04
         0.12646E-03
         0.32420E-03
        -0.73612E-04
        -0.16296E-03
        -0.14862E-03
        -0.14457E-03
        -0.17112E-03
         0.10841E-03
         0.84618E-04
        -0.11572E-04
         0.18525E-04
         0.20783E-03
         0.96670E-05
        -0.14292E-02
         0.21034E-02
        -0.44173E-02
        -0.47024E-02
        -0.44904E-02
        -0.24711E-02
         0.61599E-03
         0.17316E-02
         0.21312E-02
         0.38908E-02
         0.43706E-02
         0.17341E-02
         0.57200E-03
         0.48345E-03
        -0.20101E-03
        -0.21132E-02
        -0.38570E-02
        -0.50422E-02
        -0.32945E-02
         0.96015E-03
         0.18264E-02
         0.17633E-02
         0.30916E-02
         0.37448E-02
         0.24778E-02
         0.23301E-02
        -0.82895E-04
         0.11265E-04
        -0.18752E-04
        -0.14602E-04
         0.13823E-03
         0.53852E-04
         0.14326E-04
        -0.92761E-04
        -0.30226E-04
        -0.88873E-04
         0.55371E-05
        -0.15045E-03
        -0.28512E-03
         0.29737E-04
         0.37526E-03
        -0.60787E-04
         0.12532E-04
         0.52137E-05
         0.17399E-04
         0.49742E-05
         0.16338E-03
         0.10663E-03
        -0.61781E-04
         0.12004E-04
         0.32061E-04
        -0.45701E-05
         0.86940E-05
        -0.12167E-05
        -0.56901E-05
        -0.49071E-04
        -0.50448E-04
        -0.74821E-05
         0.19604E-04
         0.16034E-04
         0.29491E-04
        -0.61299E-04
        -0.13258E-03
         0.33179E-03
         0.57496E-04
         0.12841E-03
         0.32842E-03
        -0.74185E-04
        -0.16493E-03
        -0.15030E-03
        -0.14611E-03
        -0.17294E-03
         0.10959E-03
         0.85528E-04
        -0.11578E-04
         0.18659E-04
         0.20995E-03
         0.95521E-05
        -0.14469E-02
         0.21318E-02
        -0.44784E-02
        -0.47658E-02
        -0.45505E-02
        -0.25045E-02
         0.62543E-03
         0.17568E-02
         0.21599E-02
         0.39453E-02
         0.44326E-02
         0.17591E-02
         0.57912E-03
         0.49024E-03
        -0.20161E-03
        -0.21408E-02
        -0.39075E-02
        -0.51104E-02
        -0.33392E-02
         0.97397E-03
         0.18492E-02
         0.17852E-02
         0.31294E-02
         0.37892E-02
         0.25063E-02
         0.23563E-02
        -0.18898E-03
         0.25992E-04
        -0.42636E-04
        -0.33534E-04
         0.29331E-03
         0.11632E-03
         0.32968E-04
        -0.20988E-03
        -0.68546E-04
        -0.20035E-03
         0.12134E-04
        -0.30975E-03
        -0.60296E-03
         0.65529E-04
         0.78166E-03
        -0.13870E-03
         0.28662E-04
         0.11856E-04
         0.38726E-04
         0.11108E-04
         0.34468E-03
         0.23064E-03
        -0.13063E-03
         0.27104E-04
         0.73764E-04
        -0.10486E-04
         0.19649E-04
        -0.27572E-05
        -0.13144E-04
        -0.11265E-03
        -0.11520E-03
        -0.16995E-04
         0.44807E-04
         0.36725E-04
         0.59633E-04
        -0.13237E-03
        -0.28644E-03
         0.72237E-03
         0.12911E-03
         0.28945E-03
         0.71974E-03
        -0.16438E-03
        -0.36526E-03
        -0.32243E-03
        -0.31164E-03
        -0.34923E-03
         0.23241E-03
         0.18572E-03
        -0.25207E-04
         0.40507E-04
         0.43551E-03
         0.20194E-04
        -0.23688E-02
         0.34782E-02
        -0.73182E-02
        -0.78213E-02
        -0.74655E-02
        -0.41376E-02
         0.10592E-02
         0.30221E-02
         0.37006E-02
         0.66891E-02
         0.75242E-02
         0.29671E-02
         0.99319E-03
         0.84546E-03
        -0.33632E-03
        -0.35152E-02
        -0.63796E-02
        -0.82794E-02
        -0.54182E-02
         0.15857E-02
         0.30605E-02
         0.29769E-02
         0.51874E-02
         0.63218E-02
         0.41527E-02
         0.38750E-02
  
SCALARS                      strain_eq  double 1
LOOKUP_TABLE default
         0.19067E+02
         0.18827E+02
         0.18975E+02
         0.19252E+02
         0.36955E-08
         0.40975E-08
         0.39810E-08
         0.35821E-08
         0.18780E+02
         0.18883E+02
         0.40300E-08
         0.38541E-08
         0.18477E+02
         0.18465E+02
         0.44092E-08
         0.41989E-08
         0.19212E+02
         0.18480E+02
         0.32892E-08
         0.36994E-08
         0.18215E+02
         0.17991E+02
         0.18320E+02
         0.45412E-08
         0.43319E-08
         0.43087E-08
         0.18011E+02
         0.17697E+02
         0.43986E-08
         0.39950E-08
         0.19199E+02
         0.18882E+02
         0.19505E+02
         0.35793E-08
         0.33612E-08
         0.32196E-08
         0.19011E+02
         0.18610E+02
         0.39022E-08
         0.35575E-08
         0.18845E+02
         0.18528E+02
         0.36297E-08
         0.31314E-08
         0.19107E+02
         0.19233E+02
         0.39195E-08
         0.40646E-08
         0.18293E+02
         0.35128E-08
         0.19209E+02
         0.40845E-08
         0.17929E+02
         0.38404E-08
         0.17834E+02
         0.35448E-08
         0.17825E+02
         0.18175E+02
         0.35922E-08
         0.35323E-08
         0.19192E+02
         0.19061E+02
         0.36244E-08
         0.41028E-08
         0.19268E+02
         0.34788E-08
         0.19119E+02
         0.38101E-08
         0.18672E+02
         0.18673E+02
         0.40755E-08
         0.40729E-08
         0.18598E+02
         0.41216E-08
         0.17584E+02
         0.32946E-08
         0.17525E+02
         0.30665E-08
         0.17537E+02
         0.31945E-08
         0.17645E+02
         0.17834E+02
         0.30898E-08
         0.32093E-08
         0.18165E+02
         0.30224E-08
         0.19092E+02
         0.40581E-08
         0.18926E+02
         0.41325E-08
         0.18765E+02
         0.18751E+02
         0.41286E-08
         0.40500E-08
         0.18852E+02
         0.36344E-08
         0.18909E+02
         0.35585E-08
         0.18843E+02
         0.38490E-08
         0.18786E+02
         0.18867E+02
         0.39570E-08
         0.39462E-08
         0.18338E+02
         0.18432E+02
         0.37626E-08
         0.36318E-08
         0.18256E+02
         0.36540E-08
         0.18366E+02
         0.35675E-08
         0.18227E+02
         0.35632E-08
         0.17858E+02
         0.33406E-08
         0.17471E+02
         0.28267E-08
         0.17262E+02
         0.23885E-08
         0.17243E+02
         0.23165E-08
         0.17256E+02
         0.24681E-08
         0.17493E+02
         0.25461E-08
         0.17851E+02
         0.23851E-08
         0.18278E+02
         0.21768E-08
         0.18582E+02
         0.22529E-08
         0.18870E+02
         0.26705E-08
         0.19055E+02
         0.31176E-08
         0.19024E+02
         0.33227E-08
         0.18671E+02
         0.35479E-08
         0.18444E+02
         0.37285E-08
         0.18262E+02
         0.34788E-08
         0.18371E+02
         0.30628E-08
         0.18481E+02
         0.30568E-08
         0.18416E+02
         0.33637E-08
         0.18472E+02
         0.35694E-08
         0.18522E+02
         0.34538E-08
         0.18598E+02
         0.33768E-08
         0.31705E+00
         0.30552E+00
         0.30710E+00
         0.32174E+00
         0.29400E+00
         0.30850E+00
         0.29026E+00
         0.29994E+00
         0.31952E+00
         0.30755E+00
         0.27957E+00
         0.27649E+00
         0.28524E+00
         0.28566E+00
         0.28025E+00
         0.32108E+00
         0.31841E+00
         0.32577E+00
         0.30423E+00
         0.30832E+00
         0.30263E+00
         0.30655E+00
         0.29927E+00
         0.30101E+00
         0.30800E+00
         0.30748E+00
         0.29544E+00
         0.29655E+00
         0.28729E+00
         0.30120E+00
         0.31976E+00
         0.30534E+00
         0.31965E+00
         0.31030E+00
         0.27413E+00
         0.28619E+00
         0.29183E+00
         0.28533E+00
         0.28439E+00
         0.27318E+00
         0.26495E+00
         0.28493E+00
         0.30293E+00
         0.30048E+00
         0.29131E+00
         0.27462E+00
         0.28886E+00
         0.30352E+00
         0.30251E+00
         0.29119E+00
         0.27926E+00
         0.29532E+00
         0.24529E+00
         0.26168E+00
         0.25921E+00
         0.26308E+00
         0.26240E+00
         0.25410E+00
         0.24485E+00
         0.24143E+00
         0.24262E+00
         0.24185E+00
         0.23776E+00
         0.26135E+00
         0.26927E+00
         0.27227E+00
         0.27789E+00
         0.28214E+00
         0.28214E+00
         0.27537E+00
         0.25098E+00
         0.25709E+00
         0.26524E+00
         0.26495E+00
         0.26354E+00
         0.25538E+00
         0.26731E+00
         0.27170E+00
         0.26255E-01
         0.15776E-01
         0.14880E-01
         0.10204E-01
         0.27265E-01
         0.18852E-01
         0.83212E-02
         0.25822E-01
         0.16176E-01
         0.24332E-01
         0.11864E-01
         0.51119E-01
         0.38818E-01
         0.19415E-01
         0.53538E-01
         0.19077E-01
         0.96649E-02
         0.61663E-02
         0.12846E-01
         0.69545E-02
         0.40200E-01
         0.37715E-01
         0.36729E-01
         0.95584E-02
         0.15702E-01
         0.49929E-02
         0.18317E-01
         0.29752E-02
         0.67089E-02
         0.17032E-01
         0.16297E-01
         0.86686E-02
         0.10556E-01
         0.91320E-02
         0.35245E-01
         0.21091E-01
         0.27301E-01
         0.43662E-01
         0.33587E-01
         0.31261E-01
         0.44398E-01
         0.40248E-01
         0.40516E-01
         0.31366E-01
         0.28011E-01
         0.38317E-01
         0.25120E-01
         0.21360E-01
         0.17614E-01
         0.20800E-01
         0.34009E-01
         0.23350E-01
         0.14925E+00
         0.15282E+00
         0.15974E+00
         0.15858E+00
         0.16904E+00
         0.18148E+00
         0.17415E+00
         0.15488E+00
         0.15093E+00
         0.16152E+00
         0.15830E+00
         0.15615E+00
         0.12910E+00
         0.12273E+00
         0.13482E+00
         0.14440E+00
         0.14984E+00
         0.16362E+00
         0.15740E+00
         0.16165E+00
         0.14557E+00
         0.13822E+00
         0.14740E+00
         0.14410E+00
         0.14828E+00
         0.14704E+00
         0.26275E-01
         0.15779E-01
         0.14889E-01
         0.10219E-01
         0.27253E-01
         0.18841E-01
         0.83464E-02
         0.25847E-01
         0.16203E-01
         0.24403E-01
         0.11863E-01
         0.51117E-01
         0.38834E-01
         0.19369E-01
         0.53593E-01
         0.19093E-01
         0.96920E-02
         0.61507E-02
         0.12853E-01
         0.69392E-02
         0.40203E-01
         0.37713E-01
         0.36727E-01
         0.95582E-02
         0.15770E-01
         0.49918E-02
         0.18323E-01
         0.29437E-02
         0.67409E-02
         0.17062E-01
         0.16313E-01
         0.86658E-02
         0.10538E-01
         0.91403E-02
         0.35261E-01
         0.21085E-01
         0.27295E-01
         0.43730E-01
         0.33662E-01
         0.31304E-01
         0.44428E-01
         0.40269E-01
         0.40521E-01
         0.31365E-01
         0.28005E-01
         0.38315E-01
         0.25120E-01
         0.21358E-01
         0.17589E-01
         0.20771E-01
         0.33990E-01
         0.23314E-01
         0.14920E+00
         0.15279E+00
         0.15974E+00
         0.15858E+00
         0.16901E+00
         0.18142E+00
         0.17408E+00
         0.15483E+00
         0.15089E+00
         0.16147E+00
         0.15827E+00
         0.15615E+00
         0.12908E+00
         0.12272E+00
         0.13483E+00
         0.14443E+00
         0.14988E+00
         0.16366E+00
         0.15739E+00
         0.16165E+00
         0.14556E+00
         0.13822E+00
         0.14735E+00
         0.14401E+00
         0.14820E+00
         0.14696E+00
         0.26295E-01
         0.15783E-01
         0.14897E-01
         0.10233E-01
         0.27241E-01
         0.18830E-01
         0.83717E-02
         0.25872E-01
         0.16232E-01
         0.24474E-01
         0.11863E-01
         0.51115E-01
         0.38849E-01
         0.19324E-01
         0.53648E-01
         0.19108E-01
         0.97195E-02
         0.61350E-02
         0.12861E-01
         0.69241E-02
         0.40207E-01
         0.37710E-01
         0.36725E-01
         0.95577E-02
         0.15837E-01
         0.49903E-02
         0.18329E-01
         0.29133E-02
         0.67726E-02
         0.17091E-01
         0.16329E-01
         0.86630E-02
         0.10520E-01
         0.91485E-02
         0.35276E-01
         0.21080E-01
         0.27288E-01
         0.43798E-01
         0.33738E-01
         0.31348E-01
         0.44458E-01
         0.40290E-01
         0.40526E-01
         0.31366E-01
         0.28000E-01
         0.38314E-01
         0.25120E-01
         0.21357E-01
         0.17564E-01
         0.20743E-01
         0.33971E-01
         0.23278E-01
         0.14915E+00
         0.15275E+00
         0.15974E+00
         0.15858E+00
         0.16898E+00
         0.18136E+00
         0.17401E+00
         0.15479E+00
         0.15085E+00
         0.16142E+00
         0.15825E+00
         0.15616E+00
         0.12907E+00
         0.12272E+00
         0.13485E+00
         0.14447E+00
         0.14992E+00
         0.16369E+00
         0.15738E+00
         0.16164E+00
         0.14554E+00
         0.13821E+00
         0.14730E+00
         0.14391E+00
         0.14812E+00
         0.14688E+00
         0.26315E-01
         0.15786E-01
         0.14906E-01
         0.10248E-01
         0.27228E-01
         0.18820E-01
         0.83973E-02
         0.25896E-01
         0.16259E-01
         0.24544E-01
         0.11863E-01
         0.51114E-01
         0.38865E-01
         0.19279E-01
         0.53704E-01
         0.19125E-01
         0.97481E-02
         0.61193E-02
         0.12869E-01
         0.69084E-02
         0.40212E-01
         0.37709E-01
         0.36725E-01
         0.95568E-02
         0.15902E-01
         0.49881E-02
         0.18334E-01
         0.28866E-02
         0.68025E-02
         0.17117E-01
         0.16345E-01
         0.86608E-02
         0.10502E-01
         0.91569E-02
         0.35292E-01
         0.21074E-01
         0.27282E-01
         0.43867E-01
         0.33815E-01
         0.31394E-01
         0.44490E-01
         0.40313E-01
         0.40534E-01
         0.31369E-01
         0.27997E-01
         0.38313E-01
         0.25122E-01
         0.21356E-01
         0.17539E-01
         0.20714E-01
         0.33952E-01
         0.23242E-01
         0.14909E+00
         0.15271E+00
         0.15974E+00
         0.15858E+00
         0.16895E+00
         0.18130E+00
         0.17394E+00
         0.15475E+00
         0.15081E+00
         0.16137E+00
         0.15822E+00
         0.15617E+00
         0.12906E+00
         0.12271E+00
         0.13486E+00
         0.14451E+00
         0.14996E+00
         0.16373E+00
         0.15737E+00
         0.16163E+00
         0.14553E+00
         0.13820E+00
         0.14725E+00
         0.14382E+00
         0.14803E+00
         0.14680E+00
         0.26334E-01
         0.15790E-01
         0.14914E-01
         0.10263E-01
         0.27216E-01
         0.18809E-01
         0.84227E-02
         0.25921E-01
         0.16287E-01
         0.24612E-01
         0.11863E-01
         0.51112E-01
         0.38880E-01
         0.19233E-01
         0.53760E-01
         0.19144E-01
         0.97778E-02
         0.61034E-02
         0.12877E-01
         0.68922E-02
         0.40219E-01
         0.37708E-01
         0.36727E-01
         0.95553E-02
         0.15967E-01
         0.49846E-02
         0.18339E-01
         0.28632E-02
         0.68305E-02
         0.17141E-01
         0.16363E-01
         0.86589E-02
         0.10484E-01
         0.91651E-02
         0.35307E-01
         0.21068E-01
         0.27276E-01
         0.43935E-01
         0.33893E-01
         0.31442E-01
         0.44524E-01
         0.40336E-01
         0.40543E-01
         0.31376E-01
         0.27996E-01
         0.38315E-01
         0.25125E-01
         0.21355E-01
         0.17514E-01
         0.20685E-01
         0.33934E-01
         0.23206E-01
         0.14904E+00
         0.15268E+00
         0.15974E+00
         0.15859E+00
         0.16893E+00
         0.18124E+00
         0.17386E+00
         0.15471E+00
         0.15078E+00
         0.16132E+00
         0.15819E+00
         0.15618E+00
         0.12906E+00
         0.12271E+00
         0.13488E+00
         0.14455E+00
         0.15001E+00
         0.16377E+00
         0.15736E+00
         0.16162E+00
         0.14551E+00
         0.13819E+00
         0.14720E+00
         0.14372E+00
         0.14795E+00
         0.14672E+00
         0.26353E-01
         0.15793E-01
         0.14922E-01
         0.10277E-01
         0.27204E-01
         0.18798E-01
         0.84474E-02
         0.25944E-01
         0.16315E-01
         0.24678E-01
         0.11865E-01
         0.51111E-01
         0.38896E-01
         0.19188E-01
         0.53815E-01
         0.19163E-01
         0.98076E-02
         0.60876E-02
         0.12886E-01
         0.68766E-02
         0.40226E-01
         0.37708E-01
         0.36731E-01
         0.95538E-02
         0.16029E-01
         0.49809E-02
         0.18343E-01
         0.28417E-02
         0.68584E-02
         0.17164E-01
         0.16379E-01
         0.86564E-02
         0.10466E-01
         0.91734E-02
         0.35324E-01
         0.21063E-01
         0.27270E-01
         0.44004E-01
         0.33972E-01
         0.31492E-01
         0.44558E-01
         0.40360E-01
         0.40553E-01
         0.31383E-01
         0.27997E-01
         0.38319E-01
         0.25129E-01
         0.21356E-01
         0.17491E-01
         0.20657E-01
         0.33915E-01
         0.23171E-01
         0.14898E+00
         0.15264E+00
         0.15973E+00
         0.15859E+00
         0.16890E+00
         0.18117E+00
         0.17379E+00
         0.15467E+00
         0.15074E+00
         0.16127E+00
         0.15817E+00
         0.15619E+00
         0.12905E+00
         0.12271E+00
         0.13490E+00
         0.14460E+00
         0.15007E+00
         0.16381E+00
         0.15735E+00
         0.16161E+00
         0.14549E+00
         0.13818E+00
         0.14715E+00
         0.14363E+00
         0.14787E+00
         0.14665E+00
         0.26370E-01
         0.15793E-01
         0.14930E-01
         0.10292E-01
         0.27192E-01
         0.18788E-01
         0.84712E-02
         0.25963E-01
         0.16344E-01
         0.24742E-01
         0.11868E-01
         0.51111E-01
         0.38913E-01
         0.19143E-01
         0.53871E-01
         0.19182E-01
         0.98369E-02
         0.60716E-02
         0.12895E-01
         0.68611E-02
         0.40233E-01
         0.37708E-01
         0.36735E-01
         0.95527E-02
         0.16090E-01
         0.49764E-02
         0.18348E-01
         0.28208E-02
         0.68867E-02
         0.17186E-01
         0.16395E-01
         0.86522E-02
         0.10448E-01
         0.91814E-02
         0.35340E-01
         0.21059E-01
         0.27266E-01
         0.44074E-01
         0.34052E-01
         0.31541E-01
         0.44594E-01
         0.40384E-01
         0.40563E-01
         0.31391E-01
         0.27999E-01
         0.38324E-01
         0.25134E-01
         0.21358E-01
         0.17471E-01
         0.20630E-01
         0.33898E-01
         0.23136E-01
         0.14893E+00
         0.15260E+00
         0.15973E+00
         0.15859E+00
         0.16887E+00
         0.18111E+00
         0.17372E+00
         0.15463E+00
         0.15070E+00
         0.16123E+00
         0.15814E+00
         0.15620E+00
         0.12905E+00
         0.12270E+00
         0.13493E+00
         0.14465E+00
         0.15012E+00
         0.16385E+00
         0.15734E+00
         0.16160E+00
         0.14548E+00
         0.13817E+00
         0.14710E+00
         0.14354E+00
         0.14779E+00
         0.14657E+00
         0.26387E-01
         0.15793E-01
         0.14938E-01
         0.10307E-01
         0.27181E-01
         0.18777E-01
         0.84943E-02
         0.25981E-01
         0.16372E-01
         0.24804E-01
         0.11872E-01
         0.51111E-01
         0.38931E-01
         0.19098E-01
         0.53927E-01
         0.19201E-01
         0.98659E-02
         0.60556E-02
         0.12903E-01
         0.68463E-02
         0.40239E-01
         0.37708E-01
         0.36739E-01
         0.95514E-02
         0.16150E-01
         0.49716E-02
         0.18353E-01
         0.28007E-02
         0.69158E-02
         0.17209E-01
         0.16410E-01
         0.86470E-02
         0.10430E-01
         0.91894E-02
         0.35358E-01
         0.21056E-01
         0.27262E-01
         0.44144E-01
         0.34132E-01
         0.31591E-01
         0.44629E-01
         0.40409E-01
         0.40574E-01
         0.31400E-01
         0.28001E-01
         0.38330E-01
         0.25140E-01
         0.21362E-01
         0.17452E-01
         0.20604E-01
         0.33882E-01
         0.23101E-01
         0.14888E+00
         0.15257E+00
         0.15973E+00
         0.15859E+00
         0.16884E+00
         0.18105E+00
         0.17364E+00
         0.15459E+00
         0.15066E+00
         0.16118E+00
         0.15812E+00
         0.15621E+00
         0.12904E+00
         0.12270E+00
         0.13495E+00
         0.14470E+00
         0.15017E+00
         0.16389E+00
         0.15733E+00
         0.16159E+00
         0.14547E+00
         0.13817E+00
         0.14705E+00
         0.14344E+00
         0.14770E+00
         0.14649E+00
         0.26403E-01
         0.15793E-01
         0.14945E-01
         0.10322E-01
         0.27169E-01
         0.18766E-01
         0.85174E-02
         0.25998E-01
         0.16401E-01
         0.24866E-01
         0.11876E-01
         0.51112E-01
         0.38948E-01
         0.19054E-01
         0.53984E-01
         0.19220E-01
         0.98950E-02
         0.60396E-02
         0.12912E-01
         0.68310E-02
         0.40246E-01
         0.37708E-01
         0.36743E-01
         0.95505E-02
         0.16209E-01
         0.49669E-02
         0.18358E-01
         0.27811E-02
         0.69452E-02
         0.17232E-01
         0.16425E-01
         0.86419E-02
         0.10412E-01
         0.91973E-02
         0.35375E-01
         0.21052E-01
         0.27258E-01
         0.44214E-01
         0.34213E-01
         0.31640E-01
         0.44665E-01
         0.40433E-01
         0.40585E-01
         0.31409E-01
         0.28004E-01
         0.38336E-01
         0.25146E-01
         0.21365E-01
         0.17434E-01
         0.20578E-01
         0.33867E-01
         0.23067E-01
         0.14882E+00
         0.15253E+00
         0.15973E+00
         0.15859E+00
         0.16882E+00
         0.18099E+00
         0.17357E+00
         0.15454E+00
         0.15062E+00
         0.16113E+00
         0.15809E+00
         0.15622E+00
         0.12904E+00
         0.12270E+00
         0.13497E+00
         0.14475E+00
         0.15022E+00
         0.16393E+00
         0.15732E+00
         0.16158E+00
         0.14546E+00
         0.13816E+00
         0.14700E+00
         0.14335E+00
         0.14762E+00
         0.14641E+00
         0.26420E-01
         0.15793E-01
         0.14953E-01
         0.10337E-01
         0.27157E-01
         0.18755E-01
         0.85406E-02
         0.26016E-01
         0.16430E-01
         0.24927E-01
         0.11880E-01
         0.51112E-01
         0.38966E-01
         0.19010E-01
         0.54040E-01
         0.19239E-01
         0.99241E-02
         0.60237E-02
         0.12920E-01
         0.68161E-02
         0.40253E-01
         0.37708E-01
         0.36747E-01
         0.95496E-02
         0.16269E-01
         0.49623E-02
         0.18363E-01
         0.27622E-02
         0.69748E-02
         0.17255E-01
         0.16440E-01
         0.86367E-02
         0.10394E-01
         0.92053E-02
         0.35392E-01
         0.21050E-01
         0.27255E-01
         0.44284E-01
         0.34293E-01
         0.31690E-01
         0.44700E-01
         0.40458E-01
         0.40595E-01
         0.31418E-01
         0.28007E-01
         0.38342E-01
         0.25152E-01
         0.21369E-01
         0.17415E-01
         0.20552E-01
         0.33850E-01
         0.23032E-01
         0.14877E+00
         0.15250E+00
         0.15973E+00
         0.15859E+00
         0.16879E+00
         0.18093E+00
         0.17350E+00
         0.15450E+00
         0.15059E+00
         0.16108E+00
         0.15807E+00
         0.15623E+00
         0.12903E+00
         0.12270E+00
         0.13499E+00
         0.14479E+00
         0.15027E+00
         0.16396E+00
         0.15731E+00
         0.16157E+00
         0.14544E+00
         0.13815E+00
         0.14695E+00
         0.14326E+00
         0.14754E+00
         0.14633E+00
         0.26436E-01
         0.15793E-01
         0.14961E-01
         0.10352E-01
         0.27146E-01
         0.18745E-01
         0.85641E-02
         0.26034E-01
         0.16459E-01
         0.24989E-01
         0.11885E-01
         0.51112E-01
         0.38984E-01
         0.18965E-01
         0.54096E-01
         0.19258E-01
         0.99533E-02
         0.60079E-02
         0.12929E-01
         0.68007E-02
         0.40260E-01
         0.37708E-01
         0.36751E-01
         0.95487E-02
         0.16328E-01
         0.49576E-02
         0.18369E-01
         0.27438E-02
         0.70046E-02
         0.17278E-01
         0.16455E-01
         0.86316E-02
         0.10376E-01
         0.92132E-02
         0.35409E-01
         0.21046E-01
         0.27251E-01
         0.44354E-01
         0.34374E-01
         0.31739E-01
         0.44736E-01
         0.40482E-01
         0.40606E-01
         0.31427E-01
         0.28010E-01
         0.38348E-01
         0.25159E-01
         0.21372E-01
         0.17397E-01
         0.20526E-01
         0.33835E-01
         0.22998E-01
         0.14871E+00
         0.15246E+00
         0.15972E+00
         0.15859E+00
         0.16876E+00
         0.18087E+00
         0.17342E+00
         0.15446E+00
         0.15055E+00
         0.16103E+00
         0.15804E+00
         0.15624E+00
         0.12903E+00
         0.12269E+00
         0.13501E+00
         0.14484E+00
         0.15032E+00
         0.16400E+00
         0.15730E+00
         0.16156E+00
         0.14543E+00
         0.13815E+00
         0.14690E+00
         0.14316E+00
         0.14746E+00
         0.14626E+00
         0.26452E-01
         0.15793E-01
         0.14968E-01
         0.10367E-01
         0.27135E-01
         0.18734E-01
         0.85873E-02
         0.26052E-01
         0.16488E-01
         0.25051E-01
         0.11889E-01
         0.51112E-01
         0.39001E-01
         0.18921E-01
         0.54152E-01
         0.19277E-01
         0.99825E-02
         0.59919E-02
         0.12937E-01
         0.67859E-02
         0.40267E-01
         0.37708E-01
         0.36755E-01
         0.95480E-02
         0.16388E-01
         0.49533E-02
         0.18374E-01
         0.27262E-02
         0.70344E-02
         0.17300E-01
         0.16470E-01
         0.86265E-02
         0.10359E-01
         0.92213E-02
         0.35427E-01
         0.21043E-01
         0.27247E-01
         0.44425E-01
         0.34454E-01
         0.31789E-01
         0.44771E-01
         0.40506E-01
         0.40616E-01
         0.31436E-01
         0.28013E-01
         0.38355E-01
         0.25165E-01
         0.21376E-01
         0.17378E-01
         0.20500E-01
         0.33818E-01
         0.22963E-01
         0.14866E+00
         0.15243E+00
         0.15972E+00
         0.15859E+00
         0.16873E+00
         0.18080E+00
         0.17335E+00
         0.15442E+00
         0.15051E+00
         0.16098E+00
         0.15801E+00
         0.15625E+00
         0.12902E+00
         0.12269E+00
         0.13503E+00
         0.14489E+00
         0.15038E+00
         0.16404E+00
         0.15729E+00
         0.16155E+00
         0.14542E+00
         0.13814E+00
         0.14684E+00
         0.14307E+00
         0.14737E+00
         0.14618E+00
         0.26468E-01
         0.15792E-01
         0.14976E-01
         0.10382E-01
         0.27123E-01
         0.18724E-01
         0.86106E-02
         0.26069E-01
         0.16517E-01
         0.25113E-01
         0.11894E-01
         0.51113E-01
         0.39019E-01
         0.18877E-01
         0.54209E-01
         0.19296E-01
         0.10012E-01
         0.59758E-02
         0.12946E-01
         0.67707E-02
         0.40274E-01
         0.37708E-01
         0.36759E-01
         0.95472E-02
         0.16447E-01
         0.49487E-02
         0.18379E-01
         0.27090E-02
         0.70648E-02
         0.17323E-01
         0.16485E-01
         0.86213E-02
         0.10341E-01
         0.92292E-02
         0.35444E-01
         0.21040E-01
         0.27244E-01
         0.44495E-01
         0.34535E-01
         0.31839E-01
         0.44807E-01
         0.40531E-01
         0.40627E-01
         0.31445E-01
         0.28016E-01
         0.38360E-01
         0.25171E-01
         0.21379E-01
         0.17360E-01
         0.20474E-01
         0.33802E-01
         0.22928E-01
         0.14860E+00
         0.15239E+00
         0.15972E+00
         0.15859E+00
         0.16870E+00
         0.18074E+00
         0.17327E+00
         0.15438E+00
         0.15047E+00
         0.16092E+00
         0.15799E+00
         0.15626E+00
         0.12902E+00
         0.12269E+00
         0.13505E+00
         0.14494E+00
         0.15043E+00
         0.16408E+00
         0.15728E+00
         0.16154E+00
         0.14540E+00
         0.13814E+00
         0.14679E+00
         0.14297E+00
         0.14729E+00
         0.14610E+00
         0.26484E-01
         0.15792E-01
         0.14983E-01
         0.10397E-01
         0.27112E-01
         0.18713E-01
         0.86342E-02
         0.26087E-01
         0.16546E-01
         0.25174E-01
         0.11899E-01
         0.51113E-01
         0.39037E-01
         0.18833E-01
         0.54265E-01
         0.19315E-01
         0.10041E-01
         0.59599E-02
         0.12954E-01
         0.67559E-02
         0.40280E-01
         0.37707E-01
         0.36763E-01
         0.95465E-02
         0.16506E-01
         0.49441E-02
         0.18384E-01
         0.26926E-02
         0.70955E-02
         0.17345E-01
         0.16500E-01
         0.86163E-02
         0.10323E-01
         0.92372E-02
         0.35462E-01
         0.21037E-01
         0.27240E-01
         0.44565E-01
         0.34616E-01
         0.31888E-01
         0.44842E-01
         0.40555E-01
         0.40637E-01
         0.31454E-01
         0.28019E-01
         0.38366E-01
         0.25177E-01
         0.21382E-01
         0.17341E-01
         0.20448E-01
         0.33786E-01
         0.22894E-01
         0.14855E+00
         0.15235E+00
         0.15972E+00
         0.15859E+00
         0.16868E+00
         0.18068E+00
         0.17320E+00
         0.15433E+00
         0.15044E+00
         0.16087E+00
         0.15796E+00
         0.15627E+00
         0.12901E+00
         0.12269E+00
         0.13507E+00
         0.14499E+00
         0.15048E+00
         0.16411E+00
         0.15727E+00
         0.16153E+00
         0.14539E+00
         0.13813E+00
         0.14674E+00
         0.14288E+00
         0.14721E+00
         0.14602E+00
         0.26500E-01
         0.15792E-01
         0.14991E-01
         0.10412E-01
         0.27100E-01
         0.18702E-01
         0.86577E-02
         0.26105E-01
         0.16575E-01
         0.25236E-01
         0.11905E-01
         0.51114E-01
         0.39054E-01
         0.18789E-01
         0.54322E-01
         0.19334E-01
         0.10071E-01
         0.59441E-02
         0.12963E-01
         0.67407E-02
         0.40288E-01
         0.37707E-01
         0.36766E-01
         0.95457E-02
         0.16566E-01
         0.49397E-02
         0.18390E-01
         0.26766E-02
         0.71265E-02
         0.17368E-01
         0.16515E-01
         0.86110E-02
         0.10306E-01
         0.92452E-02
         0.35479E-01
         0.21034E-01
         0.27236E-01
         0.44636E-01
         0.34697E-01
         0.31937E-01
         0.44878E-01
         0.40579E-01
         0.40647E-01
         0.31462E-01
         0.28022E-01
         0.38373E-01
         0.25183E-01
         0.21386E-01
         0.17323E-01
         0.20422E-01
         0.33770E-01
         0.22859E-01
         0.14850E+00
         0.15232E+00
         0.15971E+00
         0.15859E+00
         0.16865E+00
         0.18062E+00
         0.17312E+00
         0.15429E+00
         0.15040E+00
         0.16082E+00
         0.15794E+00
         0.15628E+00
         0.12901E+00
         0.12269E+00
         0.13509E+00
         0.14503E+00
         0.15053E+00
         0.16415E+00
         0.15726E+00
         0.16152E+00
         0.14538E+00
         0.13812E+00
         0.14669E+00
         0.14279E+00
         0.14713E+00
         0.14595E+00
         0.26516E-01
         0.15792E-01
         0.14998E-01
         0.10427E-01
         0.27089E-01
         0.18692E-01
         0.86811E-02
         0.26122E-01
         0.16604E-01
         0.25297E-01
         0.11910E-01
         0.51114E-01
         0.39072E-01
         0.18745E-01
         0.54378E-01
         0.19352E-01
         0.10100E-01
         0.59283E-02
         0.12971E-01
         0.67259E-02
         0.40294E-01
         0.37707E-01
         0.36770E-01
         0.95451E-02
         0.16625E-01
         0.49352E-02
         0.18395E-01
         0.26612E-02
         0.71577E-02
         0.17391E-01
         0.16530E-01
         0.86060E-02
         0.10288E-01
         0.92534E-02
         0.35497E-01
         0.21030E-01
         0.27233E-01
         0.44707E-01
         0.34778E-01
         0.31986E-01
         0.44913E-01
         0.40604E-01
         0.40658E-01
         0.31471E-01
         0.28025E-01
         0.38379E-01
         0.25190E-01
         0.21390E-01
         0.17305E-01
         0.20396E-01
         0.33754E-01
         0.22825E-01
         0.14844E+00
         0.15228E+00
         0.15971E+00
         0.15859E+00
         0.16862E+00
         0.18056E+00
         0.17305E+00
         0.15425E+00
         0.15036E+00
         0.16077E+00
         0.15791E+00
         0.15629E+00
         0.12900E+00
         0.12268E+00
         0.13511E+00
         0.14508E+00
         0.15058E+00
         0.16419E+00
         0.15725E+00
         0.16151E+00
         0.14536E+00
         0.13812E+00
         0.14664E+00
         0.14269E+00
         0.14705E+00
         0.14587E+00
         0.26532E-01
         0.15792E-01
         0.15006E-01
         0.10442E-01
         0.27078E-01
         0.18681E-01
         0.87048E-02
         0.26140E-01
         0.16633E-01
         0.25359E-01
         0.11916E-01
         0.51114E-01
         0.39090E-01
         0.18700E-01
         0.54435E-01
         0.19372E-01
         0.10130E-01
         0.59125E-02
         0.12980E-01
         0.67109E-02
         0.40301E-01
         0.37707E-01
         0.36774E-01
         0.95445E-02
         0.16684E-01
         0.49307E-02
         0.18399E-01
         0.26461E-02
         0.71887E-02
         0.17413E-01
         0.16545E-01
         0.86011E-02
         0.10271E-01
         0.92616E-02
         0.35515E-01
         0.21027E-01
         0.27229E-01
         0.44777E-01
         0.34859E-01
         0.32035E-01
         0.44947E-01
         0.40628E-01
         0.40668E-01
         0.31480E-01
         0.28028E-01
         0.38385E-01
         0.25196E-01
         0.21393E-01
         0.17286E-01
         0.20369E-01
         0.33738E-01
         0.22791E-01
         0.14839E+00
         0.15225E+00
         0.15971E+00
         0.15859E+00
         0.16859E+00
         0.18049E+00
         0.17297E+00
         0.15421E+00
         0.15032E+00
         0.16072E+00
         0.15789E+00
         0.15630E+00
         0.12900E+00
         0.12268E+00
         0.13513E+00
         0.14513E+00
         0.15063E+00
         0.16423E+00
         0.15724E+00
         0.16150E+00
         0.14535E+00
         0.13811E+00
         0.14659E+00
         0.14260E+00
         0.14696E+00
         0.14579E+00
         0.26548E-01
         0.15792E-01
         0.15013E-01
         0.10457E-01
         0.27066E-01
         0.18670E-01
         0.87284E-02
         0.26157E-01
         0.16663E-01
         0.25420E-01
         0.11921E-01
         0.51115E-01
         0.39107E-01
         0.18656E-01
         0.54491E-01
         0.19390E-01
         0.10159E-01
         0.58965E-02
         0.12988E-01
         0.66965E-02
         0.40308E-01
         0.37707E-01
         0.36779E-01
         0.95437E-02
         0.16743E-01
         0.49266E-02
         0.18403E-01
         0.26310E-02
         0.72204E-02
         0.17434E-01
         0.16560E-01
         0.85959E-02
         0.10253E-01
         0.92697E-02
         0.35532E-01
         0.21025E-01
         0.27225E-01
         0.44848E-01
         0.34940E-01
         0.32081E-01
         0.44980E-01
         0.40649E-01
         0.40677E-01
         0.31489E-01
         0.28031E-01
         0.38392E-01
         0.25202E-01
         0.21397E-01
         0.17268E-01
         0.20343E-01
         0.33722E-01
         0.22756E-01
         0.14833E+00
         0.15221E+00
         0.15971E+00
         0.15859E+00
         0.16857E+00
         0.18043E+00
         0.17290E+00
         0.15417E+00
         0.15029E+00
         0.16067E+00
         0.15786E+00
         0.15632E+00
         0.12900E+00
         0.12268E+00
         0.13515E+00
         0.14518E+00
         0.15069E+00
         0.16427E+00
         0.15723E+00
         0.16149E+00
         0.14534E+00
         0.13810E+00
         0.14654E+00
         0.14251E+00
         0.14688E+00
         0.14571E+00
         0.26564E-01
         0.15792E-01
         0.15021E-01
         0.10473E-01
         0.27055E-01
         0.18660E-01
         0.87520E-02
         0.26174E-01
         0.16692E-01
         0.25480E-01
         0.11927E-01
         0.51115E-01
         0.39125E-01
         0.18611E-01
         0.54547E-01
         0.19409E-01
         0.10189E-01
         0.58806E-02
         0.12997E-01
         0.66821E-02
         0.40315E-01
         0.37706E-01
         0.36783E-01
         0.95431E-02
         0.16801E-01
         0.49222E-02
         0.18405E-01
         0.26157E-02
         0.72523E-02
         0.17454E-01
         0.16575E-01
         0.85909E-02
         0.10236E-01
         0.92778E-02
         0.35550E-01
         0.21021E-01
         0.27222E-01
         0.44920E-01
         0.35020E-01
         0.32127E-01
         0.45011E-01
         0.40669E-01
         0.40685E-01
         0.31497E-01
         0.28034E-01
         0.38398E-01
         0.25208E-01
         0.21401E-01
         0.17250E-01
         0.20317E-01
         0.33706E-01
         0.22721E-01
         0.14828E+00
         0.15218E+00
         0.15970E+00
         0.15860E+00
         0.16854E+00
         0.18037E+00
         0.17282E+00
         0.15412E+00
         0.15025E+00
         0.16061E+00
         0.15784E+00
         0.15633E+00
         0.12900E+00
         0.12268E+00
         0.13517E+00
         0.14523E+00
         0.15074E+00
         0.16430E+00
         0.15722E+00
         0.16148E+00
         0.14533E+00
         0.13810E+00
         0.14648E+00
         0.14241E+00
         0.14680E+00
         0.14564E+00
         0.26581E-01
         0.15791E-01
         0.15029E-01
         0.10488E-01
         0.27044E-01
         0.18650E-01
         0.87758E-02
         0.26192E-01
         0.16722E-01
         0.25540E-01
         0.11933E-01
         0.51116E-01
         0.39143E-01
         0.18567E-01
         0.54603E-01
         0.19428E-01
         0.10218E-01
         0.58648E-02
         0.13006E-01
         0.66681E-02
         0.40322E-01
         0.37705E-01
         0.36786E-01
         0.95427E-02
         0.16860E-01
         0.49182E-02
         0.18406E-01
         0.26004E-02
         0.72842E-02
         0.17473E-01
         0.16590E-01
         0.85859E-02
         0.10219E-01
         0.92861E-02
         0.35568E-01
         0.21018E-01
         0.27218E-01
         0.44991E-01
         0.35100E-01
         0.32171E-01
         0.45041E-01
         0.40688E-01
         0.40693E-01
         0.31506E-01
         0.28037E-01
         0.38404E-01
         0.25215E-01
         0.21405E-01
         0.17232E-01
         0.20291E-01
         0.33690E-01
         0.22687E-01
         0.14822E+00
         0.15214E+00
         0.15970E+00
         0.15860E+00
         0.16851E+00
         0.18031E+00
         0.17275E+00
         0.15408E+00
         0.15021E+00
         0.16055E+00
         0.15781E+00
         0.15636E+00
         0.12900E+00
         0.12268E+00
         0.13519E+00
         0.14527E+00
         0.15079E+00
         0.16434E+00
         0.15721E+00
         0.16147E+00
         0.14531E+00
         0.13809E+00
         0.14643E+00
         0.14232E+00
         0.14672E+00
         0.14556E+00
         0.27162E-01
         0.16625E-01
         0.15891E-01
         0.11462E-01
         0.27774E-01
         0.19475E-01
         0.10310E-01
         0.26903E-01
         0.17472E-01
         0.26302E-01
         0.13373E-01
         0.51895E-01
         0.39872E-01
         0.19598E-01
         0.55463E-01
         0.20070E-01
         0.11395E-01
         0.72610E-02
         0.14032E-01
         0.85301E-02
         0.40951E-01
         0.38350E-01
         0.37388E-01
         0.10743E-01
         0.17844E-01
         0.67702E-02
         0.19462E-01
         0.63480E-02
         0.93857E-02
         0.18458E-01
         0.17310E-01
         0.98695E-02
         0.11196E-01
         0.10457E-01
         0.36346E-01
         0.21870E-01
         0.27944E-01
         0.45833E-01
         0.35974E-01
         0.33026E-01
         0.45821E-01
         0.41419E-01
         0.41361E-01
         0.32118E-01
         0.28723E-01
         0.39148E-01
         0.25998E-01
         0.22175E-01
         0.18071E-01
         0.21087E-01
         0.34403E-01
         0.23430E-01
         0.14976E+00
         0.15367E+00
         0.16134E+00
         0.16018E+00
         0.17018E+00
         0.18210E+00
         0.17450E+00
         0.15574E+00
         0.15187E+00
         0.16230E+00
         0.15952E+00
         0.15799E+00
         0.13030E+00
         0.12387E+00
         0.13647E+00
         0.14664E+00
         0.15220E+00
         0.16594E+00
         0.15885E+00
         0.16314E+00
         0.14675E+00
         0.13945E+00
         0.14784E+00
         0.14366E+00
         0.14808E+00
         0.14691E+00
         0.65323E-01
         0.58889E-01
         0.57679E-01
         0.51016E-01
         0.71389E-01
         0.62257E-01
         0.59571E-01
         0.70690E-01
         0.56285E-01
         0.70107E-01
         0.66098E-01
         0.10268E+00
         0.86425E-01
         0.71053E-01
         0.10849E+00
         0.57429E-01
         0.55094E-01
         0.47129E-01
         0.57938E-01
         0.58196E-01
         0.83591E-01
         0.82360E-01
         0.78374E-01
         0.54451E-01
         0.64521E-01
         0.51262E-01
         0.70865E-01
         0.64239E-01
         0.65376E-01
         0.66742E-01
         0.55802E-01
         0.53879E-01
         0.51230E-01
         0.52932E-01
         0.82742E-01
         0.67249E-01
         0.72119E-01
         0.97915E-01
         0.87465E-01
         0.84241E-01
         0.97038E-01
         0.90289E-01
         0.87616E-01
         0.72451E-01
         0.71037E-01
         0.85052E-01
         0.70539E-01
         0.64855E-01
         0.61090E-01
         0.64843E-01
         0.79161E-01
         0.66599E-01
         0.21813E+00
         0.22099E+00
         0.23098E+00
         0.22861E+00
         0.24157E+00
         0.25860E+00
         0.25277E+00
         0.23215E+00
         0.22768E+00
         0.24005E+00
         0.23538E+00
         0.23001E+00
         0.19412E+00
         0.18453E+00
         0.19747E+00
         0.20804E+00
         0.21443E+00
         0.23296E+00
         0.22790E+00
         0.23327E+00
         0.21235E+00
         0.20315E+00
         0.21380E+00
         0.20917E+00
         0.21326E+00
         0.21115E+00
  
SCALARS                     nodal_mass  double 1
LOOKUP_TABLE default
         0.24608E-05
         0.19551E-05
         0.20945E-05
         0.35953E-05
         0.12304E-05
         0.97770E-06
         0.10472E-05
         0.17973E-05
         0.19315E-05
         0.24627E-05
         0.96570E-06
         0.12312E-05
         0.13823E-05
         0.16614E-05
         0.69133E-06
         0.83095E-06
         0.27274E-05
         0.20125E-05
         0.13635E-05
         0.10066E-05
         0.81737E-06
         0.15393E-05
         0.16929E-05
         0.40889E-06
         0.76975E-06
         0.84649E-06
         0.13859E-05
         0.17532E-05
         0.69345E-06
         0.87672E-06
         0.32470E-05
         0.25355E-05
         0.32225E-05
         0.16233E-05
         0.12675E-05
         0.16109E-05
         0.18980E-05
         0.21673E-05
         0.94902E-06
         0.10836E-05
         0.20482E-05
         0.22683E-05
         0.10242E-05
         0.11342E-05
         0.17426E-05
         0.10823E-05
         0.87140E-06
         0.54121E-06
         0.20598E-05
         0.10301E-05
         0.17103E-05
         0.85523E-06
         0.17977E-05
         0.89958E-06
         0.18362E-05
         0.91859E-06
         0.15911E-05
         0.19369E-05
         0.79575E-06
         0.96860E-06
         0.24553E-05
         0.17361E-05
         0.12277E-05
         0.86816E-06
         0.27409E-05
         0.13702E-05
         0.23792E-05
         0.11891E-05
         0.10821E-05
         0.16705E-05
         0.54106E-06
         0.83538E-06
         0.18955E-05
         0.94787E-06
         0.20026E-05
         0.10014E-05
         0.19316E-05
         0.96578E-06
         0.15181E-05
         0.75906E-06
         0.95443E-06
         0.15782E-05
         0.47723E-06
         0.78918E-06
         0.20886E-05
         0.10443E-05
         0.16867E-05
         0.84342E-06
         0.14838E-05
         0.74203E-06
         0.97224E-06
         0.16569E-05
         0.48620E-06
         0.82849E-06
         0.22482E-05
         0.11241E-05
         0.23568E-05
         0.11783E-05
         0.19018E-05
         0.95085E-06
         0.11709E-05
         0.20091E-05
         0.58544E-06
         0.10044E-05
         0.74681E-06
         0.94889E-06
         0.37348E-06
         0.47447E-06
         0.88885E-06
         0.44455E-06
         0.10466E-05
         0.52333E-06
         0.10205E-05
         0.51021E-06
         0.99108E-06
         0.49550E-06
         0.10560E-05
         0.52791E-06
         0.11142E-05
         0.55694E-06
         0.10497E-05
         0.52469E-06
         0.82085E-06
         0.41039E-06
         0.66950E-06
         0.33475E-06
         0.86397E-06
         0.43199E-06
         0.11504E-05
         0.57519E-06
         0.12637E-05
         0.63182E-06
         0.12132E-05
         0.60658E-06
         0.10948E-05
         0.54745E-06
         0.99429E-06
         0.49718E-06
         0.80759E-06
         0.40382E-06
         0.67982E-06
         0.33995E-06
         0.88797E-06
         0.44401E-06
         0.11753E-05
         0.58766E-06
         0.12140E-05
         0.60702E-06
         0.98236E-06
         0.49125E-06
         0.79766E-06
         0.39889E-06
         0.97540E-06
         0.48769E-06
         0.11548E-05
         0.57743E-06
         0.24609E-05
         0.19547E-05
         0.20946E-05
         0.35969E-05
         0.19318E-05
         0.24634E-05
         0.13815E-05
         0.16603E-05
         0.27283E-05
         0.20111E-05
         0.81658E-06
         0.15390E-05
         0.16927E-05
         0.13839E-05
         0.17528E-05
         0.32479E-05
         0.25367E-05
         0.32241E-05
         0.18980E-05
         0.21675E-05
         0.20481E-05
         0.22684E-05
         0.17424E-05
         0.10822E-05
         0.20589E-05
         0.17102E-05
         0.17950E-05
         0.18344E-05
         0.15904E-05
         0.19365E-05
         0.24555E-05
         0.17359E-05
         0.27423E-05
         0.23814E-05
         0.10820E-05
         0.16702E-05
         0.18953E-05
         0.20025E-05
         0.19317E-05
         0.15181E-05
         0.95442E-06
         0.15780E-05
         0.20884E-05
         0.16864E-05
         0.14835E-05
         0.97197E-06
         0.16567E-05
         0.22482E-05
         0.23571E-05
         0.19022E-05
         0.11709E-05
         0.20101E-05
         0.74658E-06
         0.94886E-06
         0.88841E-06
         0.10467E-05
         0.10207E-05
         0.99128E-06
         0.10565E-05
         0.11150E-05
         0.10503E-05
         0.82102E-06
         0.66954E-06
         0.86398E-06
         0.11506E-05
         0.12640E-05
         0.12133E-05
         0.10948E-05
         0.99421E-06
         0.80751E-06
         0.67970E-06
         0.88789E-06
         0.11752E-05
         0.12140E-05
         0.98215E-06
         0.79747E-06
         0.97551E-06
         0.11548E-05
         0.24611E-05
         0.19543E-05
         0.20949E-05
         0.35987E-05
         0.19321E-05
         0.24642E-05
         0.13808E-05
         0.16594E-05
         0.27293E-05
         0.20098E-05
         0.81582E-06
         0.15388E-05
         0.16927E-05
         0.13821E-05
         0.17525E-05
         0.32489E-05
         0.25379E-05
         0.32257E-05
         0.18982E-05
         0.21678E-05
         0.20480E-05
         0.22685E-05
         0.17423E-05
         0.10821E-05
         0.20580E-05
         0.17101E-05
         0.17924E-05
         0.18326E-05
         0.15898E-05
         0.19361E-05
         0.24558E-05
         0.17357E-05
         0.27438E-05
         0.23836E-05
         0.10821E-05
         0.16699E-05
         0.18951E-05
         0.20024E-05
         0.19318E-05
         0.15183E-05
         0.95445E-06
         0.15778E-05
         0.20884E-05
         0.16862E-05
         0.14831E-05
         0.97174E-06
         0.16566E-05
         0.22483E-05
         0.23575E-05
         0.19026E-05
         0.11709E-05
         0.20112E-05
         0.74636E-06
         0.94886E-06
         0.88800E-06
         0.10467E-05
         0.10210E-05
         0.99152E-06
         0.10570E-05
         0.11159E-05
         0.10509E-05
         0.82122E-06
         0.66961E-06
         0.86402E-06
         0.11507E-05
         0.12643E-05
         0.12135E-05
         0.10948E-05
         0.99417E-06
         0.80747E-06
         0.67961E-06
         0.88784E-06
         0.11752E-05
         0.12140E-05
         0.98197E-06
         0.79731E-06
         0.97565E-06
         0.11548E-05
         0.24612E-05
         0.19539E-05
         0.20950E-05
         0.36004E-05
         0.19324E-05
         0.24650E-05
         0.13801E-05
         0.16584E-05
         0.27303E-05
         0.20085E-05
         0.81504E-06
         0.15385E-05
         0.16925E-05
         0.13801E-05
         0.17521E-05
         0.32498E-05
         0.25390E-05
         0.32274E-05
         0.18982E-05
         0.21681E-05
         0.20479E-05
         0.22686E-05
         0.17421E-05
         0.10820E-05
         0.20571E-05
         0.17099E-05
         0.17897E-05
         0.18308E-05
         0.15891E-05
         0.19356E-05
         0.24561E-05
         0.17355E-05
         0.27453E-05
         0.23857E-05
         0.10820E-05
         0.16696E-05
         0.18948E-05
         0.20022E-05
         0.19320E-05
         0.15183E-05
         0.95445E-06
         0.15776E-05
         0.20883E-05
         0.16859E-05
         0.14828E-05
         0.97149E-06
         0.16564E-05
         0.22483E-05
         0.23578E-05
         0.19030E-05
         0.11710E-05
         0.20122E-05
         0.74613E-06
         0.94884E-06
         0.88756E-06
         0.10467E-05
         0.10212E-05
         0.99173E-06
         0.10574E-05
         0.11167E-05
         0.10515E-05
         0.82140E-06
         0.66966E-06
         0.86404E-06
         0.11509E-05
         0.12646E-05
         0.12136E-05
         0.10947E-05
         0.99410E-06
         0.80740E-06
         0.67950E-06
         0.88777E-06
         0.11752E-05
         0.12140E-05
         0.98177E-06
         0.79713E-06
         0.97576E-06
         0.11547E-05
         0.24613E-05
         0.19535E-05
         0.20952E-05
         0.36022E-05
         0.19327E-05
         0.24657E-05
         0.13794E-05
         0.16574E-05
         0.27313E-05
         0.20072E-05
         0.81426E-06
         0.15382E-05
         0.16924E-05
         0.13782E-05
         0.17517E-05
         0.32508E-05
         0.25402E-05
         0.32290E-05
         0.18983E-05
         0.21684E-05
         0.20479E-05
         0.22687E-05
         0.17420E-05
         0.10819E-05
         0.20563E-05
         0.17098E-05
         0.17870E-05
         0.18290E-05
         0.15884E-05
         0.19352E-05
         0.24563E-05
         0.17353E-05
         0.27467E-05
         0.23879E-05
         0.10820E-05
         0.16693E-05
         0.18946E-05
         0.20021E-05
         0.19321E-05
         0.15184E-05
         0.95445E-06
         0.15773E-05
         0.20882E-05
         0.16857E-05
         0.14824E-05
         0.97124E-06
         0.16563E-05
         0.22484E-05
         0.23582E-05
         0.19034E-05
         0.11710E-05
         0.20132E-05
         0.74590E-06
         0.94883E-06
         0.88713E-06
         0.10468E-05
         0.10215E-05
         0.99194E-06
         0.10579E-05
         0.11175E-05
         0.10521E-05
         0.82159E-06
         0.66972E-06
         0.86406E-06
         0.11510E-05
         0.12649E-05
         0.12138E-05
         0.10947E-05
         0.99404E-06
         0.80734E-06
         0.67940E-06
         0.88771E-06
         0.11752E-05
         0.12140E-05
         0.98157E-06
         0.79696E-06
         0.97588E-06
         0.11547E-05
         0.24615E-05
         0.19531E-05
         0.20954E-05
         0.36039E-05
         0.19331E-05
         0.24665E-05
         0.13787E-05
         0.16564E-05
         0.27322E-05
         0.20059E-05
         0.81349E-06
         0.15380E-05
         0.16923E-05
         0.13763E-05
         0.17514E-05
         0.32518E-05
         0.25414E-05
         0.32306E-05
         0.18984E-05
         0.21687E-05
         0.20478E-05
         0.22688E-05
         0.17418E-05
         0.10818E-05
         0.20554E-05
         0.17096E-05
         0.17843E-05
         0.18272E-05
         0.15878E-05
         0.19347E-05
         0.24566E-05
         0.17351E-05
         0.27482E-05
         0.23901E-05
         0.10820E-05
         0.16690E-05
         0.18943E-05
         0.20019E-05
         0.19322E-05
         0.15185E-05
         0.95446E-06
         0.15771E-05
         0.20881E-05
         0.16855E-05
         0.14821E-05
         0.97100E-06
         0.16562E-05
         0.22484E-05
         0.23586E-05
         0.19038E-05
         0.11710E-05
         0.20142E-05
         0.74568E-06
         0.94882E-06
         0.88671E-06
         0.10468E-05
         0.10217E-05
         0.99216E-06
         0.10583E-05
         0.11183E-05
         0.10528E-05
         0.82178E-06
         0.66977E-06
         0.86408E-06
         0.11512E-05
         0.12652E-05
         0.12139E-05
         0.10947E-05
         0.99398E-06
         0.80728E-06
         0.67930E-06
         0.88766E-06
         0.11752E-05
         0.12140E-05
         0.98138E-06
         0.79679E-06
         0.97601E-06
         0.11547E-05
         0.24616E-05
         0.19527E-05
         0.20956E-05
         0.36056E-05
         0.19334E-05
         0.24672E-05
         0.13779E-05
         0.16554E-05
         0.27332E-05
         0.20046E-05
         0.81271E-06
         0.15377E-05
         0.16922E-05
         0.13744E-05
         0.17510E-05
         0.32527E-05
         0.25425E-05
         0.32322E-05
         0.18984E-05
         0.21689E-05
         0.20477E-05
         0.22689E-05
         0.17416E-05
         0.10816E-05
         0.20545E-05
         0.17095E-05
         0.17817E-05
         0.18254E-05
         0.15871E-05
         0.19343E-05
         0.24568E-05
         0.17349E-05
         0.27496E-05
         0.23922E-05
         0.10820E-05
         0.16686E-05
         0.18941E-05
         0.20018E-05
         0.19324E-05
         0.15186E-05
         0.95446E-06
         0.15769E-05
         0.20880E-05
         0.16852E-05
         0.14817E-05
         0.97074E-06
         0.16560E-05
         0.22484E-05
         0.23589E-05
         0.19042E-05
         0.11710E-05
         0.20152E-05
         0.74544E-06
         0.94880E-06
         0.88627E-06
         0.10469E-05
         0.10219E-05
         0.99237E-06
         0.10588E-05
         0.11191E-05
         0.10534E-05
         0.82196E-06
         0.66982E-06
         0.86410E-06
         0.11513E-05
         0.12654E-05
         0.12140E-05
         0.10947E-05
         0.99391E-06
         0.80721E-06
         0.67919E-06
         0.88759E-06
         0.11751E-05
         0.12140E-05
         0.98118E-06
         0.79661E-06
         0.97612E-06
         0.11546E-05
         0.24618E-05
         0.19523E-05
         0.20957E-05
         0.36073E-05
         0.19337E-05
         0.24680E-05
         0.13772E-05
         0.16545E-05
         0.27341E-05
         0.20033E-05
         0.81194E-06
         0.15374E-05
         0.16921E-05
         0.13725E-05
         0.17506E-05
         0.32537E-05
         0.25437E-05
         0.32339E-05
         0.18985E-05
         0.21692E-05
         0.20476E-05
         0.22690E-05
         0.17414E-05
         0.10815E-05
         0.20536E-05
         0.17093E-05
         0.17790E-05
         0.18236E-05
         0.15864E-05
         0.19339E-05
         0.24571E-05
         0.17347E-05
         0.27511E-05
         0.23944E-05
         0.10820E-05
         0.16683E-05
         0.18938E-05
         0.20016E-05
         0.19325E-05
         0.15186E-05
         0.95446E-06
         0.15767E-05
         0.20878E-05
         0.16850E-05
         0.14814E-05
         0.97050E-06
         0.16559E-05
         0.22484E-05
         0.23593E-05
         0.19046E-05
         0.11711E-05
         0.20162E-05
         0.74522E-06
         0.94878E-06
         0.88584E-06
         0.10469E-05
         0.10222E-05
         0.99258E-06
         0.10593E-05
         0.11199E-05
         0.10540E-05
         0.82215E-06
         0.66988E-06
         0.86413E-06
         0.11515E-05
         0.12657E-05
         0.12142E-05
         0.10946E-05
         0.99385E-06
         0.80715E-06
         0.67909E-06
         0.88752E-06
         0.11751E-05
         0.12140E-05
         0.98098E-06
         0.79643E-06
         0.97624E-06
         0.11546E-05
         0.24619E-05
         0.19519E-05
         0.20959E-05
         0.36091E-05
         0.19340E-05
         0.24688E-05
         0.13765E-05
         0.16535E-05
         0.27351E-05
         0.20020E-05
         0.81117E-06
         0.15372E-05
         0.16920E-05
         0.13706E-05
         0.17503E-05
         0.32546E-05
         0.25448E-05
         0.32355E-05
         0.18986E-05
         0.21695E-05
         0.20475E-05
         0.22691E-05
         0.17413E-05
         0.10814E-05
         0.20527E-05
         0.17092E-05
         0.17763E-05
         0.18219E-05
         0.15858E-05
         0.19334E-05
         0.24573E-05
         0.17345E-05
         0.27525E-05
         0.23966E-05
         0.10820E-05
         0.16680E-05
         0.18936E-05
         0.20015E-05
         0.19326E-05
         0.15187E-05
         0.95447E-06
         0.15765E-05
         0.20878E-05
         0.16848E-05
         0.14810E-05
         0.97025E-06
         0.16557E-05
         0.22485E-05
         0.23597E-05
         0.19050E-05
         0.11711E-05
         0.20172E-05
         0.74499E-06
         0.94877E-06
         0.88541E-06
         0.10469E-05
         0.10224E-05
         0.99280E-06
         0.10597E-05
         0.11207E-05
         0.10546E-05
         0.82234E-06
         0.66994E-06
         0.86415E-06
         0.11517E-05
         0.12660E-05
         0.12143E-05
         0.10946E-05
         0.99379E-06
         0.80709E-06
         0.67898E-06
         0.88746E-06
         0.11751E-05
         0.12140E-05
         0.98079E-06
         0.79626E-06
         0.97636E-06
         0.11546E-05
         0.24621E-05
         0.19515E-05
         0.20961E-05
         0.36108E-05
         0.19343E-05
         0.24695E-05
         0.13758E-05
         0.16525E-05
         0.27361E-05
         0.20006E-05
         0.81039E-06
         0.15369E-05
         0.16919E-05
         0.13686E-05
         0.17499E-05
         0.32556E-05
         0.25460E-05
         0.32371E-05
         0.18986E-05
         0.21697E-05
         0.20474E-05
         0.22692E-05
         0.17411E-05
         0.10813E-05
         0.20519E-05
         0.17091E-05
         0.17736E-05
         0.18201E-05
         0.15851E-05
         0.19330E-05
         0.24575E-05
         0.17342E-05
         0.27540E-05
         0.23987E-05
         0.10820E-05
         0.16677E-05
         0.18933E-05
         0.20014E-05
         0.19328E-05
         0.15188E-05
         0.95448E-06
         0.15763E-05
         0.20876E-05
         0.16845E-05
         0.14807E-05
         0.97000E-06
         0.16556E-05
         0.22485E-05
         0.23600E-05
         0.19053E-05
         0.11711E-05
         0.20182E-05
         0.74476E-06
         0.94875E-06
         0.88498E-06
         0.10470E-05
         0.10227E-05
         0.99301E-06
         0.10602E-05
         0.11215E-05
         0.10553E-05
         0.82252E-06
         0.66999E-06
         0.86417E-06
         0.11518E-05
         0.12663E-05
         0.12145E-05
         0.10946E-05
         0.99373E-06
         0.80702E-06
         0.67888E-06
         0.88740E-06
         0.11751E-05
         0.12140E-05
         0.98058E-06
         0.79608E-06
         0.97648E-06
         0.11546E-05
         0.24622E-05
         0.19511E-05
         0.20963E-05
         0.36125E-05
         0.19346E-05
         0.24703E-05
         0.13751E-05
         0.16515E-05
         0.27370E-05
         0.19993E-05
         0.80962E-06
         0.15366E-05
         0.16917E-05
         0.13667E-05
         0.17495E-05
         0.32565E-05
         0.25471E-05
         0.32388E-05
         0.18987E-05
         0.21700E-05
         0.20473E-05
         0.22693E-05
         0.17409E-05
         0.10812E-05
         0.20510E-05
         0.17089E-05
         0.17710E-05
         0.18183E-05
         0.15844E-05
         0.19325E-05
         0.24578E-05
         0.17340E-05
         0.27554E-05
         0.24009E-05
         0.10820E-05
         0.16674E-05
         0.18931E-05
         0.20012E-05
         0.19329E-05
         0.15189E-05
         0.95448E-06
         0.15760E-05
         0.20875E-05
         0.16843E-05
         0.14803E-05
         0.96975E-06
         0.16555E-05
         0.22485E-05
         0.23604E-05
         0.19057E-05
         0.11712E-05
         0.20192E-05
         0.74453E-06
         0.94874E-06
         0.88455E-06
         0.10470E-05
         0.10229E-05
         0.99322E-06
         0.10606E-05
         0.11223E-05
         0.10559E-05
         0.82270E-06
         0.67004E-06
         0.86419E-06
         0.11520E-05
         0.12666E-05
         0.12146E-05
         0.10945E-05
         0.99366E-06
         0.80696E-06
         0.67877E-06
         0.88733E-06
         0.11751E-05
         0.12140E-05
         0.98038E-06
         0.79590E-06
         0.97660E-06
         0.11545E-05
         0.24623E-05
         0.19507E-05
         0.20964E-05
         0.36142E-05
         0.19349E-05
         0.24710E-05
         0.13743E-05
         0.16505E-05
         0.27380E-05
         0.19980E-05
         0.80885E-06
         0.15364E-05
         0.16916E-05
         0.13648E-05
         0.17492E-05
         0.32575E-05
         0.25483E-05
         0.32404E-05
         0.18988E-05
         0.21703E-05
         0.20473E-05
         0.22694E-05
         0.17407E-05
         0.10811E-05
         0.20501E-05
         0.17088E-05
         0.17683E-05
         0.18165E-05
         0.15837E-05
         0.19321E-05
         0.24580E-05
         0.17338E-05
         0.27569E-05
         0.24031E-05
         0.10820E-05
         0.16670E-05
         0.18928E-05
         0.20011E-05
         0.19330E-05
         0.15189E-05
         0.95448E-06
         0.15758E-05
         0.20874E-05
         0.16840E-05
         0.14800E-05
         0.96950E-06
         0.16553E-05
         0.22485E-05
         0.23608E-05
         0.19061E-05
         0.11712E-05
         0.20202E-05
         0.74430E-06
         0.94872E-06
         0.88412E-06
         0.10470E-05
         0.10231E-05
         0.99344E-06
         0.10611E-05
         0.11231E-05
         0.10565E-05
         0.82289E-06
         0.67009E-06
         0.86422E-06
         0.11521E-05
         0.12669E-05
         0.12147E-05
         0.10945E-05
         0.99360E-06
         0.80690E-06
         0.67867E-06
         0.88727E-06
         0.11750E-05
         0.12140E-05
         0.98019E-06
         0.79573E-06
         0.97672E-06
         0.11545E-05
         0.24625E-05
         0.19503E-05
         0.20966E-05
         0.36160E-05
         0.19352E-05
         0.24718E-05
         0.13736E-05
         0.16496E-05
         0.27389E-05
         0.19967E-05
         0.80807E-06
         0.15361E-05
         0.16915E-05
         0.13629E-05
         0.17488E-05
         0.32584E-05
         0.25495E-05
         0.32420E-05
         0.18988E-05
         0.21705E-05
         0.20472E-05
         0.22695E-05
         0.17406E-05
         0.10810E-05
         0.20492E-05
         0.17086E-05
         0.17656E-05
         0.18147E-05
         0.15831E-05
         0.19317E-05
         0.24583E-05
         0.17336E-05
         0.27583E-05
         0.24053E-05
         0.10820E-05
         0.16667E-05
         0.18926E-05
         0.20009E-05
         0.19331E-05
         0.15190E-05
         0.95449E-06
         0.15756E-05
         0.20873E-05
         0.16838E-05
         0.14796E-05
         0.96925E-06
         0.16552E-05
         0.22486E-05
         0.23611E-05
         0.19065E-05
         0.11712E-05
         0.20212E-05
         0.74407E-06
         0.94870E-06
         0.88368E-06
         0.10471E-05
         0.10234E-05
         0.99365E-06
         0.10616E-05
         0.11239E-05
         0.10571E-05
         0.82307E-06
         0.67014E-06
         0.86424E-06
         0.11523E-05
         0.12672E-05
         0.12149E-05
         0.10945E-05
         0.99354E-06
         0.80683E-06
         0.67856E-06
         0.88721E-06
         0.11750E-05
         0.12140E-05
         0.97999E-06
         0.79555E-06
         0.97684E-06
         0.11545E-05
         0.24626E-05
         0.19499E-05
         0.20968E-05
         0.36177E-05
         0.19355E-05
         0.24725E-05
         0.13729E-05
         0.16486E-05
         0.27399E-05
         0.19954E-05
         0.80730E-06
         0.15358E-05
         0.16914E-05
         0.13610E-05
         0.17484E-05
         0.32594E-05
         0.25506E-05
         0.32437E-05
         0.18989E-05
         0.21708E-05
         0.20471E-05
         0.22696E-05
         0.17404E-05
         0.10808E-05
         0.20483E-05
         0.17085E-05
         0.17629E-05
         0.18129E-05
         0.15824E-05
         0.19312E-05
         0.24585E-05
         0.17334E-05
         0.27598E-05
         0.24074E-05
         0.10820E-05
         0.16664E-05
         0.18923E-05
         0.20008E-05
         0.19333E-05
         0.15191E-05
         0.95449E-06
         0.15754E-05
         0.20872E-05
         0.16835E-05
         0.14793E-05
         0.96901E-06
         0.16550E-05
         0.22486E-05
         0.23615E-05
         0.19069E-05
         0.11713E-05
         0.20222E-05
         0.74384E-06
         0.94869E-06
         0.88325E-06
         0.10471E-05
         0.10236E-05
         0.99386E-06
         0.10620E-05
         0.11247E-05
         0.10577E-05
         0.82326E-06
         0.67020E-06
         0.86426E-06
         0.11524E-05
         0.12674E-05
         0.12150E-05
         0.10944E-05
         0.99348E-06
         0.80677E-06
         0.67846E-06
         0.88714E-06
         0.11750E-05
         0.12140E-05
         0.97979E-06
         0.79538E-06
         0.97696E-06
         0.11544E-05
         0.24628E-05
         0.19495E-05
         0.20970E-05
         0.36194E-05
         0.19358E-05
         0.24733E-05
         0.13722E-05
         0.16476E-05
         0.27409E-05
         0.19941E-05
         0.80652E-06
         0.15355E-05
         0.16913E-05
         0.13591E-05
         0.17481E-05
         0.32604E-05
         0.25518E-05
         0.32453E-05
         0.18990E-05
         0.21711E-05
         0.20470E-05
         0.22697E-05
         0.17402E-05
         0.10807E-05
         0.20474E-05
         0.17084E-05
         0.17603E-05
         0.18111E-05
         0.15817E-05
         0.19308E-05
         0.24588E-05
         0.17332E-05
         0.27613E-05
         0.24096E-05
         0.10819E-05
         0.16661E-05
         0.18921E-05
         0.20006E-05
         0.19334E-05
         0.15192E-05
         0.95450E-06
         0.15752E-05
         0.20871E-05
         0.16833E-05
         0.14789E-05
         0.96876E-06
         0.16549E-05
         0.22486E-05
         0.23619E-05
         0.19073E-05
         0.11713E-05
         0.20232E-05
         0.74362E-06
         0.94868E-06
         0.88282E-06
         0.10472E-05
         0.10238E-05
         0.99408E-06
         0.10625E-05
         0.11255E-05
         0.10584E-05
         0.82345E-06
         0.67025E-06
         0.86428E-06
         0.11526E-05
         0.12677E-05
         0.12152E-05
         0.10944E-05
         0.99342E-06
         0.80671E-06
         0.67836E-06
         0.88709E-06
         0.11750E-05
         0.12140E-05
         0.97959E-06
         0.79521E-06
         0.97708E-06
         0.11544E-05
         0.24629E-05
         0.19491E-05
         0.20972E-05
         0.36212E-05
         0.19361E-05
         0.24741E-05
         0.13715E-05
         0.16466E-05
         0.27418E-05
         0.19928E-05
         0.80575E-06
         0.15353E-05
         0.16912E-05
         0.13572E-05
         0.17477E-05
         0.32613E-05
         0.25529E-05
         0.32469E-05
         0.18990E-05
         0.21714E-05
         0.20469E-05
         0.22698E-05
         0.17400E-05
         0.10806E-05
         0.20466E-05
         0.17082E-05
         0.17576E-05
         0.18093E-05
         0.15810E-05
         0.19303E-05
         0.24590E-05
         0.17330E-05
         0.27627E-05
         0.24118E-05
         0.10819E-05
         0.16658E-05
         0.18919E-05
         0.20005E-05
         0.19335E-05
         0.15192E-05
         0.95450E-06
         0.15750E-05
         0.20870E-05
         0.16831E-05
         0.14786E-05
         0.96851E-06
         0.16548E-05
         0.22487E-05
         0.23622E-05
         0.19077E-05
         0.11713E-05
         0.20242E-05
         0.74339E-06
         0.94866E-06
         0.88239E-06
         0.10472E-05
         0.10241E-05
         0.99429E-06
         0.10630E-05
         0.11263E-05
         0.10590E-05
         0.82363E-06
         0.67030E-06
         0.86430E-06
         0.11527E-05
         0.12680E-05
         0.12153E-05
         0.10944E-05
         0.99335E-06
         0.80665E-06
         0.67825E-06
         0.88702E-06
         0.11749E-05
         0.12140E-05
         0.97939E-06
         0.79503E-06
         0.97720E-06
         0.11544E-05
         0.24631E-05
         0.19487E-05
         0.20973E-05
         0.36229E-05
         0.19364E-05
         0.24748E-05
         0.13707E-05
         0.16456E-05
         0.27428E-05
         0.19915E-05
         0.80498E-06
         0.15350E-05
         0.16911E-05
         0.13553E-05
         0.17473E-05
         0.32623E-05
         0.25541E-05
         0.32486E-05
         0.18991E-05
         0.21716E-05
         0.20468E-05
         0.22699E-05
         0.17399E-05
         0.10805E-05
         0.20457E-05
         0.17081E-05
         0.17549E-05
         0.18075E-05
         0.15804E-05
         0.19299E-05
         0.24592E-05
         0.17328E-05
         0.27642E-05
         0.24140E-05
         0.10819E-05
         0.16654E-05
         0.18916E-05
         0.20003E-05
         0.19337E-05
         0.15193E-05
         0.95450E-06
         0.15748E-05
         0.20869E-05
         0.16828E-05
         0.14782E-05
         0.96826E-06
         0.16546E-05
         0.22487E-05
         0.23626E-05
         0.19081E-05
         0.11714E-05
         0.20253E-05
         0.74316E-06
         0.94864E-06
         0.88196E-06
         0.10472E-05
         0.10243E-05
         0.99450E-06
         0.10634E-05
         0.11271E-05
         0.10596E-05
         0.82381E-06
         0.67036E-06
         0.86432E-06
         0.11529E-05
         0.12683E-05
         0.12154E-05
         0.10943E-05
         0.99329E-06
         0.80658E-06
         0.67815E-06
         0.88696E-06
         0.11749E-05
         0.12140E-05
         0.97919E-06
         0.79485E-06
         0.97732E-06
         0.11544E-05
         0.24632E-05
         0.19483E-05
         0.20975E-05
         0.36246E-05
         0.19368E-05
         0.24756E-05
         0.13700E-05
         0.16447E-05
         0.27437E-05
         0.19902E-05
         0.80421E-06
         0.15347E-05
         0.16910E-05
         0.13534E-05
         0.17470E-05
         0.32632E-05
         0.25552E-05
         0.32502E-05
         0.18992E-05
         0.21719E-05
         0.20467E-05
         0.22700E-05
         0.17397E-05
         0.10804E-05
         0.20448E-05
         0.17079E-05
         0.17523E-05
         0.18057E-05
         0.15797E-05
         0.19295E-05
         0.24595E-05
         0.17326E-05
         0.27656E-05
         0.24161E-05
         0.10819E-05
         0.16651E-05
         0.18914E-05
         0.20002E-05
         0.19338E-05
         0.15194E-05
         0.95451E-06
         0.15745E-05
         0.20868E-05
         0.16826E-05
         0.14779E-05
         0.96801E-06
         0.16545E-05
         0.22487E-05
         0.23630E-05
         0.19085E-05
         0.11714E-05
         0.20263E-05
         0.74293E-06
         0.94863E-06
         0.88153E-06
         0.10473E-05
         0.10245E-05
         0.99472E-06
         0.10639E-05
         0.11279E-05
         0.10602E-05
         0.82400E-06
         0.67041E-06
         0.86435E-06
         0.11530E-05
         0.12686E-05
         0.12156E-05
         0.10943E-05
         0.99323E-06
         0.80652E-06
         0.67804E-06
         0.88690E-06
         0.11749E-05
         0.12140E-05
         0.97900E-06
         0.79468E-06
         0.97744E-06
         0.11543E-05
         0.24633E-05
         0.19479E-05
         0.20977E-05
         0.36264E-05
         0.19371E-05
         0.24763E-05
         0.13693E-05
         0.16437E-05
         0.27447E-05
         0.19888E-05
         0.80343E-06
         0.15345E-05
         0.16908E-05
         0.13515E-05
         0.17466E-05
         0.32642E-05
         0.25564E-05
         0.32518E-05
         0.18992E-05
         0.21722E-05
         0.20466E-05
         0.22701E-05
         0.17395E-05
         0.10803E-05
         0.20439E-05
         0.17078E-05
         0.17496E-05
         0.18039E-05
         0.15790E-05
         0.19290E-05
         0.24597E-05
         0.17323E-05
         0.27671E-05
         0.24183E-05
         0.10819E-05
         0.16648E-05
         0.18911E-05
         0.20001E-05
         0.19339E-05
         0.15195E-05
         0.95452E-06
         0.15743E-05
         0.20867E-05
         0.16823E-05
         0.14775E-05
         0.96776E-06
         0.16543E-05
         0.22487E-05
         0.23633E-05
         0.19089E-05
         0.11714E-05
         0.20273E-05
         0.74270E-06
         0.94861E-06
         0.88109E-06
         0.10473E-05
         0.10248E-05
         0.99493E-06
         0.10643E-05
         0.11287E-05
         0.10609E-05
         0.82418E-06
         0.67046E-06
         0.86437E-06
         0.11532E-05
         0.12689E-05
         0.12157E-05
         0.10943E-05
         0.99316E-06
         0.80646E-06
         0.67794E-06
         0.88683E-06
         0.11749E-05
         0.12140E-05
         0.97879E-06
         0.79450E-06
         0.97755E-06
         0.11543E-05
         0.24635E-05
         0.19475E-05
         0.20979E-05
         0.36281E-05
         0.19374E-05
         0.24771E-05
         0.13686E-05
         0.16427E-05
         0.27456E-05
         0.19875E-05
         0.80266E-06
         0.15342E-05
         0.16907E-05
         0.13496E-05
         0.17463E-05
         0.32651E-05
         0.25575E-05
         0.32534E-05
         0.18993E-05
         0.21724E-05
         0.20466E-05
         0.22702E-05
         0.17393E-05
         0.10802E-05
         0.20430E-05
         0.17076E-05
         0.17469E-05
         0.18021E-05
         0.15784E-05
         0.19286E-05
         0.24600E-05
         0.17321E-05
         0.27685E-05
         0.24205E-05
         0.10819E-05
         0.16645E-05
         0.18909E-05
         0.19999E-05
         0.19341E-05
         0.15195E-05
         0.95452E-06
         0.15741E-05
         0.20866E-05
         0.16821E-05
         0.14772E-05
         0.96751E-06
         0.16542E-05
         0.22488E-05
         0.23637E-05
         0.19092E-05
         0.11715E-05
         0.20283E-05
         0.74247E-06
         0.94860E-06
         0.88066E-06
         0.10473E-05
         0.10250E-05
         0.99514E-06
         0.10648E-05
         0.11295E-05
         0.10615E-05
         0.82437E-06
         0.67052E-06
         0.86439E-06
         0.11533E-05
         0.12691E-05
         0.12159E-05
         0.10942E-05
         0.99310E-06
         0.80639E-06
         0.67783E-06
         0.88676E-06
         0.11748E-05
         0.12140E-05
         0.97859E-06
         0.79433E-06
         0.97767E-06
         0.11543E-05
         0.24636E-05
         0.19471E-05
         0.20980E-05
         0.36298E-05
         0.19377E-05
         0.24779E-05
         0.13679E-05
         0.16417E-05
         0.27466E-05
         0.19862E-05
         0.80189E-06
         0.15339E-05
         0.16906E-05
         0.13477E-05
         0.17459E-05
         0.32661E-05
         0.25587E-05
         0.32551E-05
         0.18994E-05
         0.21727E-05
         0.20465E-05
         0.22703E-05
         0.17392E-05
         0.10800E-05
         0.20421E-05
         0.17075E-05
         0.17443E-05
         0.18003E-05
         0.15777E-05
         0.19281E-05
         0.24602E-05
         0.17319E-05
         0.27700E-05
         0.24227E-05
         0.10819E-05
         0.16642E-05
         0.18906E-05
         0.19998E-05
         0.19342E-05
         0.15196E-05
         0.95453E-06
         0.15739E-05
         0.20865E-05
         0.16819E-05
         0.14768E-05
         0.96727E-06
         0.16541E-05
         0.22488E-05
         0.23640E-05
         0.19096E-05
         0.11715E-05
         0.20293E-05
         0.74225E-06
         0.94859E-06
         0.88023E-06
         0.10474E-05
         0.10253E-05
         0.99535E-06
         0.10653E-05
         0.11303E-05
         0.10621E-05
         0.82456E-06
         0.67057E-06
         0.86441E-06
         0.11535E-05
         0.12694E-05
         0.12160E-05
         0.10942E-05
         0.99304E-06
         0.80633E-06
         0.67773E-06
         0.88671E-06
         0.11748E-05
         0.12140E-05
         0.97840E-06
         0.79415E-06
         0.97780E-06
         0.11542E-05
         0.24637E-05
         0.19466E-05
         0.20982E-05
         0.36315E-05
         0.19380E-05
         0.24786E-05
         0.13671E-05
         0.16407E-05
         0.27475E-05
         0.19849E-05
         0.80110E-06
         0.15336E-05
         0.16905E-05
         0.13457E-05
         0.17455E-05
         0.32669E-05
         0.25598E-05
         0.32567E-05
         0.18994E-05
         0.21729E-05
         0.20464E-05
         0.22703E-05
         0.17390E-05
         0.10799E-05
         0.20412E-05
         0.17073E-05
         0.17416E-05
         0.17985E-05
         0.15770E-05
         0.19277E-05
         0.24604E-05
         0.17317E-05
         0.27714E-05
         0.24248E-05
         0.10819E-05
         0.16638E-05
         0.18903E-05
         0.19996E-05
         0.19343E-05
         0.15196E-05
         0.95451E-06
         0.15737E-05
         0.20864E-05
         0.16816E-05
         0.14765E-05
         0.96700E-06
         0.16539E-05
         0.22488E-05
         0.23644E-05
         0.19100E-05
         0.11715E-05
         0.20303E-05
         0.74200E-06
         0.94855E-06
         0.87978E-06
         0.10474E-05
         0.10255E-05
         0.99555E-06
         0.10657E-05
         0.11311E-05
         0.10627E-05
         0.82472E-06
         0.67061E-06
         0.86442E-06
         0.11536E-05
         0.12697E-05
         0.12161E-05
         0.10941E-05
         0.99295E-06
         0.80625E-06
         0.67761E-06
         0.88662E-06
         0.11748E-05
         0.12140E-05
         0.97818E-06
         0.79396E-06
         0.97790E-06
         0.11542E-05
         0.24639E-05
         0.19463E-05
         0.20984E-05
         0.36333E-05
         0.19383E-05
         0.24794E-05
         0.13664E-05
         0.16398E-05
         0.27485E-05
         0.19836E-05
         0.80034E-06
         0.15334E-05
         0.16904E-05
         0.13439E-05
         0.17452E-05
         0.32679E-05
         0.25610E-05
         0.32583E-05
         0.18995E-05
         0.21732E-05
         0.20463E-05
         0.22704E-05
         0.17388E-05
         0.10798E-05
         0.20404E-05
         0.17072E-05
         0.17389E-05
         0.17967E-05
         0.15763E-05
         0.19272E-05
         0.24607E-05
         0.17315E-05
         0.27729E-05
         0.24270E-05
         0.10819E-05
         0.16635E-05
         0.18901E-05
         0.19995E-05
         0.19345E-05
         0.15197E-05
         0.95453E-06
         0.15735E-05
         0.20863E-05
         0.16814E-05
         0.14761E-05
         0.96677E-06
         0.16538E-05
         0.22488E-05
         0.23647E-05
         0.19104E-05
         0.11716E-05
         0.20313E-05
         0.74179E-06
         0.94855E-06
         0.87936E-06
         0.10475E-05
         0.10257E-05
         0.99577E-06
         0.10662E-05
         0.11319E-05
         0.10633E-05
         0.82492E-06
         0.67068E-06
         0.86446E-06
         0.11538E-05
         0.12700E-05
         0.12163E-05
         0.10941E-05
         0.99291E-06
         0.80620E-06
         0.67752E-06
         0.88657E-06
         0.11748E-05
         0.12140E-05
         0.97800E-06
         0.79380E-06
         0.97803E-06
         0.11542E-05
         0.12320E-05
         0.97306E-06
         0.10493E-05
         0.18171E-05
         0.96926E-06
         0.12399E-05
         0.68306E-06
         0.81967E-06
         0.13745E-05
         0.99152E-06
         0.39999E-06
         0.76665E-06
         0.84519E-06
         0.67148E-06
         0.87252E-06
         0.16343E-05
         0.12808E-05
         0.16296E-05
         0.94981E-06
         0.10867E-05
         0.10232E-05
         0.11353E-05
         0.86940E-06
         0.53990E-06
         0.10200E-05
         0.85360E-06
         0.86884E-06
         0.89793E-06
         0.78802E-06
         0.96354E-06
         0.12305E-05
         0.86572E-06
         0.13869E-05
         0.12141E-05
         0.54095E-06
         0.83170E-06
         0.94503E-06
         0.99975E-06
         0.96729E-06
         0.75992E-06
         0.47728E-06
         0.78670E-06
         0.10432E-05
         0.84065E-06
         0.73800E-06
         0.48334E-06
         0.82688E-06
         0.11245E-05
         0.11825E-05
         0.95534E-06
         0.58581E-06
         0.10159E-05
         0.37085E-06
         0.47429E-06
         0.43959E-06
         0.52375E-06
         0.51294E-06
         0.49796E-06
         0.53322E-06
         0.56619E-06
         0.53185E-06
         0.41252E-06
         0.33536E-06
         0.43225E-06
         0.57696E-06
         0.63509E-06
         0.60820E-06
         0.54708E-06
         0.49646E-06
         0.40310E-06
         0.33875E-06
         0.44329E-06
         0.58740E-06
         0.60700E-06
         0.48897E-06
         0.39687E-06
         0.48906E-06
         0.57710E-06
  
SCALARS                 Poissons_ratio  double 1
LOOKUP_TABLE default
         0.30000E+00
         0.30000E+00
         0.30000E+00
         0.30000E+00
         0.30000E+00
         0.30000E+00
         0.30000E+00
         0.30000E+00
         0.30000E+00
         0.30000E+00
         0.30000E+00
         0.30000E+00
         0.30000E+00
         0.30000E+00
         0.30000E+00
         0.30000E+00
         0.30000E+00
         0.30000E+00
         0.30000E+00
         0.30000E+00
         0.30000E+00
         0.30000E+00
         0.30000E+00
         0.30000E+00
         0.30000E+00
         0.30000E+00
         0.30000E+00
         0.30000E+00
         0.30000E+00
         0.30000E+00
         0.30000E+00
         0.30000E+00
         0.30000E+00
         0.30000E+00
         0.30000E+00
         0.30000E+00
         0.30000E+00
         0.30000E+00
         0.30000E+00
         0.30000E+00
         0.30000E+00
         0.30000E+00
         0.30000E+00
         0.30000E+00
         0.30000E+00
         0.30000E+00
         0.30000E+00
         0.30000E+00
         0.30000E+00
         0.30000E+00
         0.30000E+00
         0.30000E+00
         0.30000E+00
         0.30000E+00
         0.30000E+00
         0.30000E+00
         0.30000E+00
         0.30000E+00
         0.30000E+00
         0.30000E+00
         0.30000E+00
         0.30000E+00
         0.30000E+00
         0.30000E+00
         0.30000E+00
         0.30000E+00
         0.30000E+00
         0.30000E+00
         0.30000E+00
         0.30000E+00
         0.30000E+00
         0.30000E+00
         0.30000E+00
         0.30000E+00
         0.30000E+00
         0.30000E+00
         0.30000E+00
         0.30000E+00
         0.30000E+00
         0.30000E+00
         0.30000E+00
         0.30000E+00
         0.30000E+00
         0.30000E+00
         0.30000E+00
         0.30000E+00
         0.30000E+00
         0.30000E+00
         0.30000E+00
         0.30000E+00
         0.30000E+00
         0.30000E+00
         0.30000E+00
         0.30000E+00
         0.30000E+00
         0.30000E+00
         0.30000E+00
         0.30000E+00
         0.30000E+00
         0.30000E+00
         0.30000E+00
         0.30000E+00
         0.30000E+00
         0.30000E+00
         0.30000E+00
         0.30000E+00
         0.30000E+00
         0.30000E+00
         0.30000E+00
         0.30000E+00
         0.30000E+00
         0.30000E+00
         0.30000E+00
         0.30000E+00
         0.30000E+00
         0.30000E+00
         0.30000E+00
         0.30000E+00
         0.30000E+00
         0.30000E+00
         0.30000E+00
         0.30000E+00
         0.30000E+00
         0.30000E+00
         0.30000E+00
         0.30000E+00
         0.30000E+00
         0.30000E+00
         0.30000E+00
         0.30000E+00
         0.30000E+00
         0.30000E+00
         0.30000E+00
         0.30000E+00
         0.30000E+00
         0.30000E+00
         0.30000E+00
         0.30000E+00
         0.30000E+00
         0.30000E+00
         0.30000E+00
         0.30000E+00
         0.30000E+00
         0.30000E+00
         0.30000E+00
         0.30000E+00
         0.30000E+00
         0.30000E+00
         0.30000E+00
         0.30000E+00
         0.30000E+00
         0.30000E+00
         0.30000E+00
         0.30000E+00
         0.30000E+00
         0.30000E+00
         0.30000E+00
         0.30000E+00
         0.30000E+00
         0.30000E+00
         0.30000E+00
         0.30000E+00
         0.30000E+00
         0.30000E+00
         0.30000E+00
         0.30000E+00
         0.30000E+00
         0.30000E+00
         0.30000E+00
         0.30000E+00
         0.30000E+00
         0.30000E+00
         0.30000E+00
         0.30000E+00
         0.30000E+00
         0.30000E+00
         0.30000E+00
         0.30000E+00
         0.30000E+00
         0.30000E+00
         0.30000E+00
         0.30000E+00
         0.30000E+00
         0.30000E+00
         0.30000E+00
         0.30000E+00
         0.30000E+00
         0.30000E+00
         0.30000E+00
         0.30000E+00
         0.30000E+00
         0.30000E+00
         0.30000E+00
         0.30000E+00
         0.30000E+00
         0.30000E+00
         0.30000E+00
         0.30000E+00
         0.30000E+00
         0.30000E+00
         0.30000E+00
         0.30000E+00
         0.30000E+00
         0.30000E+00
         0.30000E+00
         0.30000E+00
         0.30000E+00
         0.30000E+00
         0.30000E+00
         0.30000E+00
         0.30000E+00
         0.30000E+00
         0.30000E+00
         0.30000E+00
         0.30000E+00
         0.30000E+00
         0.30000E+00
         0.30000E+00
         0.30000E+00
         0.30000E+00
         0.30000E+00
         0.30000E+00
         0.30000E+00
         0.30000E+00
         0.30000E+00
         0.30000E+00
         0.30000E+00
         0.30000E+00
         0.30000E+00
         0.30000E+00
         0.30000E+00
         0.30000E+00
         0.30000E+00
         0.30000E+00
         0.30000E+00
         0.30000E+00
         0.30000E+00
         0.30000E+00
         0.30000E+00
         0.30000E+00
         0.30000E+00
         0.30000E+00
         0.30000E+00
         0.30000E+00
         0.30000E+00
         0.30000E+00
         0.30000E+00
         0.30000E+00
         0.30000E+00
         0.30000E+00
         0.30000E+00
         0.30000E+00
         0.30000E+00
         0.30000E+00
         0.30000E+00
         0.30000E+00
         0.30000E+00
         0.30000E+00
         0.30000E+00
         0.30000E+00
         0.30000E+00
         0.30000E+00
         0.30000E+00
         0.30000E+00
         0.30000E+00
         0.30000E+00
         0.30000E+00
         0.30000E+00
         0.30000E+00
         0.30000E+00
         0.30000E+00
         0.30000E+00
         0.30000E+00
         0.30000E+00
         0.30000E+00
         0.30000E+00
         0.30000E+00
         0.30000E+00
         0.30000E+00
         0.30000E+00
         0.30000E+00
         0.30000E+00
         0.30000E+00
         0.30000E+00
         0.30000E+00
         0.30000E+00
         0.30000E+00
         0.30000E+00
         0.30000E+00
         0.30000E+00
         0.30000E+00
         0.30000E+00
         0.30000E+00
         0.30000E+00
         0.30000E+00
         0.30000E+00
         0.30000E+00
         0.30000E+00
         0.30000E+00
         0.30000E+00
         0.30000E+00
         0.30000E+00
         0.30000E+00
         0.30000E+00
         0.30000E+00
         0.30000E+00
         0.30000E+00
         0.30000E+00
         0.30000E+00
         0.30000E+00
         0.30000E+00
         0.30000E+00
         0.30000E+00
         0.30000E+00
         0.30000E+00
         0.30000E+00
         0.30000E+00
         0.30000E+00
         0.30000E+00
         0.30000E+00
         0.30000E+00
         0.30000E+00
         0.30000E+00
         0.30000E+00
         0.30000E+00
         0.30000E+00
         0.30000E+00
         0.30000E+00
         0.30000E+00
         0.30000E+00
         0.30000E+00
         0.30000E+00
         0.30000E+00
         0.30000E+00
         0.30000E+00
         0.30000E+00
         0.30000E+00
         0.30000E+00
         0.30000E+00
         0.30000E+00
         0.30000E+00
         0.30000E+00
         0.30000E+00
         0.30000E+00
         0.30000E+00
         0.30000E+00
         0.30000E+00
         0.30000E+00
         0.30000E+00
         0.30000E+00
         0.30000E+00
         0.30000E+00
         0.30000E+00
         0.30000E+00
         0.30000E+00
         0.30000E+00
         0.30000E+00
         0.30000E+00
         0.30000E+00
         0.30000E+00
         0.30000E+00
         0.30000E+00
         0.30000E+00
         0.30000E+00
         0.30000E+00
         0.30000E+00
         0.30000E+00
         0.30000E+00
         0.30000E+00
         0.30000E+00
         0.30000E+00
         0.30000E+00
         0.30000E+00
         0.30000E+00
         0.30000E+00
         0.30000E+00
         0.30000E+00
         0.30000E+00
         0.30000E+00
         0.30000E+00
         0.30000E+00
         0.30000E+00
         0.30000E+00
         0.30000E+00
         0.30000E+00
         0.30000E+00
         0.30000E+00
         0.30000E+00
         0.30000E+00
         0.30000E+00
         0.30000E+00
         0.30000E+00
         0.30000E+00
         0.30000E+00
         0.30000E+00
         0.30000E+00
         0.30000E+00
         0.30000E+00
         0.30000E+00
         0.30000E+00
         0.30000E+00
         0.30000E+00
         0.30000E+00
         0.30000E+00
         0.30000E+00
         0.30000E+00
         0.30000E+00
         0.30000E+00
         0.30000E+00
         0.30000E+00
         0.30000E+00
         0.30000E+00
         0.30000E+00
         0.30000E+00
         0.30000E+00
         0.30000E+00
         0.30000E+00
         0.30000E+00
         0.30000E+00
         0.30000E+00
         0.30000E+00
         0.30000E+00
         0.30000E+00
         0.30000E+00
         0.30000E+00
         0.30000E+00
         0.30000E+00
         0.30000E+00
         0.30000E+00
         0.30000E+00
         0.30000E+00
         0.30000E+00
         0.30000E+00
         0.30000E+00
         0.30000E+00
         0.30000E+00
         0.30000E+00
         0.30000E+00
         0.30000E+00
         0.30000E+00
         0.30000E+00
         0.30000E+00
         0.30000E+00
         0.30000E+00
         0.30000E+00
         0.30000E+00
         0.30000E+00
         0.30000E+00
         0.30000E+00
         0.30000E+00
         0.30000E+00
         0.30000E+00
         0.30000E+00
         0.30000E+00
         0.30000E+00
         0.30000E+00
         0.30000E+00
         0.30000E+00
         0.30000E+00
         0.30000E+00
         0.30000E+00
         0.30000E+00
         0.30000E+00
         0.30000E+00
         0.30000E+00
         0.30000E+00
         0.30000E+00
         0.30000E+00
         0.30000E+00
         0.30000E+00
         0.30000E+00
         0.30000E+00
         0.30000E+00
         0.30000E+00
         0.30000E+00
         0.30000E+00
         0.30000E+00
         0.30000E+00
         0.30000E+00
         0.30000E+00
         0.30000E+00
         0.30000E+00
         0.30000E+00
         0.30000E+00
         0.30000E+00
         0.30000E+00
         0.30000E+00
         0.30000E+00
         0.30000E+00
         0.30000E+00
         0.30000E+00
         0.30000E+00
         0.30000E+00
         0.30000E+00
         0.30000E+00
         0.30000E+00
         0.30000E+00
         0.30000E+00
         0.30000E+00
         0.30000E+00
         0.30000E+00
         0.30000E+00
         0.30000E+00
         0.30000E+00
         0.30000E+00
         0.30000E+00
         0.30000E+00
         0.30000E+00
         0.30000E+00
         0.30000E+00
         0.30000E+00
         0.30000E+00
         0.30000E+00
         0.30000E+00
         0.30000E+00
         0.30000E+00
         0.30000E+00
         0.30000E+00
         0.30000E+00
         0.30000E+00
         0.30000E+00
         0.30000E+00
         0.30000E+00
         0.30000E+00
         0.30000E+00
         0.30000E+00
         0.30000E+00
         0.30000E+00
         0.30000E+00
         0.30000E+00
         0.30000E+00
         0.30000E+00
         0.30000E+00
         0.30000E+00
         0.30000E+00
         0.30000E+00
         0.30000E+00
         0.30000E+00
         0.30000E+00
         0.30000E+00
         0.30000E+00
         0.30000E+00
         0.30000E+00
         0.30000E+00
         0.30000E+00
         0.30000E+00
         0.30000E+00
         0.30000E+00
         0.30000E+00
         0.30000E+00
         0.30000E+00
         0.30000E+00
         0.30000E+00
         0.30000E+00
         0.30000E+00
         0.30000E+00
         0.30000E+00
         0.30000E+00
         0.30000E+00
         0.30000E+00
         0.30000E+00
         0.30000E+00
         0.30000E+00
         0.30000E+00
         0.30000E+00
         0.30000E+00
         0.30000E+00
         0.30000E+00
         0.30000E+00
         0.30000E+00
         0.30000E+00
         0.30000E+00
         0.30000E+00
         0.30000E+00
         0.30000E+00
         0.30000E+00
         0.30000E+00
         0.30000E+00
         0.30000E+00
         0.30000E+00
         0.30000E+00
         0.30000E+00
         0.30000E+00
         0.30000E+00
         0.30000E+00
         0.30000E+00
         0.30000E+00
         0.30000E+00
         0.30000E+00
         0.30000E+00
         0.30000E+00
         0.30000E+00
         0.30000E+00
         0.30000E+00
         0.30000E+00
         0.30000E+00
         0.30000E+00
         0.30000E+00
         0.30000E+00
         0.30000E+00
         0.30000E+00
         0.30000E+00
         0.30000E+00
         0.30000E+00
         0.30000E+00
         0.30000E+00
         0.30000E+00
         0.30000E+00
         0.30000E+00
         0.30000E+00
         0.30000E+00
         0.30000E+00
         0.30000E+00
         0.30000E+00
         0.30000E+00
         0.30000E+00
         0.30000E+00
         0.30000E+00
         0.30000E+00
         0.30000E+00
         0.30000E+00
         0.30000E+00
         0.30000E+00
         0.30000E+00
         0.30000E+00
         0.30000E+00
         0.30000E+00
         0.30000E+00
         0.30000E+00
         0.30000E+00
         0.30000E+00
         0.30000E+00
         0.30000E+00
         0.30000E+00
         0.30000E+00
         0.30000E+00
         0.30000E+00
         0.30000E+00
         0.30000E+00
         0.30000E+00
         0.30000E+00
         0.30000E+00
         0.30000E+00
         0.30000E+00
         0.30000E+00
         0.30000E+00
         0.30000E+00
         0.30000E+00
         0.30000E+00
         0.30000E+00
         0.30000E+00
         0.30000E+00
         0.30000E+00
         0.30000E+00
         0.30000E+00
         0.30000E+00
         0.30000E+00
         0.30000E+00
         0.30000E+00
         0.30000E+00
         0.30000E+00
         0.30000E+00
         0.30000E+00
         0.30000E+00
         0.30000E+00
         0.30000E+00
         0.30000E+00
         0.30000E+00
         0.30000E+00
         0.30000E+00
         0.30000E+00
         0.30000E+00
         0.30000E+00
         0.30000E+00
         0.30000E+00
         0.30000E+00
         0.30000E+00
         0.30000E+00
         0.30000E+00
         0.30000E+00
         0.30000E+00
         0.30000E+00
         0.30000E+00
         0.30000E+00
         0.30000E+00
         0.30000E+00
         0.30000E+00
         0.30000E+00
         0.30000E+00
         0.30000E+00
         0.30000E+00
         0.30000E+00
         0.30000E+00
         0.30000E+00
         0.30000E+00
         0.30000E+00
         0.30000E+00
         0.30000E+00
         0.30000E+00
         0.30000E+00
         0.30000E+00
         0.30000E+00
         0.30000E+00
         0.30000E+00
         0.30000E+00
         0.30000E+00
         0.30000E+00
         0.30000E+00
         0.30000E+00
         0.30000E+00
         0.30000E+00
         0.30000E+00
         0.30000E+00
         0.30000E+00
         0.30000E+00
         0.30000E+00
         0.30000E+00
         0.30000E+00
         0.30000E+00
         0.30000E+00
         0.30000E+00
         0.30000E+00
         0.30000E+00
         0.30000E+00
         0.30000E+00
         0.30000E+00
         0.30000E+00
         0.30000E+00
         0.30000E+00
         0.30000E+00
         0.30000E+00
         0.30000E+00
         0.30000E+00
         0.30000E+00
         0.30000E+00
         0.30000E+00
         0.30000E+00
         0.30000E+00
         0.30000E+00
         0.30000E+00
         0.30000E+00
         0.30000E+00
         0.30000E+00
         0.30000E+00
         0.30000E+00
         0.30000E+00
         0.30000E+00
         0.30000E+00
         0.30000E+00
         0.30000E+00
         0.30000E+00
         0.30000E+00
         0.30000E+00
         0.30000E+00
         0.30000E+00
         0.30000E+00
         0.30000E+00
         0.30000E+00
         0.30000E+00
         0.30000E+00
         0.30000E+00
         0.30000E+00
         0.30000E+00
         0.30000E+00
         0.30000E+00
         0.30000E+00
         0.30000E+00
         0.30000E+00
         0.30000E+00
         0.30000E+00
         0.30000E+00
         0.30000E+00
         0.30000E+00
         0.30000E+00
         0.30000E+00
         0.30000E+00
         0.30000E+00
         0.30000E+00
         0.30000E+00
         0.30000E+00
         0.30000E+00
         0.30000E+00
         0.30000E+00
         0.30000E+00
         0.30000E+00
         0.30000E+00
         0.30000E+00
         0.30000E+00
         0.30000E+00
         0.30000E+00
         0.30000E+00
         0.30000E+00
         0.30000E+00
         0.30000E+00
         0.30000E+00
         0.30000E+00
         0.30000E+00
         0.30000E+00
         0.30000E+00
         0.30000E+00
         0.30000E+00
         0.30000E+00
         0.30000E+00
         0.30000E+00
         0.30000E+00
         0.30000E+00
         0.30000E+00
         0.30000E+00
         0.30000E+00
         0.30000E+00
         0.30000E+00
         0.30000E+00
         0.30000E+00
         0.30000E+00
         0.30000E+00
         0.30000E+00
         0.30000E+00
         0.30000E+00
         0.30000E+00
         0.30000E+00
         0.30000E+00
         0.30000E+00
         0.30000E+00
         0.30000E+00
         0.30000E+00
         0.30000E+00
         0.30000E+00
         0.30000E+00
         0.30000E+00
         0.30000E+00
         0.30000E+00
         0.30000E+00
         0.30000E+00
         0.30000E+00
         0.30000E+00
         0.30000E+00
         0.30000E+00
         0.30000E+00
         0.30000E+00
         0.30000E+00
         0.30000E+00
         0.30000E+00
         0.30000E+00
         0.30000E+00
         0.30000E+00
         0.30000E+00
         0.30000E+00
         0.30000E+00
         0.30000E+00
         0.30000E+00
         0.30000E+00
         0.30000E+00
         0.30000E+00
         0.30000E+00
         0.30000E+00
         0.30000E+00
         0.30000E+00
         0.30000E+00
         0.30000E+00
         0.30000E+00
         0.30000E+00
         0.30000E+00
         0.30000E+00
         0.30000E+00
         0.30000E+00
         0.30000E+00
         0.30000E+00
         0.30000E+00
         0.30000E+00
         0.30000E+00
         0.30000E+00
         0.30000E+00
         0.30000E+00
         0.30000E+00
         0.30000E+00
         0.30000E+00
         0.30000E+00
         0.30000E+00
         0.30000E+00
         0.30000E+00
         0.30000E+00
         0.30000E+00
         0.30000E+00
         0.30000E+00
         0.30000E+00
         0.30000E+00
         0.30000E+00
         0.30000E+00
         0.30000E+00
         0.30000E+00
         0.30000E+00
         0.30000E+00
         0.30000E+00
         0.30000E+00
         0.30000E+00
         0.30000E+00
         0.30000E+00
         0.30000E+00
         0.30000E+00
         0.30000E+00
         0.30000E+00
         0.30000E+00
         0.30000E+00
         0.30000E+00
         0.30000E+00
         0.30000E+00
         0.30000E+00
         0.30000E+00
         0.30000E+00
         0.30000E+00
         0.30000E+00
         0.30000E+00
         0.30000E+00
         0.30000E+00
         0.30000E+00
         0.30000E+00
         0.30000E+00
         0.30000E+00
         0.30000E+00
         0.30000E+00
         0.30000E+00
         0.30000E+00
         0.30000E+00
         0.30000E+00
         0.30000E+00
         0.30000E+00
         0.30000E+00
         0.30000E+00
         0.30000E+00
         0.30000E+00
         0.30000E+00
         0.30000E+00
         0.30000E+00
         0.30000E+00
         0.30000E+00
         0.30000E+00
         0.30000E+00
         0.30000E+00
         0.30000E+00
         0.30000E+00
         0.30000E+00
         0.30000E+00
         0.30000E+00
         0.30000E+00
         0.30000E+00
         0.30000E+00
         0.30000E+00
         0.30000E+00
         0.30000E+00
         0.30000E+00
         0.30000E+00
         0.30000E+00
         0.30000E+00
         0.30000E+00
         0.30000E+00
         0.30000E+00
         0.30000E+00
         0.30000E+00
         0.30000E+00
         0.30000E+00
         0.30000E+00
         0.30000E+00
         0.30000E+00
         0.30000E+00
         0.30000E+00
         0.30000E+00
         0.30000E+00
         0.30000E+00
         0.30000E+00
         0.30000E+00
         0.30000E+00
         0.30000E+00
         0.30000E+00
         0.30000E+00
         0.30000E+00
         0.30000E+00
         0.30000E+00
         0.30000E+00
         0.30000E+00
         0.30000E+00
         0.30000E+00
         0.30000E+00
         0.30000E+00
         0.30000E+00
         0.30000E+00
         0.30000E+00
         0.30000E+00
         0.30000E+00
         0.30000E+00
         0.30000E+00
         0.30000E+00
         0.30000E+00
         0.30000E+00
         0.30000E+00
         0.30000E+00
         0.30000E+00
         0.30000E+00
         0.30000E+00
         0.30000E+00
         0.30000E+00
         0.30000E+00
         0.30000E+00
         0.30000E+00
         0.30000E+00
         0.30000E+00
         0.30000E+00
         0.30000E+00
         0.30000E+00
         0.30000E+00
         0.30000E+00
         0.30000E+00
         0.30000E+00
         0.30000E+00
         0.30000E+00
         0.30000E+00
         0.30000E+00
         0.30000E+00
         0.30000E+00
         0.30000E+00
         0.30000E+00
         0.30000E+00
         0.30000E+00
         0.30000E+00
         0.30000E+00
         0.30000E+00
         0.30000E+00
         0.30000E+00
         0.30000E+00
         0.30000E+00
         0.30000E+00
         0.30000E+00
         0.30000E+00
         0.30000E+00
         0.30000E+00
         0.30000E+00
         0.30000E+00
         0.30000E+00
         0.30000E+00
         0.30000E+00
         0.30000E+00
         0.30000E+00
         0.30000E+00
         0.30000E+00
         0.30000E+00
         0.30000E+00
         0.30000E+00
         0.30000E+00
         0.30000E+00
         0.30000E+00
         0.30000E+00
         0.30000E+00
         0.30000E+00
         0.30000E+00
         0.30000E+00
         0.30000E+00
         0.30000E+00
         0.30000E+00
         0.30000E+00
         0.30000E+00
         0.30000E+00
         0.30000E+00
         0.30000E+00
         0.30000E+00
         0.30000E+00
         0.30000E+00
         0.30000E+00
         0.30000E+00
         0.30000E+00
         0.30000E+00
         0.30000E+00
         0.30000E+00
         0.30000E+00
         0.30000E+00
         0.30000E+00
         0.30000E+00
         0.30000E+00
         0.30000E+00
         0.30000E+00
         0.30000E+00
         0.30000E+00
         0.30000E+00
         0.30000E+00
         0.30000E+00
         0.30000E+00
         0.30000E+00
         0.30000E+00
         0.30000E+00
         0.30000E+00
         0.30000E+00
         0.30000E+00
         0.30000E+00
         0.30000E+00
         0.30000E+00
         0.30000E+00
         0.30000E+00
         0.30000E+00
         0.30000E+00
         0.30000E+00
         0.30000E+00
         0.30000E+00
         0.30000E+00
         0.30000E+00
         0.30000E+00
         0.30000E+00
         0.30000E+00
         0.30000E+00
         0.30000E+00
         0.30000E+00
         0.30000E+00
         0.30000E+00
         0.30000E+00
         0.30000E+00
         0.30000E+00
         0.30000E+00
         0.30000E+00
         0.30000E+00
         0.30000E+00
         0.30000E+00
         0.30000E+00
         0.30000E+00
         0.30000E+00
         0.30000E+00
         0.30000E+00
         0.30000E+00
         0.30000E+00
         0.30000E+00
         0.30000E+00
         0.30000E+00
         0.30000E+00
         0.30000E+00
         0.30000E+00
         0.30000E+00
         0.30000E+00
         0.30000E+00
         0.30000E+00
         0.30000E+00
         0.30000E+00
         0.30000E+00
         0.30000E+00
         0.30000E+00
         0.30000E+00
         0.30000E+00
         0.30000E+00
         0.30000E+00
         0.30000E+00
         0.30000E+00
         0.30000E+00
         0.30000E+00
         0.30000E+00
         0.30000E+00
         0.30000E+00
         0.30000E+00
         0.30000E+00
         0.30000E+00
         0.30000E+00
         0.30000E+00
         0.30000E+00
         0.30000E+00
         0.30000E+00
         0.30000E+00
         0.30000E+00
         0.30000E+00
         0.30000E+00
         0.30000E+00
         0.30000E+00
         0.30000E+00
         0.30000E+00
         0.30000E+00
         0.30000E+00
         0.30000E+00
         0.30000E+00
         0.30000E+00
         0.30000E+00
         0.30000E+00
         0.30000E+00
         0.30000E+00
         0.30000E+00
         0.30000E+00
         0.30000E+00
         0.30000E+00
         0.30000E+00
         0.30000E+00
         0.30000E+00
         0.30000E+00
         0.30000E+00
         0.30000E+00
         0.30000E+00
         0.30000E+00
         0.30000E+00
         0.30000E+00
         0.30000E+00
         0.30000E+00
         0.30000E+00
         0.30000E+00
         0.30000E+00
         0.30000E+00
         0.30000E+00
         0.30000E+00
         0.30000E+00
         0.30000E+00
         0.30000E+00
         0.30000E+00
         0.30000E+00
         0.30000E+00
         0.30000E+00
         0.30000E+00
         0.30000E+00
         0.30000E+00
         0.30000E+00
         0.30000E+00
         0.30000E+00
         0.30000E+00
         0.30000E+00
         0.30000E+00
         0.30000E+00
         0.30000E+00
         0.30000E+00
         0.30000E+00
         0.30000E+00
         0.30000E+00
         0.30000E+00
         0.30000E+00
         0.30000E+00
         0.30000E+00
         0.30000E+00
         0.30000E+00
         0.30000E+00
         0.30000E+00
         0.30000E+00
         0.30000E+00
         0.30000E+00
         0.30000E+00
         0.30000E+00
         0.30000E+00
         0.30000E+00
         0.30000E+00
         0.30000E+00
         0.30000E+00
         0.30000E+00
         0.30000E+00
         0.30000E+00
         0.30000E+00
         0.30000E+00
         0.30000E+00
         0.30000E+00
         0.30000E+00
         0.30000E+00
         0.30000E+00
         0.30000E+00
         0.30000E+00
         0.30000E+00
         0.30000E+00
         0.30000E+00
         0.30000E+00
         0.30000E+00
         0.30000E+00
         0.30000E+00
         0.30000E+00
         0.30000E+00
         0.30000E+00
         0.30000E+00
         0.30000E+00
         0.30000E+00
         0.30000E+00
         0.30000E+00
         0.30000E+00
         0.30000E+00
         0.30000E+00
         0.30000E+00
         0.30000E+00
         0.30000E+00
         0.30000E+00
         0.30000E+00
         0.30000E+00
         0.30000E+00
         0.30000E+00
         0.30000E+00
         0.30000E+00
         0.30000E+00
         0.30000E+00
         0.30000E+00
         0.30000E+00
         0.30000E+00
         0.30000E+00
         0.30000E+00
         0.30000E+00
         0.30000E+00
         0.30000E+00
         0.30000E+00
         0.30000E+00
         0.30000E+00
         0.30000E+00
         0.30000E+00
         0.30000E+00
         0.30000E+00
         0.30000E+00
         0.30000E+00
         0.30000E+00
         0.30000E+00
         0.30000E+00
         0.30000E+00
         0.30000E+00
         0.30000E+00
         0.30000E+00
         0.30000E+00
         0.30000E+00
         0.30000E+00
         0.30000E+00
         0.30000E+00
         0.30000E+00
         0.30000E+00
         0.30000E+00
         0.30000E+00
         0.30000E+00
         0.30000E+00
         0.30000E+00
         0.30000E+00
         0.30000E+00
         0.30000E+00
         0.30000E+00
         0.30000E+00
         0.30000E+00
         0.30000E+00
         0.30000E+00
         0.30000E+00
         0.30000E+00
         0.30000E+00
         0.30000E+00
         0.30000E+00
         0.30000E+00
         0.30000E+00
         0.30000E+00
         0.30000E+00
         0.30000E+00
         0.30000E+00
         0.30000E+00
         0.30000E+00
         0.30000E+00
         0.30000E+00
         0.30000E+00
         0.30000E+00
         0.30000E+00
         0.30000E+00
         0.30000E+00
         0.30000E+00
         0.30000E+00
         0.30000E+00
         0.30000E+00
         0.30000E+00
         0.30000E+00
         0.30000E+00
         0.30000E+00
         0.30000E+00
         0.30000E+00
         0.30000E+00
         0.30000E+00
         0.30000E+00
         0.30000E+00
         0.30000E+00
         0.30000E+00
         0.30000E+00
         0.30000E+00
         0.30000E+00
         0.30000E+00
         0.30000E+00
         0.30000E+00
         0.30000E+00
         0.30000E+00
         0.30000E+00
         0.30000E+00
         0.30000E+00
         0.30000E+00
         0.30000E+00
         0.30000E+00
         0.30000E+00
         0.30000E+00
         0.30000E+00
         0.30000E+00
         0.30000E+00
         0.30000E+00
         0.30000E+00
         0.30000E+00
         0.30000E+00
         0.30000E+00
         0.30000E+00
         0.30000E+00
         0.30000E+00
         0.30000E+00
         0.30000E+00
         0.30000E+00
         0.30000E+00
         0.30000E+00
         0.30000E+00
         0.30000E+00
         0.30000E+00
         0.30000E+00
         0.30000E+00
         0.30000E+00
         0.30000E+00
         0.30000E+00
         0.30000E+00
         0.30000E+00
         0.30000E+00
         0.30000E+00
         0.30000E+00
         0.30000E+00
         0.30000E+00
         0.30000E+00
         0.30000E+00
         0.30000E+00
         0.30000E+00
         0.30000E+00
         0.30000E+00
         0.30000E+00
         0.30000E+00
         0.30000E+00
         0.30000E+00
         0.30000E+00
         0.30000E+00
         0.30000E+00
         0.30000E+00
         0.30000E+00
         0.30000E+00
         0.30000E+00
         0.30000E+00
         0.30000E+00
         0.30000E+00
         0.30000E+00
         0.30000E+00
         0.30000E+00
         0.30000E+00
         0.30000E+00
         0.30000E+00
         0.30000E+00
         0.30000E+00
         0.30000E+00
         0.30000E+00
         0.30000E+00
         0.30000E+00
         0.30000E+00
         0.30000E+00
         0.30000E+00
         0.30000E+00
         0.30000E+00
         0.30000E+00
         0.30000E+00
         0.30000E+00
         0.30000E+00
         0.30000E+00
         0.30000E+00
         0.30000E+00
         0.30000E+00
         0.30000E+00
         0.30000E+00
         0.30000E+00
         0.30000E+00
         0.30000E+00
         0.30000E+00
         0.30000E+00
         0.30000E+00
         0.30000E+00
         0.30000E+00
         0.30000E+00
         0.30000E+00
         0.30000E+00
         0.30000E+00
         0.30000E+00
         0.30000E+00
         0.30000E+00
         0.30000E+00
         0.30000E+00
         0.30000E+00
         0.30000E+00
         0.30000E+00
         0.30000E+00
         0.30000E+00
         0.30000E+00
         0.30000E+00
         0.30000E+00
         0.30000E+00
         0.30000E+00
         0.30000E+00
         0.30000E+00
         0.30000E+00
         0.30000E+00
         0.30000E+00
         0.30000E+00
         0.30000E+00
         0.30000E+00
         0.30000E+00
         0.30000E+00
         0.30000E+00
         0.30000E+00
         0.30000E+00
         0.30000E+00
         0.30000E+00
         0.30000E+00
         0.30000E+00
         0.30000E+00
         0.30000E+00
         0.30000E+00
         0.30000E+00
         0.30000E+00
         0.30000E+00
         0.30000E+00
         0.30000E+00
         0.30000E+00
         0.30000E+00
         0.30000E+00
         0.30000E+00
         0.30000E+00
         0.30000E+00
         0.30000E+00
         0.30000E+00
         0.30000E+00
         0.30000E+00
         0.30000E+00
         0.30000E+00
         0.30000E+00
         0.30000E+00
         0.30000E+00
         0.30000E+00
         0.30000E+00
         0.30000E+00
         0.30000E+00
         0.30000E+00
         0.30000E+00
         0.30000E+00
         0.30000E+00
         0.30000E+00
         0.30000E+00
         0.30000E+00
         0.30000E+00
         0.30000E+00
         0.30000E+00
         0.30000E+00
         0.30000E+00
         0.30000E+00
         0.30000E+00
         0.30000E+00
         0.30000E+00
         0.30000E+00
         0.30000E+00
         0.30000E+00
         0.30000E+00
         0.30000E+00
         0.30000E+00
         0.30000E+00
         0.30000E+00
         0.30000E+00
         0.30000E+00
         0.30000E+00
         0.30000E+00
         0.30000E+00
         0.30000E+00
         0.30000E+00
         0.30000E+00
         0.30000E+00
         0.30000E+00
         0.30000E+00
         0.30000E+00
         0.30000E+00
         0.30000E+00
         0.30000E+00
         0.30000E+00
         0.30000E+00
         0.30000E+00
         0.30000E+00
         0.30000E+00
         0.30000E+00
         0.30000E+00
         0.30000E+00
         0.30000E+00
         0.30000E+00
         0.30000E+00
         0.30000E+00
         0.30000E+00
         0.30000E+00
         0.30000E+00
         0.30000E+00
         0.30000E+00
         0.30000E+00
         0.30000E+00
         0.30000E+00
         0.30000E+00
         0.30000E+00
         0.30000E+00
         0.30000E+00
         0.30000E+00
         0.30000E+00
         0.30000E+00
         0.30000E+00
         0.30000E+00
         0.30000E+00
         0.30000E+00
         0.30000E+00
         0.30000E+00
         0.30000E+00
         0.30000E+00
         0.30000E+00
         0.30000E+00
         0.30000E+00
         0.30000E+00
         0.30000E+00
         0.30000E+00
         0.30000E+00
         0.30000E+00
         0.30000E+00
         0.30000E+00
         0.30000E+00
         0.30000E+00
         0.30000E+00
         0.30000E+00
         0.30000E+00
         0.30000E+00
         0.30000E+00
         0.30000E+00
         0.30000E+00
         0.30000E+00
         0.30000E+00
         0.30000E+00
         0.30000E+00
         0.30000E+00
         0.30000E+00
         0.30000E+00
         0.30000E+00
         0.30000E+00
         0.30000E+00
         0.30000E+00
         0.30000E+00
         0.30000E+00
         0.30000E+00
         0.30000E+00
         0.30000E+00
         0.30000E+00
         0.30000E+00
         0.30000E+00
         0.30000E+00
         0.30000E+00
         0.30000E+00
         0.30000E+00
         0.30000E+00
         0.30000E+00
         0.30000E+00
         0.30000E+00
         0.30000E+00
         0.30000E+00
         0.30000E+00
         0.30000E+00
         0.30000E+00
         0.30000E+00
         0.30000E+00
         0.30000E+00
         0.30000E+00
         0.30000E+00
         0.30000E+00
         0.30000E+00
         0.30000E+00
         0.30000E+00
         0.30000E+00
         0.30000E+00
         0.30000E+00
         0.30000E+00
         0.30000E+00
         0.30000E+00
         0.30000E+00
         0.30000E+00
         0.30000E+00
         0.30000E+00
         0.30000E+00
         0.30000E+00
         0.30000E+00
         0.30000E+00
         0.30000E+00
         0.30000E+00
         0.30000E+00
         0.30000E+00
         0.30000E+00
         0.30000E+00
         0.30000E+00
         0.30000E+00
         0.30000E+00
         0.30000E+00
         0.30000E+00
         0.30000E+00
         0.30000E+00
         0.30000E+00
         0.30000E+00
         0.30000E+00
         0.30000E+00
         0.30000E+00
         0.30000E+00
         0.30000E+00
         0.30000E+00
         0.30000E+00
         0.30000E+00
         0.30000E+00
         0.30000E+00
         0.30000E+00
         0.30000E+00
         0.30000E+00
         0.30000E+00
         0.30000E+00
         0.30000E+00
         0.30000E+00
         0.30000E+00
         0.30000E+00
         0.30000E+00
         0.30000E+00
         0.30000E+00
         0.30000E+00
         0.30000E+00
         0.30000E+00
         0.30000E+00
         0.30000E+00
         0.30000E+00
         0.30000E+00
         0.30000E+00
         0.30000E+00
         0.30000E+00
         0.30000E+00
         0.30000E+00
         0.30000E+00
         0.30000E+00
         0.30000E+00
         0.30000E+00
         0.30000E+00
         0.30000E+00
         0.30000E+00
         0.30000E+00
         0.30000E+00
         0.30000E+00
         0.30000E+00
         0.30000E+00
         0.30000E+00
         0.30000E+00
         0.30000E+00
         0.30000E+00
         0.30000E+00
         0.30000E+00
         0.30000E+00
         0.30000E+00
         0.30000E+00
         0.30000E+00
         0.30000E+00
         0.30000E+00
         0.30000E+00
         0.30000E+00
         0.30000E+00
         0.30000E+00
         0.30000E+00
         0.30000E+00
         0.30000E+00
         0.30000E+00
         0.30000E+00
         0.30000E+00
         0.30000E+00
         0.30000E+00
         0.30000E+00
         0.30000E+00
         0.30000E+00
         0.30000E+00
         0.30000E+00
         0.30000E+00
         0.30000E+00
         0.30000E+00
         0.30000E+00
         0.30000E+00
         0.30000E+00
         0.30000E+00
         0.30000E+00
         0.30000E+00
         0.30000E+00
         0.30000E+00
         0.30000E+00
         0.30000E+00
         0.30000E+00
         0.30000E+00
         0.30000E+00
         0.30000E+00
         0.30000E+00
         0.30000E+00
         0.30000E+00
         0.30000E+00
         0.30000E+00
         0.30000E+00
         0.30000E+00
         0.30000E+00
         0.30000E+00
         0.30000E+00
         0.30000E+00
         0.30000E+00
         0.30000E+00
         0.30000E+00
         0.30000E+00
         0.30000E+00
         0.30000E+00
         0.30000E+00
         0.30000E+00
         0.30000E+00
         0.30000E+00
         0.30000E+00
         0.30000E+00
         0.30000E+00
         0.30000E+00
         0.30000E+00
         0.30000E+00
         0.30000E+00
         0.30000E+00
         0.30000E+00
         0.30000E+00
         0.30000E+00
         0.30000E+00
         0.30000E+00
         0.30000E+00
         0.30000E+00
         0.30000E+00
         0.30000E+00
         0.30000E+00
         0.30000E+00
         0.30000E+00
         0.30000E+00
         0.30000E+00
         0.30000E+00
         0.30000E+00
         0.30000E+00
         0.30000E+00
         0.30000E+00
         0.30000E+00
         0.30000E+00
         0.30000E+00
         0.30000E+00
         0.30000E+00
         0.30000E+00
         0.30000E+00
         0.30000E+00
         0.30000E+00
         0.30000E+00
         0.30000E+00
         0.30000E+00
         0.30000E+00
         0.30000E+00
         0.30000E+00
         0.30000E+00
         0.30000E+00
         0.30000E+00
         0.30000E+00
         0.30000E+00
         0.30000E+00
         0.30000E+00
         0.30000E+00
         0.30000E+00
         0.30000E+00
         0.30000E+00
         0.30000E+00
         0.30000E+00
         0.30000E+00
         0.30000E+00
         0.30000E+00
         0.30000E+00
         0.30000E+00
         0.30000E+00
         0.30000E+00
         0.30000E+00
         0.30000E+00
         0.30000E+00
         0.30000E+00
         0.30000E+00
         0.30000E+00
         0.30000E+00
         0.30000E+00
         0.30000E+00
         0.30000E+00
         0.30000E+00
         0.30000E+00
         0.30000E+00
         0.30000E+00
         0.30000E+00
         0.30000E+00
         0.30000E+00
         0.30000E+00
         0.30000E+00
         0.30000E+00
         0.30000E+00
         0.30000E+00
         0.30000E+00
         0.30000E+00
         0.30000E+00
         0.30000E+00
         0.30000E+00
         0.30000E+00
         0.30000E+00
         0.30000E+00
         0.30000E+00
         0.30000E+00
         0.30000E+00
         0.30000E+00
         0.30000E+00
         0.30000E+00
         0.30000E+00
         0.30000E+00
         0.30000E+00
         0.30000E+00
         0.30000E+00
         0.30000E+00
         0.30000E+00
         0.30000E+00
         0.30000E+00
         0.30000E+00
         0.30000E+00
         0.30000E+00
         0.30000E+00
         0.30000E+00
         0.30000E+00
         0.30000E+00
         0.30000E+00
         0.30000E+00
         0.30000E+00
         0.30000E+00
         0.30000E+00
         0.30000E+00
         0.30000E+00
         0.30000E+00
         0.30000E+00
         0.30000E+00
         0.30000E+00
         0.30000E+00
         0.30000E+00
         0.30000E+00
         0.30000E+00
         0.30000E+00
         0.30000E+00
         0.30000E+00
         0.30000E+00
         0.30000E+00
         0.30000E+00
         0.30000E+00
         0.30000E+00
         0.30000E+00
         0.30000E+00
         0.30000E+00
         0.30000E+00
         0.30000E+00
         0.30000E+00
         0.30000E+00
         0.30000E+00
         0.30000E+00
         0.30000E+00
         0.30000E+00
         0.30000E+00
  
SCALARS                 Youngs_modulus  double 1
LOOKUP_TABLE default
         0.78200E+11
         0.78200E+11
         0.78200E+11
         0.78200E+11
         0.78200E+11
         0.78200E+11
         0.78200E+11
         0.78200E+11
         0.78200E+11
         0.78200E+11
         0.78200E+11
         0.78200E+11
         0.78200E+11
         0.78200E+11
         0.78200E+11
         0.78200E+11
         0.78200E+11
         0.78200E+11
         0.78200E+11
         0.78200E+11
         0.78200E+11
         0.78200E+11
         0.78200E+11
         0.78200E+11
         0.78200E+11
         0.78200E+11
         0.78200E+11
         0.78200E+11
         0.78200E+11
         0.78200E+11
         0.78200E+11
         0.78200E+11
         0.78200E+11
         0.78200E+11
         0.78200E+11
         0.78200E+11
         0.78200E+11
         0.78200E+11
         0.78200E+11
         0.78200E+11
         0.78200E+11
         0.78200E+11
         0.78200E+11
         0.78200E+11
         0.78200E+11
         0.78200E+11
         0.78200E+11
         0.78200E+11
         0.78200E+11
         0.78200E+11
         0.78200E+11
         0.78200E+11
         0.78200E+11
         0.78200E+11
         0.78200E+11
         0.78200E+11
         0.78200E+11
         0.78200E+11
         0.78200E+11
         0.78200E+11
         0.78200E+11
         0.78200E+11
         0.78200E+11
         0.78200E+11
         0.78200E+11
         0.78200E+11
         0.78200E+11
         0.78200E+11
         0.78200E+11
         0.78200E+11
         0.78200E+11
         0.78200E+11
         0.78200E+11
         0.78200E+11
         0.78200E+11
         0.78200E+11
         0.78200E+11
         0.78200E+11
         0.78200E+11
         0.78200E+11
         0.78200E+11
         0.78200E+11
         0.78200E+11
         0.78200E+11
         0.78200E+11
         0.78200E+11
         0.78200E+11
         0.78200E+11
         0.78200E+11
         0.78200E+11
         0.78200E+11
         0.78200E+11
         0.78200E+11
         0.78200E+11
         0.78200E+11
         0.78200E+11
         0.78200E+11
         0.78200E+11
         0.78200E+11
         0.78200E+11
         0.78200E+11
         0.78200E+11
         0.78200E+11
         0.78200E+11
         0.78200E+11
         0.78200E+11
         0.78200E+11
         0.78200E+11
         0.78200E+11
         0.78200E+11
         0.78200E+11
         0.78200E+11
         0.78200E+11
         0.78200E+11
         0.78200E+11
         0.78200E+11
         0.78200E+11
         0.78200E+11
         0.78200E+11
         0.78200E+11
         0.78200E+11
         0.78200E+11
         0.78200E+11
         0.78200E+11
         0.78200E+11
         0.78200E+11
         0.78200E+11
         0.78200E+11
         0.78200E+11
         0.78200E+11
         0.78200E+11
         0.78200E+11
         0.78200E+11
         0.78200E+11
         0.78200E+11
         0.78200E+11
         0.78200E+11
         0.78200E+11
         0.78200E+11
         0.78200E+11
         0.78200E+11
         0.78200E+11
         0.78200E+11
         0.78200E+11
         0.78200E+11
         0.78200E+11
         0.78200E+11
         0.78200E+11
         0.78200E+11
         0.78200E+11
         0.78200E+11
         0.78200E+11
         0.78200E+11
         0.78200E+11
         0.78200E+11
         0.78200E+11
         0.78200E+11
         0.78200E+11
         0.78200E+11
         0.78200E+11
         0.78200E+11
         0.78200E+11
         0.78200E+11
         0.78200E+11
         0.78200E+11
         0.78200E+11
         0.78200E+11
         0.78200E+11
         0.78200E+11
         0.78200E+11
         0.78200E+11
         0.78200E+11
         0.78200E+11
         0.78200E+11
         0.78200E+11
         0.78200E+11
         0.78200E+11
         0.78200E+11
         0.78200E+11
         0.78200E+11
         0.78200E+11
         0.78200E+11
         0.78200E+11
         0.78200E+11
         0.78200E+11
         0.78200E+11
         0.78200E+11
         0.78200E+11
         0.78200E+11
         0.78200E+11
         0.78200E+11
         0.78200E+11
         0.78200E+11
         0.78200E+11
         0.78200E+11
         0.78200E+11
         0.78200E+11
         0.78200E+11
         0.78200E+11
         0.78200E+11
         0.78200E+11
         0.78200E+11
         0.78200E+11
         0.78200E+11
         0.78200E+11
         0.78200E+11
         0.78200E+11
         0.78200E+11
         0.78200E+11
         0.78200E+11
         0.78200E+11
         0.78200E+11
         0.78200E+11
         0.78200E+11
         0.78200E+11
         0.78200E+11
         0.78200E+11
         0.78200E+11
         0.78200E+11
         0.78200E+11
         0.78200E+11
         0.78200E+11
         0.78200E+11
         0.78200E+11
         0.78200E+11
         0.78200E+11
         0.78200E+11
         0.78200E+11
         0.78200E+11
         0.78200E+11
         0.78200E+11
         0.78200E+11
         0.78200E+11
         0.78200E+11
         0.78200E+11
         0.78200E+11
         0.78200E+11
         0.78200E+11
         0.78200E+11
         0.78200E+11
         0.78200E+11
         0.78200E+11
         0.78200E+11
         0.78200E+11
         0.78200E+11
         0.78200E+11
         0.78200E+11
         0.78200E+11
         0.78200E+11
         0.78200E+11
         0.78200E+11
         0.78200E+11
         0.78200E+11
         0.78200E+11
         0.78200E+11
         0.78200E+11
         0.78200E+11
         0.78200E+11
         0.78200E+11
         0.78200E+11
         0.78200E+11
         0.78200E+11
         0.78200E+11
         0.78200E+11
         0.78200E+11
         0.78200E+11
         0.78200E+11
         0.78200E+11
         0.78200E+11
         0.78200E+11
         0.78200E+11
         0.78200E+11
         0.78200E+11
         0.78200E+11
         0.78200E+11
         0.78200E+11
         0.78200E+11
         0.78200E+11
         0.78200E+11
         0.78200E+11
         0.78200E+11
         0.78200E+11
         0.78200E+11
         0.78200E+11
         0.78200E+11
         0.78200E+11
         0.78200E+11
         0.78200E+11
         0.78200E+11
         0.78200E+11
         0.78200E+11
         0.78200E+11
         0.78200E+11
         0.78200E+11
         0.78200E+11
         0.78200E+11
         0.78200E+11
         0.78200E+11
         0.78200E+11
         0.78200E+11
         0.78200E+11
         0.78200E+11
         0.78200E+11
         0.78200E+11
         0.78200E+11
         0.78200E+11
         0.78200E+11
         0.78200E+11
         0.78200E+11
         0.78200E+11
         0.78200E+11
         0.78200E+11
         0.78200E+11
         0.78200E+11
         0.78200E+11
         0.78200E+11
         0.78200E+11
         0.78200E+11
         0.78200E+11
         0.78200E+11
         0.78200E+11
         0.78200E+11
         0.78200E+11
         0.78200E+11
         0.78200E+11
         0.78200E+11
         0.78200E+11
         0.78200E+11
         0.78200E+11
         0.78200E+11
         0.78200E+11
         0.78200E+11
         0.78200E+11
         0.78200E+11
         0.78200E+11
         0.78200E+11
         0.78200E+11
         0.78200E+11
         0.78200E+11
         0.78200E+11
         0.78200E+11
         0.78200E+11
         0.78200E+11
         0.78200E+11
         0.78200E+11
         0.78200E+11
         0.78200E+11
         0.78200E+11
         0.78200E+11
         0.78200E+11
         0.78200E+11
         0.78200E+11
         0.78200E+11
         0.78200E+11
         0.78200E+11
         0.78200E+11
         0.78200E+11
         0.78200E+11
         0.78200E+11
         0.78200E+11
         0.78200E+11
         0.78200E+11
         0.78200E+11
         0.78200E+11
         0.78200E+11
         0.78200E+11
         0.78200E+11
         0.78200E+11
         0.78200E+11
         0.78200E+11
         0.78200E+11
         0.78200E+11
         0.78200E+11
         0.78200E+11
         0.78200E+11
         0.78200E+11
         0.78200E+11
         0.78200E+11
         0.78200E+11
         0.78200E+11
         0.78200E+11
         0.78200E+11
         0.78200E+11
         0.78200E+11
         0.78200E+11
         0.78200E+11
         0.78200E+11
         0.78200E+11
         0.78200E+11
         0.78200E+11
         0.78200E+11
         0.78200E+11
         0.78200E+11
         0.78200E+11
         0.78200E+11
         0.78200E+11
         0.78200E+11
         0.78200E+11
         0.78200E+11
         0.78200E+11
         0.78200E+11
         0.78200E+11
         0.78200E+11
         0.78200E+11
         0.78200E+11
         0.78200E+11
         0.78200E+11
         0.78200E+11
         0.78200E+11
         0.78200E+11
         0.78200E+11
         0.78200E+11
         0.78200E+11
         0.78200E+11
         0.78200E+11
         0.78200E+11
         0.78200E+11
         0.78200E+11
         0.78200E+11
         0.78200E+11
         0.78200E+11
         0.78200E+11
         0.78200E+11
         0.78200E+11
         0.78200E+11
         0.78200E+11
         0.78200E+11
         0.78200E+11
         0.78200E+11
         0.78200E+11
         0.78200E+11
         0.78200E+11
         0.78200E+11
         0.78200E+11
         0.78200E+11
         0.78200E+11
         0.78200E+11
         0.78200E+11
         0.78200E+11
         0.78200E+11
         0.78200E+11
         0.78200E+11
         0.78200E+11
         0.78200E+11
         0.78200E+11
         0.78200E+11
         0.78200E+11
         0.78200E+11
         0.78200E+11
         0.78200E+11
         0.78200E+11
         0.78200E+11
         0.78200E+11
         0.78200E+11
         0.78200E+11
         0.78200E+11
         0.78200E+11
         0.78200E+11
         0.78200E+11
         0.78200E+11
         0.78200E+11
         0.78200E+11
         0.78200E+11
         0.78200E+11
         0.78200E+11
         0.78200E+11
         0.78200E+11
         0.78200E+11
         0.78200E+11
         0.78200E+11
         0.78200E+11
         0.78200E+11
         0.78200E+11
         0.78200E+11
         0.78200E+11
         0.78200E+11
         0.78200E+11
         0.78200E+11
         0.78200E+11
         0.78200E+11
         0.78200E+11
         0.78200E+11
         0.78200E+11
         0.78200E+11
         0.78200E+11
         0.78200E+11
         0.78200E+11
         0.78200E+11
         0.78200E+11
         0.78200E+11
         0.78200E+11
         0.78200E+11
         0.78200E+11
         0.78200E+11
         0.78200E+11
         0.78200E+11
         0.78200E+11
         0.78200E+11
         0.78200E+11
         0.78200E+11
         0.78200E+11
         0.78200E+11
         0.78200E+11
         0.78200E+11
         0.78200E+11
         0.78200E+11
         0.78200E+11
         0.78200E+11
         0.78200E+11
         0.78200E+11
         0.78200E+11
         0.78200E+11
         0.78200E+11
         0.78200E+11
         0.78200E+11
         0.78200E+11
         0.78200E+11
         0.78200E+11
         0.78200E+11
         0.78200E+11
         0.78200E+11
         0.78200E+11
         0.78200E+11
         0.78200E+11
         0.78200E+11
         0.78200E+11
         0.78200E+11
         0.78200E+11
         0.78200E+11
         0.78200E+11
         0.78200E+11
         0.78200E+11
         0.78200E+11
         0.78200E+11
         0.78200E+11
         0.78200E+11
         0.78200E+11
         0.78200E+11
         0.78200E+11
         0.78200E+11
         0.78200E+11
         0.78200E+11
         0.78200E+11
         0.78200E+11
         0.78200E+11
         0.78200E+11
         0.78200E+11
         0.78200E+11
         0.78200E+11
         0.78200E+11
         0.78200E+11
         0.78200E+11
         0.78200E+11
         0.78200E+11
         0.78200E+11
         0.78200E+11
         0.78200E+11
         0.78200E+11
         0.78200E+11
         0.78200E+11
         0.78200E+11
         0.78200E+11
         0.78200E+11
         0.78200E+11
         0.78200E+11
         0.78200E+11
         0.78200E+11
         0.78200E+11
         0.78200E+11
         0.78200E+11
         0.78200E+11
         0.78200E+11
         0.78200E+11
         0.78200E+11
         0.78200E+11
         0.78200E+11
         0.78200E+11
         0.78200E+11
         0.78200E+11
         0.78200E+11
         0.78200E+11
         0.78200E+11
         0.78200E+11
         0.78200E+11
         0.78200E+11
         0.78200E+11
         0.78200E+11
         0.78200E+11
         0.78200E+11
         0.78200E+11
         0.78200E+11
         0.78200E+11
         0.78200E+11
         0.78200E+11
         0.78200E+11
         0.78200E+11
         0.78200E+11
         0.78200E+11
         0.78200E+11
         0.78200E+11
         0.78200E+11
         0.78200E+11
         0.78200E+11
         0.78200E+11
         0.78200E+11
         0.78200E+11
         0.78200E+11
         0.78200E+11
         0.78200E+11
         0.78200E+11
         0.78200E+11
         0.78200E+11
         0.78200E+11
         0.78200E+11
         0.78200E+11
         0.78200E+11
         0.78200E+11
         0.78200E+11
         0.78200E+11
         0.78200E+11
         0.78200E+11
         0.78200E+11
         0.78200E+11
         0.78200E+11
         0.78200E+11
         0.78200E+11
         0.78200E+11
         0.78200E+11
         0.78200E+11
         0.78200E+11
         0.78200E+11
         0.78200E+11
         0.78200E+11
         0.78200E+11
         0.78200E+11
         0.78200E+11
         0.78200E+11
         0.78200E+11
         0.78200E+11
         0.78200E+11
         0.78200E+11
         0.78200E+11
         0.78200E+11
         0.78200E+11
         0.78200E+11
         0.78200E+11
         0.78200E+11
         0.78200E+11
         0.78200E+11
         0.78200E+11
         0.78200E+11
         0.78200E+11
         0.78200E+11
         0.78200E+11
         0.78200E+11
         0.78200E+11
         0.78200E+11
         0.78200E+11
         0.78200E+11
         0.78200E+11
         0.78200E+11
         0.78200E+11
         0.78200E+11
         0.78200E+11
         0.78200E+11
         0.78200E+11
         0.78200E+11
         0.78200E+11
         0.78200E+11
         0.78200E+11
         0.78200E+11
         0.78200E+11
         0.78200E+11
         0.78200E+11
         0.78200E+11
         0.78200E+11
         0.78200E+11
         0.78200E+11
         0.78200E+11
         0.78200E+11
         0.78200E+11
         0.78200E+11
         0.78200E+11
         0.78200E+11
         0.78200E+11
         0.78200E+11
         0.78200E+11
         0.78200E+11
         0.78200E+11
         0.78200E+11
         0.78200E+11
         0.78200E+11
         0.78200E+11
         0.78200E+11
         0.78200E+11
         0.78200E+11
         0.78200E+11
         0.78200E+11
         0.78200E+11
         0.78200E+11
         0.78200E+11
         0.78200E+11
         0.78200E+11
         0.78200E+11
         0.78200E+11
         0.78200E+11
         0.78200E+11
         0.78200E+11
         0.78200E+11
         0.78200E+11
         0.78200E+11
         0.78200E+11
         0.78200E+11
         0.78200E+11
         0.78200E+11
         0.78200E+11
         0.78200E+11
         0.78200E+11
         0.78200E+11
         0.78200E+11
         0.78200E+11
         0.78200E+11
         0.78200E+11
         0.78200E+11
         0.78200E+11
         0.78200E+11
         0.78200E+11
         0.78200E+11
         0.78200E+11
         0.78200E+11
         0.78200E+11
         0.78200E+11
         0.78200E+11
         0.78200E+11
         0.78200E+11
         0.78200E+11
         0.78200E+11
         0.78200E+11
         0.78200E+11
         0.78200E+11
         0.78200E+11
         0.78200E+11
         0.78200E+11
         0.78200E+11
         0.78200E+11
         0.78200E+11
         0.78200E+11
         0.78200E+11
         0.78200E+11
         0.78200E+11
         0.78200E+11
         0.78200E+11
         0.78200E+11
         0.78200E+11
         0.78200E+11
         0.78200E+11
         0.78200E+11
         0.78200E+11
         0.78200E+11
         0.78200E+11
         0.78200E+11
         0.78200E+11
         0.78200E+11
         0.78200E+11
         0.78200E+11
         0.78200E+11
         0.78200E+11
         0.78200E+11
         0.78200E+11
         0.78200E+11
         0.78200E+11
         0.78200E+11
         0.78200E+11
         0.78200E+11
         0.78200E+11
         0.78200E+11
         0.78200E+11
         0.78200E+11
         0.78200E+11
         0.78200E+11
         0.78200E+11
         0.78200E+11
         0.78200E+11
         0.78200E+11
         0.78200E+11
         0.78200E+11
         0.78200E+11
         0.78200E+11
         0.78200E+11
         0.78200E+11
         0.78200E+11
         0.78200E+11
         0.78200E+11
         0.78200E+11
         0.78200E+11
         0.78200E+11
         0.78200E+11
         0.78200E+11
         0.78200E+11
         0.78200E+11
         0.78200E+11
         0.78200E+11
         0.78200E+11
         0.78200E+11
         0.78200E+11
         0.78200E+11
         0.78200E+11
         0.78200E+11
         0.78200E+11
         0.78200E+11
         0.78200E+11
         0.78200E+11
         0.78200E+11
         0.78200E+11
         0.78200E+11
         0.78200E+11
         0.78200E+11
         0.78200E+11
         0.78200E+11
         0.78200E+11
         0.78200E+11
         0.78200E+11
         0.78200E+11
         0.78200E+11
         0.78200E+11
         0.78200E+11
         0.78200E+11
         0.78200E+11
         0.78200E+11
         0.78200E+11
         0.78200E+11
         0.78200E+11
         0.78200E+11
         0.78200E+11
         0.78200E+11
         0.78200E+11
         0.78200E+11
         0.78200E+11
         0.78200E+11
         0.78200E+11
         0.78200E+11
         0.78200E+11
         0.78200E+11
         0.78200E+11
         0.78200E+11
         0.78200E+11
         0.78200E+11
         0.78200E+11
         0.78200E+11
         0.78200E+11
         0.78200E+11
         0.78200E+11
         0.78200E+11
         0.78200E+11
         0.78200E+11
         0.78200E+11
         0.78200E+11
         0.78200E+11
         0.78200E+11
         0.78200E+11
         0.78200E+11
         0.78200E+11
         0.78200E+11
         0.78200E+11
         0.78200E+11
         0.78200E+11
         0.78200E+11
         0.78200E+11
         0.78200E+11
         0.78200E+11
         0.78200E+11
         0.78200E+11
         0.78200E+11
         0.78200E+11
         0.78200E+11
         0.78200E+11
         0.78200E+11
         0.78200E+11
         0.78200E+11
         0.78200E+11
         0.78200E+11
         0.78200E+11
         0.78200E+11
         0.78200E+11
         0.78200E+11
         0.78200E+11
         0.78200E+11
         0.78200E+11
         0.78200E+11
         0.78200E+11
         0.78200E+11
         0.78200E+11
         0.78200E+11
         0.78200E+11
         0.78200E+11
         0.78200E+11
         0.78200E+11
         0.78200E+11
         0.78200E+11
         0.78200E+11
         0.78200E+11
         0.78200E+11
         0.78200E+11
         0.78200E+11
         0.78200E+11
         0.78200E+11
         0.78200E+11
         0.78200E+11
         0.78200E+11
         0.78200E+11
         0.78200E+11
         0.78200E+11
         0.78200E+11
         0.78200E+11
         0.78200E+11
         0.78200E+11
         0.78200E+11
         0.78200E+11
         0.78200E+11
         0.78200E+11
         0.78200E+11
         0.78200E+11
         0.78200E+11
         0.78200E+11
         0.78200E+11
         0.78200E+11
         0.78200E+11
         0.78200E+11
         0.78200E+11
         0.78200E+11
         0.78200E+11
         0.78200E+11
         0.78200E+11
         0.78200E+11
         0.78200E+11
         0.78200E+11
         0.78200E+11
         0.78200E+11
         0.78200E+11
         0.78200E+11
         0.78200E+11
         0.78200E+11
         0.78200E+11
         0.78200E+11
         0.78200E+11
         0.78200E+11
         0.78200E+11
         0.78200E+11
         0.78200E+11
         0.78200E+11
         0.78200E+11
         0.78200E+11
         0.78200E+11
         0.78200E+11
         0.78200E+11
         0.78200E+11
         0.78200E+11
         0.78200E+11
         0.78200E+11
         0.78200E+11
         0.78200E+11
         0.78200E+11
         0.78200E+11
         0.78200E+11
         0.78200E+11
         0.78200E+11
         0.78200E+11
         0.78200E+11
         0.78200E+11
         0.78200E+11
         0.78200E+11
         0.78200E+11
         0.78200E+11
         0.78200E+11
         0.78200E+11
         0.78200E+11
         0.78200E+11
         0.78200E+11
         0.78200E+11
         0.78200E+11
         0.78200E+11
         0.78200E+11
         0.78200E+11
         0.78200E+11
         0.78200E+11
         0.78200E+11
         0.78200E+11
         0.78200E+11
         0.78200E+11
         0.78200E+11
         0.78200E+11
         0.78200E+11
         0.78200E+11
         0.78200E+11
         0.78200E+11
         0.78200E+11
         0.78200E+11
         0.78200E+11
         0.78200E+11
         0.78200E+11
         0.78200E+11
         0.78200E+11
         0.78200E+11
         0.78200E+11
         0.78200E+11
         0.78200E+11
         0.78200E+11
         0.78200E+11
         0.78200E+11
         0.78200E+11
         0.78200E+11
         0.78200E+11
         0.78200E+11
         0.78200E+11
         0.78200E+11
         0.78200E+11
         0.78200E+11
         0.78200E+11
         0.78200E+11
         0.78200E+11
         0.78200E+11
         0.78200E+11
         0.78200E+11
         0.78200E+11
         0.78200E+11
         0.78200E+11
         0.78200E+11
         0.78200E+11
         0.78200E+11
         0.78200E+11
         0.78200E+11
         0.78200E+11
         0.78200E+11
         0.78200E+11
         0.78200E+11
         0.78200E+11
         0.78200E+11
         0.78200E+11
         0.78200E+11
         0.78200E+11
         0.78200E+11
         0.78200E+11
         0.78200E+11
         0.78200E+11
         0.78200E+11
         0.78200E+11
         0.78200E+11
         0.78200E+11
         0.78200E+11
         0.78200E+11
         0.78200E+11
         0.78200E+11
         0.78200E+11
         0.78200E+11
         0.78200E+11
         0.78200E+11
         0.78200E+11
         0.78200E+11
         0.78200E+11
         0.78200E+11
         0.78200E+11
         0.78200E+11
         0.78200E+11
         0.78200E+11
         0.78200E+11
         0.78200E+11
         0.78200E+11
         0.78200E+11
         0.78200E+11
         0.78200E+11
         0.78200E+11
         0.78200E+11
         0.78200E+11
         0.78200E+11
         0.78200E+11
         0.78200E+11
         0.78200E+11
         0.78200E+11
         0.78200E+11
         0.78200E+11
         0.78200E+11
         0.78200E+11
         0.78200E+11
         0.78200E+11
         0.78200E+11
         0.78200E+11
         0.78200E+11
         0.78200E+11
         0.78200E+11
         0.78200E+11
         0.78200E+11
         0.78200E+11
         0.78200E+11
         0.78200E+11
         0.78200E+11
         0.78200E+11
         0.78200E+11
         0.78200E+11
         0.78200E+11
         0.78200E+11
         0.78200E+11
         0.78200E+11
         0.78200E+11
         0.78200E+11
         0.78200E+11
         0.78200E+11
         0.78200E+11
         0.78200E+11
         0.78200E+11
         0.78200E+11
         0.78200E+11
         0.78200E+11
         0.78200E+11
         0.78200E+11
         0.78200E+11
         0.78200E+11
         0.78200E+11
         0.78200E+11
         0.78200E+11
         0.78200E+11
         0.78200E+11
         0.78200E+11
         0.78200E+11
         0.78200E+11
         0.78200E+11
         0.78200E+11
         0.78200E+11
         0.78200E+11
         0.78200E+11
         0.78200E+11
         0.78200E+11
         0.78200E+11
         0.78200E+11
         0.78200E+11
         0.78200E+11
         0.78200E+11
         0.78200E+11
         0.78200E+11
         0.78200E+11
         0.78200E+11
         0.78200E+11
         0.78200E+11
         0.78200E+11
         0.78200E+11
         0.78200E+11
         0.78200E+11
         0.78200E+11
         0.78200E+11
         0.78200E+11
         0.78200E+11
         0.78200E+11
         0.78200E+11
         0.78200E+11
         0.78200E+11
         0.78200E+11
         0.78200E+11
         0.78200E+11
         0.78200E+11
         0.78200E+11
         0.78200E+11
         0.78200E+11
         0.78200E+11
         0.78200E+11
         0.78200E+11
         0.78200E+11
         0.78200E+11
         0.78200E+11
         0.78200E+11
         0.78200E+11
         0.78200E+11
         0.78200E+11
         0.78200E+11
         0.78200E+11
         0.78200E+11
         0.78200E+11
         0.78200E+11
         0.78200E+11
         0.78200E+11
         0.78200E+11
         0.78200E+11
         0.78200E+11
         0.78200E+11
         0.78200E+11
         0.78200E+11
         0.78200E+11
         0.78200E+11
         0.78200E+11
         0.78200E+11
         0.78200E+11
         0.78200E+11
         0.78200E+11
         0.78200E+11
         0.78200E+11
         0.78200E+11
         0.78200E+11
         0.78200E+11
         0.78200E+11
         0.78200E+11
         0.78200E+11
         0.78200E+11
         0.78200E+11
         0.78200E+11
         0.78200E+11
         0.78200E+11
         0.78200E+11
         0.78200E+11
         0.78200E+11
         0.78200E+11
         0.78200E+11
         0.78200E+11
         0.78200E+11
         0.78200E+11
         0.78200E+11
         0.78200E+11
         0.78200E+11
         0.78200E+11
         0.78200E+11
         0.78200E+11
         0.78200E+11
         0.78200E+11
         0.78200E+11
         0.78200E+11
         0.78200E+11
         0.78200E+11
         0.78200E+11
         0.78200E+11
         0.78200E+11
         0.78200E+11
         0.78200E+11
         0.78200E+11
         0.78200E+11
         0.78200E+11
         0.78200E+11
         0.78200E+11
         0.78200E+11
         0.78200E+11
         0.78200E+11
         0.78200E+11
         0.78200E+11
         0.78200E+11
         0.78200E+11
         0.78200E+11
         0.78200E+11
         0.78200E+11
         0.78200E+11
         0.78200E+11
         0.78200E+11
         0.78200E+11
         0.78200E+11
         0.78200E+11
         0.78200E+11
         0.78200E+11
         0.78200E+11
         0.78200E+11
         0.78200E+11
         0.78200E+11
         0.78200E+11
         0.78200E+11
         0.78200E+11
         0.78200E+11
         0.78200E+11
         0.78200E+11
         0.78200E+11
         0.78200E+11
         0.78200E+11
         0.78200E+11
         0.78200E+11
         0.78200E+11
         0.78200E+11
         0.78200E+11
         0.78200E+11
         0.78200E+11
         0.78200E+11
         0.78200E+11
         0.78200E+11
         0.78200E+11
         0.78200E+11
         0.78200E+11
         0.78200E+11
         0.78200E+11
         0.78200E+11
         0.78200E+11
         0.78200E+11
         0.78200E+11
         0.78200E+11
         0.78200E+11
         0.78200E+11
         0.78200E+11
         0.78200E+11
         0.78200E+11
         0.78200E+11
         0.78200E+11
         0.78200E+11
         0.78200E+11
         0.78200E+11
         0.78200E+11
         0.78200E+11
         0.78200E+11
         0.78200E+11
         0.78200E+11
         0.78200E+11
         0.78200E+11
         0.78200E+11
         0.78200E+11
         0.78200E+11
         0.78200E+11
         0.78200E+11
         0.78200E+11
         0.78200E+11
         0.78200E+11
         0.78200E+11
         0.78200E+11
         0.78200E+11
         0.78200E+11
         0.78200E+11
         0.78200E+11
         0.78200E+11
         0.78200E+11
         0.78200E+11
         0.78200E+11
         0.78200E+11
         0.78200E+11
         0.78200E+11
         0.78200E+11
         0.78200E+11
         0.78200E+11
         0.78200E+11
         0.78200E+11
         0.78200E+11
         0.78200E+11
         0.78200E+11
         0.78200E+11
         0.78200E+11
         0.78200E+11
         0.78200E+11
         0.78200E+11
         0.78200E+11
         0.78200E+11
         0.78200E+11
         0.78200E+11
         0.78200E+11
         0.78200E+11
         0.78200E+11
         0.78200E+11
         0.78200E+11
         0.78200E+11
         0.78200E+11
         0.78200E+11
         0.78200E+11
         0.78200E+11
         0.78200E+11
         0.78200E+11
         0.78200E+11
         0.78200E+11
         0.78200E+11
         0.78200E+11
         0.78200E+11
         0.78200E+11
         0.78200E+11
         0.78200E+11
         0.78200E+11
         0.78200E+11
         0.78200E+11
         0.78200E+11
         0.78200E+11
         0.78200E+11
         0.78200E+11
         0.78200E+11
         0.78200E+11
         0.78200E+11
         0.78200E+11
         0.78200E+11
         0.78200E+11
         0.78200E+11
         0.78200E+11
         0.78200E+11
         0.78200E+11
         0.78200E+11
         0.78200E+11
         0.78200E+11
         0.78200E+11
         0.78200E+11
         0.78200E+11
         0.78200E+11
         0.78200E+11
         0.78200E+11
         0.78200E+11
         0.78200E+11
         0.78200E+11
         0.78200E+11
         0.78200E+11
         0.78200E+11
         0.78200E+11
         0.78200E+11
         0.78200E+11
         0.78200E+11
         0.78200E+11
         0.78200E+11
         0.78200E+11
         0.78200E+11
         0.78200E+11
         0.78200E+11
         0.78200E+11
         0.78200E+11
         0.78200E+11
         0.78200E+11
         0.78200E+11
         0.78200E+11
         0.78200E+11
         0.78200E+11
         0.78200E+11
         0.78200E+11
         0.78200E+11
         0.78200E+11
         0.78200E+11
         0.78200E+11
         0.78200E+11
         0.78200E+11
         0.78200E+11
         0.78200E+11
         0.78200E+11
         0.78200E+11
         0.78200E+11
         0.78200E+11
         0.78200E+11
         0.78200E+11
         0.78200E+11
         0.78200E+11
         0.78200E+11
         0.78200E+11
         0.78200E+11
         0.78200E+11
         0.78200E+11
         0.78200E+11
         0.78200E+11
         0.78200E+11
         0.78200E+11
         0.78200E+11
         0.78200E+11
         0.78200E+11
         0.78200E+11
         0.78200E+11
         0.78200E+11
         0.78200E+11
         0.78200E+11
         0.78200E+11
         0.78200E+11
         0.78200E+11
         0.78200E+11
         0.78200E+11
         0.78200E+11
         0.78200E+11
         0.78200E+11
         0.78200E+11
         0.78200E+11
         0.78200E+11
         0.78200E+11
         0.78200E+11
         0.78200E+11
         0.78200E+11
         0.78200E+11
         0.78200E+11
         0.78200E+11
         0.78200E+11
         0.78200E+11
         0.78200E+11
         0.78200E+11
         0.78200E+11
         0.78200E+11
         0.78200E+11
         0.78200E+11
         0.78200E+11
         0.78200E+11
         0.78200E+11
         0.78200E+11
         0.78200E+11
         0.78200E+11
         0.78200E+11
         0.78200E+11
         0.78200E+11
         0.78200E+11
         0.78200E+11
         0.78200E+11
         0.78200E+11
         0.78200E+11
         0.78200E+11
         0.78200E+11
         0.78200E+11
         0.78200E+11
         0.78200E+11
         0.78200E+11
         0.78200E+11
         0.78200E+11
         0.78200E+11
         0.78200E+11
         0.78200E+11
         0.78200E+11
         0.78200E+11
         0.78200E+11
         0.78200E+11
         0.78200E+11
         0.78200E+11
         0.78200E+11
         0.78200E+11
         0.78200E+11
         0.78200E+11
         0.78200E+11
         0.78200E+11
         0.78200E+11
         0.78200E+11
         0.78200E+11
         0.78200E+11
         0.78200E+11
         0.78200E+11
         0.78200E+11
         0.78200E+11
         0.78200E+11
         0.78200E+11
         0.78200E+11
         0.78200E+11
         0.78200E+11
         0.78200E+11
         0.78200E+11
         0.78200E+11
         0.78200E+11
         0.78200E+11
         0.78200E+11
         0.78200E+11
         0.78200E+11
         0.78200E+11
         0.78200E+11
         0.78200E+11
         0.78200E+11
         0.78200E+11
         0.78200E+11
         0.78200E+11
         0.78200E+11
         0.78200E+11
         0.78200E+11
         0.78200E+11
         0.78200E+11
         0.78200E+11
         0.78200E+11
         0.78200E+11
         0.78200E+11
         0.78200E+11
         0.78200E+11
         0.78200E+11
         0.78200E+11
         0.78200E+11
         0.78200E+11
         0.78200E+11
         0.78200E+11
         0.78200E+11
         0.78200E+11
         0.78200E+11
         0.78200E+11
         0.78200E+11
         0.78200E+11
         0.78200E+11
         0.78200E+11
         0.78200E+11
         0.78200E+11
         0.78200E+11
         0.78200E+11
         0.78200E+11
         0.78200E+11
         0.78200E+11
         0.78200E+11
         0.78200E+11
         0.78200E+11
         0.78200E+11
         0.78200E+11
         0.78200E+11
         0.78200E+11
         0.78200E+11
         0.78200E+11
         0.78200E+11
         0.78200E+11
         0.78200E+11
         0.78200E+11
         0.78200E+11
         0.78200E+11
         0.78200E+11
         0.78200E+11
         0.78200E+11
         0.78200E+11
         0.78200E+11
         0.78200E+11
         0.78200E+11
         0.78200E+11
         0.78200E+11
         0.78200E+11
         0.78200E+11
         0.78200E+11
         0.78200E+11
         0.78200E+11
         0.78200E+11
         0.78200E+11
         0.78200E+11
         0.78200E+11
         0.78200E+11
         0.78200E+11
         0.78200E+11
         0.78200E+11
         0.78200E+11
         0.78200E+11
         0.78200E+11
         0.78200E+11
         0.78200E+11
         0.78200E+11
         0.78200E+11
         0.78200E+11
         0.78200E+11
         0.78200E+11
         0.78200E+11
         0.78200E+11
         0.78200E+11
         0.78200E+11
         0.78200E+11
         0.78200E+11
         0.78200E+11
         0.78200E+11
         0.78200E+11
         0.78200E+11
         0.78200E+11
         0.78200E+11
         0.78200E+11
         0.78200E+11
         0.78200E+11
         0.78200E+11
         0.78200E+11
         0.78200E+11
         0.78200E+11
         0.78200E+11
         0.78200E+11
         0.78200E+11
         0.78200E+11
         0.78200E+11
         0.78200E+11
         0.78200E+11
         0.78200E+11
         0.78200E+11
         0.78200E+11
         0.78200E+11
         0.78200E+11
         0.78200E+11
         0.78200E+11
         0.78200E+11
         0.78200E+11
         0.78200E+11
         0.78200E+11
         0.78200E+11
         0.78200E+11
         0.78200E+11
         0.78200E+11
         0.78200E+11
         0.78200E+11
         0.78200E+11
         0.78200E+11
         0.78200E+11
         0.78200E+11
         0.78200E+11
         0.78200E+11
         0.78200E+11
         0.78200E+11
         0.78200E+11
         0.78200E+11
         0.78200E+11
         0.78200E+11
         0.78200E+11
         0.78200E+11
         0.78200E+11
         0.78200E+11
         0.78200E+11
         0.78200E+11
         0.78200E+11
         0.78200E+11
         0.78200E+11
         0.78200E+11
         0.78200E+11
         0.78200E+11
         0.78200E+11
         0.78200E+11
         0.78200E+11
         0.78200E+11
         0.78200E+11
         0.78200E+11
         0.78200E+11
         0.78200E+11
         0.78200E+11
         0.78200E+11
         0.78200E+11
         0.78200E+11
         0.78200E+11
         0.78200E+11
         0.78200E+11
         0.78200E+11
         0.78200E+11
         0.78200E+11
         0.78200E+11
         0.78200E+11
         0.78200E+11
         0.78200E+11
         0.78200E+11
         0.78200E+11
         0.78200E+11
         0.78200E+11
         0.78200E+11
         0.78200E+11
         0.78200E+11
         0.78200E+11
         0.78200E+11
         0.78200E+11
         0.78200E+11
         0.78200E+11
         0.78200E+11
         0.78200E+11
         0.78200E+11
         0.78200E+11
         0.78200E+11
         0.78200E+11
         0.78200E+11
         0.78200E+11
         0.78200E+11
         0.78200E+11
         0.78200E+11
         0.78200E+11
         0.78200E+11
         0.78200E+11
         0.78200E+11
         0.78200E+11
         0.78200E+11
         0.78200E+11
         0.78200E+11
         0.78200E+11
         0.78200E+11
         0.78200E+11
         0.78200E+11
         0.78200E+11
         0.78200E+11
         0.78200E+11
         0.78200E+11
         0.78200E+11
         0.78200E+11
         0.78200E+11
         0.78200E+11
         0.78200E+11
         0.78200E+11
         0.78200E+11
         0.78200E+11
         0.78200E+11
         0.78200E+11
         0.78200E+11
         0.78200E+11
         0.78200E+11
         0.78200E+11
         0.78200E+11
         0.78200E+11
         0.78200E+11
         0.78200E+11
         0.78200E+11
         0.78200E+11
         0.78200E+11
         0.78200E+11
         0.78200E+11
         0.78200E+11
         0.78200E+11
         0.78200E+11
         0.78200E+11
         0.78200E+11
         0.78200E+11
         0.78200E+11
         0.78200E+11
         0.78200E+11
         0.78200E+11
         0.78200E+11
         0.78200E+11
         0.78200E+11
         0.78200E+11
         0.78200E+11
         0.78200E+11
         0.78200E+11
         0.78200E+11
         0.78200E+11
         0.78200E+11
         0.78200E+11
         0.78200E+11
         0.78200E+11
         0.78200E+11
         0.78200E+11
         0.78200E+11
         0.78200E+11
         0.78200E+11
         0.78200E+11
         0.78200E+11
         0.78200E+11
         0.78200E+11
         0.78200E+11
         0.78200E+11
         0.78200E+11
         0.78200E+11
         0.78200E+11
         0.78200E+11
         0.78200E+11
         0.78200E+11
         0.78200E+11
         0.78200E+11
         0.78200E+11
         0.78200E+11
         0.78200E+11
         0.78200E+11
         0.78200E+11
         0.78200E+11
         0.78200E+11
         0.78200E+11
         0.78200E+11
         0.78200E+11
         0.78200E+11
         0.78200E+11
         0.78200E+11
         0.78200E+11
         0.78200E+11
         0.78200E+11
         0.78200E+11
         0.78200E+11
         0.78200E+11
         0.78200E+11
         0.78200E+11
         0.78200E+11
         0.78200E+11
         0.78200E+11
         0.78200E+11
         0.78200E+11
         0.78200E+11
         0.78200E+11
         0.78200E+11
         0.78200E+11
         0.78200E+11
         0.78200E+11
         0.78200E+11
         0.78200E+11
         0.78200E+11
         0.78200E+11
         0.78200E+11
         0.78200E+11
         0.78200E+11
         0.78200E+11
         0.78200E+11
         0.78200E+11
         0.78200E+11
         0.78200E+11
         0.78200E+11
         0.78200E+11
         0.78200E+11
         0.78200E+11
         0.78200E+11
         0.78200E+11
         0.78200E+11
         0.78200E+11
         0.78200E+11
         0.78200E+11
         0.78200E+11
         0.78200E+11
         0.78200E+11
         0.78200E+11
         0.78200E+11
         0.78200E+11
         0.78200E+11
         0.78200E+11
         0.78200E+11
         0.78200E+11
         0.78200E+11
         0.78200E+11
         0.78200E+11
         0.78200E+11
         0.78200E+11
         0.78200E+11
         0.78200E+11
         0.78200E+11
         0.78200E+11
         0.78200E+11
         0.78200E+11
         0.78200E+11
         0.78200E+11
         0.78200E+11
         0.78200E+11
         0.78200E+11
         0.78200E+11
         0.78200E+11
         0.78200E+11
         0.78200E+11
         0.78200E+11
         0.78200E+11
         0.78200E+11
         0.78200E+11
         0.78200E+11
         0.78200E+11
         0.78200E+11
         0.78200E+11
         0.78200E+11
         0.78200E+11
         0.78200E+11
         0.78200E+11
         0.78200E+11
         0.78200E+11
         0.78200E+11
         0.78200E+11
         0.78200E+11
         0.78200E+11
         0.78200E+11
         0.78200E+11
         0.78200E+11
         0.78200E+11
         0.78200E+11
         0.78200E+11
         0.78200E+11
         0.78200E+11
         0.78200E+11
         0.78200E+11
         0.78200E+11
         0.78200E+11
         0.78200E+11
         0.78200E+11
         0.78200E+11
         0.78200E+11
         0.78200E+11
         0.78200E+11
         0.78200E+11
         0.78200E+11
         0.78200E+11
         0.78200E+11
         0.78200E+11
         0.78200E+11
         0.78200E+11
         0.78200E+11
         0.78200E+11
         0.78200E+11
         0.78200E+11
         0.78200E+11
         0.78200E+11
         0.78200E+11
         0.78200E+11
         0.78200E+11
         0.78200E+11
         0.78200E+11
         0.78200E+11
         0.78200E+11
         0.78200E+11
         0.78200E+11
  
SCALARS                        density  double 1
LOOKUP_TABLE default
         0.27000E+04
         0.27000E+04
         0.27000E+04
         0.27000E+04
         0.27000E+04
         0.27000E+04
         0.27000E+04
         0.27000E+04
         0.27000E+04
         0.27000E+04
         0.27000E+04
         0.27000E+04
         0.27000E+04
         0.27000E+04
         0.27000E+04
         0.27000E+04
         0.27000E+04
         0.27000E+04
         0.27000E+04
         0.27000E+04
         0.27000E+04
         0.27000E+04
         0.27000E+04
         0.27000E+04
         0.27000E+04
         0.27000E+04
         0.27000E+04
         0.27000E+04
         0.27000E+04
         0.27000E+04
         0.27000E+04
         0.27000E+04
         0.27000E+04
         0.27000E+04
         0.27000E+04
         0.27000E+04
         0.27000E+04
         0.27000E+04
         0.27000E+04
         0.27000E+04
         0.27000E+04
         0.27000E+04
         0.27000E+04
         0.27000E+04
         0.27000E+04
         0.27000E+04
         0.27000E+04
         0.27000E+04
         0.27000E+04
         0.27000E+04
         0.27000E+04
         0.27000E+04
         0.27000E+04
         0.27000E+04
         0.27000E+04
         0.27000E+04
         0.27000E+04
         0.27000E+04
         0.27000E+04
         0.27000E+04
         0.27000E+04
         0.27000E+04
         0.27000E+04
         0.27000E+04
         0.27000E+04
         0.27000E+04
         0.27000E+04
         0.27000E+04
         0.27000E+04
         0.27000E+04
         0.27000E+04
         0.27000E+04
         0.27000E+04
         0.27000E+04
         0.27000E+04
         0.27000E+04
         0.27000E+04
         0.27000E+04
         0.27000E+04
         0.27000E+04
         0.27000E+04
         0.27000E+04
         0.27000E+04
         0.27000E+04
         0.27000E+04
         0.27000E+04
         0.27000E+04
         0.27000E+04
         0.27000E+04
         0.27000E+04
         0.27000E+04
         0.27000E+04
         0.27000E+04
         0.27000E+04
         0.27000E+04
         0.27000E+04
         0.27000E+04
         0.27000E+04
         0.27000E+04
         0.27000E+04
         0.27000E+04
         0.27000E+04
         0.27000E+04
         0.27000E+04
         0.27000E+04
         0.27000E+04
         0.27000E+04
         0.27000E+04
         0.27000E+04
         0.27000E+04
         0.27000E+04
         0.27000E+04
         0.27000E+04
         0.27000E+04
         0.27000E+04
         0.27000E+04
         0.27000E+04
         0.27000E+04
         0.27000E+04
         0.27000E+04
         0.27000E+04
         0.27000E+04
         0.27000E+04
         0.27000E+04
         0.27000E+04
         0.27000E+04
         0.27000E+04
         0.27000E+04
         0.27000E+04
         0.27000E+04
         0.27000E+04
         0.27000E+04
         0.27000E+04
         0.27000E+04
         0.27000E+04
         0.27000E+04
         0.27000E+04
         0.27000E+04
         0.27000E+04
         0.27000E+04
         0.27000E+04
         0.27000E+04
         0.27000E+04
         0.27000E+04
         0.27000E+04
         0.27000E+04
         0.27000E+04
         0.27000E+04
         0.27000E+04
         0.27000E+04
         0.27000E+04
         0.27000E+04
         0.27000E+04
         0.27000E+04
         0.27000E+04
         0.27000E+04
         0.27000E+04
         0.27000E+04
         0.27000E+04
         0.27000E+04
         0.27000E+04
         0.27000E+04
         0.27000E+04
         0.27000E+04
         0.27000E+04
         0.27000E+04
         0.27000E+04
         0.27000E+04
         0.27000E+04
         0.27000E+04
         0.27000E+04
         0.27000E+04
         0.27000E+04
         0.27000E+04
         0.27000E+04
         0.27000E+04
         0.27000E+04
         0.27000E+04
         0.27000E+04
         0.27000E+04
         0.27000E+04
         0.27000E+04
         0.27000E+04
         0.27000E+04
         0.27000E+04
         0.27000E+04
         0.27000E+04
         0.27000E+04
         0.27000E+04
         0.27000E+04
         0.27000E+04
         0.27000E+04
         0.27000E+04
         0.27000E+04
         0.27000E+04
         0.27000E+04
         0.27000E+04
         0.27000E+04
         0.27000E+04
         0.27000E+04
         0.27000E+04
         0.27000E+04
         0.27000E+04
         0.27000E+04
         0.27000E+04
         0.27000E+04
         0.27000E+04
         0.27000E+04
         0.27000E+04
         0.27000E+04
         0.27000E+04
         0.27000E+04
         0.27000E+04
         0.27000E+04
         0.27000E+04
         0.27000E+04
         0.27000E+04
         0.27000E+04
         0.27000E+04
         0.27000E+04
         0.27000E+04
         0.27000E+04
         0.27000E+04
         0.27000E+04
         0.27000E+04
         0.27000E+04
         0.27000E+04
         0.27000E+04
         0.27000E+04
         0.27000E+04
         0.27000E+04
         0.27000E+04
         0.27000E+04
         0.27000E+04
         0.27000E+04
         0.27000E+04
         0.27000E+04
         0.27000E+04
         0.27000E+04
         0.27000E+04
         0.27000E+04
         0.27000E+04
         0.27000E+04
         0.27000E+04
         0.27000E+04
         0.27000E+04
         0.27000E+04
         0.27000E+04
         0.27000E+04
         0.27000E+04
         0.27000E+04
         0.27000E+04
         0.27000E+04
         0.27000E+04
         0.27000E+04
         0.27000E+04
         0.27000E+04
         0.27000E+04
         0.27000E+04
         0.27000E+04
         0.27000E+04
         0.27000E+04
         0.27000E+04
         0.27000E+04
         0.27000E+04
         0.27000E+04
         0.27000E+04
         0.27000E+04
         0.27000E+04
         0.27000E+04
         0.27000E+04
         0.27000E+04
         0.27000E+04
         0.27000E+04
         0.27000E+04
         0.27000E+04
         0.27000E+04
         0.27000E+04
         0.27000E+04
         0.27000E+04
         0.27000E+04
         0.27000E+04
         0.27000E+04
         0.27000E+04
         0.27000E+04
         0.27000E+04
         0.27000E+04
         0.27000E+04
         0.27000E+04
         0.27000E+04
         0.27000E+04
         0.27000E+04
         0.27000E+04
         0.27000E+04
         0.27000E+04
         0.27000E+04
         0.27000E+04
         0.27000E+04
         0.27000E+04
         0.27000E+04
         0.27000E+04
         0.27000E+04
         0.27000E+04
         0.27000E+04
         0.27000E+04
         0.27000E+04
         0.27000E+04
         0.27000E+04
         0.27000E+04
         0.27000E+04
         0.27000E+04
         0.27000E+04
         0.27000E+04
         0.27000E+04
         0.27000E+04
         0.27000E+04
         0.27000E+04
         0.27000E+04
         0.27000E+04
         0.27000E+04
         0.27000E+04
         0.27000E+04
         0.27000E+04
         0.27000E+04
         0.27000E+04
         0.27000E+04
         0.27000E+04
         0.27000E+04
         0.27000E+04
         0.27000E+04
         0.27000E+04
         0.27000E+04
         0.27000E+04
         0.27000E+04
         0.27000E+04
         0.27000E+04
         0.27000E+04
         0.27000E+04
         0.27000E+04
         0.27000E+04
         0.27000E+04
         0.27000E+04
         0.27000E+04
         0.27000E+04
         0.27000E+04
         0.27000E+04
         0.27000E+04
         0.27000E+04
         0.27000E+04
         0.27000E+04
         0.27000E+04
         0.27000E+04
         0.27000E+04
         0.27000E+04
         0.27000E+04
         0.27000E+04
         0.27000E+04
         0.27000E+04
         0.27000E+04
         0.27000E+04
         0.27000E+04
         0.27000E+04
         0.27000E+04
         0.27000E+04
         0.27000E+04
         0.27000E+04
         0.27000E+04
         0.27000E+04
         0.27000E+04
         0.27000E+04
         0.27000E+04
         0.27000E+04
         0.27000E+04
         0.27000E+04
         0.27000E+04
         0.27000E+04
         0.27000E+04
         0.27000E+04
         0.27000E+04
         0.27000E+04
         0.27000E+04
         0.27000E+04
         0.27000E+04
         0.27000E+04
         0.27000E+04
         0.27000E+04
         0.27000E+04
         0.27000E+04
         0.27000E+04
         0.27000E+04
         0.27000E+04
         0.27000E+04
         0.27000E+04
         0.27000E+04
         0.27000E+04
         0.27000E+04
         0.27000E+04
         0.27000E+04
         0.27000E+04
         0.27000E+04
         0.27000E+04
         0.27000E+04
         0.27000E+04
         0.27000E+04
         0.27000E+04
         0.27000E+04
         0.27000E+04
         0.27000E+04
         0.27000E+04
         0.27000E+04
         0.27000E+04
         0.27000E+04
         0.27000E+04
         0.27000E+04
         0.27000E+04
         0.27000E+04
         0.27000E+04
         0.27000E+04
         0.27000E+04
         0.27000E+04
         0.27000E+04
         0.27000E+04
         0.27000E+04
         0.27000E+04
         0.27000E+04
         0.27000E+04
         0.27000E+04
         0.27000E+04
         0.27000E+04
         0.27000E+04
         0.27000E+04
         0.27000E+04
         0.27000E+04
         0.27000E+04
         0.27000E+04
         0.27000E+04
         0.27000E+04
         0.27000E+04
         0.27000E+04
         0.27000E+04
         0.27000E+04
         0.27000E+04
         0.27000E+04
         0.27000E+04
         0.27000E+04
         0.27000E+04
         0.27000E+04
         0.27000E+04
         0.27000E+04
         0.27000E+04
         0.27000E+04
         0.27000E+04
         0.27000E+04
         0.27000E+04
         0.27000E+04
         0.27000E+04
         0.27000E+04
         0.27000E+04
         0.27000E+04
         0.27000E+04
         0.27000E+04
         0.27000E+04
         0.27000E+04
         0.27000E+04
         0.27000E+04
         0.27000E+04
         0.27000E+04
         0.27000E+04
         0.27000E+04
         0.27000E+04
         0.27000E+04
         0.27000E+04
         0.27000E+04
         0.27000E+04
         0.27000E+04
         0.27000E+04
         0.27000E+04
         0.27000E+04
         0.27000E+04
         0.27000E+04
         0.27000E+04
         0.27000E+04
         0.27000E+04
         0.27000E+04
         0.27000E+04
         0.27000E+04
         0.27000E+04
         0.27000E+04
         0.27000E+04
         0.27000E+04
         0.27000E+04
         0.27000E+04
         0.27000E+04
         0.27000E+04
         0.27000E+04
         0.27000E+04
         0.27000E+04
         0.27000E+04
         0.27000E+04
         0.27000E+04
         0.27000E+04
         0.27000E+04
         0.27000E+04
         0.27000E+04
         0.27000E+04
         0.27000E+04
         0.27000E+04
         0.27000E+04
         0.27000E+04
         0.27000E+04
         0.27000E+04
         0.27000E+04
         0.27000E+04
         0.27000E+04
         0.27000E+04
         0.27000E+04
         0.27000E+04
         0.27000E+04
         0.27000E+04
         0.27000E+04
         0.27000E+04
         0.27000E+04
         0.27000E+04
         0.27000E+04
         0.27000E+04
         0.27000E+04
         0.27000E+04
         0.27000E+04
         0.27000E+04
         0.27000E+04
         0.27000E+04
         0.27000E+04
         0.27000E+04
         0.27000E+04
         0.27000E+04
         0.27000E+04
         0.27000E+04
         0.27000E+04
         0.27000E+04
         0.27000E+04
         0.27000E+04
         0.27000E+04
         0.27000E+04
         0.27000E+04
         0.27000E+04
         0.27000E+04
         0.27000E+04
         0.27000E+04
         0.27000E+04
         0.27000E+04
         0.27000E+04
         0.27000E+04
         0.27000E+04
         0.27000E+04
         0.27000E+04
         0.27000E+04
         0.27000E+04
         0.27000E+04
         0.27000E+04
         0.27000E+04
         0.27000E+04
         0.27000E+04
         0.27000E+04
         0.27000E+04
         0.27000E+04
         0.27000E+04
         0.27000E+04
         0.27000E+04
         0.27000E+04
         0.27000E+04
         0.27000E+04
         0.27000E+04
         0.27000E+04
         0.27000E+04
         0.27000E+04
         0.27000E+04
         0.27000E+04
         0.27000E+04
         0.27000E+04
         0.27000E+04
         0.27000E+04
         0.27000E+04
         0.27000E+04
         0.27000E+04
         0.27000E+04
         0.27000E+04
         0.27000E+04
         0.27000E+04
         0.27000E+04
         0.27000E+04
         0.27000E+04
         0.27000E+04
         0.27000E+04
         0.27000E+04
         0.27000E+04
         0.27000E+04
         0.27000E+04
         0.27000E+04
         0.27000E+04
         0.27000E+04
         0.27000E+04
         0.27000E+04
         0.27000E+04
         0.27000E+04
         0.27000E+04
         0.27000E+04
         0.27000E+04
         0.27000E+04
         0.27000E+04
         0.27000E+04
         0.27000E+04
         0.27000E+04
         0.27000E+04
         0.27000E+04
         0.27000E+04
         0.27000E+04
         0.27000E+04
         0.27000E+04
         0.27000E+04
         0.27000E+04
         0.27000E+04
         0.27000E+04
         0.27000E+04
         0.27000E+04
         0.27000E+04
         0.27000E+04
         0.27000E+04
         0.27000E+04
         0.27000E+04
         0.27000E+04
         0.27000E+04
         0.27000E+04
         0.27000E+04
         0.27000E+04
         0.27000E+04
         0.27000E+04
         0.27000E+04
         0.27000E+04
         0.27000E+04
         0.27000E+04
         0.27000E+04
         0.27000E+04
         0.27000E+04
         0.27000E+04
         0.27000E+04
         0.27000E+04
         0.27000E+04
         0.27000E+04
         0.27000E+04
         0.27000E+04
         0.27000E+04
         0.27000E+04
         0.27000E+04
         0.27000E+04
         0.27000E+04
         0.27000E+04
         0.27000E+04
         0.27000E+04
         0.27000E+04
         0.27000E+04
         0.27000E+04
         0.27000E+04
         0.27000E+04
         0.27000E+04
         0.27000E+04
         0.27000E+04
         0.27000E+04
         0.27000E+04
         0.27000E+04
         0.27000E+04
         0.27000E+04
         0.27000E+04
         0.27000E+04
         0.27000E+04
         0.27000E+04
         0.27000E+04
         0.27000E+04
         0.27000E+04
         0.27000E+04
         0.27000E+04
         0.27000E+04
         0.27000E+04
         0.27000E+04
         0.27000E+04
         0.27000E+04
         0.27000E+04
         0.27000E+04
         0.27000E+04
         0.27000E+04
         0.27000E+04
         0.27000E+04
         0.27000E+04
         0.27000E+04
         0.27000E+04
         0.27000E+04
         0.27000E+04
         0.27000E+04
         0.27000E+04
         0.27000E+04
         0.27000E+04
         0.27000E+04
         0.27000E+04
         0.27000E+04
         0.27000E+04
         0.27000E+04
         0.27000E+04
         0.27000E+04
         0.27000E+04
         0.27000E+04
         0.27000E+04
         0.27000E+04
         0.27000E+04
         0.27000E+04
         0.27000E+04
         0.27000E+04
         0.27000E+04
         0.27000E+04
         0.27000E+04
         0.27000E+04
         0.27000E+04
         0.27000E+04
         0.27000E+04
         0.27000E+04
         0.27000E+04
         0.27000E+04
         0.27000E+04
         0.27000E+04
         0.27000E+04
         0.27000E+04
         0.27000E+04
         0.27000E+04
         0.27000E+04
         0.27000E+04
         0.27000E+04
         0.27000E+04
         0.27000E+04
         0.27000E+04
         0.27000E+04
         0.27000E+04
         0.27000E+04
         0.27000E+04
         0.27000E+04
         0.27000E+04
         0.27000E+04
         0.27000E+04
         0.27000E+04
         0.27000E+04
         0.27000E+04
         0.27000E+04
         0.27000E+04
         0.27000E+04
         0.27000E+04
         0.27000E+04
         0.27000E+04
         0.27000E+04
         0.27000E+04
         0.27000E+04
         0.27000E+04
         0.27000E+04
         0.27000E+04
         0.27000E+04
         0.27000E+04
         0.27000E+04
         0.27000E+04
         0.27000E+04
         0.27000E+04
         0.27000E+04
         0.27000E+04
         0.27000E+04
         0.27000E+04
         0.27000E+04
         0.27000E+04
         0.27000E+04
         0.27000E+04
         0.27000E+04
         0.27000E+04
         0.27000E+04
         0.27000E+04
         0.27000E+04
         0.27000E+04
         0.27000E+04
         0.27000E+04
         0.27000E+04
         0.27000E+04
         0.27000E+04
         0.27000E+04
         0.27000E+04
         0.27000E+04
         0.27000E+04
         0.27000E+04
         0.27000E+04
         0.27000E+04
         0.27000E+04
         0.27000E+04
         0.27000E+04
         0.27000E+04
         0.27000E+04
         0.27000E+04
         0.27000E+04
         0.27000E+04
         0.27000E+04
         0.27000E+04
         0.27000E+04
         0.27000E+04
         0.27000E+04
         0.27000E+04
         0.27000E+04
         0.27000E+04
         0.27000E+04
         0.27000E+04
         0.27000E+04
         0.27000E+04
         0.27000E+04
         0.27000E+04
         0.27000E+04
         0.27000E+04
         0.27000E+04
         0.27000E+04
         0.27000E+04
         0.27000E+04
         0.27000E+04
         0.27000E+04
         0.27000E+04
         0.27000E+04
         0.27000E+04
         0.27000E+04
         0.27000E+04
         0.27000E+04
         0.27000E+04
         0.27000E+04
         0.27000E+04
         0.27000E+04
         0.27000E+04
         0.27000E+04
         0.27000E+04
         0.27000E+04
         0.27000E+04
         0.27000E+04
         0.27000E+04
         0.27000E+04
         0.27000E+04
         0.27000E+04
         0.27000E+04
         0.27000E+04
         0.27000E+04
         0.27000E+04
         0.27000E+04
         0.27000E+04
         0.27000E+04
         0.27000E+04
         0.27000E+04
         0.27000E+04
         0.27000E+04
         0.27000E+04
         0.27000E+04
         0.27000E+04
         0.27000E+04
         0.27000E+04
         0.27000E+04
         0.27000E+04
         0.27000E+04
         0.27000E+04
         0.27000E+04
         0.27000E+04
         0.27000E+04
         0.27000E+04
         0.27000E+04
         0.27000E+04
         0.27000E+04
         0.27000E+04
         0.27000E+04
         0.27000E+04
         0.27000E+04
         0.27000E+04
         0.27000E+04
         0.27000E+04
         0.27000E+04
         0.27000E+04
         0.27000E+04
         0.27000E+04
         0.27000E+04
         0.27000E+04
         0.27000E+04
         0.27000E+04
         0.27000E+04
         0.27000E+04
         0.27000E+04
         0.27000E+04
         0.27000E+04
         0.27000E+04
         0.27000E+04
         0.27000E+04
         0.27000E+04
         0.27000E+04
         0.27000E+04
         0.27000E+04
         0.27000E+04
         0.27000E+04
         0.27000E+04
         0.27000E+04
         0.27000E+04
         0.27000E+04
         0.27000E+04
         0.27000E+04
         0.27000E+04
         0.27000E+04
         0.27000E+04
         0.27000E+04
         0.27000E+04
         0.27000E+04
         0.27000E+04
         0.27000E+04
         0.27000E+04
         0.27000E+04
         0.27000E+04
         0.27000E+04
         0.27000E+04
         0.27000E+04
         0.27000E+04
         0.27000E+04
         0.27000E+04
         0.27000E+04
         0.27000E+04
         0.27000E+04
         0.27000E+04
         0.27000E+04
         0.27000E+04
         0.27000E+04
         0.27000E+04
         0.27000E+04
         0.27000E+04
         0.27000E+04
         0.27000E+04
         0.27000E+04
         0.27000E+04
         0.27000E+04
         0.27000E+04
         0.27000E+04
         0.27000E+04
         0.27000E+04
         0.27000E+04
         0.27000E+04
         0.27000E+04
         0.27000E+04
         0.27000E+04
         0.27000E+04
         0.27000E+04
         0.27000E+04
         0.27000E+04
         0.27000E+04
         0.27000E+04
         0.27000E+04
         0.27000E+04
         0.27000E+04
         0.27000E+04
         0.27000E+04
         0.27000E+04
         0.27000E+04
         0.27000E+04
         0.27000E+04
         0.27000E+04
         0.27000E+04
         0.27000E+04
         0.27000E+04
         0.27000E+04
         0.27000E+04
         0.27000E+04
         0.27000E+04
         0.27000E+04
         0.27000E+04
         0.27000E+04
         0.27000E+04
         0.27000E+04
         0.27000E+04
         0.27000E+04
         0.27000E+04
         0.27000E+04
         0.27000E+04
         0.27000E+04
         0.27000E+04
         0.27000E+04
         0.27000E+04
         0.27000E+04
         0.27000E+04
         0.27000E+04
         0.27000E+04
         0.27000E+04
         0.27000E+04
         0.27000E+04
         0.27000E+04
         0.27000E+04
         0.27000E+04
         0.27000E+04
         0.27000E+04
         0.27000E+04
         0.27000E+04
         0.27000E+04
         0.27000E+04
         0.27000E+04
         0.27000E+04
         0.27000E+04
         0.27000E+04
         0.27000E+04
         0.27000E+04
         0.27000E+04
         0.27000E+04
         0.27000E+04
         0.27000E+04
         0.27000E+04
         0.27000E+04
         0.27000E+04
         0.27000E+04
         0.27000E+04
         0.27000E+04
         0.27000E+04
         0.27000E+04
         0.27000E+04
         0.27000E+04
         0.27000E+04
         0.27000E+04
         0.27000E+04
         0.27000E+04
         0.27000E+04
         0.27000E+04
         0.27000E+04
         0.27000E+04
         0.27000E+04
         0.27000E+04
         0.27000E+04
         0.27000E+04
         0.27000E+04
         0.27000E+04
         0.27000E+04
         0.27000E+04
         0.27000E+04
         0.27000E+04
         0.27000E+04
         0.27000E+04
         0.27000E+04
         0.27000E+04
         0.27000E+04
         0.27000E+04
         0.27000E+04
         0.27000E+04
         0.27000E+04
         0.27000E+04
         0.27000E+04
         0.27000E+04
         0.27000E+04
         0.27000E+04
         0.27000E+04
         0.27000E+04
         0.27000E+04
         0.27000E+04
         0.27000E+04
         0.27000E+04
         0.27000E+04
         0.27000E+04
         0.27000E+04
         0.27000E+04
         0.27000E+04
         0.27000E+04
         0.27000E+04
         0.27000E+04
         0.27000E+04
         0.27000E+04
         0.27000E+04
         0.27000E+04
         0.27000E+04
         0.27000E+04
         0.27000E+04
         0.27000E+04
         0.27000E+04
         0.27000E+04
         0.27000E+04
         0.27000E+04
         0.27000E+04
         0.27000E+04
         0.27000E+04
         0.27000E+04
         0.27000E+04
         0.27000E+04
         0.27000E+04
         0.27000E+04
         0.27000E+04
         0.27000E+04
         0.27000E+04
         0.27000E+04
         0.27000E+04
         0.27000E+04
         0.27000E+04
         0.27000E+04
         0.27000E+04
         0.27000E+04
         0.27000E+04
         0.27000E+04
         0.27000E+04
         0.27000E+04
         0.27000E+04
         0.27000E+04
         0.27000E+04
         0.27000E+04
         0.27000E+04
         0.27000E+04
         0.27000E+04
         0.27000E+04
         0.27000E+04
         0.27000E+04
         0.27000E+04
         0.27000E+04
         0.27000E+04
         0.27000E+04
         0.27000E+04
         0.27000E+04
         0.27000E+04
         0.27000E+04
         0.27000E+04
         0.27000E+04
         0.27000E+04
         0.27000E+04
         0.27000E+04
         0.27000E+04
         0.27000E+04
         0.27000E+04
         0.27000E+04
         0.27000E+04
         0.27000E+04
         0.27000E+04
         0.27000E+04
         0.27000E+04
         0.27000E+04
         0.27000E+04
         0.27000E+04
         0.27000E+04
         0.27000E+04
         0.27000E+04
         0.27000E+04
         0.27000E+04
         0.27000E+04
         0.27000E+04
         0.27000E+04
         0.27000E+04
         0.27000E+04
         0.27000E+04
         0.27000E+04
         0.27000E+04
         0.27000E+04
         0.27000E+04
         0.27000E+04
         0.27000E+04
         0.27000E+04
         0.27000E+04
         0.27000E+04
         0.27000E+04
         0.27000E+04
         0.27000E+04
         0.27000E+04
         0.27000E+04
         0.27000E+04
         0.27000E+04
         0.27000E+04
         0.27000E+04
         0.27000E+04
         0.27000E+04
         0.27000E+04
         0.27000E+04
         0.27000E+04
         0.27000E+04
         0.27000E+04
         0.27000E+04
         0.27000E+04
         0.27000E+04
         0.27000E+04
         0.27000E+04
         0.27000E+04
         0.27000E+04
         0.27000E+04
         0.27000E+04
         0.27000E+04
         0.27000E+04
         0.27000E+04
         0.27000E+04
         0.27000E+04
         0.27000E+04
         0.27000E+04
         0.27000E+04
         0.27000E+04
         0.27000E+04
         0.27000E+04
         0.27000E+04
         0.27000E+04
         0.27000E+04
         0.27000E+04
         0.27000E+04
         0.27000E+04
         0.27000E+04
         0.27000E+04
         0.27000E+04
         0.27000E+04
         0.27000E+04
         0.27000E+04
         0.27000E+04
         0.27000E+04
         0.27000E+04
         0.27000E+04
         0.27000E+04
         0.27000E+04
         0.27000E+04
         0.27000E+04
         0.27000E+04
         0.27000E+04
         0.27000E+04
         0.27000E+04
         0.27000E+04
         0.27000E+04
         0.27000E+04
         0.27000E+04
         0.27000E+04
         0.27000E+04
         0.27000E+04
         0.27000E+04
         0.27000E+04
         0.27000E+04
         0.27000E+04
         0.27000E+04
         0.27000E+04
         0.27000E+04
         0.27000E+04
         0.27000E+04
         0.27000E+04
         0.27000E+04
         0.27000E+04
         0.27000E+04
         0.27000E+04
         0.27000E+04
         0.27000E+04
         0.27000E+04
         0.27000E+04
         0.27000E+04
         0.27000E+04
         0.27000E+04
         0.27000E+04
         0.27000E+04
         0.27000E+04
         0.27000E+04
         0.27000E+04
         0.27000E+04
         0.27000E+04
         0.27000E+04
         0.27000E+04
         0.27000E+04
         0.27000E+04
         0.27000E+04
         0.27000E+04
         0.27000E+04
         0.27000E+04
         0.27000E+04
         0.27000E+04
         0.27000E+04
         0.27000E+04
         0.27000E+04
         0.27000E+04
         0.27000E+04
         0.27000E+04
         0.27000E+04
         0.27000E+04
         0.27000E+04
         0.27000E+04
         0.27000E+04
         0.27000E+04
         0.27000E+04
         0.27000E+04
         0.27000E+04
         0.27000E+04
         0.27000E+04
         0.27000E+04
         0.27000E+04
         0.27000E+04
         0.27000E+04
         0.27000E+04
         0.27000E+04
         0.27000E+04
         0.27000E+04
         0.27000E+04
         0.27000E+04
         0.27000E+04
         0.27000E+04
         0.27000E+04
         0.27000E+04
         0.27000E+04
         0.27000E+04
         0.27000E+04
         0.27000E+04
         0.27000E+04
         0.27000E+04
         0.27000E+04
         0.27000E+04
         0.27000E+04
         0.27000E+04
         0.27000E+04
         0.27000E+04
         0.27000E+04
         0.27000E+04
         0.27000E+04
         0.27000E+04
         0.27000E+04
         0.27000E+04
         0.27000E+04
         0.27000E+04
         0.27000E+04
         0.27000E+04
         0.27000E+04
         0.27000E+04
         0.27000E+04
         0.27000E+04
         0.27000E+04
         0.27000E+04
         0.27000E+04
         0.27000E+04
         0.27000E+04
         0.27000E+04
         0.27000E+04
         0.27000E+04
         0.27000E+04
         0.27000E+04
         0.27000E+04
         0.27000E+04
         0.27000E+04
         0.27000E+04
         0.27000E+04
         0.27000E+04
         0.27000E+04
         0.27000E+04
         0.27000E+04
         0.27000E+04
         0.27000E+04
         0.27000E+04
         0.27000E+04
         0.27000E+04
         0.27000E+04
         0.27000E+04
         0.27000E+04
         0.27000E+04
         0.27000E+04
         0.27000E+04
         0.27000E+04
         0.27000E+04
         0.27000E+04
         0.27000E+04
         0.27000E+04
         0.27000E+04
         0.27000E+04
         0.27000E+04
         0.27000E+04
         0.27000E+04
         0.27000E+04
         0.27000E+04
         0.27000E+04
         0.27000E+04
         0.27000E+04
         0.27000E+04
         0.27000E+04
         0.27000E+04
         0.27000E+04
         0.27000E+04
         0.27000E+04
         0.27000E+04
         0.27000E+04
         0.27000E+04
         0.27000E+04
         0.27000E+04
         0.27000E+04
         0.27000E+04
         0.27000E+04
         0.27000E+04
         0.27000E+04
         0.27000E+04
         0.27000E+04
         0.27000E+04
         0.27000E+04
         0.27000E+04
         0.27000E+04
         0.27000E+04
         0.27000E+04
         0.27000E+04
         0.27000E+04
         0.27000E+04
         0.27000E+04
         0.27000E+04
         0.27000E+04
         0.27000E+04
         0.27000E+04
         0.27000E+04
         0.27000E+04
         0.27000E+04
         0.27000E+04
         0.27000E+04
         0.27000E+04
         0.27000E+04
         0.27000E+04
         0.27000E+04
         0.27000E+04
         0.27000E+04
         0.27000E+04
         0.27000E+04
         0.27000E+04
         0.27000E+04
         0.27000E+04
         0.27000E+04
         0.27000E+04
         0.27000E+04
         0.27000E+04
         0.27000E+04
         0.27000E+04
         0.27000E+04
         0.27000E+04
         0.27000E+04
         0.27000E+04
         0.27000E+04
         0.27000E+04
         0.27000E+04
         0.27000E+04
         0.27000E+04
         0.27000E+04
         0.27000E+04
         0.27000E+04
         0.27000E+04
         0.27000E+04
         0.27000E+04
         0.27000E+04
         0.27000E+04
         0.27000E+04
         0.27000E+04
         0.27000E+04
         0.27000E+04
         0.27000E+04
         0.27000E+04
         0.27000E+04
         0.27000E+04
         0.27000E+04
         0.27000E+04
         0.27000E+04
         0.27000E+04
         0.27000E+04
         0.27000E+04
         0.27000E+04
         0.27000E+04
         0.27000E+04
         0.27000E+04
         0.27000E+04
         0.27000E+04
         0.27000E+04
         0.27000E+04
         0.27000E+04
         0.27000E+04
         0.27000E+04
         0.27000E+04
         0.27000E+04
         0.27000E+04
         0.27000E+04
         0.27000E+04
         0.27000E+04
         0.27000E+04
         0.27000E+04
         0.27000E+04
         0.27000E+04
         0.27000E+04
         0.27000E+04
         0.27000E+04
         0.27000E+04
         0.27000E+04
         0.27000E+04
         0.27000E+04
         0.27000E+04
         0.27000E+04
         0.27000E+04
         0.27000E+04
         0.27000E+04
         0.27000E+04
         0.27000E+04
         0.27000E+04
         0.27000E+04
         0.27000E+04
         0.27000E+04
         0.27000E+04
         0.27000E+04
         0.27000E+04
         0.27000E+04
         0.27000E+04
         0.27000E+04
         0.27000E+04
         0.27000E+04
         0.27000E+04
         0.27000E+04
         0.27000E+04
         0.27000E+04
         0.27000E+04
         0.27000E+04
         0.27000E+04
         0.27000E+04
         0.27000E+04
         0.27000E+04
         0.27000E+04
         0.27000E+04
         0.27000E+04
         0.27000E+04
         0.27000E+04
         0.27000E+04
         0.27000E+04
         0.27000E+04
         0.27000E+04
         0.27000E+04
         0.27000E+04
         0.27000E+04
         0.27000E+04
         0.27000E+04
         0.27000E+04
         0.27000E+04
         0.27000E+04
         0.27000E+04
         0.27000E+04
         0.27000E+04
         0.27000E+04
         0.27000E+04
         0.27000E+04
         0.27000E+04
         0.27000E+04
         0.27000E+04
         0.27000E+04
         0.27000E+04
         0.27000E+04
         0.27000E+04
         0.27000E+04
         0.27000E+04
         0.27000E+04
         0.27000E+04
         0.27000E+04
         0.27000E+04
         0.27000E+04
         0.27000E+04
         0.27000E+04
         0.27000E+04
         0.27000E+04
         0.27000E+04
         0.27000E+04
         0.27000E+04
         0.27000E+04
         0.27000E+04
         0.27000E+04
         0.27000E+04
         0.27000E+04
         0.27000E+04
         0.27000E+04
         0.27000E+04
         0.27000E+04
         0.27000E+04
         0.27000E+04
         0.27000E+04
         0.27000E+04
         0.27000E+04
         0.27000E+04
         0.27000E+04
         0.27000E+04
         0.27000E+04
         0.27000E+04
         0.27000E+04
         0.27000E+04
         0.27000E+04
         0.27000E+04
         0.27000E+04
         0.27000E+04
         0.27000E+04
         0.27000E+04
         0.27000E+04
         0.27000E+04
         0.27000E+04
         0.27000E+04
         0.27000E+04
         0.27000E+04
         0.27000E+04
         0.27000E+04
         0.27000E+04
         0.27000E+04
         0.27000E+04
         0.27000E+04
         0.27000E+04
         0.27000E+04
         0.27000E+04
         0.27000E+04
         0.27000E+04
         0.27000E+04
         0.27000E+04
         0.27000E+04
         0.27000E+04
         0.27000E+04
         0.27000E+04
         0.27000E+04
         0.27000E+04
         0.27000E+04
         0.27000E+04
         0.27000E+04
         0.27000E+04
         0.27000E+04
         0.27000E+04
         0.27000E+04
         0.27000E+04
         0.27000E+04
         0.27000E+04
         0.27000E+04
         0.27000E+04
         0.27000E+04
         0.27000E+04
         0.27000E+04
         0.27000E+04
         0.27000E+04
         0.27000E+04
         0.27000E+04
         0.27000E+04
         0.27000E+04
         0.27000E+04
         0.27000E+04
         0.27000E+04
         0.27000E+04
         0.27000E+04
         0.27000E+04
         0.27000E+04
         0.27000E+04
         0.27000E+04
         0.27000E+04
         0.27000E+04
         0.27000E+04
         0.27000E+04
         0.27000E+04
         0.27000E+04
         0.27000E+04
         0.27000E+04
         0.27000E+04
         0.27000E+04
         0.27000E+04
         0.27000E+04
         0.27000E+04
         0.27000E+04
         0.27000E+04
         0.27000E+04
         0.27000E+04
         0.27000E+04
         0.27000E+04
         0.27000E+04
         0.27000E+04
         0.27000E+04
         0.27000E+04
         0.27000E+04
         0.27000E+04
         0.27000E+04
         0.27000E+04
         0.27000E+04
         0.27000E+04
         0.27000E+04
         0.27000E+04
         0.27000E+04
         0.27000E+04
         0.27000E+04
         0.27000E+04
         0.27000E+04
         0.27000E+04
         0.27000E+04
         0.27000E+04
         0.27000E+04
         0.27000E+04
         0.27000E+04
         0.27000E+04
         0.27000E+04
         0.27000E+04
         0.27000E+04
         0.27000E+04
         0.27000E+04
         0.27000E+04
         0.27000E+04
         0.27000E+04
         0.27000E+04
         0.27000E+04
         0.27000E+04
         0.27000E+04
         0.27000E+04
         0.27000E+04
         0.27000E+04
         0.27000E+04
         0.27000E+04
         0.27000E+04
         0.27000E+04
         0.27000E+04
         0.27000E+04
         0.27000E+04
         0.27000E+04
         0.27000E+04
         0.27000E+04
         0.27000E+04
         0.27000E+04
         0.27000E+04
         0.27000E+04
         0.27000E+04
         0.27000E+04
         0.27000E+04
         0.27000E+04
         0.27000E+04
         0.27000E+04
         0.27000E+04
         0.27000E+04
         0.27000E+04
         0.27000E+04
         0.27000E+04
         0.27000E+04
         0.27000E+04
         0.27000E+04
         0.27000E+04
         0.27000E+04
         0.27000E+04
         0.27000E+04
         0.27000E+04
         0.27000E+04
         0.27000E+04
         0.27000E+04
         0.27000E+04
         0.27000E+04
         0.27000E+04
         0.27000E+04
         0.27000E+04
         0.27000E+04
         0.27000E+04
         0.27000E+04
         0.27000E+04
         0.27000E+04
         0.27000E+04
         0.27000E+04
         0.27000E+04
         0.27000E+04
         0.27000E+04
         0.27000E+04
         0.27000E+04
         0.27000E+04
         0.27000E+04
         0.27000E+04
         0.27000E+04
         0.27000E+04
         0.27000E+04
         0.27000E+04
         0.27000E+04
         0.27000E+04
         0.27000E+04
         0.27000E+04
         0.27000E+04
         0.27000E+04
         0.27000E+04
         0.27000E+04
         0.27000E+04
         0.27000E+04
         0.27000E+04
         0.27000E+04
         0.27000E+04
         0.27000E+04
         0.27000E+04
         0.27000E+04
         0.27000E+04
         0.27000E+04
         0.27000E+04
         0.27000E+04
         0.27000E+04
         0.27000E+04
         0.27000E+04
         0.27000E+04
         0.27000E+04
         0.27000E+04
         0.27000E+04
         0.27000E+04
         0.27000E+04
         0.27000E+04
         0.27000E+04
         0.27000E+04
         0.27000E+04
         0.27000E+04
         0.27000E+04
         0.27000E+04
         0.27000E+04
         0.27000E+04
         0.27000E+04
         0.27000E+04
         0.27000E+04
         0.27000E+04
         0.27000E+04
         0.27000E+04
         0.27000E+04
         0.27000E+04
         0.27000E+04
         0.27000E+04
         0.27000E+04
         0.27000E+04
         0.27000E+04
         0.27000E+04
         0.27000E+04
         0.27000E+04
         0.27000E+04
         0.27000E+04
         0.27000E+04
         0.27000E+04
         0.27000E+04
         0.27000E+04
         0.27000E+04
         0.27000E+04
         0.27000E+04
         0.27000E+04
         0.27000E+04
         0.27000E+04
         0.27000E+04
         0.27000E+04
         0.27000E+04
         0.27000E+04
         0.27000E+04
         0.27000E+04
         0.27000E+04
         0.27000E+04
         0.27000E+04
         0.27000E+04
         0.27000E+04
         0.27000E+04
         0.27000E+04
         0.27000E+04
         0.27000E+04
         0.27000E+04
         0.27000E+04
         0.27000E+04
         0.27000E+04
         0.27000E+04
         0.27000E+04
         0.27000E+04
         0.27000E+04
         0.27000E+04
         0.27000E+04
         0.27000E+04
         0.27000E+04
         0.27000E+04
         0.27000E+04
         0.27000E+04
         0.27000E+04
         0.27000E+04
         0.27000E+04
         0.27000E+04
         0.27000E+04
         0.27000E+04
         0.27000E+04
         0.27000E+04
         0.27000E+04
         0.27000E+04
         0.27000E+04
         0.27000E+04
         0.27000E+04
         0.27000E+04
         0.27000E+04
         0.27000E+04
         0.27000E+04
         0.27000E+04
         0.27000E+04
         0.27000E+04
         0.27000E+04
         0.27000E+04
         0.27000E+04
         0.27000E+04
         0.27000E+04
         0.27000E+04
         0.27000E+04
         0.27000E+04
         0.27000E+04
         0.27000E+04
         0.27000E+04
         0.27000E+04
         0.27000E+04
         0.27000E+04
         0.27000E+04
         0.27000E+04
         0.27000E+04
         0.27000E+04
         0.27000E+04
         0.27000E+04
         0.27000E+04
         0.27000E+04
         0.27000E+04
         0.27000E+04
         0.27000E+04
         0.27000E+04
         0.27000E+04
         0.27000E+04
         0.27000E+04
         0.27000E+04
         0.27000E+04
         0.27000E+04
         0.27000E+04
         0.27000E+04
         0.27000E+04
         0.27000E+04
         0.27000E+04
         0.27000E+04
         0.27000E+04
         0.27000E+04
         0.27000E+04
         0.27000E+04
         0.27000E+04
         0.27000E+04
         0.27000E+04
         0.27000E+04
         0.27000E+04
         0.27000E+04
         0.27000E+04
         0.27000E+04
         0.27000E+04
         0.27000E+04
         0.27000E+04
         0.27000E+04
         0.27000E+04
         0.27000E+04
         0.27000E+04
         0.27000E+04
         0.27000E+04
         0.27000E+04
         0.27000E+04
         0.27000E+04
         0.27000E+04
         0.27000E+04
         0.27000E+04
         0.27000E+04
         0.27000E+04
         0.27000E+04
         0.27000E+04
         0.27000E+04
         0.27000E+04
         0.27000E+04
         0.27000E+04
         0.27000E+04
         0.27000E+04
         0.27000E+04
         0.27000E+04
         0.27000E+04
         0.27000E+04
         0.27000E+04
         0.27000E+04
         0.27000E+04
         0.27000E+04
         0.27000E+04
         0.27000E+04
         0.27000E+04
         0.27000E+04
         0.27000E+04
